<VTKFile type="UnstructuredGrid" version="0.1" byte_order="LittleEndian">
<UnstructuredGrid>
<Piece NumberOfPoints="173" NumberOfCells="80">
<Points>
<DataArray type="Float64" NumberOfComponents="3" format="ascii">
 0.00000000e+00  0.00000000e+00  0.00000000e+00
 1.02378964e+00  0.00000000e+00  0.00000000e+00
 1.02587390e+00  1.04909325e+00  0.00000000e+00
 0.00000000e+00  1.04679859e+00  0.00000000e+00
 0.00000000e+00  0.00000000e+00  9.42689657e-01
 1.02377439e+00  0.00000000e+00  9.40197587e-01
 1.02424693e+00  1.04526269e+00  9.43245351e-01
 0.00000000e+00  1.04457474e+00  9.45592165e-01
 2.05135703e+00  0.00000000e+00  0.00000000e+00
 2.05204463e+00  1.05376422e+00  0.00000000e+00
 2.05030298e+00  0.00000000e+00  9.34206367e-01
 2.05191970e+00  1.04802358e+00  9.38263714e-01
 3.08034921e+00  0.00000000e+00  0.00000000e+00
 3.08308363e+00  1.06045699e+00  0.00000000e+00
 3.08444571e+00  0.00000000e+00  9.28146839e-01
 3.08108568e+00  1.05097032e+00  9.30689096e-01
 4.11999655e+00  0.00000000e+00  0.00000000e+00
 4.11247635e+00  1.06591225e+00  0.00000000e+00
 4.12327099e+00  0.00000000e+00  9.21377778e-01
 4.11492348e+00  1.05199945e+00  9.24953163e-01
 5.16168308e+00  0.00000000e+00  0.00000000e+00
 5.15007305e+00  1.07115650e+00  0.00000000e+00
 5.16494179e+00  0.00000000e+00  9.13016737e-01
 5.15687561e+00  1.05445838e+00  9.19574976e-01
 6.20860577e+00  0.00000000e+00  0.00000000e+00
 6.17984962e+00  1.09073329e+00  0.00000000e+00
 6.20479822e+00  0.00000000e+00  9.09995675e-01
 6.19784641e+00  1.07058501e+00  9.09453392e-01
 1.02879751e+00  2.08606672e+00  0.00000000e+00
 0.00000000e+00  2.08440351e+00  0.00000000e+00
 1.02603579e+00  2.08340812e+00  9.51974511e-01
 0.00000000e+00  2.08093500e+00  9.52833056e-01
 2.05746794e+00  2.09481025e+00  0.00000000e+00
 2.05239511e+00  2.08820295e+00  9.51846778e-01
 3.08035541e+00  2.10231781e+00  0.00000000e+00
 3.07665515e+00  2.09414434e+00  9.58039522e-01
 4.09991693e+00  2.11517739e+00  0.00000000e+00
 4.10219622e+00  2.09603405e+00  9.55774963e-01
 5.11341858e+00  2.11898875e+00  0.00000000e+00
 5.12376833e+00  2.10031438e+00  9.58244085e-01
 6.13333416e+00  2.14321208e+00  0.00000000e+00
 6.15117931e+00  2.12408376e+00  9.57897782e-01
 1.03100491e+00  3.10802007e+00  0.00000000e+00
 0.00000000e+00  3.10592031e+00  0.00000000e+00
 1.02753270e+00  3.10865140e+00  9.62332129e-01
 0.00000000e+00  3.10749173e+00  9.61928070e-01
 2.06070447e+00  3.11013532e+00  0.00000000e+00
 2.05459809e+00  3.11103821e+00  9.72217202e-01
 3.07694864e+00  3.11698127e+00  0.00000000e+00
 3.07330298e+00  3.11451483e+00  9.90610480e-01
 4.08037663e+00  3.12341166e+00  0.00000000e+00
 4.07623625e+00  3.11496782e+00  1.00279999e+00
 5.09051418e+00  3.11956501e+00  0.00000000e+00
 5.09100723e+00  3.10978532e+00  1.00785160e+00
 6.09286785e+00  3.14650369e+00  0.00000000e+00
 6.09582758e+00  3.14288330e+00  1.00297821e+00
 1.03210902e+00  4.11924553e+00  0.00000000e+00
 0.00000000e+00  4.12132645e+00  0.00000000e+00
 1.02783489e+00  4.12101173e+00  9.67543602e-01
 0.00000000e+00  4.12363958e+00  9.65654135e-01
 2.05939674e+00  4.11790419e+00  0.00000000e+00
 2.05322886e+00  4.11623096e+00  9.78261650e-01
 3.07233596e+00  4.11737108e+00  0.00000000e+00
 3.06725979e+00  4.11595774e+00  9.95520234e-01
 4.07066250e+00  4.12178040e+00  0.00000000e+00
 4.07032156e+00  4.12172699e+00  1.00002098e+00
 6.07067966e+00  4.12832594e+00  0.00000000e+00
 5.07068491e+00  4.12478256e+00  0.00000000e+00
 6.07079363e+00  4.12838888e+00  9.99791622e-01
 5.07076740e+00  4.12477827e+00  1.00003183e+00
 1.03039038e+00  5.13067722e+00  0.00000000e+00
 0.00000000e+00  5.13582897e+00  0.00000000e+00
 1.02792239e+00  5.13442850e+00  9.65843737e-01
 0.00000000e+00  5.13637257e+00  9.61180329e-01
 2.05732369e+00  5.12212515e+00  0.00000000e+00
 2.04857779e+00  5.12390518e+00  9.75806892e-01
 3.06680489e+00  5.11824656e+00  0.00000000e+00
 3.06319761e+00  5.11920500e+00  9.95254993e-01
 4.06755114e+00  5.12178230e+00  0.00000000e+00
 4.06737709e+00  5.12178135e+00  1.00026572e+00
 5.06742239e+00  5.12490511e+00  0.00000000e+00
 5.06751871e+00  5.12488937e+00  1.00001740e+00
 6.06751823e+00  5.12806988e+00  0.00000000e+00
 6.06753778e+00  5.12800980e+00  9.99990225e-01
 1.03394783e+00  6.15022135e+00  0.00000000e+00
 0.00000000e+00  6.15277624e+00  0.00000000e+00
 1.03012741e+00  6.14985800e+00  9.59237933e-01
 0.00000000e+00  6.15621185e+00  9.54674125e-01
 2.06222439e+00  6.13407230e+00  0.00000000e+00
 2.04958129e+00  6.14412975e+00  9.64676857e-01
 3.06722903e+00  6.12205267e+00  0.00000000e+00
 3.06482697e+00  6.13020372e+00  9.87722874e-01
 4.06521511e+00  6.12220383e+00  0.00000000e+00
 4.06473589e+00  6.12219810e+00  1.00043881e+00
 5.06443834e+00  6.12478828e+00  0.00000000e+00
 5.06454563e+00  6.12485886e+00  9.99977708e-01
 6.06440401e+00  6.12801933e+00  0.00000000e+00
 6.06443071e+00  6.12798357e+00  9.99999762e-01
 0.00000000e+00  0.00000000e+00  1.89061046e+00
 1.02528310e+00  0.00000000e+00  1.88522291e+00
 1.02439201e+00  1.03740549e+00  1.89070511e+00
 0.00000000e+00  1.03820622e+00  1.89213133e+00
 2.05649185e+00  0.00000000e+00  1.87778068e+00
 2.05014682e+00  1.03276610e+00  1.87994182e+00
 3.08835363e+00  0.00000000e+00  1.86658216e+00
 3.08858252e+00  1.03190887e+00  1.86702931e+00
 4.13103342e+00  0.00000000e+00  1.85084558e+00
 4.12748098e+00  1.03277075e+00  1.86184418e+00
 5.17436075e+00  0.00000000e+00  1.83910775e+00
 5.17023230e+00  1.03448677e+00  1.85183918e+00
 6.20884132e+00  0.00000000e+00  1.83206534e+00
 6.21711111e+00  1.03767085e+00  1.84235454e+00
 1.01975775e+00  2.07379913e+00  1.90338540e+00
 0.00000000e+00  2.07784796e+00  1.90827346e+00
 2.04672408e+00  2.07274079e+00  1.89897525e+00
 3.07889152e+00  2.07673573e+00  1.89598453e+00
 4.12112045e+00  2.08649015e+00  1.88077557e+00
 5.16656876e+00  2.08814454e+00  1.88351250e+00
 6.20836782e+00  2.09301496e+00  1.87215889e+00
 1.01673806e+00  3.10638189e+00  1.92285204e+00
 0.00000000e+00  3.10772491e+00  1.92715037e+00
 2.03898835e+00  3.10715151e+00  1.93481803e+00
 3.03544497e+00  3.09838653e+00  2.00527501e+00
 1.01886296e+00  4.13091230e+00  1.93915200e+00
 0.00000000e+00  4.12813807e+00  1.93308127e+00
 2.04021025e+00  4.12160587e+00  1.95805693e+00
 3.05152178e+00  4.10415459e+00  1.98281801e+00
 1.02209032e+00  5.14058161e+00  1.93481970e+00
 0.00000000e+00  5.14430618e+00  1.93017042e+00
 2.03794909e+00  5.13476515e+00  1.94960892e+00
 3.06676722e+00  5.12499142e+00  1.95962369e+00
 1.01817966e+00  6.16386175e+00  1.91648638e+00
 0.00000000e+00  6.16168451e+00  1.91534543e+00
 2.03809810e+00  6.16864347e+00  1.92478979e+00
 3.07237244e+00  6.16354179e+00  1.92561996e+00
 5.06755495e+00  5.12491846e+00  2.00002265e+00
 6.06755590e+00  5.12799072e+00  2.00001049e+00
 6.06447649e+00  6.12799883e+00  1.99998951e+00
 5.06445312e+00  6.12492704e+00  1.99998116e+00
 0.00000000e+00  0.00000000e+00  2.83558011e+00
 1.03100705e+00  0.00000000e+00  2.83381629e+00
 1.03206229e+00  1.03345418e+00  2.83927631e+00
 0.00000000e+00  1.03248763e+00  2.84342051e+00
 2.06840301e+00  0.00000000e+00  2.82304001e+00
 2.06051254e+00  1.02728629e+00  2.83080006e+00
 3.10180593e+00  0.00000000e+00  2.81135774e+00
 3.10243750e+00  1.02303457e+00  2.81410122e+00
 4.14212227e+00  0.00000000e+00  2.80048084e+00
 4.14390564e+00  1.02441680e+00  2.79649568e+00
 5.18288231e+00  0.00000000e+00  2.78644252e+00
 5.18419695e+00  1.02659786e+00  2.78890753e+00
 6.21947718e+00  0.00000000e+00  2.78066826e+00
 6.22072697e+00  1.02554119e+00  2.78359365e+00
 1.02153277e+00  2.06245852e+00  2.85594821e+00
 0.00000000e+00  2.07186151e+00  2.85843849e+00
 2.05800295e+00  2.06226563e+00  2.83696294e+00
 3.09510517e+00  2.06760216e+00  2.80494118e+00
 4.14272499e+00  2.07552028e+00  2.79811263e+00
 5.18475246e+00  2.06912112e+00  2.79772067e+00
 6.22063828e+00  2.06903648e+00  2.79389834e+00
 1.01697040e+00  3.10809970e+00  2.88789797e+00
 0.00000000e+00  3.10576272e+00  2.88358426e+00
 2.05170774e+00  3.09486961e+00  2.86267996e+00
 1.01641893e+00  4.13225317e+00  2.90714788e+00
 0.00000000e+00  4.13739634e+00  2.90464520e+00
 2.04241109e+00  4.13265944e+00  2.93094206e+00
 1.01793444e+00  5.16166639e+00  2.90134811e+00
 0.00000000e+00  5.15717697e+00  2.89960408e+00
 2.04156327e+00  5.16119719e+00  2.90454364e+00
 3.05063939e+00  4.15520859e+00  3.01145864e+00
 3.06892037e+00  5.15439653e+00  2.89196157e+00
 1.01936948e+00  6.18418455e+00  2.88165140e+00
 0.00000000e+00  6.18559074e+00  2.87307835e+00
</DataArray>
</Points>
<PointData Tensors="Stress_Components,Plastic_strain_components" Vevtors="Spatial_displacement,Reaction_force" Scalars="Equivalent_plastic_strain,Stress_Mises,Stress_Max_Principal,Stress_Mid_Principal,Stress_Min_Principal,Stress_Pressure,Stress_Tresca,Stress_Third_Invariant,Plastic_strain_Max_Principal,Plastic_strain_Min_Principal">
<DataArray type="Float32" Name="Stress_Components" NumberOfComponents="9" format="ascii">
-3.54545021e+00 -4.86318953e-03 -9.34637245e-03 -4.86318953e-03 1.24328232e+00 2.32689641e-03 -9.34637245e-03 2.32689641e-03 -3.21118431e+01
-6.67894775e+00 2.54024379e-01 -2.23449687e-03 2.54024379e-01 -1.37877584e+00 -1.83545977e-01 -2.23449687e-03 -1.83545977e-01 -3.82969656e+01
-3.90723741e+00 5.44670962e-01 -4.51223478e-01 5.44670962e-01 -3.74407917e-01 -3.33706178e-01 -4.51223478e-01 -3.33706178e-01 -3.43845229e+01
-2.77256429e+00 1.79415338e-01 -3.42855215e-01 1.79415338e-01 4.72451925e-01 1.28646428e-02 -3.42855215e-01 1.28646428e-02 -3.23016434e+01
-1.93497392e+00 -3.00476351e-03 9.40703377e-02 -3.00476351e-03 2.52264273e+00 -3.27576965e-01 9.40703377e-02 -3.27576965e-01 -2.90164938e+01
-4.71378613e+00 1.07096424e-01 4.37848851e-01 1.07096424e-01 3.06744277e-02 -5.36334582e-01 4.37848851e-01 -5.36334582e-01 -3.46925812e+01
-2.65641398e+00 3.39878163e-01 -6.82645821e-02 3.39878163e-01 7.79574871e-01 -4.77803577e-01 -6.82645821e-02 -4.77803577e-01 -3.18000665e+01
-3.31717670e+00 1.11032544e-01 -8.36219713e-02 1.11032544e-01 1.27861798e-01 -4.98760049e-03 -8.36219713e-02 -4.98760049e-03 -3.32317276e+01
-9.94568813e+00 7.62509098e-02 -1.45763820e-02 7.62509098e-02 -4.00709653e+00 -4.38550383e-01 -1.45763820e-02 -4.38550383e-01 -4.46213217e+01
-1.07757235e+01 1.11703826e+00 -7.12539285e-01 1.11703826e+00 -5.78613842e+00 -3.03296439e-01 -7.12539285e-01 -3.03296439e-01 -4.75084108e+01
-5.30640617e+00 1.90238833e-01 4.09237776e-01 1.90238833e-01 -1.29631865e+00 -2.64667895e-01 4.09237776e-01 -2.64667895e-01 -3.69244082e+01
-6.85212407e+00 3.31827218e-01 -5.21644375e-01 3.31827218e-01 -2.78073950e+00 -1.21996498e+00 -5.21644375e-01 -1.21996498e+00 -4.00868403e+01
-1.44516654e+01 6.10000312e-01 -6.27374053e-02 6.10000312e-01 -8.05584162e+00 4.39843714e-01 -6.27374053e-02 4.39843714e-01 -5.38812809e+01
-1.68942924e+01 7.12899238e-01 -1.44228715e+00 7.12899238e-01 -1.05097225e+01 -9.99746740e-01 -1.44228715e+00 -9.99746740e-01 -5.91601832e+01
-6.17107117e+00 -4.81320031e-01 -3.16841774e-01 -4.81320031e-01 -3.47318548e+00 -2.99002126e-01 -3.16841774e-01 -2.99002126e-01 -4.03718879e+01
-1.08089117e+01 -4.53833388e-01 6.33333959e-02 -4.53833388e-01 -6.05616952e+00 -8.74981431e-01 6.33333959e-02 -8.74981431e-01 -4.78022919e+01
-1.72344339e+01 -1.31943065e+00 -7.40328766e-02 -1.31943065e+00 -1.15872516e+01 2.26305235e-01 -7.40328766e-02 2.26305235e-01 -6.08159389e+01
-2.40202212e+01 -1.22417966e+00 -2.49632904e+00 -1.22417966e+00 -1.34288695e+01 -2.16981806e-02 -2.49632904e+00 -2.16981806e-02 -6.93103395e+01
-8.39005017e+00 -1.38887025e+00 4.00944874e-02 -1.38887025e+00 -6.32864630e+00 -1.94638064e-01 4.00944874e-02 -1.94638064e-01 -4.58457876e+01
-3.03225696e+00 -1.14394266e+00 -1.55683694e-01 -1.14394266e+00 -9.81209427e-01 2.59199016e-01 -1.55683694e-01 2.59199016e-01 -3.42342461e+01
-1.92662456e+01 -8.67597163e-01 -1.76962167e-01 -8.67597163e-01 -1.16736829e+01 9.81637716e-01 -1.76962167e-01 9.81637716e-01 -6.28691921e+01
-1.37189252e+01 -3.18607976e+00 -2.49638400e+00 -3.18607976e+00 -6.66324249e+00 8.44126493e-01 -2.49638400e+00 8.44126493e-01 -5.05730524e+01
-4.41842437e+00 -7.10054236e-01 6.49038544e-02 -7.10054236e-01 -2.29881477e+00 1.04388950e+00 6.49038544e-02 1.04388950e+00 -3.71806908e+01
-5.36144562e-01 -2.09913885e+00 3.42134900e-01 -2.09913885e+00 5.14442883e-01 4.06313114e-01 3.42134900e-01 4.06313114e-01 -2.97224926e+01
-4.52865677e+01 -4.72330618e+00 -1.78677782e-01 -4.72330618e+00 -2.98630447e+01 4.68980789e-01 -1.78677782e-01 4.68980789e-01 -1.09244682e+02
-4.98807068e+01 -4.53433943e+00 -3.55931008e+00 -4.53433943e+00 -2.82339220e+01 4.68979812e+00 -3.55931008e+00 4.68979812e+00 -1.09960476e+02
-2.38386514e+01 -7.03144342e-01 -1.22051001e+00 -7.03144342e-01 -1.47319076e+01 1.90852599e+00 -1.22051001e+00 1.90852599e+00 -7.08620777e+01
-2.23283384e+01 -2.08846387e+00 -1.27095982e-01 -2.08846387e+00 -1.53985496e+01 2.46071681e+00 -1.27095982e-01 2.46071681e+00 -6.92847071e+01
-3.74155045e-01 9.29584630e-01 -5.03489502e-01 9.29584630e-01 -2.07779408e+00 -4.25208379e-01 -5.03489502e-01 -4.25208379e-01 -3.24867434e+01
1.23376083e+00 1.37595523e-01 -7.08375692e-01 1.37595523e-01 -1.54738903e-01 4.34402935e-03 -7.08375692e-01 4.34402935e-03 -2.87125511e+01
-9.72155701e-01 6.67346664e-01 2.98106670e-01 6.67346664e-01 -4.88867402e-01 -8.74350073e-01 2.98106670e-01 -8.74350073e-01 -3.14982509e+01
2.73353779e+00 3.23074117e-01 9.25914604e-01 3.23074117e-01 2.99786568e+00 -9.64903748e-02 9.25914604e-01 -9.64903748e-02 -2.37687549e+01
-2.13375139e+00 2.22200644e+00 -1.10106017e+00 2.22200644e+00 -4.56095934e+00 -1.26941168e+00 -1.10106017e+00 -1.26941168e+00 -3.66258028e+01
-2.03503448e+00 1.37553457e+00 1.60262770e+00 1.37553457e+00 -1.80328406e+00 -4.93292939e-01 1.60262770e+00 -4.93292939e-01 -3.35994156e+01
1.35336413e+01 1.18599517e+00 -1.28299502e+00 1.18599517e+00 1.21003147e+01 -7.22017992e-01 -1.28299502e+00 -7.22017992e-01 -3.05880976e+00
3.71421501e+00 7.40737106e-01 4.04527008e+00 7.40737106e-01 4.90198456e+00 1.34102787e-03 4.04527008e+00 1.34102787e-03 -2.03186512e+01
1.90561510e+01 -1.97481055e+00 -4.23447356e+00 -1.97481055e+00 1.37378922e+01 -8.57493435e-02 -4.23447356e+00 -8.57493435e-02 5.15852547e+00
-7.45592948e+00 -5.61280119e+00 7.36280283e+00 -5.61280119e+00 -4.57267690e+00 9.65711160e-01 7.36280283e+00 9.65711160e-01 -3.84807533e+01
2.25726997e+01 -4.23091657e-01 -4.11651923e+00 -4.23091657e-01 1.66880331e+01 1.11663749e+00 -4.11651923e+00 1.11663749e+00 1.19749520e+01
-2.52852273e+00 -4.41631095e+00 8.82190377e+00 -4.41631095e+00 -5.31636461e+00 3.27112511e+00 8.82190377e+00 3.27112511e+00 -3.13871835e+01
1.07521591e+01 -4.99796009e+00 -5.33262473e+00 -4.99796009e+00 1.86140823e+00 3.15158945e+00 -5.33262473e+00 3.15158945e+00 -1.39569283e+01
-2.35172234e+01 -8.83246112e+00 8.49270062e+00 -8.83246112e+00 -1.90888329e+01 6.52460929e+00 8.49270062e+00 6.52460929e+00 -6.92395096e+01
2.88152843e+00 5.99630028e-01 3.04979987e-01 5.99630028e-01 -4.89183283e+00 -7.03333318e-01 3.04979987e-01 -7.03333318e-01 -3.11134849e+01
4.70000982e+00 3.10469627e-01 3.88851970e-01 3.10469627e-01 -5.25811672e-01 -1.10817607e-02 3.88851970e-01 -1.10817607e-02 -2.49945629e+01
3.31288949e+00 2.87902769e-01 1.26801351e+00 2.87902769e-01 -2.44441536e+00 -5.74342731e-01 1.26801351e+00 -5.74342731e-01 -2.83318078e+01
6.60816252e+00 1.45947578e-01 1.03638737e+00 1.45947578e-01 3.87107223e+00 -3.39256587e-01 1.03638737e+00 -3.39256587e-01 -1.83991364e+01
1.65346189e+01 1.72708590e-01 1.20144822e-01 1.72708590e-01 1.16035275e+01 -1.41478810e+00 1.20144822e-01 -1.41478810e+00 7.89412498e-01
1.22142952e+01 3.73805123e-01 1.28436848e+00 3.73805123e-01 3.75237828e+00 1.12017950e+00 1.28436848e+00 1.12017950e+00 -1.18663175e+01
2.76291203e+01 1.50658563e-01 1.17255330e-01 1.50658563e-01 2.28719673e+01 -8.93379755e-01 1.17255330e-01 -8.93379755e-01 2.32898593e+01
3.13228452e+01 -9.82714551e-01 -2.22290874e-01 -9.82714551e-01 2.88882753e+01 2.37106942e+00 -2.22290874e-01 2.37106942e+00 3.42731754e+01
2.83086189e+01 -1.78062344e+00 -1.05498266e+00 -1.78062344e+00 2.45391968e+01 -3.31660424e+00 -1.05498266e+00 -3.31660424e+00 3.49701201e+01
2.37030754e+01 -5.93898137e-01 -7.02432926e+00 -5.93898137e-01 2.71022186e+01 4.42186778e+00 -7.02432926e+00 4.42186778e+00 3.73156238e+01
3.35776030e+01 7.15899636e-01 2.19524848e+00 7.15899636e-01 3.75602023e+01 -5.08246846e-01 2.19524848e+00 -5.08246846e-01 4.02274437e+01
2.93543247e+01 4.03036336e+00 -8.18657827e+00 4.03036336e+00 3.47883167e+01 -1.50174290e+00 -8.18657827e+00 -1.50174290e+00 4.45497588e+01
2.33363847e+01 5.60173869e+00 -2.37794915e+00 5.60173869e+00 8.47265053e+00 6.93897605e-01 -2.37794915e+00 6.93897605e-01 3.57490242e+01
1.70260668e+01 3.46706032e+00 1.38434911e+00 3.46706032e+00 7.96652412e+00 -2.31273758e+00 1.38434911e+00 -2.31273758e+00 2.19099917e+01
4.18595159e+00 -7.28894010e-01 1.98527411e-01 -7.28894010e-01 -5.87673678e+00 -1.10761499e+00 1.98527411e-01 -1.10761499e+00 -3.00742803e+01
2.86799622e+00 -6.69548512e-01 5.13231695e-01 -6.69548512e-01 -5.32722068e+00 -2.98405569e-02 5.13231695e-01 -2.98405569e-02 -3.15116310e+01
6.45773157e+00 -1.06098941e+00 1.73907815e+00 -1.06098941e+00 -3.92110854e-01 -1.30541410e-01 1.73907815e+00 -1.30541410e-01 -2.21458547e+01
4.47197211e+00 -8.49265873e-01 5.30001663e-01 -8.49265873e-01 -1.54502105e+00 8.57399832e-02 5.30001663e-01 8.57399832e-02 -2.61670585e+01
1.07728606e+01 -1.72973553e+00 -7.28659190e-01 -1.72973553e+00 2.44664431e+00 -2.06238359e+00 -7.28659190e-01 -2.06238359e+00 -1.39885240e+01
1.39469875e+01 -1.36470220e+00 -1.45373659e-01 -1.36470220e+00 7.72454631e+00 2.48969903e+00 -1.45373659e-01 2.48969903e+00 -4.34863198e+00
1.81852573e+01 -1.24656136e+00 -4.92316799e-01 -1.24656136e+00 2.19295075e+01 -4.88028890e+00 -4.92316799e-01 -4.88028890e+00 1.63225142e+01
2.39403354e+01 -2.30883956e-01 -1.30766883e-01 -2.30883956e-01 2.22750688e+01 -7.44049110e-01 -1.30766883e-01 -7.44049110e-01 1.92300369e+01
1.21543326e+01 7.32129733e-01 -3.69792283e-01 7.32129733e-01 1.97635209e+01 -3.36321730e+00 -3.69792283e-01 -3.36321730e+00 1.54414989e+01
1.42030713e+01 2.80781853e+00 -4.50540756e-01 2.80781853e+00 4.85321291e+00 4.13703092e+00 -4.50540756e-01 4.13703092e+00 -6.21788979e-01
-3.04621649e+00 -5.13427758e+00 6.45649225e-01 -5.13427758e+00 -2.32942572e+01 1.22841583e+00 6.45649225e-01 1.22841583e+00 -7.61515808e+00
6.40593545e+00 -1.19381078e+00 -4.03419659e-01 -1.19381078e+00 1.24934055e+01 1.17989016e+00 -4.03419659e-01 1.17989016e+00 7.46275727e+00
2.98957318e+00 -4.71580553e+00 1.46142018e+00 -4.71580553e+00 -1.66582551e+01 -1.35875220e+00 1.46142018e+00 -1.35875220e+00 -2.09092835e+00
4.43210860e+00 -2.23818906e+00 -2.13456337e+00 -2.23818906e+00 7.54216949e+00 -4.97994751e-01 -2.13456337e+00 -4.97994751e-01 -1.63830278e+00
2.99633169e+00 -1.87216730e+00 1.22062644e+00 -1.87216730e+00 -5.27869207e+00 -4.03893787e-01 1.22062644e+00 -4.03893787e-01 -3.09500105e+01
1.62678862e+00 -1.47403073e+00 2.42737532e-01 -1.47403073e+00 -6.06668162e+00 -7.94120133e-03 2.42737532e-01 -7.94120133e-03 -3.37535715e+01
7.34529324e+00 -1.44866657e+00 4.15457673e-01 -1.44866657e+00 2.92106846e+00 5.64186594e-01 4.15457673e-01 5.64186594e-01 -1.82033706e+01
4.10058799e+00 -4.53013726e-01 -9.09920931e-02 -4.53013726e-01 -2.09858030e+00 7.08991364e-01 -9.09920931e-02 7.08991364e-01 -2.70071757e+01
8.46033041e+00 -2.21198111e+00 4.17077404e-01 -2.21198111e+00 2.29528233e+00 -2.81012678e+00 4.17077404e-01 -2.81012678e+00 -1.68258269e+01
1.08049296e+01 -2.26158665e+00 -5.70791635e-01 -2.26158665e+00 7.52479533e+00 1.74050741e+00 -5.70791635e-01 1.74050741e+00 -8.64254427e+00
1.68961264e+01 1.22988173e+00 1.98214611e+00 1.22988173e+00 1.96304409e+01 -2.86423515e+00 1.98214611e+00 -2.86423515e+00 1.08986630e+01
8.12094808e+00 -1.57811363e+00 -1.38602508e+00 -1.57811363e+00 6.19922690e+00 3.65606953e+00 -1.38602508e+00 3.65606953e+00 -1.22472224e+01
1.01817544e+01 4.97255532e+00 3.68660222e-01 4.97255532e+00 1.19129709e+01 -1.18779304e+00 3.68660222e-01 -1.18779304e+00 9.86792517e+00
8.07113278e+00 2.40506873e+00 2.15046380e+00 2.40506873e+00 2.61606985e+00 1.19850683e+00 2.15046380e+00 1.19850683e+00 2.77170563e+00
3.90380561e-01 6.91349387e-01 -2.97073454e-01 6.91349387e-01 2.34515929e+00 1.84711900e+00 -2.97073454e-01 1.84711900e+00 2.75928137e+00
2.83673704e+00 7.30718374e-01 -7.64767566e-01 7.30718374e-01 8.54710495e-01 -6.20872852e-01 -7.64767566e-01 -6.20872852e-01 1.14790732e-01
2.81331700e+00 5.67833491e-01 -1.24514741e+00 5.67833491e-01 -7.55746222e+00 4.04147506e-01 -1.24514741e+00 4.04147506e-01 -1.78277600e+00
1.01663354e+00 -7.45541990e-01 5.46195065e-01 -7.45541990e-01 -5.77835834e+00 -1.70245474e-01 5.46195065e-01 -1.70245474e-01 2.70222127e-02
-1.09266963e+01 -2.20231757e+00 3.16254959e-01 -2.20231757e+00 -1.92491279e+01 -9.92742598e-01 3.16254959e-01 -9.92742598e-01 -6.15816383e+01
-9.11329651e+00 -6.14892364e-01 1.35731149e+00 -6.14892364e-01 -2.03691502e+01 -2.25284416e-02 1.35731149e+00 -2.25284416e-02 -6.04954262e+01
-4.49925375e+00 -9.78997737e-01 9.22559798e-02 -9.78997737e-01 -1.07110382e+01 -1.05860596e+00 9.22559798e-02 -1.05860596e+00 -4.57978859e+01
-9.52853346e+00 -1.58620125e+00 -2.27582633e-01 -1.58620125e+00 -1.66018667e+01 8.06365699e-01 -2.27582633e-01 8.06365699e-01 -5.76690540e+01
-1.63203654e+01 -4.25463521e+00 5.19677496e+00 -4.25463521e+00 -2.18751135e+01 -5.29853916e+00 5.19677496e+00 -5.29853916e+00 -6.85704308e+01
-1.06537750e+01 -3.40430352e+00 6.07476220e-01 -3.40430352e+00 -9.06360888e+00 6.66095674e-01 6.07476220e-01 6.66095674e-01 -5.07522286e+01
7.21032524e+00 5.82287863e-01 5.09537347e+00 5.82287863e-01 1.44263635e+01 -2.62250936e+00 5.09537347e+00 -2.62250936e+00 -5.72973061e+00
-2.50854859e+01 -6.87994266e+00 2.27477309e+00 -6.87994266e+00 -1.95937070e+01 1.07967200e+01 2.27477309e+00 1.07967200e+01 -7.37698498e+01
1.19091272e+00 -3.40900195e+00 5.79488978e-01 -3.40900195e+00 1.64067197e+01 -1.41245848e+00 5.79488978e-01 -1.41245848e+00 1.05549200e+01
-1.20359232e+01 -8.00389832e+00 9.04530890e-01 -8.00389832e+00 -8.25654769e+00 5.97578621e+00 9.04530890e-01 5.97578621e+00 -7.62527275e+00
-7.04839429e+00 -3.71910572e-01 1.28399640e+00 -3.71910572e-01 2.78886199e+00 2.02620173e+00 1.28399640e+00 2.02620173e+00 6.07574287e+00
-4.05633124e+00 -1.32881006e-01 8.08313668e-01 -1.32881006e-01 2.66442531e+00 -3.02217778e+00 8.08313668e-01 -3.02217778e+00 3.31687923e+00
-1.84092116e+00 2.43418980e+00 -7.43367255e-01 2.43418980e+00 -2.47708797e+00 5.61615467e-01 -7.43367255e-01 5.61615467e-01 -5.97529054e-01
-3.70284164e+00 3.63673389e-01 -1.22376382e-02 3.63673389e-01 -2.55060196e-03 1.21991521e+00 -1.22376382e-02 1.21991521e+00 6.72144979e-01
-2.33760643e+00 -7.42372824e-04 -1.76285077e-02 -7.42372824e-04 1.09959483e+00 -5.91308385e-01 -1.76285077e-02 -5.91308385e-01 -3.11529026e+01
-1.21402968e+00 1.32074654e-02 6.06026143e-01 1.32074654e-02 1.11531645e+00 -4.74140200e-01 6.06026143e-01 -4.74140200e-01 -2.99925170e+01
1.09035742e+00 -4.45403886e-01 2.21300126e-01 -4.45403886e-01 3.79539381e+00 5.78888822e-02 2.21300126e-01 5.78888822e-02 -2.45455947e+01
-2.84057391e+00 -4.97574965e-02 1.16123676e-01 -4.97574965e-02 1.11335081e+00 7.02982536e-03 1.16123676e-01 7.02982536e-03 -3.15819008e+01
3.72489154e+00 -8.27056251e-01 6.01093158e-01 -8.27056251e-01 3.95085445e+00 2.23655357e-01 6.01093158e-01 2.23655357e-01 -2.16861627e+01
3.38916476e+00 -6.38115452e-01 -2.53173278e-01 -6.38115452e-01 4.65232790e+00 -9.74519197e-01 -2.53173278e-01 -9.74519197e-01 -2.10759337e+01
4.21057799e+00 -3.79572622e-03 3.99556644e-02 -3.79572622e-03 3.44023585e+00 -9.44002792e-02 3.99556644e-02 -9.44002792e-02 -2.17153752e+01
6.03790887e+00 -4.36841982e-01 -5.10539718e-01 -4.36841982e-01 5.47749467e+00 -4.14188083e-01 -5.10539718e-01 -4.14188083e-01 -1.74878805e+01
4.09854865e+00 -3.05025686e-01 3.90251208e-01 -3.05025686e-01 1.86646336e+00 -3.70232850e-01 3.90251208e-01 -3.70232850e-01 -2.34995548e+01
2.71761996e+00 -5.52500173e-01 -1.36635192e-01 -5.52500173e-01 2.50962973e+00 7.98732097e-01 -1.36635192e-01 7.98732097e-01 -2.42491633e+01
7.94287002e+00 -5.59716083e-01 4.95914772e-01 -5.59716083e-01 6.60589910e+00 3.87466229e-01 4.95914772e-01 3.87466229e-01 -1.42083929e+01
3.58785354e+00 -3.51462232e-01 3.54116244e-01 -3.51462232e-01 2.55208840e+00 5.93525141e-01 3.54116244e-01 5.93525141e-01 -2.33451101e+01
8.61485338e+00 5.78518808e-01 2.22678982e-01 5.78518808e-01 9.26067924e+00 1.32143188e+00 2.22678982e-01 1.32143188e+00 -1.06282287e+01
6.15040255e+00 3.08113277e-01 -5.83788255e-01 3.08113277e-01 5.23068714e+00 4.50682111e-01 -5.83788255e-01 4.50682111e-01 -1.76527595e+01
3.87915152e+00 -6.96137597e-01 5.69931063e-01 -6.96137597e-01 6.11979479e+00 -1.02250216e+00 5.69931063e-01 -1.02250216e+00 -1.89616761e+01
-1.39741957e+00 -6.98569313e-01 1.82442224e+00 -6.98569313e-01 2.17773995e+00 -2.42586531e-01 1.82442224e+00 -2.42586531e-01 -2.86567422e+01
-1.12437929e+01 -6.81230786e-01 1.42107553e+00 -6.81230786e-01 -7.40172878e+00 -4.23164351e-01 1.42107553e+00 -4.23164351e-01 -5.13375964e+01
-4.72858296e+01 -5.60506572e+00 1.33316813e+01 -5.60506572e+00 -4.67538860e+01 6.10899448e-01 1.33316813e+01 6.10899448e-01 -1.20012333e+02
-3.33023753e+01 -5.11301998e-01 1.47919092e+00 -5.11301998e-01 -2.91124372e+01 2.62457740e+00 1.47919092e+00 2.62457740e+00 -9.71704426e+01
-3.37949014e+01 -7.69621350e-01 3.35418230e+00 -7.69621350e-01 -2.80422417e+01 5.22947210e+00 3.35418230e+00 5.22947210e+00 -9.52793531e+01
-3.75381975e+01 -3.14634836e+00 2.10294592e+00 -3.14634836e+00 -2.86746731e+01 6.15493721e+00 2.10294592e+00 6.15493721e+00 -9.91626358e+01
1.07998668e+01 3.48185915e-02 1.47932119e+00 3.48185915e-02 1.28065649e+01 -1.01733018e+00 1.47932119e+00 -1.01733018e+00 -4.30778700e+00
8.03888643e+00 -2.72856632e-01 1.44165125e+00 -2.72856632e-01 9.10613322e+00 -1.04566437e-01 1.44165125e+00 -1.04566437e-01 -1.12525064e+01
-2.65847737e+01 -1.56677784e+00 6.33407140e+00 -1.56677784e+00 -2.17153615e+01 1.06613130e+01 6.33407140e+00 1.06613130e+01 -7.26749950e+01
1.25089040e+01 -1.65553057e+00 -4.07849026e+00 -1.65553057e+00 1.61678014e+01 3.67140394e+00 -4.07849026e+00 3.67140394e+00 3.09497728e+01
1.17043771e+01 -3.45572010e-02 1.87855747e+00 -3.45572010e-02 9.93193096e+00 7.46869527e-01 1.87855747e+00 7.46869527e-01 -5.51917475e+00
1.15714158e+01 7.36231074e-01 7.49105778e-01 7.36231074e-01 1.13431680e+01 7.19565690e-01 7.49105778e-01 7.19565690e-01 -5.18636501e+00
2.39508016e+01 -2.25540756e+00 9.14057957e-01 -2.25540756e+00 2.21467889e+01 -1.79128945e-02 9.14057957e-01 -1.79128945e-02 1.94159274e+01
2.28093415e+01 -1.22115763e+00 -5.76817067e+00 -1.22115763e+00 2.37558300e+01 -8.14773162e-01 -5.76817067e+00 -8.14773162e-01 1.75711212e+01
1.17968196e+01 -3.63189459e-01 3.44839491e-01 -3.63189459e-01 9.31715117e+00 2.80731321e-01 3.44839491e-01 2.80731321e-01 -6.76210392e+00
1.02510478e+01 -7.85672873e-01 3.75844926e-01 -7.85672873e-01 7.96887270e+00 5.74410595e-01 3.75844926e-01 5.74410595e-01 -1.00471684e+01
1.61237359e-01 -2.57293062e+00 6.42722298e-01 -2.57293062e+00 -4.46459055e-02 2.34391325e+00 6.42722298e-01 2.34391325e+00 -2.79121098e+01
-1.34121039e+01 -7.01990768e-01 -1.20145370e+00 -7.01990768e-01 -1.26160703e+01 5.31797725e+00 -1.20145370e+00 5.31797725e+00 -5.89294114e+01
3.14481974e-01 -5.22714529e-01 -4.23053537e-01 -5.22714529e-01 1.08006793e+00 -2.08792642e-01 -4.23053537e-01 -2.08792642e-01 -2.86246014e+01
-1.46979880e+00 -1.76919263e-01 -3.04382384e-01 -1.76919263e-01 -3.00052130e+00 1.17910457e+00 -3.04382384e-01 1.17910457e+00 -3.46816654e+01
-3.66837740e+00 2.52520919e-01 1.13670392e+00 2.52520919e-01 1.84556246e+00 -1.49588794e+00 1.13670392e+00 -1.49588794e+00 -3.15605812e+01
-6.95292130e+01 -1.91157311e+00 -3.17213559e+00 -1.91157311e+00 -6.47472496e+01 4.75235212e+00 -3.17213559e+00 4.75235212e+00 -1.75770615e+02
-1.22327089e-01 -6.16719395e-01 -1.93151932e-01 -6.16719395e-01 2.10348010e-01 1.52187854e-01 -1.93151932e-01 1.52187854e-01 -5.16227603e-01
-3.62985287e-01 -1.51051514e-01 -1.42451137e-01 -1.51051514e-01 -5.84762990e-02 -1.73436962e-01 -1.42451137e-01 -1.73436962e-01 -6.76823407e-03
6.01712063e-01 -1.65085651e-01 -1.68943740e-02 -1.65085651e-01 -2.51436830e-02 5.15740398e-01 -1.68943740e-02 5.15740398e-01 -1.00476295e+00
3.49173591e-01 -6.30870223e-01 -2.61111856e-02 -6.30870223e-01 -2.49549000e-01 -4.81129736e-01 -2.61111856e-02 -4.81129736e-01 -5.27944386e-01
-2.12645531e-02 2.20424198e-02 5.04796281e-01 2.20424198e-02 6.46289825e-01 -1.36514693e-01 5.04796281e-01 -1.36514693e-01 -2.93514719e+01
4.57698770e-01 3.69879782e-01 3.15548617e-01 3.69879782e-01 3.87978196e-01 3.57314661e-01 3.15548617e-01 3.57314661e-01 -2.90551341e+01
3.65663146e+00 -5.59536865e-01 5.49796842e-01 -5.59536865e-01 4.29823033e+00 5.08064921e-01 5.49796842e-01 5.08064921e-01 -2.13036540e+01
1.68615311e-01 2.00804573e-01 6.23091258e-01 2.00804573e-01 1.70941183e+00 -3.58723231e-01 6.23091258e-01 -3.58723231e-01 -2.79292746e+01
4.78300995e+00 -9.78640288e-01 3.15608731e-01 -9.78640288e-01 3.42597842e+00 1.26596497e-01 3.15608731e-01 1.26596497e-01 -2.10649747e+01
5.47974801e+00 -8.38807348e-01 1.04872748e+00 -8.38807348e-01 5.02593219e+00 9.12818317e-01 1.04872748e+00 9.12818317e-01 -1.83046543e+01
6.73704134e+00 1.36506002e-01 4.81827231e-02 1.36506002e-01 4.75110197e+00 6.46330281e-01 4.81827231e-02 6.46330281e-01 -1.74319229e+01
1.00073285e+01 -2.07771647e-01 1.77939702e-02 -2.07771647e-01 7.86674616e+00 -1.77203324e-02 1.77939702e-02 -1.77203324e-02 -1.05658566e+01
9.04951864e+00 2.44905233e-01 -1.49433717e-01 2.44905233e-01 6.36509055e+00 2.72068504e-01 -1.49433717e-01 2.72068504e-01 -1.31356218e+01
2.93935865e+00 2.09072881e-01 -7.09367152e-01 2.09072881e-01 4.78363574e-01 8.93444456e-02 -7.09367152e-01 8.93444456e-02 -2.61267828e+01
1.23042402e+01 -9.49899135e-02 1.06601937e-01 -9.49899135e-02 1.00382936e+01 -1.82354320e-01 1.06601937e-01 -1.82354320e-01 -5.69446200e+00
6.88624412e+00 1.81719894e-02 -3.39714807e-01 1.81719894e-02 4.39603746e+00 3.62207517e-02 -3.39714807e-01 3.62207517e-02 -1.76667857e+01
1.65380754e+01 -1.69520922e-01 8.36544745e-02 -1.69520922e-01 1.53165460e+01 -4.87495899e-01 8.36544745e-02 -4.87495899e-01 4.63971257e+00
1.57019659e+01 -1.10064790e-01 -4.76078907e-01 -1.10064790e-01 1.38467852e+01 -1.23805068e-01 -4.76078907e-01 -1.23805068e-01 2.00658512e+00
2.28502357e+00 -1.15332008e+00 1.97333122e+00 -1.15332008e+00 5.22943205e+00 1.69225886e-01 1.97333122e+00 1.69225886e-01 -2.09718018e+01
1.67195392e+00 -1.20154499e+00 1.56493247e+00 -1.20154499e+00 5.82086256e+00 -3.35987726e-01 1.56493247e+00 -3.35987726e-01 -2.13278170e+01
1.00271741e+01 1.42469750e+00 3.42126513e+00 1.42469750e+00 8.46835502e+00 2.43554774e+00 3.42126513e+00 2.43554774e+00 -1.45637174e+01
-6.12303238e+01 -4.03155004e+00 -1.28559263e+01 -4.03155004e+00 -6.14902058e+01 -1.74268503e+00 -1.28559263e+01 -1.74268503e+00 -1.50830731e+02
-4.21600761e+01 -8.60758333e-01 -3.98187572e+00 -8.60758333e-01 -3.82037125e+01 1.72756830e+00 -3.98187572e+00 1.72756830e+00 -1.16405546e+02
-2.68982968e+01 -9.08256657e-01 -9.80139971e-02 -9.08256657e-01 -2.38093047e+01 1.69053447e+00 -9.80139971e-02 1.69053447e+00 -8.47313843e+01
-1.73681264e+01 -1.05017489e+00 -6.22492403e-01 -1.05017489e+00 -1.12292089e+01 3.46363008e-01 -6.22492403e-01 3.46363008e-01 -6.05555382e+01
-1.34689550e+00 -2.54156811e-01 3.88080912e+00 -2.54156811e-01 2.42820887e+00 8.24959921e-01 3.88080912e+00 8.24959921e-01 -2.73160646e+01
1.07259836e+01 3.25543558e-01 1.66159233e+00 3.25543558e-01 1.30023088e+01 -5.12495402e-01 1.66159233e+00 -5.12495402e-01 -3.94998384e+00
-8.57710247e+01 -9.59577918e+00 1.13521261e+01 -9.59577918e+00 -7.78634701e+01 -1.39331549e+01 1.13521261e+01 -1.39331549e+01 -1.87150379e+02
1.79550287e+01 -9.04150935e-02 -1.24825384e+00 -9.04150935e-02 1.88831696e+01 6.99076920e-01 -1.24825384e+00 6.99076920e-01 9.32828658e+00
1.10437765e+01 -5.20367144e-01 1.72857951e+00 -5.20367144e-01 1.24336600e+01 6.41148388e-01 1.72857951e+00 6.41148388e-01 -3.91882038e+00
-3.89536211e+01 8.88775662e-01 5.58040790e+00 8.88775662e-01 -3.59128661e+01 1.57038121e+01 5.58040790e+00 1.57038121e+01 -9.75898929e+01
1.63782113e+01 1.72943944e-01 1.24057436e+00 1.72943944e-01 1.75575036e+01 -3.32918676e-01 1.24057436e+00 -3.32918676e-01 6.76391721e+00
1.27753268e+01 1.35999454e-01 6.24654591e-02 1.35999454e-01 1.34904875e+01 4.55733716e-01 6.24654591e-02 4.55733716e-01 -1.46927691e+00
1.89262451e+01 -1.57559788e+00 2.21035694e+00 -1.57559788e+00 2.14365549e+01 1.31638040e+00 2.21035694e+00 1.31638040e+00 1.10777320e+01
-6.44805849e-01 6.96712303e+00 -2.62740350e+00 6.96712303e+00 -9.17136014e-01 2.18970871e+01 -2.62740350e+00 2.18970871e+01 3.00559120e+01
-6.18980796e+01 6.50052087e+00 -2.30975393e+01 6.50052087e+00 -6.41145584e+01 -3.18839304e+00 -2.30975393e+01 -3.18839304e+00 -1.54764421e+02
7.33796608e+00 4.26381159e-01 5.89508813e-01 4.26381159e-01 7.21516320e+00 1.56592602e+00 5.89508813e-01 1.56592602e+00 -1.41707492e+01
-5.75852394e-01 -3.54682408e-01 -1.35835584e-01 -3.54682408e-01 2.10942841e+00 1.12827124e+00 -1.35835584e-01 1.12827124e+00 -2.82673635e+01
</DataArray>
<DataArray type="Float32" Name="Logarithmic_strain_components" NumberOfComponents="9" format="ascii">
2.36766208e-02 -1.13625720e-06 7.05548700e-07 -1.13625720e-06 4.58982028e-02 -1.20082113e-05 7.05548700e-07 -1.20082113e-05 -5.88383898e-02
2.51679886e-02 2.02982093e-03 1.57872273e-06 2.02982093e-03 4.77428790e-02 -1.51798886e-05 1.57872273e-06 -1.51798886e-05 -6.18682988e-02
2.60205390e-02 5.77719510e-03 -3.66193661e-03 5.77719510e-03 4.24588239e-02 -1.57349455e-03 -3.66193661e-03 -1.57349455e-03 -5.80680296e-02
2.52781091e-02 2.20127951e-03 -2.13036989e-03 2.20127951e-03 4.10741810e-02 1.98163980e-06 -2.13036989e-03 1.98163980e-06 -5.62333148e-02
2.33316086e-02 3.68007022e-06 3.06553883e-03 3.68007022e-06 4.34477720e-02 -2.61899643e-03 3.06553883e-03 -2.61899643e-03 -5.64203598e-02
2.50233994e-02 4.64472432e-04 3.22958617e-03 4.64472432e-04 4.44489550e-02 -3.75826034e-03 3.22958617e-03 -3.75826034e-03 -5.88880423e-02
2.55631602e-02 2.76020193e-03 6.10386403e-04 2.76020193e-03 4.08122484e-02 -4.59422293e-03 6.10386403e-04 -4.59422293e-03 -5.62390485e-02
2.44895299e-02 6.61574362e-04 1.22432908e-03 6.61574362e-04 4.02010698e-02 -2.47518439e-03 1.22432908e-03 -2.47518439e-03 -5.48499404e-02
2.78036511e-02 6.66387146e-04 2.72817942e-06 6.66387146e-04 5.22864629e-02 -1.02789904e-03 2.72817942e-06 -1.02789904e-03 -6.81501143e-02
2.82424078e-02 8.38565535e-03 -5.46960859e-03 8.38565535e-03 4.63653272e-02 -9.67854903e-05 -5.46960859e-03 -9.67854903e-05 -6.36749407e-02
2.91054784e-02 1.56928221e-03 4.31856094e-03 1.56928221e-03 4.61362787e-02 -3.91863849e-03 4.31856094e-03 -3.91863849e-03 -6.38892027e-02
2.84680887e-02 3.75301449e-03 -6.92218950e-04 3.75301449e-03 4.36590901e-02 -7.57060660e-03 -6.92218950e-04 -7.57060660e-03 -6.13560653e-02
3.21597662e-02 2.63724418e-03 -3.31652700e-06 2.63724418e-03 5.71566243e-02 3.93758097e-03 -3.31652700e-06 3.93758097e-03 -7.63283558e-02
3.09762578e-02 5.77693101e-03 -8.99546430e-03 5.77693101e-03 5.11035882e-02 -1.90389669e-03 -8.99546430e-03 -1.90389669e-03 -7.05113299e-02
3.44834104e-02 -3.24299553e-03 2.71178549e-03 -3.24299553e-03 4.83693341e-02 -3.01763380e-03 2.71178549e-03 -3.01763380e-03 -7.05153495e-02
3.20788801e-02 -1.91775455e-03 2.31946359e-03 -1.91775455e-03 4.70964694e-02 -4.49410398e-03 2.31946359e-03 -4.49410398e-03 -6.74637295e-02
3.73937562e-02 -7.24794087e-03 1.27287767e-05 -7.24794087e-03 6.13906737e-02 3.14012275e-03 1.27287767e-05 3.14012275e-03 -8.46860968e-02
3.34321028e-02 -4.67326574e-03 -1.31101070e-02 -4.67326574e-03 5.64747145e-02 2.32335279e-03 -1.31101070e-02 2.32335279e-03 -7.75640327e-02
3.96924596e-02 -8.01854464e-03 3.84512154e-03 -8.01854464e-03 5.08714588e-02 -2.88258915e-03 3.84512154e-03 -2.88258915e-03 -7.72326104e-02
3.72745863e-02 -8.60691495e-03 2.63472239e-03 -8.60691495e-03 4.69819084e-02 1.08377918e-03 2.63472239e-03 1.08377918e-03 -7.13371439e-02
4.15591691e-02 -1.11227520e-02 2.95566497e-05 -1.11227520e-02 6.69230558e-02 3.08748579e-03 2.95566497e-05 3.08748579e-03 -9.30776298e-02
3.54572800e-02 -1.16394010e-02 -1.56570091e-02 -1.16394010e-02 5.98615436e-02 6.42567000e-03 -1.56570091e-02 6.42567000e-03 -8.16168077e-02
4.17182362e-02 -7.73146353e-03 7.11836223e-03 -7.73146353e-03 5.47000328e-02 -1.37176868e-04 7.11836223e-03 -1.37176868e-04 -8.18722658e-02
4.10926244e-02 -1.10732037e-02 6.83520397e-03 -1.10732037e-02 4.92461552e-02 7.68577635e-04 6.83520397e-03 7.68577635e-04 -7.63011351e-02
3.85028534e-02 -2.75918972e-02 -3.49472102e-05 -2.75918972e-02 7.94695094e-02 -3.72362346e-03 -3.49472102e-05 -3.72362346e-03 -1.02920935e-01
3.29599073e-02 -1.83060169e-02 -1.85428476e-02 -1.83060169e-02 7.21374881e-02 1.71482079e-02 -1.85428476e-02 1.71482079e-02 -9.17360783e-02
3.73599585e-02 -6.63900166e-03 -5.44910785e-04 -6.63900166e-03 6.65393621e-02 -3.21794816e-03 -5.44910785e-04 -3.21794816e-03 -8.96040536e-02
3.89629453e-02 -1.09211865e-02 7.90866092e-04 -1.09211865e-02 5.87056298e-02 6.00175245e-03 7.90866092e-04 6.00175245e-03 -8.34709108e-02
2.84922654e-02 7.55123020e-03 -2.57016299e-03 7.55123020e-03 2.92078168e-02 -2.67275563e-03 -2.57016299e-03 -2.67275563e-03 -4.90320036e-02
2.82200985e-02 1.61558960e-03 -3.36748315e-03 1.61558960e-03 2.89573371e-02 3.37401070e-06 -3.36748315e-03 3.37401070e-06 -4.85019758e-02
2.62256826e-02 5.15895116e-03 4.08318611e-03 5.15895116e-03 3.15755827e-02 -4.90719330e-03 4.08318611e-03 -4.90719330e-03 -4.90878653e-02
2.53373371e-02 2.39542546e-03 5.37410413e-03 2.39542546e-03 3.06067439e-02 -9.08731919e-04 5.37410413e-03 -9.08731919e-04 -4.73111961e-02
2.69210031e-02 1.21325264e-02 -6.38742570e-03 1.21325264e-02 2.92638242e-02 -4.89269022e-03 -6.38742570e-03 -4.89269022e-03 -4.77617318e-02
2.64323298e-02 6.57034467e-03 7.16640927e-03 6.57034467e-03 3.24906372e-02 -2.01781666e-03 7.16640927e-03 -2.01781666e-03 -5.01397206e-02
2.17683883e-02 6.91622752e-03 -7.94451195e-03 6.91622752e-03 2.86670243e-02 -3.59714270e-03 -7.94451195e-03 -3.59714270e-03 -4.20705397e-02
2.55997333e-02 1.84947741e-04 1.93806256e-02 1.84947741e-04 3.39643867e-02 1.55070963e-03 1.93806256e-02 1.55070963e-03 -5.03518853e-02
1.94324786e-02 -7.65105305e-03 -1.85697149e-02 -7.65105305e-03 3.13015864e-02 2.17042409e-03 -1.85697149e-02 2.17042409e-03 -4.22201101e-02
2.58139437e-02 -1.38736741e-02 2.27230407e-02 -1.38736741e-02 3.73337750e-02 7.23525035e-03 2.27230407e-02 7.23525035e-03 -5.29062537e-02
2.04798193e-02 -1.56523493e-02 -1.81198204e-02 -1.56523493e-02 2.75001209e-02 1.00159857e-02 -1.81198204e-02 1.00159857e-02 -3.90250338e-02
2.70037319e-02 -1.91047563e-02 2.86511338e-02 -1.91047563e-02 3.52996100e-02 2.05180530e-02 2.86511338e-02 2.05180530e-02 -5.11951875e-02
2.18912633e-02 -1.92085179e-02 -1.84590416e-02 -1.92085179e-02 2.89838589e-02 1.73287755e-02 -1.84590416e-02 1.73287755e-02 -4.18222006e-02
2.82090977e-02 -2.64330450e-02 2.82848577e-02 -2.64330450e-02 4.10147899e-02 2.76275724e-02 2.82848577e-02 2.76275724e-02 -5.78052339e-02
2.95455558e-02 3.68630845e-03 6.26242909e-04 3.68630845e-03 1.60866433e-02 -3.36980610e-03 6.26242909e-04 -3.36980610e-03 -3.87821971e-02
2.96292324e-02 2.06354260e-03 1.54159934e-03 2.06354260e-03 1.73800825e-02 -2.48014112e-06 1.54159934e-03 -2.48014112e-06 -3.97848710e-02
2.71828619e-02 2.63204823e-03 7.30436665e-03 2.63204823e-03 1.88393500e-02 -1.59203590e-03 7.30436665e-03 -1.59203590e-03 -3.90590769e-02
2.58527724e-02 1.13199104e-03 7.54572893e-03 1.13199104e-03 1.97939188e-02 4.11394460e-04 7.54572893e-03 4.11394460e-04 -3.84891573e-02
2.26241215e-02 5.38891242e-03 9.05664056e-04 5.38891242e-03 1.13983443e-02 -5.97273756e-03 9.05664056e-04 -5.97273756e-03 -2.82803881e-02
2.34927558e-02 3.32501589e-03 1.22532077e-02 3.32501589e-03 1.46538731e-02 4.01418816e-03 1.22532077e-02 4.01418816e-03 -3.21417216e-02
8.53643165e-03 2.65578926e-03 -2.44492287e-03 2.65578926e-03 6.25798486e-03 -3.62110144e-03 -2.44492287e-03 -3.62110144e-03 -1.07289416e-02
7.51735454e-03 -1.99538715e-03 1.19974052e-02 -1.99538715e-03 4.78168490e-03 1.57382168e-03 1.19974052e-02 1.57382168e-03 -7.26729453e-03
2.59410190e-03 -1.31689411e-02 -8.47969421e-03 -1.31689411e-02 1.80764372e-03 -4.16923827e-03 -8.47969421e-03 -4.16923827e-03 -3.87680212e-04
1.05088984e-04 -2.06503907e-02 2.22222997e-02 -2.06503907e-02 7.66227658e-03 5.31653996e-03 2.22222997e-02 5.31653996e-03 -3.57420607e-03
1.31114064e-03 -5.16527876e-03 -9.82363181e-03 -5.16527876e-03 -1.43518629e-03 5.16690256e-04 -9.82363181e-03 5.16690256e-04 3.99721616e-03
4.96370601e-04 -8.33952666e-03 2.05819321e-02 -8.33952666e-03 3.41237691e-03 -1.76574072e-03 2.05819321e-02 -1.76574072e-03 4.54242244e-04
4.36840445e-03 -4.13614302e-03 -3.66579322e-03 -4.13614302e-03 -5.60483674e-03 3.00929171e-03 -3.66579322e-03 3.00929171e-03 4.47881554e-03
3.17412120e-03 -7.03124097e-03 1.72198799e-02 -7.03124097e-03 -1.27814710e-04 -2.82115373e-03 1.72198799e-02 -2.82115373e-03 7.73237087e-04
2.87730838e-02 -1.99530175e-03 1.74687707e-03 -1.99530175e-03 1.07593520e-02 -4.14823939e-03 1.74687707e-03 -4.14823939e-03 -3.35292956e-02
2.99831731e-02 -2.05358129e-03 2.28194089e-03 -2.05358129e-03 1.31998132e-02 2.93447374e-06 2.28194089e-03 2.93447374e-06 -3.66816241e-02
2.55258649e-02 -3.51055409e-03 7.55074686e-03 -3.51055409e-03 1.20488509e-02 6.15438039e-05 7.55074686e-03 6.15438039e-05 -3.16836855e-02
2.69561610e-02 -2.59059912e-03 2.97040522e-03 -2.59059912e-03 1.38350506e-02 1.96037485e-03 2.97040522e-03 1.96037485e-03 -3.45546985e-02
2.00465785e-02 -2.58031726e-03 -1.66736153e-03 -2.58031726e-03 6.10726461e-03 -6.04666502e-03 -1.66736153e-03 -6.04666502e-03 -2.18551960e-02
1.94504365e-02 -5.50259682e-03 3.66125206e-03 -5.50259682e-03 6.29516481e-03 4.87039628e-03 3.66125206e-03 4.87039628e-03 -2.12019542e-02
5.66578541e-03 -3.10491008e-03 -1.42227323e-03 -3.10491008e-03 6.75767951e-04 -5.05227013e-03 -1.42227323e-03 -5.05227013e-03 -4.45643498e-03
9.36973887e-03 -3.22767931e-03 -2.48790686e-03 -3.22767931e-03 1.37342004e-03 4.59705525e-03 -2.48790686e-03 4.59705525e-03 -8.14171981e-03
-3.73116299e-04 -1.37555036e-03 -5.29988259e-05 -1.37555036e-03 1.82410183e-04 -3.44515235e-04 -5.29988259e-05 -3.44515235e-04 7.41944479e-04
8.70345364e-04 9.24234407e-04 -8.01475010e-04 9.24234407e-04 9.74000501e-04 2.67352532e-03 -8.01475010e-04 2.67352532e-03 -1.30072364e-03
3.42950434e-03 -9.03940640e-03 6.68619468e-05 -9.03940640e-03 -5.93867979e-03 1.09846038e-04 6.68619468e-05 1.09846038e-04 3.13341620e-03
-3.90307963e-04 -5.43917927e-03 -1.12607783e-06 -5.43917927e-03 1.35175971e-03 7.58587776e-05 -1.12607783e-06 7.58587776e-05 -4.15908362e-04
2.88822632e-03 -1.04556793e-02 -1.41069354e-03 -1.04556793e-02 -4.76409347e-03 -1.07617077e-04 -1.41069354e-03 -1.07617077e-04 2.53499197e-03
-1.36230242e-03 -5.53753167e-03 -2.62362287e-03 -5.53753167e-03 3.44320405e-03 -5.17528194e-05 -2.62362287e-03 -5.17528194e-05 -1.55188243e-03
2.74094930e-02 -5.86459850e-03 3.68684024e-03 -5.86459850e-03 1.45278086e-02 -2.38610985e-03 3.68684024e-03 -2.38610985e-03 -3.56563544e-02
3.02281743e-02 -5.07188658e-03 5.32165839e-04 -5.07188658e-03 1.59087828e-02 2.03271338e-06 5.32165839e-04 2.03271338e-06 -3.92765086e-02
2.42800245e-02 -5.04132168e-03 5.44600902e-04 -5.04132168e-03 1.46401483e-02 3.49619277e-03 5.44600902e-04 3.49619277e-03 -3.27901412e-02
2.69810050e-02 -1.91332638e-03 -1.52077986e-03 -1.91332638e-03 1.56067770e-02 4.82992129e-03 -1.52077986e-03 4.82992129e-03 -3.61107122e-02
1.89856039e-02 -4.79015923e-03 1.74868270e-03 -4.79015923e-03 9.01067920e-03 -8.58689565e-03 1.74868270e-03 -8.58689565e-03 -2.35333522e-02
1.72616540e-02 -9.35541731e-03 -8.15734464e-04 -9.35541731e-03 1.36339631e-02 5.56277893e-03 -8.15734464e-04 5.56277893e-03 -2.56283262e-02
4.83937308e-03 -2.72091402e-03 9.57704367e-04 -2.72091402e-03 2.07305921e-03 -3.59829154e-03 9.57704367e-04 -3.59829154e-03 -5.02711814e-03
1.10543785e-02 -3.44663567e-03 -1.41128558e-03 -3.44663567e-03 7.15952723e-03 1.36791629e-02 -1.41128558e-03 1.36791629e-02 -1.50432298e-02
1.59909865e-04 6.06149311e-04 -8.64867104e-07 6.06149311e-04 6.46918552e-05 -1.74711349e-04 -8.64867104e-07 -1.74711349e-04 1.13325703e-04
1.38383754e-03 5.45748971e-05 2.18495956e-04 5.45748971e-05 -5.37502476e-04 2.21057983e-03 2.18495956e-04 2.21057983e-03 -5.09630076e-04
4.38788493e-06 2.04287862e-05 -1.57898667e-05 2.04287862e-05 2.39434785e-05 9.60851903e-05 -1.57898667e-05 9.60851903e-05 3.35865679e-05
4.87777902e-05 3.22641426e-05 -3.67684932e-05 3.22641426e-05 6.87575375e-06 -3.14485982e-05 -3.67684932e-05 -3.14485982e-05 -9.05390867e-06
9.31335635e-05 2.74259883e-05 -5.95462807e-05 2.74259883e-05 -1.55324353e-04 1.93142578e-05 -5.95462807e-05 1.93142578e-05 -1.71513420e-05
4.35752590e-05 -3.54336062e-05 2.58164816e-05 -3.54336062e-05 -1.19787402e-04 -7.97822728e-06 2.58164816e-05 -7.97822728e-06 1.98997926e-05
2.99812369e-02 -5.72130218e-03 -3.82086189e-04 -5.72130218e-03 1.87422894e-02 -3.70433892e-03 -3.82086189e-04 -3.70433892e-03 -4.23102081e-02
3.44178788e-02 -2.51605967e-03 3.37287947e-03 -2.51605967e-03 1.78602077e-02 7.19697709e-06 3.37287947e-03 7.19697709e-06 -4.52700704e-02
2.74921227e-02 -3.83829151e-03 -2.13140738e-04 -3.83829151e-03 1.83607261e-02 -2.48889552e-03 -2.13140738e-04 -2.48889552e-03 -3.94471465e-02
2.98361182e-02 -6.22107484e-03 -2.44083360e-03 -6.22107484e-03 1.98300369e-02 4.74747014e-03 -2.44083360e-03 4.74747014e-03 -4.30395436e-02
2.04705880e-02 -9.13191051e-03 9.83893219e-03 -9.13191051e-03 1.59555227e-02 -1.23664872e-02 9.83893219e-03 -1.23664872e-02 -3.18516809e-02
1.93875050e-02 -8.81827250e-03 5.23439472e-03 -8.81827250e-03 2.23438726e-02 2.93386204e-03 5.23439472e-03 2.93386204e-03 -3.58757982e-02
4.51345346e-03 -5.49946810e-03 8.10944149e-03 -5.49946810e-03 6.85566943e-03 -2.38608092e-03 8.10944149e-03 -2.38608092e-03 -9.29765636e-03
1.38136782e-02 -1.02103303e-02 8.41219866e-03 -1.02103303e-02 1.50292432e-02 2.10372172e-02 8.41219866e-03 2.10372172e-02 -2.52854790e-02
-1.10278654e-03 -9.69509856e-04 1.74102342e-06 -9.69509856e-04 7.07340136e-04 -4.80761315e-04 1.74102342e-06 -4.80761315e-04 7.26580896e-04
-2.92732278e-04 -5.31306919e-03 1.70517284e-04 -5.31306919e-03 2.89081974e-04 5.64832886e-03 1.70517284e-04 5.64832886e-03 3.28118389e-04
-2.12521429e-04 -7.71504274e-05 7.09637570e-05 -7.71504274e-05 7.55405381e-05 1.07347547e-04 7.09637570e-05 1.07347547e-04 1.65992650e-04
-7.21378431e-05 -3.38392177e-06 3.02274481e-05 -3.38392177e-06 3.74181233e-05 -9.82844892e-05 3.02274481e-05 -9.82844892e-05 4.97198989e-05
-2.43707418e-05 1.16991330e-04 -3.56661076e-05 1.16991330e-04 -3.96885735e-05 2.76671362e-05 -3.56661076e-05 2.76671362e-05 5.33296270e-06
-7.65481782e-05 1.79341469e-05 -5.63754838e-07 1.79341469e-05 1.18648506e-05 5.85109956e-05 -5.63754838e-07 5.85109956e-05 2.79660189e-05
2.57077832e-02 4.83316671e-06 1.60349562e-03 4.83316671e-06 3.82313784e-02 -5.67896920e-03 1.60349562e-03 -5.67896920e-03 -5.42265102e-02
2.78148833e-02 -8.59086445e-04 5.77913760e-03 -8.59086445e-04 3.66718667e-02 -3.25864128e-03 5.77913760e-03 -3.25864128e-03 -5.46778897e-02
2.54281419e-02 -5.33124697e-03 3.88835515e-03 -5.33124697e-03 3.68982023e-02 -2.62613213e-03 3.88835515e-03 -2.62613213e-03 -5.26010892e-02
2.39514946e-02 -7.70647472e-04 3.48699221e-03 -7.70647472e-04 3.80416103e-02 -1.50152476e-03 3.48699221e-03 -1.50152476e-03 -5.25423493e-02
3.24256979e-02 -6.15058246e-03 2.27909989e-03 -6.15058246e-03 3.35590206e-02 -1.09672450e-03 2.27909989e-03 -1.09672450e-03 -5.56808952e-02
3.10265671e-02 -7.40476779e-03 1.20407538e-03 -7.40476779e-03 3.51980561e-02 -8.37454552e-03 1.20407538e-03 -8.37454552e-03 -5.57136666e-02
3.75853786e-02 2.23421794e-04 4.71121311e-04 2.23421794e-04 3.23786596e-02 -5.91144402e-03 4.71121311e-04 -5.91144402e-03 -5.90140540e-02
3.67003274e-02 -4.68326891e-03 2.19488156e-03 -4.68326891e-03 3.63857844e-02 5.81590339e-04 2.19488156e-03 5.81590339e-04 -6.12944299e-02
4.19741729e-02 -3.37592751e-03 1.16744826e-02 -3.37592751e-03 3.20446123e-02 -5.58970918e-03 1.16744826e-02 -5.58970918e-03 -6.24175612e-02
3.89135629e-02 -3.71477730e-03 2.78565887e-03 -3.71477730e-03 4.12110095e-02 5.72997815e-03 2.78565887e-03 5.72997815e-03 -6.75749229e-02
3.99234388e-02 -3.95252695e-03 1.35453588e-02 -3.95252695e-03 3.55917788e-02 -1.41290002e-03 1.35453588e-02 -1.41290002e-03 -6.33775750e-02
4.16955403e-02 -1.57135281e-03 1.04186810e-02 -1.57135281e-03 4.09519691e-02 2.57508052e-03 1.04186810e-02 2.57508052e-03 -6.97053326e-02
3.65702789e-02 7.99545785e-03 1.09777320e-02 7.99545785e-03 3.95723749e-02 -3.86920292e-04 1.09777320e-02 -3.86920292e-04 -6.38652928e-02
4.14434541e-02 2.56460439e-03 -9.79160541e-05 2.56460439e-03 4.12596045e-02 7.69371516e-04 -9.79160541e-05 7.69371516e-04 -6.96247891e-02
2.34900911e-02 -6.16272524e-03 6.72279636e-03 -6.16272524e-03 3.43416058e-02 -7.09861479e-03 6.72279636e-03 -7.09861479e-03 -4.86455867e-02
2.06105853e-02 -3.87995533e-03 1.39674528e-02 -3.87995533e-03 3.51697677e-02 -5.09580993e-03 1.39674528e-02 -5.09580993e-03 -4.70959693e-02
2.94502287e-02 -4.01549095e-03 1.48995297e-02 -4.01549095e-03 3.75644320e-02 -2.51858921e-03 1.48995297e-02 -2.51858921e-03 -5.75433107e-02
3.93737182e-02 -9.85267578e-03 3.44483797e-02 -9.85267578e-03 4.26715791e-02 -1.46095988e-03 3.44483797e-02 -1.46095988e-03 -7.14225344e-02
4.26269956e-02 -9.25192842e-04 1.07660617e-02 -9.25192842e-04 5.19461809e-02 1.25127125e-02 1.07660617e-02 1.25127125e-02 -8.24151617e-02
4.32102922e-02 -1.01787258e-03 1.95362554e-02 -1.01787258e-03 5.25310291e-02 2.43897096e-02 1.95362554e-02 2.43897096e-02 -8.30695089e-02
4.22481038e-02 -4.69168089e-03 6.32289844e-03 -4.69168089e-03 5.49770296e-02 2.06762571e-02 6.32289844e-03 2.06762571e-02 -8.42953436e-02
1.87831471e-02 -7.00931276e-04 1.82774547e-02 -7.00931276e-04 2.75270101e-02 -1.16664042e-03 1.82774547e-02 -1.16664042e-03 -3.84158818e-02
1.85377104e-02 -1.28017241e-03 1.20374046e-02 -1.28017241e-03 2.67129992e-02 -4.45035798e-03 1.20374046e-02 -4.45035798e-03 -3.78528908e-02
1.96795796e-02 -5.84214437e-03 2.43201785e-02 -5.84214437e-03 3.02897403e-02 2.64827867e-02 2.43201785e-02 2.64827867e-02 -4.27749430e-02
-9.22126463e-03 -2.22897418e-02 2.69652102e-02 -2.22897418e-02 6.19092397e-03 3.12793599e-02 2.69652102e-02 3.12793599e-02 1.19421422e-02
1.99450974e-02 -6.68806140e-04 1.16610726e-02 -6.68806140e-04 1.69630467e-02 7.29273551e-03 1.16610726e-02 7.29273551e-03 -3.05229642e-02
1.87866269e-02 2.69851176e-03 8.30966712e-03 2.69851176e-03 1.82368462e-02 6.25115249e-03 8.30966712e-03 6.25115249e-03 -3.08742276e-02
1.64167037e-02 -1.35098283e-02 1.27270500e-02 -1.35098283e-02 1.31534165e-02 1.56185336e-02 1.27270500e-02 1.56185336e-02 -2.37040621e-02
3.67962429e-03 -1.96989688e-03 -1.45205930e-02 -1.96989688e-03 8.44380120e-03 1.40693805e-02 -1.45205930e-02 1.40693805e-02 -6.60000369e-03
2.00278737e-02 -5.08770217e-03 1.64024628e-03 -5.08770217e-03 1.76596649e-02 5.15101676e-03 1.64024628e-03 5.15101676e-03 -3.13591750e-02
2.14466299e-02 -3.65907280e-03 1.07621588e-03 -3.65907280e-03 1.62842497e-02 4.79799043e-03 1.07621588e-03 4.79799043e-03 -3.16344909e-02
2.12681355e-02 -8.68579769e-03 9.18829661e-04 -8.68579769e-03 2.26042502e-02 9.44815417e-03 9.18829661e-04 9.44815417e-03 -3.69303285e-02
2.89606997e-02 8.23294453e-04 -1.32060559e-02 8.23294453e-04 3.00692902e-02 1.31718703e-02 -1.32060559e-02 1.31718703e-02 -5.20714056e-02
2.02124082e-02 -4.98256006e-04 -2.24317140e-03 -4.98256006e-04 2.44550756e-02 -2.85960443e-04 -2.24317140e-03 -2.85960443e-04 -3.80012076e-02
2.21053874e-02 2.13728996e-03 -1.00106979e-03 2.13728996e-03 2.14467226e-02 1.18416111e-03 -1.00106979e-03 1.18416111e-03 -3.72146815e-02
2.49269786e-02 -2.10485654e-04 3.77186207e-03 -2.10485654e-04 3.19280298e-02 -2.63605796e-03 3.77186207e-03 -2.63605796e-03 -4.84133959e-02
3.91294826e-02 1.18335368e-03 -4.27021342e-03 1.18335368e-03 4.36706636e-02 1.77126434e-02 -4.27021342e-03 1.77126434e-02 -7.46591426e-02
-1.17236937e-06 -2.91994293e-05 -9.17159377e-06 -2.91994293e-05 6.31305380e-06 7.06721539e-06 -9.17159377e-06 7.06721539e-06 -1.05588751e-05
-6.75889004e-06 -6.97163568e-06 -7.55366182e-06 -6.97163568e-06 2.14771035e-07 -8.27848316e-06 -7.55366182e-06 -8.27848316e-06 1.53668822e-06
1.60142504e-05 -7.76533716e-06 -4.11446081e-07 -7.76533716e-06 8.93812398e-07 2.42674946e-05 -4.11446081e-07 2.42674946e-05 -2.22044819e-05
1.03720317e-05 -2.99535241e-05 -1.83918473e-06 -2.99535241e-05 -4.03519971e-06 -2.27048331e-05 -1.83918473e-06 -2.27048331e-05 -1.07229853e-05
3.20759658e-02 7.23922858e-06 8.27900693e-03 7.23922858e-06 3.34954243e-02 -1.86519581e-03 8.27900693e-03 -1.86519581e-03 -5.55787813e-02
3.29701733e-02 1.01384241e-03 5.76105760e-03 1.01384241e-03 3.22106155e-02 1.73216382e-03 5.76105760e-03 1.73216382e-03 -5.52503671e-02
3.17029627e-02 -7.14119227e-03 9.39729075e-03 -7.14119227e-03 3.25650033e-02 2.54699573e-03 9.39729075e-03 2.54699573e-03 -5.41544594e-02
3.06102070e-02 9.43687221e-04 8.49058601e-03 9.43687221e-04 3.43460310e-02 -4.37243737e-03 8.49058601e-03 -4.37243737e-03 -5.50231114e-02
3.56318289e-02 -7.62213592e-03 8.18265136e-03 -7.62213592e-03 2.76580080e-02 6.37286737e-04 8.18265136e-03 6.37286737e-04 -5.33120651e-02
3.49403278e-02 -1.00496861e-02 8.09799694e-03 -1.00496861e-02 3.08804398e-02 3.19244200e-03 8.09799694e-03 3.19244200e-03 -5.53383715e-02
3.81433479e-02 6.06673173e-04 2.88930949e-03 6.06673173e-04 2.46121385e-02 4.46888266e-03 2.88930949e-03 4.46888266e-03 -5.27038071e-02
3.83287757e-02 -4.62613995e-03 -4.31544488e-03 -4.62613995e-03 3.05884050e-02 -3.58708977e-03 -4.31544488e-03 -3.58708977e-03 -5.76702785e-02
3.90773779e-02 1.71587168e-03 -4.20365855e-03 1.71587168e-03 2.33761631e-02 -8.65446113e-04 -4.20365855e-03 -8.65446113e-04 -5.23117101e-02
3.83997001e-02 1.94530047e-03 -5.29493326e-03 1.94530047e-03 3.52828007e-02 -8.01129790e-05 -5.29493326e-03 -8.01129790e-05 -6.21973956e-02
3.61673590e-02 1.26997332e-03 2.58184574e-03 1.26997332e-03 2.44360613e-02 -3.60510236e-03 2.58184574e-03 -3.60510236e-03 -5.06164292e-02
3.78517150e-02 1.38112828e-03 2.54241284e-04 1.38112828e-03 3.41054879e-02 1.91951009e-03 2.54241284e-04 1.91951009e-03 -6.05216380e-02
3.43028698e-02 1.20249682e-03 3.05823865e-03 1.20249682e-03 2.35531507e-02 -3.85610480e-03 3.05823865e-03 -3.85610480e-03 -4.79802936e-02
3.49887945e-02 -4.92136684e-04 -9.90865403e-04 -4.92136684e-04 3.30691072e-02 -3.14879743e-03 -9.90865403e-04 -3.14879743e-03 -5.66361640e-02
2.79677340e-02 -1.19569200e-02 2.24646537e-02 -1.19569200e-02 3.58311289e-02 -3.64776351e-05 2.24646537e-02 -3.64776351e-05 -5.33033418e-02
2.35387478e-02 -9.04286467e-03 1.61470901e-02 -9.04286467e-03 3.81659204e-02 -2.53761047e-03 1.61470901e-02 -2.53761047e-03 -5.18392781e-02
3.74877953e-02 -1.82692134e-03 1.55766753e-02 -1.82692134e-03 3.45601243e-02 -3.86971102e-03 1.55766753e-02 -3.86971102e-03 -6.16596506e-02
4.50034030e-02 -9.65359717e-03 -4.37111117e-02 -9.65359717e-03 4.12618242e-02 -6.36449922e-04 -4.37111117e-02 -6.36449922e-04 -7.68097110e-02
4.41766698e-02 -5.49369841e-04 -1.25362200e-02 -5.49369841e-04 5.01756482e-02 9.64139050e-03 -1.25362200e-02 9.64139050e-03 -8.29503722e-02
4.31480417e-02 -2.70605498e-03 -2.08275463e-03 -2.70605498e-03 4.66073519e-02 7.78272253e-03 -2.08275463e-03 7.78272253e-03 -7.78200179e-02
3.89697570e-02 -2.89876101e-04 -3.58518329e-03 -2.89876101e-04 4.63745333e-02 2.93084048e-03 -3.58518329e-03 2.93084048e-03 -7.32493065e-02
2.35632931e-02 -6.99848730e-03 2.80583935e-02 -6.99848730e-03 3.48364038e-02 6.07552606e-04 2.80583935e-02 6.07552606e-04 -4.88876365e-02
1.89793748e-02 2.21554918e-03 2.24502743e-02 2.21554918e-03 3.42424903e-02 4.50153300e-03 2.24502743e-02 4.50153300e-03 -4.40243063e-02
3.49799595e-02 -1.82884773e-02 4.00306098e-02 -1.82884773e-02 4.52908557e-02 -4.44217196e-02 4.00306098e-02 -4.44217196e-02 -6.97499802e-02
1.89462211e-02 -2.09745253e-03 1.15897338e-02 -2.09745253e-03 2.54586296e-02 1.59392434e-02 1.15897338e-02 1.59392434e-02 -3.63391968e-02
1.74613527e-02 -5.03838644e-03 1.84504628e-02 -5.03838644e-03 2.64753159e-02 2.62734963e-03 1.84504628e-02 2.62734963e-03 -3.62759647e-02
2.00850695e-02 2.99594579e-03 1.01056324e-02 2.99594579e-03 2.93754162e-02 4.81017623e-02 1.01056324e-02 4.81017623e-02 -4.24941513e-02
2.05009329e-02 3.44638457e-03 9.72707434e-03 3.44638457e-03 2.57969273e-02 5.34068898e-03 9.72707434e-03 5.34068898e-03 -3.78918056e-02
1.95623292e-02 4.38673759e-03 -8.43221787e-04 4.38673759e-03 2.56774123e-02 1.79401628e-03 -8.43221787e-04 1.79401628e-03 -3.77122667e-02
2.34673691e-02 -7.15482590e-03 -8.98205279e-03 -7.15482590e-03 3.55495978e-02 1.03408035e-02 -8.98205279e-03 1.03408035e-02 -4.90947286e-02
-2.72375811e-03 4.32417877e-02 -6.65933266e-02 4.32417877e-02 -1.02845104e-02 7.81161040e-02 -6.65933266e-02 7.81161040e-02 2.53778528e-02
4.21605955e-02 1.92375615e-02 -6.38980046e-02 1.92375615e-02 4.20879954e-02 -3.94748431e-03 -6.38980046e-02 -3.94748431e-03 -7.40939106e-02
2.43797619e-02 1.14299852e-02 9.17537323e-03 1.14299852e-02 3.01582632e-02 1.06470600e-02 9.17537323e-03 1.06470600e-02 -4.59486572e-02
2.14807102e-02 -1.38734083e-03 7.57675059e-03 -1.38734083e-03 3.09403976e-02 8.98368051e-03 7.57675059e-03 8.98368051e-03 -4.40460965e-02
</DataArray>
<DataArray type="Float32" Name="Plastic_strain_components" NumberOfComponents="9" format="ascii">
2.36332100e-02 -4.15231625e-07 4.82053565e-07 -4.15231625e-07 4.57442738e-02 -5.09855454e-07 4.82053565e-07 -5.09855454e-07 -5.82109913e-02
2.51702601e-02 2.01801804e-03 3.02598892e-07 2.01801804e-03 4.76160012e-02 -5.92660945e-06 3.02598892e-07 -5.92660945e-06 -6.10880908e-02
2.59880149e-02 5.75442449e-03 -3.64253332e-03 5.75442449e-03 4.23379382e-02 -1.55802249e-03 -3.64253332e-03 -1.55802249e-03 -5.73944487e-02
2.52112756e-02 2.19214847e-03 -2.11514987e-03 2.19214847e-03 4.09161765e-02 5.80916094e-07 -2.11514987e-03 5.80916094e-07 -5.55676948e-02
2.32568095e-02 3.85543535e-06 3.06313334e-03 3.85543535e-06 4.32636626e-02 -2.61838816e-03 3.06313334e-03 -2.61838816e-03 -5.58367129e-02
2.50009983e-02 4.59693656e-04 3.20783048e-03 4.59693656e-04 4.43174522e-02 -3.74174162e-03 3.20783048e-03 -3.74174162e-03 -5.82103934e-02
2.55002629e-02 2.74538589e-03 6.17693018e-04 2.74538589e-03 4.06632558e-02 -4.56294382e-03 6.17693018e-04 -4.56294382e-03 -5.55980694e-02
2.44484181e-02 6.57291079e-04 1.23421983e-03 6.57291079e-04 4.00819872e-02 -2.47944728e-03 1.23421983e-03 -2.47944728e-03 -5.42179206e-02
2.78760679e-02 6.63676125e-04 1.52082248e-06 6.63676125e-04 5.22125140e-02 -1.00379204e-03 1.52082248e-06 -1.00379204e-03 -6.72363676e-02
2.83298632e-02 8.33814917e-03 -5.44040988e-03 8.33814917e-03 4.63286983e-02 -8.13549714e-05 -5.44040988e-03 -8.13549714e-05 -6.27038227e-02
2.90656169e-02 1.56188224e-03 4.29967651e-03 1.56188224e-03 4.59973579e-02 -3.90788262e-03 4.29967651e-03 -3.90788262e-03 -6.31019846e-02
2.84872851e-02 3.74116312e-03 -6.56259741e-04 3.74116312e-03 4.35851626e-02 -7.51298317e-03 -6.56259741e-04 -7.51298317e-03 -6.05807542e-02
3.22818104e-02 2.60582904e-03 -6.80840458e-07 2.60582904e-03 5.70951924e-02 3.93398339e-03 -6.80840458e-07 3.93398339e-03 -7.50701576e-02
3.21392016e-02 5.92305476e-03 -9.24563501e-03 5.92305476e-03 5.31009026e-02 -2.01466391e-03 -9.24563501e-03 -2.01466391e-03 -7.21148811e-02
3.44424481e-02 -3.21482244e-03 2.73512094e-03 -3.21482244e-03 4.82553774e-02 -2.99716892e-03 2.73512094e-03 -2.99716892e-03 -6.95979409e-02
3.22571145e-02 -1.95186100e-03 2.42599734e-03 -1.95186100e-03 4.72007715e-02 -4.48526716e-03 2.42599734e-03 -4.48526716e-03 -6.68221032e-02
3.75591684e-02 -7.16607110e-03 1.55149883e-05 -7.16607110e-03 6.13691825e-02 3.12596001e-03 1.55149883e-05 3.12596001e-03 -8.31496194e-02
3.42399008e-02 -5.19884465e-03 -1.36567617e-02 -5.19884465e-03 5.81551185e-02 2.45456293e-03 -1.36567617e-02 2.45456293e-03 -7.79666398e-02
3.97477616e-02 -7.95387290e-03 3.83822114e-03 -7.95387290e-03 5.08943787e-02 -2.87242463e-03 3.83822114e-03 -2.87242463e-03 -7.63107501e-02
3.75260622e-02 -8.70829396e-03 2.67187972e-03 -8.70829396e-03 4.74254829e-02 1.13024755e-03 2.67187972e-03 1.13024755e-03 -7.16113811e-02
4.18398250e-02 -1.10750990e-02 3.32372147e-05 -1.10750990e-02 6.69927895e-02 3.03512940e-03 3.32372147e-05 3.03512940e-03 -9.14902166e-02
3.71241933e-02 -1.30352898e-02 -1.67869409e-02 -1.30352898e-02 6.34786850e-02 7.15891679e-03 -1.67869409e-02 7.15891679e-03 -8.53577722e-02
4.17916728e-02 -7.70962273e-03 7.11986900e-03 -7.70962273e-03 5.47663439e-02 -2.03552510e-04 7.11986900e-03 -2.03552510e-04 -8.12664442e-02
4.15512035e-02 -1.13251245e-02 7.16735725e-03 -1.13251245e-02 5.00552733e-02 9.56017441e-04 7.16735725e-03 9.56017441e-04 -7.73081854e-02
3.92341055e-02 -2.72177886e-02 -6.10397547e-06 -2.72177886e-02 7.95500949e-02 -3.74722923e-03 -6.10397547e-06 -3.74722923e-03 -9.95531157e-02
3.54148569e-02 -1.98514396e-02 -1.95688121e-02 -1.98514396e-02 7.71115720e-02 1.83778964e-02 -1.95688121e-02 1.83778964e-02 -9.51688737e-02
3.77871301e-02 -6.61647669e-03 -5.00649025e-04 -6.61647669e-03 6.67446181e-02 -3.32665234e-03 -5.00649025e-04 -3.32665234e-03 -8.78445841e-02
3.93057726e-02 -1.10685723e-02 1.12473639e-03 -1.10685723e-02 5.89941554e-02 6.00653992e-03 1.12473639e-03 6.00653992e-03 -8.25163070e-02
2.83835060e-02 7.50682625e-03 -2.54539214e-03 7.50682625e-03 2.91254986e-02 -2.65359640e-03 -2.54539214e-03 -2.65359640e-03 -4.83780438e-02
2.80816043e-02 1.60878256e-03 -3.33171955e-03 1.60878256e-03 2.88327504e-02 3.43058127e-06 -3.33171955e-03 3.43058127e-06 -4.79044747e-02
2.61422771e-02 5.12860686e-03 4.07523009e-03 5.12860686e-03 3.14719910e-02 -4.86557439e-03 4.07523009e-03 -4.86557439e-03 -4.84625236e-02
2.51773666e-02 2.37923639e-03 5.32975071e-03 2.37923639e-03 3.04309195e-02 -9.02028711e-04 5.32975071e-03 -9.02028711e-04 -4.68050558e-02
2.66394741e-02 1.19653333e-02 -6.40008051e-03 1.19653333e-02 2.90274420e-02 -4.82838531e-03 -6.40008051e-03 -4.82838531e-03 -4.66279564e-02
2.67832039e-02 6.58337027e-03 7.20502187e-03 6.58337027e-03 3.29717512e-02 -1.68629602e-03 7.20502187e-03 -1.68629602e-03 -5.03580747e-02
1.92186422e-02 6.63037016e-03 -6.25685957e-03 6.63037016e-03 2.28472697e-02 -3.05832026e-03 -6.25685957e-03 -3.05832026e-03 -3.41564837e-02
2.53094581e-02 -4.44231305e-05 2.05932358e-02 -4.44231305e-05 3.36720103e-02 1.54339740e-03 2.05932358e-02 1.54339740e-03 -4.96613532e-02
1.82731287e-02 -7.79699945e-03 -1.58421901e-02 -7.79699945e-03 2.64333696e-02 1.40461208e-03 -1.58421901e-02 1.40461208e-03 -3.67663978e-02
2.38924737e-02 -1.24418540e-02 2.23625422e-02 -1.24418540e-02 3.41304441e-02 6.91475007e-03 2.23625422e-02 6.91475007e-03 -4.75803263e-02
1.58871964e-02 -1.18967906e-02 -1.36578671e-02 -1.18967906e-02 1.45631988e-02 7.58315186e-03 -1.36578671e-02 7.58315186e-03 -2.23209093e-02
2.36892717e-02 -1.69129035e-02 2.70347965e-02 -1.69129035e-02 3.03585784e-02 1.92051068e-02 2.70347965e-02 1.92051068e-02 -4.31985520e-02
1.70031306e-02 -1.46787376e-02 -1.34439138e-02 -1.46787376e-02 1.33366785e-02 1.24062658e-02 -1.34439138e-02 1.24062658e-02 -2.15602235e-02
2.70031616e-02 -2.45018626e-02 2.64057691e-02 -2.45018626e-02 3.89142750e-02 2.64771801e-02 2.64057691e-02 2.64771801e-02 -5.40357890e-02
2.93514226e-02 3.65392870e-03 6.11929689e-04 3.65392870e-03 1.60753964e-02 -3.33560043e-03 6.11929689e-04 -3.33560043e-03 -3.81309185e-02
2.94011245e-02 2.04630557e-03 1.52322167e-03 2.04630557e-03 1.72866276e-02 -1.76050889e-06 1.52322167e-03 -1.76050889e-06 -3.92330289e-02
2.70087752e-02 2.61632905e-03 7.24512426e-03 2.61632905e-03 1.87917985e-02 -1.56259033e-03 7.24512426e-03 -1.56259033e-03 -3.84827107e-02
2.56143208e-02 1.12307674e-03 7.48226210e-03 1.12307674e-03 1.96189058e-02 4.31869135e-04 7.48226210e-03 4.31869135e-04 -3.80405113e-02
2.31656888e-02 5.64709767e-03 1.13818594e-03 5.64709767e-03 1.19921749e-02 -5.94449043e-03 1.13818594e-03 -5.94449043e-03 -2.98809623e-02
2.21642121e-02 3.01459711e-03 1.14757601e-02 3.01459711e-03 1.26452787e-02 2.83167802e-03 1.14757601e-02 2.83167802e-03 -2.87930749e-02
4.01031948e-03 1.05524722e-03 -4.19688574e-03 1.05524722e-03 4.48958686e-04 -3.26898444e-03 -4.19688574e-03 -3.26898444e-03 -1.54019656e-03
4.45505358e-03 -3.85407475e-06 6.40436942e-03 -3.85407475e-06 2.88157536e-03 1.92389451e-03 6.40436942e-03 1.92389451e-03 -3.98407007e-03
-6.68405167e-04 -1.29020705e-03 -8.91871223e-03 -1.29020705e-03 -3.27168428e-03 -2.47018842e-03 -8.91871223e-03 -2.47018842e-03 6.67138875e-03
4.79714635e-04 -2.36219548e-02 2.25286419e-02 -2.36219548e-02 8.44501518e-03 4.67589493e-03 2.25286419e-02 4.67589493e-03 -6.19696707e-03
-2.65179699e-03 3.99710389e-03 -8.60717644e-03 3.99710389e-03 -2.31612185e-03 -1.57158356e-03 -8.60717644e-03 -1.57158356e-03 7.46812671e-03
7.83247718e-04 -1.06263859e-02 1.84638835e-02 -1.06263859e-02 2.53796680e-03 -9.94209511e-04 1.84638835e-02 -9.94209511e-04 -7.89041010e-04
2.45053705e-03 2.66525560e-03 -5.15510468e-03 2.66525560e-03 -8.45812238e-03 1.08130547e-03 -5.15510468e-03 1.08130547e-03 8.22783867e-03
3.16722901e-03 -9.09245899e-03 1.82602198e-02 -9.09245899e-03 4.88991383e-04 -2.26214464e-03 1.82602198e-02 -2.26214464e-03 -1.18821440e-03
2.85477005e-02 -1.95914359e-03 1.73601339e-03 -1.95914359e-03 1.07845003e-02 -4.09395201e-03 1.73601339e-03 -4.09395201e-03 -3.28979753e-02
2.97486670e-02 -2.01817392e-03 2.25439947e-03 -2.01817392e-03 1.31882154e-02 3.96292762e-06 2.25439947e-03 3.96292762e-06 -3.59780937e-02
2.52816880e-02 -3.45851580e-03 7.46240898e-03 -3.45851580e-03 1.19793515e-02 6.96094357e-05 7.46240898e-03 6.96094357e-05 -3.11957528e-02
2.67477762e-02 -2.54943542e-03 2.94166639e-03 -2.54943542e-03 1.37739738e-02 1.95392466e-03 2.94166639e-03 1.95392466e-03 -3.39993779e-02
1.97670984e-02 -2.49825636e-03 -1.63436364e-03 -2.49825636e-03 6.03585195e-03 -5.94796368e-03 -1.63436364e-03 -5.94796368e-03 -2.15249546e-02
1.90850628e-02 -5.43014884e-03 3.77398304e-03 -5.43014884e-03 6.17769817e-03 4.75557246e-03 3.77398304e-03 4.75557246e-03 -2.09887491e-02
5.42660432e-03 -3.04117256e-03 -1.39775590e-03 -3.04117256e-03 3.58467572e-04 -4.81539313e-03 -1.39775590e-03 -4.81539313e-03 -4.63184848e-03
9.36672922e-03 -3.23462549e-03 -3.00905859e-03 -3.23462549e-03 9.79345947e-04 4.63410316e-03 -3.00905859e-03 4.63410316e-03 -8.59537395e-03
-4.76107146e-04 -1.41165068e-03 -3.67297117e-05 -1.41165068e-03 -1.03333442e-04 -1.81498674e-04 -3.67297117e-05 -1.81498674e-04 5.59451645e-04
6.04411402e-04 7.89620060e-04 -7.79114809e-04 7.89620060e-04 9.30691585e-04 2.47281672e-03 -7.79114809e-04 2.47281672e-03 -1.20800119e-03
3.44195426e-03 -8.84895772e-03 3.57644167e-05 -8.84895772e-03 -5.48638729e-03 5.17936132e-05 3.57644167e-05 5.17936132e-05 3.25500825e-03
-4.13788421e-04 -5.36975070e-03 1.49928046e-05 -5.36975070e-03 1.19186618e-03 1.93675021e-05 1.49928046e-05 1.93675021e-05 -4.63527092e-04
2.80790194e-03 -1.02753919e-02 -1.49352069e-03 -1.02753919e-02 -4.39010933e-03 -4.22803387e-05 -1.49352069e-03 -4.22803387e-05 2.57448060e-03
-1.39222697e-03 -5.39557159e-03 -2.51540851e-03 -5.39557159e-03 3.33396743e-03 -2.85844685e-05 -2.51540851e-03 -2.85844685e-05 -1.43488407e-03
2.71991701e-02 -5.77179875e-03 3.62754508e-03 -5.77179875e-03 1.45225425e-02 -2.36851553e-03 3.62754508e-03 -2.36851553e-03 -3.49935414e-02
3.00678471e-02 -5.00238570e-03 5.21500653e-04 -5.00238570e-03 1.59283378e-02 1.04208266e-06 5.21500653e-04 1.04208266e-06 -3.86086721e-02
2.40639297e-02 -4.97792737e-03 5.24257179e-04 -4.97792737e-03 1.45306321e-02 3.47333913e-03 5.24257179e-04 3.47333913e-03 -3.24047317e-02
2.67772134e-02 -1.88933683e-03 -1.51794590e-03 -1.88933683e-03 1.55543734e-02 4.79365909e-03 -1.51794590e-03 4.79365909e-03 -3.55362874e-02
1.89952883e-02 -4.81336411e-03 1.76269517e-03 -4.81336411e-03 9.09012568e-03 -8.47666315e-03 1.76269517e-03 -8.47666315e-03 -2.35668398e-02
1.67893125e-02 -9.16723959e-03 -7.84855278e-04 -9.16723959e-03 1.32093948e-02 5.38356157e-03 -7.84855278e-04 5.38356157e-03 -2.50233603e-02
3.69771186e-03 -2.30209113e-03 7.13997892e-04 -2.30209113e-03 1.17009384e-03 -3.35831899e-03 7.13997892e-04 -3.35831899e-03 -3.62171995e-03
1.11017890e-02 -3.47832082e-03 -1.33624031e-03 -3.47832082e-03 7.20686522e-03 1.35390108e-02 -1.33624031e-03 1.35390108e-02 -1.51854294e-02
4.25901823e-05 3.67382389e-04 -1.84918719e-05 3.67382389e-04 -9.49027221e-05 -1.16813271e-04 -1.84918719e-05 -1.16813271e-04 3.38202446e-06
1.24159631e-03 -6.03148385e-05 1.14874021e-04 -6.03148385e-05 -5.45832286e-04 2.14972138e-03 1.14874021e-04 2.14972138e-03 -5.22648044e-04
1.70830634e-05 -1.26809943e-05 -1.41105974e-06 -1.26809943e-05 -1.04699757e-05 7.41387542e-06 -1.41105974e-06 7.41387542e-06 -1.08641603e-05
-4.20776005e-06 -2.55646910e-06 -3.36083872e-08 -2.55646910e-06 1.78360681e-06 -1.53548493e-06 -3.36083872e-08 -1.53548493e-06 3.33652149e-06
0.00000000e+00 0.00000000e+00 0.00000000e+00 0.00000000e+00 0.00000000e+00 0.00000000e+00 0.00000000e+00 0.00000000e+00 0.00000000e+00
0.00000000e+00 0.00000000e+00 0.00000000e+00 0.00000000e+00 0.00000000e+00 0.00000000e+00 0.00000000e+00 0.00000000e+00 0.00000000e+00
2.99594998e-02 -5.61671751e-03 -3.93113500e-04 -5.61671751e-03 1.89278675e-02 -3.65859631e-03 -3.93113500e-04 -3.65859631e-03 -4.10682652e-02
3.44243646e-02 -2.48803850e-03 3.30947596e-03 -2.48803850e-03 1.81209445e-02 7.12090696e-06 3.30947596e-03 7.12090696e-06 -4.41104397e-02
2.74916729e-02 -3.80386016e-03 -2.17144378e-04 -3.80386016e-03 1.84903694e-02 -2.44234464e-03 -2.17144378e-04 -2.44234464e-03 -3.86515427e-02
2.98384307e-02 -6.14791852e-03 -2.43016321e-03 -6.14791852e-03 1.99975362e-02 4.71494393e-03 -2.43016321e-03 4.71494393e-03 -4.18992806e-02
2.04264028e-02 -8.88857036e-03 9.59534477e-03 -8.88857036e-03 1.61019824e-02 -1.21292090e-02 9.59534477e-03 -1.21292090e-02 -3.04623190e-02
1.94786345e-02 -8.71552376e-03 5.19989649e-03 -8.71552376e-03 2.24184762e-02 2.95812066e-03 5.19989649e-03 2.95812066e-03 -3.52486661e-02
4.87280800e-03 -5.79511287e-03 7.95400934e-03 -5.79511287e-03 6.88255974e-03 -2.29882332e-03 7.95400934e-03 -2.29882332e-03 -9.93700582e-03
1.39996942e-02 -9.85249194e-03 8.35623303e-03 -9.85249194e-03 1.51067326e-02 2.06230885e-02 8.35623303e-03 2.06230885e-02 -2.39502651e-02
-1.02221221e-03 -8.07497374e-04 -2.76595115e-05 -8.07497374e-04 4.22014418e-04 -4.11558358e-04 -2.76595115e-05 -4.11558358e-04 5.85765942e-04
-1.15655006e-04 -4.92814270e-03 1.27511936e-04 -4.92814270e-03 3.74253788e-04 5.36096373e-03 1.27511936e-04 5.36096373e-03 3.99856846e-04
-3.64880761e-05 -5.92031429e-05 9.29314865e-06 -5.92031429e-05 1.59500869e-05 1.00375346e-05 9.29314865e-06 1.00375346e-05 2.77248691e-05
3.28139504e-05 3.26749038e-06 -8.75984551e-06 3.26749038e-06 -1.90212231e-05 4.69468262e-05 -8.75984551e-06 4.69468262e-05 -2.21742497e-05
0.00000000e+00 0.00000000e+00 0.00000000e+00 0.00000000e+00 0.00000000e+00 0.00000000e+00 0.00000000e+00 0.00000000e+00 0.00000000e+00
0.00000000e+00 0.00000000e+00 0.00000000e+00 0.00000000e+00 0.00000000e+00 0.00000000e+00 0.00000000e+00 0.00000000e+00 0.00000000e+00
2.56637428e-02 4.89655758e-06 1.60739536e-03 4.89655758e-06 3.81157510e-02 -5.65702422e-03 1.60739536e-03 -5.65702422e-03 -5.36382645e-02
2.77253035e-02 -8.58216023e-04 5.75256837e-03 -8.58216023e-04 3.65307676e-02 -3.23313203e-03 5.75256837e-03 -3.23313203e-03 -5.40715614e-02
2.53156456e-02 -5.31078543e-03 3.88324288e-03 -5.31078543e-03 3.67295439e-02 -2.63489803e-03 3.88324288e-03 -2.63489803e-03 -5.21519431e-02
2.38912059e-02 -7.67622798e-04 3.48129438e-03 -7.67622798e-04 3.78825143e-02 -1.50238065e-03 3.48129438e-03 -1.50238065e-03 -5.19061117e-02
3.22792670e-02 -6.11555169e-03 2.25277775e-03 -6.11555169e-03 3.34140621e-02 -1.11208971e-03 2.25277775e-03 -1.11208971e-03 -5.53394053e-02
3.08190368e-02 -7.37331825e-03 1.20240494e-03 -7.37331825e-03 3.49666248e-02 -8.33262768e-03 1.20240494e-03 -8.33262768e-03 -5.52792982e-02
3.74139845e-02 2.21355276e-04 4.70066509e-04 2.21355276e-04 3.22397319e-02 -5.92028350e-03 4.70066509e-04 -5.92028350e-03 -5.86576285e-02
3.63713140e-02 -4.65191836e-03 2.17709085e-03 -4.65191836e-03 3.60625559e-02 5.96992828e-04 2.17709085e-03 5.96992828e-04 -6.09138794e-02
4.17695893e-02 -3.36378411e-03 1.16645510e-02 -3.36378411e-03 3.19058285e-02 -5.58327133e-03 1.16645510e-02 -5.58327133e-03 -6.19754000e-02
3.86705613e-02 -3.68171035e-03 2.77457834e-03 -3.68171035e-03 4.09493833e-02 5.68358017e-03 2.77457834e-03 5.68358017e-03 -6.70241807e-02
3.97485690e-02 -3.93367617e-03 1.35516094e-02 -3.93367617e-03 3.54548716e-02 -1.43640039e-03 1.35516094e-02 -1.43640039e-03 -6.32534716e-02
4.14128872e-02 -1.54806615e-03 1.03470479e-02 -1.54806615e-03 4.06779698e-02 2.53015474e-03 1.03470479e-02 2.53015474e-03 -6.90761190e-02
3.64449574e-02 7.98036391e-03 1.09794498e-02 7.98036391e-03 3.94633841e-02 -4.71932231e-04 1.09794498e-02 -4.71932231e-04 -6.38916790e-02
4.10536062e-02 2.56573909e-03 -1.32554094e-04 2.56573909e-03 4.08791602e-02 7.38520059e-04 -1.32554094e-04 7.38520059e-04 -6.89311326e-02
2.33284107e-02 -6.13155484e-03 6.70470312e-03 -6.13155484e-03 3.41349510e-02 -7.05548888e-03 6.70470312e-03 -7.05548888e-03 -4.82829409e-02
2.05516205e-02 -3.84960714e-03 1.39011275e-02 -3.84960714e-03 3.50335930e-02 -5.09050977e-03 1.39011275e-02 -5.09050977e-03 -4.65746159e-02
2.94619131e-02 -4.00424779e-03 1.48070822e-02 -4.00424779e-03 3.74413649e-02 -2.60210909e-03 1.48070822e-02 -2.60210909e-03 -5.62657969e-02
3.98798138e-02 -9.49813029e-03 3.33802180e-02 -9.49813029e-03 4.31149554e-02 -1.38194943e-03 3.33802180e-02 -1.38194943e-03 -6.91180408e-02
4.31357892e-02 -8.94358556e-04 1.06792960e-02 -8.94358556e-04 5.23471730e-02 1.23725981e-02 1.06792960e-02 1.23725981e-02 -8.03256910e-02
4.37350301e-02 -9.64827894e-04 1.93916275e-02 -9.64827894e-04 5.29159997e-02 2.40977874e-02 1.93916275e-02 2.40977874e-02 -8.11049696e-02
4.27914765e-02 -4.53795795e-03 6.22533809e-03 -4.53795795e-03 5.53097334e-02 2.03749023e-02 6.22533809e-03 2.03749023e-02 -8.23650584e-02
1.85209067e-02 -7.01941004e-04 1.82013859e-02 -7.01941004e-04 2.72141311e-02 -1.13759459e-03 1.82013859e-02 -1.13759459e-03 -3.82592869e-02
1.83688276e-02 -1.26682207e-03 1.19910355e-02 -1.26682207e-03 2.65282644e-02 -4.44879849e-03 1.19910355e-02 -4.44879849e-03 -3.76738431e-02
2.03874783e-02 -5.71754511e-03 2.44652072e-02 -5.71754511e-03 3.12210883e-02 2.65700251e-02 2.44652072e-02 2.65700251e-02 -4.27922091e-02
-8.08220147e-03 -2.34415499e-02 3.09504271e-02 -2.34415499e-02 6.45127632e-03 3.01838564e-02 3.09504271e-02 3.01838564e-02 6.76636770e-03
1.96822556e-02 -6.65127067e-04 1.15443580e-02 -6.65127067e-04 1.67326540e-02 7.26055561e-03 1.15443580e-02 7.26055561e-03 -3.03774115e-02
1.85428020e-02 2.66201200e-03 8.27794647e-03 2.66201200e-03 1.79964942e-02 6.21945295e-03 8.27794647e-03 6.21945295e-03 -3.07202805e-02
1.46245940e-02 -1.22496222e-02 1.24577337e-02 -1.22496222e-02 1.12949675e-02 1.30791467e-02 1.24577337e-02 1.30791467e-02 -2.08782167e-02
1.97492074e-03 -3.24894166e-03 -1.69541029e-02 -3.24894166e-03 5.32728713e-03 -9.96695831e-04 -1.69541029e-02 -9.96695831e-04 -3.04777920e-03
1.97806639e-02 -5.07115974e-03 1.64179543e-03 -5.07115974e-03 1.74637100e-02 5.14872165e-03 1.64179543e-03 5.14872165e-03 -3.12226638e-02
2.12023519e-02 -3.62172251e-03 1.05655816e-03 -3.62172251e-03 1.60962124e-02 4.77010279e-03 1.05655816e-03 4.77010279e-03 -3.13686640e-02
1.75264739e-02 -7.78909591e-03 1.09437837e-03 -7.78909591e-03 1.80334381e-02 8.73497743e-03 1.09437837e-03 8.73497743e-03 -2.81712001e-02
3.15551162e-02 5.71899698e-04 -1.25427822e-02 5.71899698e-04 3.34401238e-02 1.65854769e-02 -1.25427822e-02 1.65854769e-02 -5.62256668e-02
2.01272834e-02 -4.77541849e-04 -2.23465597e-03 -4.77541849e-04 2.43575624e-02 -2.80161912e-04 -2.23465597e-03 -2.80161912e-04 -3.74693843e-02
2.20931377e-02 2.14536523e-03 -9.95204318e-04 2.14536523e-03 2.14678003e-02 1.13755517e-03 -9.95204318e-04 1.13755517e-03 -3.66777834e-02
2.69433558e-02 -7.75328022e-04 3.65189282e-03 -7.75328022e-04 3.42530883e-02 -1.94512753e-03 3.65189282e-03 -1.94512753e-03 -5.24682868e-02
3.91546767e-02 1.60908734e-03 -4.18781186e-03 1.60908734e-03 4.33518048e-02 1.71768186e-02 -4.18781186e-03 1.71768186e-02 -6.90949336e-02
0.00000000e+00 0.00000000e+00 0.00000000e+00 0.00000000e+00 0.00000000e+00 0.00000000e+00 0.00000000e+00 0.00000000e+00 0.00000000e+00
0.00000000e+00 0.00000000e+00 0.00000000e+00 0.00000000e+00 0.00000000e+00 0.00000000e+00 0.00000000e+00 0.00000000e+00 0.00000000e+00
0.00000000e+00 0.00000000e+00 0.00000000e+00 0.00000000e+00 0.00000000e+00 0.00000000e+00 0.00000000e+00 0.00000000e+00 0.00000000e+00
0.00000000e+00 0.00000000e+00 0.00000000e+00 0.00000000e+00 0.00000000e+00 0.00000000e+00 0.00000000e+00 0.00000000e+00 0.00000000e+00
3.20109390e-02 6.39777318e-06 8.27097381e-03 6.39777318e-06 3.34117394e-02 -1.86128775e-03 8.27097381e-03 -1.86128775e-03 -5.50846439e-02
3.28222625e-02 9.98410862e-04 5.74448984e-03 9.98410862e-04 3.20647345e-02 1.72062484e-03 5.74448984e-03 1.72062484e-03 -5.46284765e-02
3.15903353e-02 -7.12432536e-03 9.39915866e-03 -7.12432536e-03 3.24328844e-02 2.52204902e-03 9.39915866e-03 2.52204902e-03 -5.38462545e-02
3.04762097e-02 9.39521255e-04 8.45287688e-03 9.39521255e-04 3.41647333e-02 -4.35692666e-03 8.45287688e-03 -4.35692666e-03 -5.44073042e-02
3.54485447e-02 -7.57684803e-03 8.17390531e-03 -7.57684803e-03 2.75006182e-02 6.24797651e-04 8.17390531e-03 6.24797651e-04 -5.29477131e-02
3.47379725e-02 -1.00135759e-02 8.05684214e-03 -1.00135759e-02 3.06955366e-02 3.16867106e-03 8.05684214e-03 3.16867106e-03 -5.49900625e-02
3.79625140e-02 5.98482409e-04 2.89201905e-03 5.98482409e-04 2.44598379e-02 4.43946196e-03 2.89201905e-03 4.43946196e-03 -5.24790734e-02
3.79169127e-02 -4.60128119e-03 -4.28432153e-03 -4.60128119e-03 3.02197058e-02 -3.57668435e-03 -4.28432153e-03 -3.57668435e-03 -5.73005048e-02
3.87598341e-02 1.70125411e-03 -4.18612815e-03 1.70125411e-03 2.31350185e-02 -8.83472647e-04 -4.18612815e-03 -8.83472647e-04 -5.20215165e-02
3.81410595e-02 1.94002292e-03 -5.25394188e-03 1.94002292e-03 3.50507407e-02 -8.20292917e-05 -5.25394188e-03 -8.20292917e-05 -6.15771697e-02
3.57881375e-02 1.27133902e-03 2.58487905e-03 1.27133902e-03 2.41339239e-02 -3.59222658e-03 2.58487905e-03 -3.59222658e-03 -5.04063973e-02
3.75956236e-02 1.38128200e-03 2.77123283e-04 1.38128200e-03 3.38969734e-02 1.92087979e-03 2.77123283e-04 1.92087979e-03 -6.01939033e-02
3.38872056e-02 1.20751373e-03 3.06181167e-03 1.20751373e-03 2.31866101e-02 -3.81279690e-03 3.06181167e-03 -3.81279690e-03 -4.79844492e-02
3.45825395e-02 -4.84588330e-04 -9.64955805e-04 -4.84588330e-04 3.26903136e-02 -3.14981514e-03 -9.64955805e-04 -3.14981514e-03 -5.66284424e-02
2.77789745e-02 -1.19040928e-02 2.23603880e-02 -1.19040928e-02 3.55591448e-02 -1.73406443e-05 2.23603880e-02 -1.73406443e-05 -5.28745456e-02
2.34645717e-02 -8.99611320e-03 1.61286020e-02 -8.99611320e-03 3.80125586e-02 -2.52670026e-03 1.61286020e-02 -2.52670026e-03 -5.15588038e-02
3.76422432e-02 -1.89004155e-03 1.52591484e-02 -1.89004155e-03 3.46986912e-02 -3.98823206e-03 1.52591484e-02 -3.98823206e-03 -6.12679379e-02
4.59166236e-02 -9.44708696e-03 -4.22938637e-02 -9.44708696e-03 4.23254762e-02 -3.35801113e-04 -4.22938637e-02 -3.35801113e-04 -7.30217040e-02
4.48662508e-02 -5.04273339e-04 -1.23020082e-02 -5.04273339e-04 5.07826870e-02 9.57352934e-03 -1.23020082e-02 9.57352934e-03 -8.05030093e-02
4.37137550e-02 -2.67093992e-03 -2.08199851e-03 -2.67093992e-03 4.71223593e-02 7.74200741e-03 -2.08199851e-03 7.74200741e-03 -7.64832608e-02
3.93005218e-02 -2.44480572e-04 -3.55890137e-03 -2.44480572e-04 4.65887636e-02 2.91676953e-03 -3.55890137e-03 2.91676953e-03 -7.23052584e-02
2.34756053e-02 -6.95362068e-03 2.78416215e-02 -6.95362068e-03 3.46532605e-02 6.37013000e-04 2.78416215e-02 6.37013000e-04 -4.83131611e-02
1.87468478e-02 2.20314879e-03 2.24370845e-02 2.20314879e-03 3.39830983e-02 4.52057098e-03 2.24370845e-02 4.52057098e-03 -4.40526800e-02
3.54184632e-02 -1.79286932e-02 4.10085646e-02 -1.79286932e-02 4.58818926e-02 -4.41415673e-02 4.10085646e-02 -4.41415673e-02 -6.64332472e-02
1.85726391e-02 -2.09827241e-03 1.16794168e-02 -2.09827241e-03 2.50658603e-02 1.58638445e-02 1.16794168e-02 1.58638445e-02 -3.64164151e-02
1.72528333e-02 -5.02038340e-03 1.83772853e-02 -5.02038340e-03 2.62382836e-02 2.60826637e-03 1.83772853e-02 2.60826637e-03 -3.62235736e-02
2.13654584e-02 2.45882209e-03 9.75179370e-03 2.45882209e-03 3.06066917e-02 4.86105173e-02 9.75179370e-03 4.86105173e-02 -4.20018584e-02
1.27787936e-02 2.27321951e-03 1.03426012e-02 2.27321951e-03 1.64229067e-02 9.08622758e-04 1.03426012e-02 9.08622758e-04 -2.15976411e-02
2.02850779e-02 4.62840009e-03 -8.40855530e-04 4.62840009e-03 2.65861545e-02 2.21193145e-03 -8.40855530e-04 2.21193145e-03 -3.97336977e-02
1.93985329e-02 -5.70715031e-03 -5.82971474e-03 -5.70715031e-03 2.86195019e-02 1.35795515e-02 -5.82971474e-03 1.35795515e-02 -3.88015232e-02
-3.61485220e-03 4.36726920e-02 -6.32909611e-02 4.36726920e-02 -9.75598115e-03 8.86169672e-02 -6.32909611e-02 8.86169672e-02 2.02069245e-02
4.67645389e-02 1.83858937e-02 -6.60962984e-02 1.83858937e-02 4.85599972e-02 -6.21901980e-03 -6.60962984e-02 -6.21901980e-03 -8.06768189e-02
2.84042959e-02 1.21198260e-02 8.84154659e-03 1.21198260e-02 3.51102278e-02 1.30783138e-02 8.84154659e-03 1.30783138e-02 -5.48093934e-02
2.08247434e-02 -1.50720245e-03 7.60947959e-03 -1.50720245e-03 3.01645054e-02 8.67926423e-03 7.60947959e-03 8.67926423e-03 -4.26341165e-02
</DataArray>
<DataArray type="Float32" Name="Spatial_displacement" NumberOfComponents="3" format="ascii">
0.00000000e+00 0.00000000e+00 0.00000000e+00
2.37896666e-02 0.00000000e+00 0.00000000e+00
2.58738995e-02 4.90932092e-02 0.00000000e+00
0.00000000e+00 4.67986092e-02 0.00000000e+00
0.00000000e+00 0.00000000e+00 -5.73103651e-02
2.37743929e-02 0.00000000e+00 -5.98024428e-02
2.42469460e-02 4.52627204e-02 -5.67546338e-02
0.00000000e+00 4.45747674e-02 -5.44078201e-02
5.13570048e-02 0.00000000e+00 0.00000000e+00
5.20446226e-02 5.37642129e-02 0.00000000e+00
5.03030829e-02 0.00000000e+00 -6.57936260e-02
5.19196093e-02 4.80235405e-02 -6.17362931e-02
8.03491622e-02 0.00000000e+00 0.00000000e+00
8.30836743e-02 6.04570135e-02 0.00000000e+00
8.44457522e-02 0.00000000e+00 -7.18531832e-02
8.10857117e-02 5.09702973e-02 -6.93109035e-02
1.19996682e-01 0.00000000e+00 0.00000000e+00
1.12476178e-01 6.59122467e-02 0.00000000e+00
1.23271033e-01 0.00000000e+00 -7.86222443e-02
1.14923462e-01 5.19994907e-02 -7.50468373e-02
1.61683321e-01 0.00000000e+00 0.00000000e+00
1.50073141e-01 7.11564571e-02 0.00000000e+00
1.64942026e-01 0.00000000e+00 -8.69832635e-02
1.56875625e-01 5.44584394e-02 -8.04250017e-02
2.08605692e-01 0.00000000e+00 0.00000000e+00
1.79849416e-01 9.07332748e-02 0.00000000e+00
2.04798013e-01 0.00000000e+00 -9.00043100e-02
1.97846323e-01 7.05849901e-02 -9.05466080e-02
2.87974849e-02 8.60666931e-02 0.00000000e+00
0.00000000e+00 8.44034329e-02 0.00000000e+00
2.60357484e-02 8.34081694e-02 -4.80254889e-02
0.00000000e+00 8.09349567e-02 -4.71669286e-02
5.74678518e-02 9.48102772e-02 0.00000000e+00
5.23949936e-02 8.82029012e-02 -4.81532067e-02
8.03554058e-02 1.02317706e-01 0.00000000e+00
7.66551271e-02 9.41442773e-02 -4.19604629e-02
9.99171659e-02 1.15177475e-01 0.00000000e+00
1.02196380e-01 9.60341468e-02 -4.42250594e-02
1.13418601e-01 1.18988663e-01 0.00000000e+00
1.23768337e-01 1.00314394e-01 -4.17559072e-02
1.33334160e-01 1.43212065e-01 0.00000000e+00
1.51179239e-01 1.24083683e-01 -4.21022326e-02
3.10049504e-02 1.08020112e-01 0.00000000e+00
0.00000000e+00 1.05920255e-01 0.00000000e+00
2.75327414e-02 1.08651325e-01 -3.76678780e-02
0.00000000e+00 1.07491642e-01 -3.80719304e-02
6.07045293e-02 1.10135421e-01 0.00000000e+00
5.45979924e-02 1.11038201e-01 -2.77827680e-02
7.69485235e-02 1.16981253e-01 0.00000000e+00
7.33030662e-02 1.14514746e-01 -9.38953459e-03
8.03764835e-02 1.23411752e-01 0.00000000e+00
7.62362704e-02 1.14967927e-01 2.79992819e-03
9.05143544e-02 1.19564973e-01 0.00000000e+00
9.10073668e-02 1.09785415e-01 7.85160065e-03
9.28677768e-02 1.46503597e-01 0.00000000e+00
9.58275795e-02 1.42883182e-01 2.97825038e-03
3.21089700e-02 1.19245492e-01 0.00000000e+00
0.00000000e+00 1.21326387e-01 0.00000000e+00
2.78348848e-02 1.21011898e-01 -3.24564129e-02
0.00000000e+00 1.23639807e-01 -3.43458951e-02
5.93968369e-02 1.17904298e-01 0.00000000e+00
5.32287546e-02 1.16231047e-01 -2.17383653e-02
7.23358989e-02 1.17371157e-01 0.00000000e+00
6.72597438e-02 1.15957938e-01 -4.47976589e-03
7.06624836e-02 1.21780351e-01 0.00000000e+00
7.03215748e-02 1.21727079e-01 2.09212303e-05
7.06796944e-02 1.28325954e-01 0.00000000e+00
7.06849620e-02 1.24782458e-01 0.00000000e+00
7.07937479e-02 1.28389075e-01 -2.08392739e-04
7.07674026e-02 1.24778107e-01 3.18139791e-05
3.03903855e-02 1.30677015e-01 0.00000000e+00
0.00000000e+00 1.35829121e-01 0.00000000e+00
2.79223993e-02 1.34428427e-01 -3.41562778e-02
0.00000000e+00 1.36372611e-01 -3.88196558e-02
5.73236607e-02 1.22124948e-01 0.00000000e+00
4.85778935e-02 1.23905018e-01 -2.41931081e-02
6.68049306e-02 1.18246607e-01 0.00000000e+00
6.31975830e-02 1.19205214e-01 -4.74503636e-03
6.75510913e-02 1.21782117e-01 0.00000000e+00
6.73771948e-02 1.21781148e-01 2.65702605e-04
6.74224794e-02 1.24905288e-01 0.00000000e+00
6.75185695e-02 1.24889597e-01 1.73598528e-05
6.75181746e-02 1.28069699e-01 0.00000000e+00
6.75375611e-02 1.28009975e-01 -9.80496407e-06
3.39478403e-02 1.50221303e-01 0.00000000e+00
0.00000000e+00 1.52776212e-01 0.00000000e+00
3.01274508e-02 1.49857879e-01 -4.07620594e-02
0.00000000e+00 1.56212062e-01 -4.53258604e-02
6.22244664e-02 1.34072185e-01 0.00000000e+00
4.95812781e-02 1.44129902e-01 -3.53231579e-02
6.72290921e-02 1.22052580e-01 0.00000000e+00
6.48268610e-02 1.30203843e-01 -1.22770965e-02
6.52152747e-02 1.22203767e-01 0.00000000e+00
6.47356659e-02 1.22198172e-01 4.38809395e-04
6.44385368e-02 1.24788061e-01 0.00000000e+00
6.45458028e-02 1.24859035e-01 -2.22623348e-05
6.44037947e-02 1.28019303e-01 0.00000000e+00
6.44307062e-02 1.27983600e-01 -2.08616257e-07
0.00000000e+00 0.00000000e+00 -1.09389529e-01
2.52830982e-02 0.00000000e+00 -1.14777103e-01
2.43919790e-02 3.74054313e-02 -1.09294884e-01
0.00000000e+00 3.82062346e-02 -1.07868701e-01
5.64919524e-02 0.00000000e+00 -1.22219376e-01
5.01467101e-02 3.27661186e-02 -1.20058224e-01
8.83535668e-02 0.00000000e+00 -1.33417904e-01
8.85824487e-02 3.19088660e-02 -1.32970676e-01
1.31033495e-01 0.00000000e+00 -1.49154484e-01
1.27481103e-01 3.27707566e-02 -1.38155833e-01
1.74360961e-01 0.00000000e+00 -1.60892189e-01
1.70232505e-01 3.44868302e-02 -1.48160800e-01
2.08841503e-01 0.00000000e+00 -1.67934597e-01
2.17111260e-01 3.76708806e-02 -1.57645419e-01
1.97577551e-02 7.37992376e-02 -9.66146141e-02
0.00000000e+00 7.78478608e-02 -9.17265490e-02
4.67239991e-02 7.27407783e-02 -1.01024695e-01
7.88914859e-02 7.67356232e-02 -1.04015484e-01
1.21120684e-01 8.64902288e-02 -1.19224437e-01
1.66568756e-01 8.81445929e-02 -1.16487458e-01
2.08367646e-01 9.30148736e-02 -1.27841070e-01
1.67380273e-02 1.06381871e-01 -7.71479011e-02
0.00000000e+00 1.07724793e-01 -7.28495792e-02
3.89883742e-02 1.07151628e-01 -6.51820078e-02
3.54450271e-02 9.83865708e-02 5.27510047e-03
1.88629180e-02 1.30912110e-01 -6.08480349e-02
0.00000000e+00 1.28138050e-01 -6.69187754e-02
4.02102098e-02 1.21605851e-01 -4.19430435e-02
5.15217520e-02 1.04154751e-01 -1.71820074e-02
2.20903158e-02 1.40581504e-01 -6.51803017e-02
0.00000000e+00 1.44306257e-01 -6.98295310e-02
3.79492044e-02 1.34764999e-01 -5.03910333e-02
6.67672306e-02 1.24991313e-01 -4.03762534e-02
1.81796476e-02 1.63861752e-01 -8.35135728e-02
0.00000000e+00 1.61684424e-01 -8.46545175e-02
3.80980037e-02 1.68643638e-01 -7.52101988e-02
7.23725408e-02 1.63541824e-01 -7.43800178e-02
6.75551742e-02 1.24918237e-01 2.27391720e-05
6.75560683e-02 1.27990544e-01 1.05649233e-05
6.44765869e-02 1.27998725e-01 -1.04606152e-05
6.44533113e-02 1.24927163e-01 -1.88052654e-05
0.00000000e+00 0.00000000e+00 -1.64419949e-01
3.10070589e-02 0.00000000e+00 -1.66183770e-01
3.20622995e-02 3.34542021e-02 -1.60723686e-01
0.00000000e+00 3.24876569e-02 -1.56579405e-01
6.84030205e-02 0.00000000e+00 -1.76960111e-01
6.05125763e-02 2.72863023e-02 -1.69199899e-01
1.01805843e-01 0.00000000e+00 -1.88642249e-01
1.02437474e-01 2.30345801e-02 -1.85898900e-01
1.42122239e-01 0.00000000e+00 -1.99519128e-01
1.43905565e-01 2.44168155e-02 -2.03504324e-01
1.82882398e-01 0.00000000e+00 -2.13557482e-01
1.84197009e-01 2.65979022e-02 -2.11092383e-01
2.19476998e-01 0.00000000e+00 -2.19331622e-01
2.20727071e-01 2.55411454e-02 -2.16406241e-01
2.15327218e-02 6.24584928e-02 -1.44051746e-01
0.00000000e+00 7.18614906e-02 -1.41561463e-01
5.80030307e-02 6.22655302e-02 -1.63037151e-01
9.51051861e-02 6.76022768e-02 -1.95058793e-01
1.42725021e-01 7.55202323e-02 -2.01887280e-01
1.84752569e-01 6.91212341e-02 -2.02279419e-01
2.20638379e-01 6.90364838e-02 -2.06101716e-01
1.69704109e-02 1.08099759e-01 -1.12101942e-01
0.00000000e+00 1.05762668e-01 -1.16415851e-01
5.17077073e-02 9.48696584e-02 -1.37320131e-01
1.64188743e-02 1.32253304e-01 -9.28521827e-02
0.00000000e+00 1.37396440e-01 -9.53548402e-02
4.24110331e-02 1.32659420e-01 -6.90579191e-02
1.79344863e-02 1.61666200e-01 -9.86518189e-02
0.00000000e+00 1.57177031e-01 -1.00395828e-01
4.15633358e-02 1.61197305e-01 -9.54563543e-02
5.06394580e-02 1.55208603e-01 1.14585459e-02
6.89203292e-02 1.54396474e-01 -1.08038343e-01
1.93694979e-02 1.84184536e-01 -1.18348703e-01
0.00000000e+00 1.85590521e-01 -1.26921758e-01
</DataArray>
<DataArray type="Float32" Name="Spatial_acceleration" NumberOfComponents="3" format="ascii">
0.00000000e+00 0.00000000e+00 0.00000000e+00
6.19093541e-08 0.00000000e+00 0.00000000e+00
3.81072347e-08 -1.24136605e-07 0.00000000e+00
0.00000000e+00 -7.33137142e-08 0.00000000e+00
0.00000000e+00 0.00000000e+00 1.27156568e-07
1.00930535e-08 0.00000000e+00 9.60032125e-08
2.38617250e-08 -6.37123989e-08 9.72747785e-08
0.00000000e+00 -8.82546090e-08 9.21885146e-08
2.45173766e-08 0.00000000e+00 0.00000000e+00
3.41137252e-08 -1.72177948e-07 0.00000000e+00
-1.94708494e-09 0.00000000e+00 1.55131019e-07
1.43448506e-08 -9.77019425e-08 1.89463293e-07
9.17911525e-09 0.00000000e+00 0.00000000e+00
-7.22408302e-08 -1.68085094e-07 0.00000000e+00
-2.75969505e-08 0.00000000e+00 2.12987260e-07
-3.65575161e-08 -1.10507010e-07 2.53995267e-07
-1.45971768e-07 0.00000000e+00 0.00000000e+00
-1.04983648e-07 -1.95751582e-07 0.00000000e+00
-1.49706992e-07 0.00000000e+00 2.83559160e-07
-1.05937318e-07 -1.49329509e-07 1.93277998e-07
-2.35175094e-07 0.00000000e+00 0.00000000e+00
-1.60932544e-07 -2.52326316e-07 0.00000000e+00
-2.39213307e-07 0.00000000e+00 3.54131060e-07
-1.74403183e-07 -2.10444128e-07 2.38736476e-07
-3.17936127e-07 0.00000000e+00 0.00000000e+00
-2.29994455e-07 -3.96728524e-07 0.00000000e+00
-3.19719305e-07 0.00000000e+00 3.50952149e-07
-2.94367482e-07 -2.41597490e-07 3.24885036e-07
1.96297965e-08 -1.37686726e-07 0.00000000e+00
0.00000000e+00 -1.59561637e-07 0.00000000e+00
2.26944685e-08 -1.50173904e-07 8.04265312e-08
0.00000000e+00 -1.14599864e-07 3.81469718e-08
-1.39872229e-08 -1.88430150e-07 0.00000000e+00
-3.21815392e-08 -1.37408577e-07 4.64121506e-08
3.66369868e-08 -2.54710500e-07 0.00000000e+00
2.35012587e-09 -1.87374297e-07 2.97909679e-08
-3.17891435e-10 -1.63237246e-07 0.00000000e+00
-2.91135578e-08 -2.09755370e-07 7.45985247e-08
-5.07036830e-08 -3.39349100e-07 0.00000000e+00
-1.32567351e-07 -3.21123338e-07 1.04268395e-07
-1.02996822e-07 -3.61283611e-07 0.00000000e+00
-1.30335494e-07 -3.97152377e-07 7.62939489e-09
-4.45047998e-09 -1.12523637e-07 0.00000000e+00
0.00000000e+00 -8.34465013e-08 0.00000000e+00
-3.48885862e-08 -1.46687029e-07 2.44776412e-08
0.00000000e+00 -9.51886179e-08 4.45048016e-08
1.38282772e-08 -9.71158300e-08 0.00000000e+00
4.47432207e-08 -1.78694719e-07 -6.43730189e-08
2.98817966e-08 -2.05278397e-07 0.00000000e+00
-2.90191835e-08 -2.13040252e-07 4.99089552e-08
1.13593210e-07 -3.51481958e-07 0.00000000e+00
-2.88221571e-08 -1.13593210e-07 -3.60276964e-09
9.32481559e-09 -2.36590708e-07 0.00000000e+00
6.25186525e-09 -3.45653973e-07 1.82257764e-08
-3.65575161e-08 -4.45365913e-07 0.00000000e+00
7.08897900e-08 -3.79065682e-07 -1.07765196e-07
-5.72204595e-09 -1.57038372e-07 0.00000000e+00
0.00000000e+00 -1.59978867e-07 0.00000000e+00
-1.98483470e-08 -1.44203497e-07 4.24385078e-08
0.00000000e+00 -1.72868369e-07 6.07172623e-08
6.01609571e-08 -9.58243973e-08 0.00000000e+00
3.28222924e-08 -1.52031575e-07 -1.76429751e-08
4.98294810e-08 -1.49170560e-07 0.00000000e+00
7.96582995e-08 -1.55713821e-07 -4.85314260e-08
-6.38961808e-08 -3.44912223e-07 0.00000000e+00
6.95122608e-08 -9.49965582e-08 -4.59882941e-08
2.26497647e-07 -5.48044852e-07 0.00000000e+00
2.10232201e-07 -2.44193615e-07 0.00000000e+00
5.23726129e-08 -5.14666226e-07 2.04245254e-07
-7.09957559e-09 -2.24623420e-07 9.74867120e-09
-1.10665956e-08 -1.73807138e-07 0.00000000e+00
0.00000000e+00 -7.97907518e-08 0.00000000e+00
4.09434229e-08 -1.37527778e-07 4.10079934e-08
0.00000000e+00 -6.89029704e-08 3.75111888e-08
5.68230938e-08 -1.33136908e-07 0.00000000e+00
8.20954611e-08 -1.53462096e-07 -1.89145410e-08
2.40802756e-08 -2.52723680e-07 0.00000000e+00
1.53965416e-07 -1.65939326e-07 -7.41746717e-08
8.18570456e-08 -1.31607052e-07 0.00000000e+00
9.31421908e-08 -2.20457707e-07 -5.57899469e-08
1.82549158e-07 -1.20341781e-07 0.00000000e+00
4.97976949e-08 -5.12238330e-07 -7.38933679e-08
1.90099072e-07 -2.78790793e-07 0.00000000e+00
-8.95924046e-08 -3.21812109e-07 1.22027259e-07
3.09944141e-08 -7.42276498e-08 0.00000000e+00
0.00000000e+00 -5.03112858e-08 0.00000000e+00
4.70479335e-08 -9.65595248e-08 -1.27156579e-08
0.00000000e+00 -1.50571267e-07 5.91278067e-08
6.45319602e-08 -1.06970468e-07 0.00000000e+00
1.37130414e-07 -1.71502435e-07 3.75111888e-08
1.10308328e-07 -9.25064043e-08 0.00000000e+00
-2.54313148e-09 -1.46018138e-07 -7.20553928e-08
8.64664713e-08 -1.26043957e-07 0.00000000e+00
2.26338699e-07 -3.76065572e-07 6.38961808e-08
1.93834296e-07 -1.87873837e-07 0.00000000e+00
4.08490486e-08 -4.12782043e-07 8.88961864e-08
6.78300864e-08 -2.72800520e-07 0.00000000e+00
1.20123232e-07 -1.45177040e-07 -4.28743654e-08
0.00000000e+00 0.00000000e+00 2.13623039e-07
-7.01347957e-09 0.00000000e+00 2.84194954e-07
6.91413859e-09 -4.72565489e-08 2.59876259e-07
0.00000000e+00 -5.06242124e-08 2.54313136e-07
-3.29017631e-08 0.00000000e+00 3.46819547e-07
-3.21070353e-08 -9.21885146e-09 2.81333911e-07
-4.36305996e-08 0.00000000e+00 4.49498486e-07
-7.39097601e-08 -1.08083089e-08 3.80516042e-07
-1.51534877e-07 0.00000000e+00 5.72840349e-07
-1.49408976e-07 -2.41945184e-08 4.15166227e-07
-2.55147626e-07 0.00000000e+00 5.98589565e-07
-2.64883028e-07 -8.12212591e-08 5.24202960e-07
-3.70264047e-07 0.00000000e+00 6.94910682e-07
-3.61045210e-07 -8.65856791e-08 5.78562435e-07
4.90347531e-08 -8.87711806e-08 1.44958491e-07
0.00000000e+00 -1.37011213e-07 1.40825904e-07
1.11716130e-08 -1.00453697e-07 1.76929291e-07
-3.92278032e-08 -1.06302899e-07 1.64794926e-07
-1.32044150e-07 -2.21704440e-07 2.61942546e-07
-2.82883633e-07 -2.65638022e-07 2.97546393e-07
-4.22318777e-07 -2.62086587e-07 4.03086347e-07
5.45183809e-08 -1.69754031e-07 4.25974527e-08
0.00000000e+00 -1.65700911e-07 -9.53674251e-10
1.51528248e-08 -1.18573510e-07 3.47561304e-08
-1.39872229e-08 -2.80221286e-07 1.89940135e-08
-1.50998436e-09 -1.21951103e-07 -3.25838712e-09
0.00000000e+00 -1.66515505e-07 -3.81469700e-09
8.28845117e-08 -2.20344177e-07 -1.02270214e-07
8.26517734e-08 -1.50256682e-07 -8.34994864e-08
2.91665394e-08 -1.16586683e-07 4.76837125e-10
0.00000000e+00 -1.11731389e-07 -2.25702923e-08
7.23600380e-08 -1.22070304e-07 -3.89416996e-08
-5.32468158e-09 -1.45557024e-07 3.56038399e-08
6.09556849e-08 -1.81992846e-07 4.99089552e-08
0.00000000e+00 -1.45157173e-07 -3.87827548e-08
8.23140169e-08 -1.33911769e-07 -4.35511254e-08
7.54992158e-08 -2.99056381e-07 -3.56038399e-08
2.26173555e-07 -2.12763439e-07 4.22835342e-07
2.88844092e-07 -3.58521930e-07 -5.08834887e-07
-1.33633606e-07 -2.89825095e-07 6.33304296e-07
-4.76837125e-10 -1.95086002e-07 -7.27921702e-07
0.00000000e+00 0.00000000e+00 3.51587914e-07
-4.28557385e-08 0.00000000e+00 3.48409003e-07
-4.61737315e-08 -6.15616642e-08 3.22341918e-07
0.00000000e+00 -8.42859365e-08 3.01996863e-07
-1.22666364e-07 0.00000000e+00 4.04357905e-07
-8.66651533e-08 2.91069346e-09 3.95456937e-07
-1.39097367e-07 0.00000000e+00 5.22613504e-07
-1.50601068e-07 1.69674550e-08 4.83830775e-07
-2.02973681e-07 0.00000000e+00 6.00179021e-07
-2.39570937e-07 -2.14179359e-08 6.26246106e-07
-3.26080851e-07 0.00000000e+00 7.17163061e-07
-2.92499863e-07 -1.12180905e-08 6.93480160e-07
-3.48567966e-07 0.00000000e+00 7.78198228e-07
-3.47216911e-07 5.64754004e-08 7.14302075e-07
1.17619834e-08 -6.96182241e-08 2.46683754e-07
0.00000000e+00 -1.17997324e-07 2.05675761e-07
-4.24157989e-08 -2.09808348e-08 3.30243779e-07
-1.64604188e-07 -9.66389990e-08 5.60506180e-07
-2.38418579e-07 -1.20560330e-07 5.86827582e-07
-3.83734687e-07 -7.44660653e-08 5.62667822e-07
-5.47240177e-07 -2.87691755e-08 6.06536844e-07
4.50724649e-08 -1.80380681e-07 8.62848211e-08
0.00000000e+00 -1.32719677e-07 1.20798745e-07
-1.87555944e-08 -1.19606653e-07 2.54948930e-07
8.13347967e-08 -1.74658638e-07 1.45321799e-08
0.00000000e+00 -1.95115803e-07 -2.57492054e-08
2.38418583e-08 -1.16765499e-07 -2.67028799e-08
5.91079399e-08 -1.59005324e-07 -1.79211295e-08
0.00000000e+00 -1.24553836e-07 3.52859502e-08
3.70570596e-08 -2.13986354e-07 -2.17982699e-09
3.14513855e-08 2.49544776e-08 7.66118333e-08
-1.60853077e-07 -1.37752963e-07 5.08626297e-09
-1.42256420e-08 -1.77383427e-07 4.59353124e-08
0.00000000e+00 -1.83979665e-07 9.91821310e-08
</DataArray>
<DataArray type="Float32" Name="Spatial_velocity" NumberOfComponents="3" format="ascii">
0.00000000e+00 0.00000000e+00 0.00000000e+00
9.50832400e-05 0.00000000e+00 0.00000000e+00
1.00056175e-04 1.51947504e-04 0.00000000e+00
0.00000000e+00 1.47839513e-04 0.00000000e+00
0.00000000e+00 0.00000000e+00 -1.83860378e-04
9.18274382e-05 0.00000000e+00 -1.90250896e-04
9.40043901e-05 1.43394238e-04 -1.81844400e-04
0.00000000e+00 1.41360390e-04 -1.82278542e-04
1.95748507e-04 0.00000000e+00 0.00000000e+00
1.97146321e-04 1.59082789e-04 0.00000000e+00
1.89114697e-04 0.00000000e+00 -1.95325236e-04
1.93384956e-04 1.47622326e-04 -1.89137019e-04
2.95191421e-04 0.00000000e+00 0.00000000e+00
3.05492285e-04 1.69820458e-04 0.00000000e+00
3.03972454e-04 0.00000000e+00 -1.97863759e-04
2.92604673e-04 1.49331492e-04 -2.04780357e-04
4.24991740e-04 0.00000000e+00 0.00000000e+00
4.00412886e-04 1.76226313e-04 0.00000000e+00
4.29781910e-04 0.00000000e+00 -2.09864957e-04
4.01477853e-04 1.48145758e-04 -2.07740683e-04
5.37965621e-04 0.00000000e+00 0.00000000e+00
5.17226814e-04 1.87615733e-04 0.00000000e+00
5.51862409e-04 0.00000000e+00 -2.13887979e-04
5.34173043e-04 1.52506967e-04 -2.13689054e-04
6.63502258e-04 0.00000000e+00 0.00000000e+00
5.95746387e-04 2.25355514e-04 0.00000000e+00
6.65172876e-04 0.00000000e+00 -2.08213998e-04
6.47333392e-04 1.95891596e-04 -2.28243371e-04
1.06381791e-04 2.77092098e-04 0.00000000e+00
0.00000000e+00 2.74398975e-04 0.00000000e+00
9.92506903e-05 2.67826137e-04 -1.65400357e-04
0.00000000e+00 2.61033536e-04 -1.63478588e-04
2.12229206e-04 2.97578867e-04 0.00000000e+00
1.94585344e-04 2.78234947e-04 -1.69665582e-04
2.98556610e-04 3.12689168e-04 0.00000000e+00
2.84226844e-04 2.90212076e-04 -1.55981368e-04
3.67888482e-04 3.54162010e-04 0.00000000e+00
3.73545452e-04 2.82762892e-04 -1.61909556e-04
4.14162554e-04 3.48076166e-04 0.00000000e+00
4.44407342e-04 2.88291456e-04 -1.50409483e-04
4.77470225e-04 4.14491748e-04 0.00000000e+00
5.25273732e-04 3.49721784e-04 -1.46524791e-04
1.11770540e-04 3.57431243e-04 0.00000000e+00
0.00000000e+00 3.51955066e-04 0.00000000e+00
1.02467289e-04 3.61019484e-04 -1.40611970e-04
0.00000000e+00 3.57302080e-04 -1.32962130e-04
2.32060716e-04 3.59630794e-04 0.00000000e+00
2.10055732e-04 3.63898638e-04 -1.15374198e-04
2.94758967e-04 3.73202114e-04 0.00000000e+00
2.83573580e-04 3.71790637e-04 -3.29087088e-05
3.10959149e-04 3.78423312e-04 0.00000000e+00
2.89033458e-04 3.64874461e-04 1.51893937e-05
3.39381280e-04 3.58388177e-04 0.00000000e+00
3.44661879e-04 3.19983868e-04 3.37906095e-05
3.43796011e-04 4.37635608e-04 0.00000000e+00
3.60093196e-04 4.31080116e-04 8.03615512e-06
1.18684897e-04 4.04695893e-04 0.00000000e+00
0.00000000e+00 4.14539245e-04 0.00000000e+00
1.04603074e-04 4.08327236e-04 -1.22795987e-04
0.00000000e+00 4.21834236e-04 -1.24409242e-04
2.31288286e-04 3.93000169e-04 0.00000000e+00
2.07203251e-04 3.84918501e-04 -9.04778281e-05
2.92080134e-04 3.73640563e-04 0.00000000e+00
2.73410202e-04 3.71996866e-04 -1.65890106e-05
2.85128946e-04 3.80024343e-04 0.00000000e+00
2.84130947e-04 3.80343699e-04 1.48987041e-07
2.83433823e-04 3.74442199e-04 0.00000000e+00
2.83977570e-04 3.78272671e-04 0.00000000e+00
2.83389934e-04 3.73953546e-04 -6.33996478e-07
2.84108100e-04 3.77642573e-04 -3.67638506e-07
1.14612958e-04 4.46571794e-04 0.00000000e+00
0.00000000e+00 4.68611281e-04 0.00000000e+00
1.10327106e-04 4.64048528e-04 -1.27471809e-04
0.00000000e+00 4.72042622e-04 -1.38352800e-04
2.30844613e-04 4.09211789e-04 0.00000000e+00
1.97620815e-04 4.15538379e-04 -1.06034531e-04
2.79250380e-04 3.74649506e-04 0.00000000e+00
2.62972608e-04 3.85958207e-04 -2.94252859e-05
2.86938186e-04 3.80839192e-04 0.00000000e+00
2.86835042e-04 3.81115417e-04 2.39167491e-07
2.86913652e-04 3.77934135e-04 0.00000000e+00
2.87044502e-04 3.77894263e-04 2.20427594e-07
2.87222821e-04 3.74512223e-04 0.00000000e+00
2.87349132e-04 3.74408381e-04 9.51272554e-08
1.30457309e-04 5.22290356e-04 0.00000000e+00
0.00000000e+00 5.29227953e-04 0.00000000e+00
1.20024393e-04 5.24915755e-04 -1.56260765e-04
0.00000000e+00 5.46005380e-04 -1.65025354e-04
2.51437392e-04 4.57373739e-04 0.00000000e+00
2.06256329e-04 5.01870352e-04 -1.53725035e-04
2.96369893e-04 4.02517384e-04 0.00000000e+00
2.79222440e-04 4.42296499e-04 -7.60246476e-05
2.92706216e-04 3.82995058e-04 0.00000000e+00
2.90872762e-04 3.82673403e-04 1.34712025e-06
2.90159893e-04 3.77494580e-04 0.00000000e+00
2.90649885e-04 3.77823075e-04 -1.61728622e-07
2.90254742e-04 3.74558120e-04 0.00000000e+00
2.90383963e-04 3.74564959e-04 -1.49354804e-07
0.00000000e+00 0.00000000e+00 -3.54021875e-04
8.86214111e-05 0.00000000e+00 -3.64899635e-04
8.90905139e-05 1.22233250e-04 -3.53531854e-04
0.00000000e+00 1.22741883e-04 -3.54052434e-04
1.96586683e-04 0.00000000e+00 -3.78530152e-04
1.78587128e-04 1.11950569e-04 -3.65992630e-04
3.03741050e-04 0.00000000e+00 -3.90147208e-04
3.03082517e-04 1.12937574e-04 -3.90676694e-04
4.38818795e-04 0.00000000e+00 -4.09955624e-04
4.28981002e-04 1.12456342e-04 -4.00949968e-04
5.81301283e-04 0.00000000e+00 -4.22806537e-04
5.64993999e-04 1.15617579e-04 -4.11168439e-04
6.94464485e-04 0.00000000e+00 -4.22577723e-04
7.15033268e-04 1.36252798e-04 -4.22887853e-04
8.10774582e-05 2.39093788e-04 -3.26443056e-04
0.00000000e+00 2.52623140e-04 -3.22551641e-04
1.76678979e-04 2.38761568e-04 -3.39120947e-04
2.75777536e-04 2.43515198e-04 -3.48043890e-04
4.08920750e-04 2.71524303e-04 -3.69701447e-04
5.43490867e-04 2.75855185e-04 -3.53626965e-04
6.51378010e-04 3.03768204e-04 -3.64046282e-04
7.23671328e-05 3.49367794e-04 -2.78101274e-04
0.00000000e+00 3.56467790e-04 -2.72416713e-04
1.51540531e-04 3.52852949e-04 -2.62240821e-04
1.38329517e-04 2.88935058e-04 2.05028427e-05
7.49458850e-05 4.47902828e-04 -2.32509032e-04
0.00000000e+00 4.34512127e-04 -2.47957563e-04
1.68555809e-04 4.03251091e-04 -1.74515473e-04
2.22234958e-04 3.32711032e-04 -8.43795206e-05
9.84047801e-05 4.87681566e-04 -2.51586520e-04
0.00000000e+00 5.04436437e-04 -2.64022063e-04
1.59469069e-04 4.62301396e-04 -2.16350381e-04
2.67701835e-04 4.26025246e-04 -1.66564641e-04
9.01724488e-05 5.79906104e-04 -3.15542275e-04
0.00000000e+00 5.81975444e-04 -3.32767871e-04
1.65326084e-04 5.91050659e-04 -3.05210880e-04
2.90278025e-04 5.60306362e-04 -2.98359286e-04
2.87222414e-04 3.78267170e-04 2.25216041e-07
2.87218660e-04 3.74966010e-04 4.01500671e-07
2.90671422e-04 3.74884810e-04 -4.82038672e-07
2.90698896e-04 3.78289988e-04 -6.83425085e-08
0.00000000e+00 0.00000000e+00 -5.22357994e-04
9.88822940e-05 0.00000000e+00 -5.24785137e-04
1.06986416e-04 1.10223322e-04 -5.19606343e-04
0.00000000e+00 1.04833649e-04 -5.12793718e-04
2.20122223e-04 0.00000000e+00 -5.44284063e-04
1.98329493e-04 9.85053412e-05 -5.36131789e-04
3.28069698e-04 0.00000000e+00 -5.67564042e-04
3.30502749e-04 9.35214994e-05 -5.66093193e-04
4.57406015e-04 0.00000000e+00 -5.88679861e-04
4.64935263e-04 9.70179026e-05 -5.94017387e-04
6.01666863e-04 0.00000000e+00 -6.09333511e-04
5.99706487e-04 1.01394675e-04 -6.07525813e-04
7.41373515e-04 0.00000000e+00 -6.13708806e-04
7.32056273e-04 1.08264234e-04 -6.14361779e-04
7.85306111e-05 2.11240826e-04 -4.89987957e-04
0.00000000e+00 2.37699423e-04 -4.84721299e-04
2.04553260e-04 2.19458729e-04 -5.12026541e-04
3.14413308e-04 2.28327612e-04 -5.76546590e-04
4.48870996e-04 2.49632954e-04 -6.01216569e-04
5.76058868e-04 2.43431015e-04 -5.88672992e-04
6.87588821e-04 2.75181344e-04 -5.98412997e-04
7.63200005e-05 3.60258768e-04 -4.21376259e-04
0.00000000e+00 3.53264884e-04 -4.18487820e-04
1.84177363e-04 3.13614350e-04 -4.60347888e-04
7.96407039e-05 4.49664716e-04 -3.56138044e-04
0.00000000e+00 4.64968616e-04 -3.74143681e-04
1.81597425e-04 4.52829059e-04 -2.99614127e-04
8.06217868e-05 5.68480871e-04 -3.89123132e-04
0.00000000e+00 5.58871427e-04 -4.03695129e-04
1.70833315e-04 5.54070633e-04 -3.62841645e-04
2.14949701e-04 5.77068771e-04 4.00416684e-05
2.44268245e-04 5.43815666e-04 -4.15323622e-04
9.04313929e-05 6.61289087e-04 -4.74252214e-04
0.00000000e+00 6.71928050e-04 -4.92427149e-04
</DataArray>
<DataArray type="Float32" Name="Reaction_force" NumberOfComponents="3" format="ascii">
6.06472373e-01 -3.78889263e-01 8.30739117e+00
0.00000000e+00 -8.78945827e-01 1.68480377e+01
0.00000000e+00 0.00000000e+00 3.25371132e+01
7.84854770e-01 0.00000000e+00 1.62806892e+01
1.14939392e+00 -7.75751233e-01 0.00000000e+00
0.00000000e+00 -1.39716697e+00 0.00000000e+00
0.00000000e+00 0.00000000e+00 0.00000000e+00
1.39792764e+00 0.00000000e+00 0.00000000e+00
0.00000000e+00 -1.00590694e+00 1.71360741e+01
0.00000000e+00 0.00000000e+00 3.36645432e+01
0.00000000e+00 -9.23930824e-01 0.00000000e+00
0.00000000e+00 0.00000000e+00 0.00000000e+00
0.00000000e+00 -7.39102125e-01 1.81778831e+01
0.00000000e+00 0.00000000e+00 3.32833862e+01
0.00000000e+00 -3.98206234e-01 0.00000000e+00
0.00000000e+00 0.00000000e+00 0.00000000e+00
0.00000000e+00 -9.38946605e-01 1.80413876e+01
0.00000000e+00 0.00000000e+00 3.30972366e+01
0.00000000e+00 -6.53617859e-01 0.00000000e+00
0.00000000e+00 0.00000000e+00 0.00000000e+00
0.00000000e+00 -1.54638219e+00 1.62777500e+01
0.00000000e+00 0.00000000e+00 3.03009281e+01
0.00000000e+00 -2.14053154e+00 0.00000000e+00
0.00000000e+00 0.00000000e+00 0.00000000e+00
0.00000000e+00 -2.36667061e+00 9.73577404e+00
0.00000000e+00 0.00000000e+00 1.80568848e+01
0.00000000e+00 -3.15572071e+00 0.00000000e+00
0.00000000e+00 0.00000000e+00 0.00000000e+00
0.00000000e+00 0.00000000e+00 3.02760620e+01
-3.07314873e-01 0.00000000e+00 1.51300602e+01
0.00000000e+00 0.00000000e+00 0.00000000e+00
1.04592696e-01 0.00000000e+00 0.00000000e+00
0.00000000e+00 0.00000000e+00 2.75236282e+01
0.00000000e+00 0.00000000e+00 0.00000000e+00
0.00000000e+00 0.00000000e+00 2.24094849e+01
0.00000000e+00 0.00000000e+00 0.00000000e+00
0.00000000e+00 0.00000000e+00 1.79872780e+01
0.00000000e+00 0.00000000e+00 0.00000000e+00
0.00000000e+00 0.00000000e+00 1.82206898e+01
0.00000000e+00 0.00000000e+00 0.00000000e+00
0.00000000e+00 0.00000000e+00 1.43900261e+01
0.00000000e+00 0.00000000e+00 0.00000000e+00
0.00000000e+00 0.00000000e+00 2.73050423e+01
-1.20561218e+00 0.00000000e+00 1.43132553e+01
0.00000000e+00 0.00000000e+00 0.00000000e+00
-1.49761009e+00 0.00000000e+00 0.00000000e+00
0.00000000e+00 0.00000000e+00 2.08469429e+01
0.00000000e+00 0.00000000e+00 0.00000000e+00
0.00000000e+00 0.00000000e+00 1.24332485e+01
0.00000000e+00 0.00000000e+00 0.00000000e+00
0.00000000e+00 0.00000000e+00 4.81801796e+00
0.00000000e+00 0.00000000e+00 0.00000000e+00
0.00000000e+00 0.00000000e+00 4.14206791e+00
0.00000000e+00 0.00000000e+00 0.00000000e+00
0.00000000e+00 0.00000000e+00 3.65056109e+00
0.00000000e+00 0.00000000e+00 0.00000000e+00
0.00000000e+00 0.00000000e+00 2.61082954e+01
-1.89451361e+00 0.00000000e+00 1.42195139e+01
0.00000000e+00 0.00000000e+00 0.00000000e+00
-3.40640163e+00 0.00000000e+00 0.00000000e+00
0.00000000e+00 0.00000000e+00 1.98731766e+01
0.00000000e+00 0.00000000e+00 0.00000000e+00
0.00000000e+00 0.00000000e+00 1.09954796e+01
0.00000000e+00 0.00000000e+00 0.00000000e+00
0.00000000e+00 0.00000000e+00 -1.54613733e-01
0.00000000e+00 0.00000000e+00 0.00000000e+00
0.00000000e+00 0.00000000e+00 -2.30444050e+00
0.00000000e+00 0.00000000e+00 -3.56678391e+00
0.00000000e+00 0.00000000e+00 0.00000000e+00
0.00000000e+00 0.00000000e+00 0.00000000e+00
0.00000000e+00 0.00000000e+00 2.72849236e+01
-2.42476988e+00 0.00000000e+00 1.39040928e+01
0.00000000e+00 0.00000000e+00 0.00000000e+00
-3.63423562e+00 0.00000000e+00 0.00000000e+00
0.00000000e+00 0.00000000e+00 2.29855232e+01
0.00000000e+00 0.00000000e+00 0.00000000e+00
0.00000000e+00 0.00000000e+00 1.72284298e+01
0.00000000e+00 0.00000000e+00 0.00000000e+00
0.00000000e+00 0.00000000e+00 6.28394794e+00
0.00000000e+00 0.00000000e+00 0.00000000e+00
0.00000000e+00 0.00000000e+00 -4.17423105e+00
0.00000000e+00 0.00000000e+00 0.00000000e+00
0.00000000e+00 0.00000000e+00 1.73342824e+00
0.00000000e+00 0.00000000e+00 0.00000000e+00
0.00000000e+00 0.00000000e+00 1.62385731e+01
-1.74211776e+00 0.00000000e+00 7.86023664e+00
0.00000000e+00 0.00000000e+00 0.00000000e+00
-2.96001339e+00 0.00000000e+00 0.00000000e+00
0.00000000e+00 0.00000000e+00 1.66719589e+01
0.00000000e+00 0.00000000e+00 0.00000000e+00
0.00000000e+00 0.00000000e+00 1.31560993e+01
0.00000000e+00 0.00000000e+00 0.00000000e+00
0.00000000e+00 0.00000000e+00 6.36945057e+00
0.00000000e+00 0.00000000e+00 0.00000000e+00
0.00000000e+00 0.00000000e+00 -2.93629384e+00
0.00000000e+00 0.00000000e+00 0.00000000e+00
0.00000000e+00 0.00000000e+00 4.11067456e-01
0.00000000e+00 0.00000000e+00 0.00000000e+00
4.35085863e-01 -8.56797278e-01 0.00000000e+00
0.00000000e+00 -5.20814717e-01 0.00000000e+00
0.00000000e+00 0.00000000e+00 0.00000000e+00
1.65837026e+00 0.00000000e+00 0.00000000e+00
0.00000000e+00 4.27132666e-01 0.00000000e+00
0.00000000e+00 0.00000000e+00 0.00000000e+00
0.00000000e+00 1.33852911e+00 0.00000000e+00
0.00000000e+00 0.00000000e+00 0.00000000e+00
0.00000000e+00 2.03938746e+00 0.00000000e+00
0.00000000e+00 0.00000000e+00 0.00000000e+00
0.00000000e+00 3.80657017e-02 0.00000000e+00
0.00000000e+00 0.00000000e+00 0.00000000e+00
0.00000000e+00 -7.96178162e-01 0.00000000e+00
0.00000000e+00 0.00000000e+00 0.00000000e+00
0.00000000e+00 0.00000000e+00 0.00000000e+00
7.88136423e-01 0.00000000e+00 0.00000000e+00
0.00000000e+00 0.00000000e+00 0.00000000e+00
0.00000000e+00 0.00000000e+00 0.00000000e+00
0.00000000e+00 0.00000000e+00 0.00000000e+00
0.00000000e+00 0.00000000e+00 0.00000000e+00
0.00000000e+00 0.00000000e+00 0.00000000e+00
0.00000000e+00 0.00000000e+00 0.00000000e+00
-7.46781707e-01 0.00000000e+00 0.00000000e+00
0.00000000e+00 0.00000000e+00 0.00000000e+00
0.00000000e+00 0.00000000e+00 0.00000000e+00
0.00000000e+00 0.00000000e+00 0.00000000e+00
-1.44876599e+00 0.00000000e+00 0.00000000e+00
0.00000000e+00 0.00000000e+00 0.00000000e+00
0.00000000e+00 0.00000000e+00 0.00000000e+00
0.00000000e+00 0.00000000e+00 0.00000000e+00
-1.54874945e+00 0.00000000e+00 0.00000000e+00
0.00000000e+00 0.00000000e+00 0.00000000e+00
0.00000000e+00 0.00000000e+00 0.00000000e+00
0.00000000e+00 0.00000000e+00 0.00000000e+00
-1.53289890e+00 0.00000000e+00 0.00000000e+00
0.00000000e+00 0.00000000e+00 0.00000000e+00
0.00000000e+00 0.00000000e+00 0.00000000e+00
0.00000000e+00 0.00000000e+00 0.00000000e+00
0.00000000e+00 0.00000000e+00 0.00000000e+00
0.00000000e+00 0.00000000e+00 0.00000000e+00
0.00000000e+00 0.00000000e+00 0.00000000e+00
-1.02250502e-01 -3.38333577e-01 0.00000000e+00
0.00000000e+00 6.11879587e-01 0.00000000e+00
0.00000000e+00 0.00000000e+00 0.00000000e+00
1.48272109e+00 0.00000000e+00 0.00000000e+00
0.00000000e+00 1.41856456e+00 0.00000000e+00
0.00000000e+00 0.00000000e+00 0.00000000e+00
0.00000000e+00 2.18425584e+00 0.00000000e+00
0.00000000e+00 0.00000000e+00 0.00000000e+00
0.00000000e+00 3.30898046e+00 0.00000000e+00
0.00000000e+00 0.00000000e+00 0.00000000e+00
0.00000000e+00 2.05411410e+00 0.00000000e+00
0.00000000e+00 0.00000000e+00 0.00000000e+00
0.00000000e+00 6.94686770e-01 0.00000000e+00
0.00000000e+00 0.00000000e+00 0.00000000e+00
0.00000000e+00 0.00000000e+00 0.00000000e+00
1.47660923e+00 0.00000000e+00 0.00000000e+00
0.00000000e+00 0.00000000e+00 0.00000000e+00
0.00000000e+00 0.00000000e+00 0.00000000e+00
0.00000000e+00 0.00000000e+00 0.00000000e+00
0.00000000e+00 0.00000000e+00 0.00000000e+00
0.00000000e+00 0.00000000e+00 0.00000000e+00
0.00000000e+00 0.00000000e+00 0.00000000e+00
1.26970977e-01 0.00000000e+00 0.00000000e+00
0.00000000e+00 0.00000000e+00 0.00000000e+00
0.00000000e+00 0.00000000e+00 0.00000000e+00
5.26427448e-01 0.00000000e+00 0.00000000e+00
0.00000000e+00 0.00000000e+00 0.00000000e+00
0.00000000e+00 0.00000000e+00 0.00000000e+00
5.67433357e-01 0.00000000e+00 0.00000000e+00
0.00000000e+00 0.00000000e+00 0.00000000e+00
0.00000000e+00 0.00000000e+00 0.00000000e+00
0.00000000e+00 0.00000000e+00 0.00000000e+00
0.00000000e+00 0.00000000e+00 0.00000000e+00
-4.36772078e-01 0.00000000e+00 0.00000000e+00
</DataArray>
<DataArray type="Float32" Name="Equivalent_plastic_strain" format="ascii">
5.96009605e-02
6.24476410e-02
5.83462846e-02
5.63666802e-02
5.70406541e-02
5.92974331e-02
5.63991601e-02
5.50493468e-02
6.85998052e-02
6.38107304e-02
6.38558408e-02
6.13378985e-02
7.63574950e-02
7.23740011e-02
6.99370969e-02
6.76294426e-02
8.42046067e-02
7.86338206e-02
7.65143223e-02
7.20199002e-02
9.25208107e-02
8.58258829e-02
8.16339143e-02
7.77835101e-02
1.02703169e-01
9.76958051e-02
8.90458301e-02
8.47253986e-02
4.87386696e-02
4.80845310e-02
4.88446685e-02
4.69899010e-02
4.77557415e-02
5.07370229e-02
3.64792366e-02
5.06988354e-02
3.93894389e-02
5.11474097e-02
2.99298754e-02
5.03191501e-02
3.03464737e-02
6.05314809e-02
3.89489112e-02
3.97891663e-02
3.90617857e-02
3.83950509e-02
3.00056804e-02
3.04477594e-02
4.94922308e-03
8.00527089e-03
-7.57386753e-04
1.86698587e-02
-2.01158187e-03
1.60230193e-02
3.08547309e-03
1.61699853e-02
3.43445418e-02
3.71350981e-02
3.23734072e-02
3.48186232e-02
2.28377008e-02
2.26868321e-02
6.15598774e-03
9.98310341e-03
-1.06693620e-04
1.74612643e-03
6.46205759e-03
1.67903021e-03
5.29649202e-03
2.70560573e-03
3.59115619e-02
3.94392200e-02
3.30411382e-02
3.62688182e-02
2.45948187e-02
2.61742519e-02
4.86943475e-03
1.71040024e-02
-2.61170621e-04
9.24095004e-04
-2.26918193e-05
4.87028883e-06
0.00000000e+00
0.00000000e+00
4.17373255e-02
4.50181477e-02
3.91339157e-02
4.23609316e-02
3.21252737e-02
3.56937870e-02
1.06605073e-02
2.72911772e-02
-7.69373582e-05
3.51469195e-03
3.83615406e-05
-4.47406783e-05
0.00000000e+00
0.00000000e+00
5.41305728e-02
5.43633802e-02
5.28111020e-02
5.26755368e-02
5.52659491e-02
5.60824610e-02
5.86919086e-02
6.14978839e-02
6.24594223e-02
6.72331136e-02
6.37897998e-02
6.94705974e-02
6.41467329e-02
6.94060847e-02
4.90031885e-02
4.80998242e-02
5.66122330e-02
7.33371153e-02
8.09155032e-02
8.29895269e-02
8.39911588e-02
3.99071453e-02
3.85584962e-02
4.76334554e-02
3.61616714e-02
3.22277613e-02
3.10612880e-02
2.46831257e-02
6.87402456e-03
3.21444296e-02
3.16535132e-02
3.23052462e-02
5.40339965e-02
3.74474721e-02
3.67402975e-02
5.06982207e-02
6.93868827e-02
0.00000000e+00
0.00000000e+00
0.00000000e+00
0.00000000e+00
5.51958047e-02
5.47635285e-02
5.43214851e-02
5.46195488e-02
5.33870589e-02
5.57433991e-02
5.30861858e-02
5.78459827e-02
5.27077653e-02
6.19996875e-02
5.07941814e-02
6.03105663e-02
4.85175978e-02
5.68138035e-02
5.58557441e-02
5.29447235e-02
5.93806159e-02
7.98319072e-02
8.08406081e-02
7.66180921e-02
7.25253411e-02
5.23928532e-02
4.63210177e-02
7.75926802e-02
3.85509602e-02
3.87917995e-02
5.42829037e-02
2.66409512e-02
3.97155937e-02
4.07594270e-02
4.89448123e-02
8.43428820e-02
5.39417956e-02
4.37366068e-02
</DataArray>
<DataArray type="Float32" Name="Stress_Mises" format="ascii">
3.12372837e+01
3.45794630e+01
3.24338350e+01
3.12948256e+01
2.95695105e+01
3.26346788e+01
3.10418700e+01
3.18069105e+01
3.80027390e+01
3.95554128e+01
3.38303900e+01
3.55690025e+01
4.30294151e+01
4.59285784e+01
3.56533089e+01
3.97809538e+01
4.67245922e+01
5.16566038e+01
3.86070528e+01
3.24345036e+01
4.79170189e+01
4.18912641e+01
3.39875618e+01
3.41297544e+01
7.33666763e+01
7.46098938e+01
5.23575535e+01
5.18758969e+01
3.14239593e+01
2.93782921e+01
3.08884569e+01
2.67081411e+01
3.38586212e+01
3.20793103e+01
2.89694963e+01
3.27749551e+01
2.98075032e+01
4.73971121e+01
2.66309719e+01
4.60855939e+01
4.66124277e+01
7.27322044e+01
3.09453044e+01
2.74788208e+01
2.95004059e+01
2.38898315e+01
2.65148346e+01
2.71669701e+01
1.68829160e+01
2.26130497e+01
1.77086293e+01
2.52472967e+01
8.97192001e+00
2.39983527e+01
2.92849388e+01
2.24064970e+01
3.05963793e+01
3.11417770e+01
2.63568068e+01
2.82188020e+01
2.24929377e+01
1.95266500e+01
1.58642290e+01
1.54806372e+01
1.69912310e+01
2.35996418e+01
3.04883156e+01
1.10009702e+01
2.95904827e+01
2.06459961e+01
3.10146451e+01
3.23386278e+01
2.39903768e+01
2.86413865e+01
2.40773355e+01
2.50926916e+01
2.15376999e+01
2.67787084e+01
1.82908716e+01
2.43136897e+01
9.95527911e+00
7.79785128e+00
9.69880819e+00
7.29837239e+00
4.74054985e+01
4.68522186e+01
3.88681927e+01
4.51503696e+01
5.22347870e+01
4.19525485e+01
3.11993008e+01
5.79544086e+01
2.02121592e+01
3.41627169e+01
1.87940884e+01
1.36119464e+01
4.80849218e+00
4.74412704e+00
3.06958866e+01
3.00594444e+01
2.71417001e+01
3.09533672e+01
2.56000984e+01
2.53196761e+01
2.55886183e+01
3.06213143e+01
2.65792933e+01
2.70330950e+01
2.15902091e+01
2.65530031e+01
1.97713566e+01
2.35919971e+01
2.42106711e+01
2.94518757e+01
4.24639943e+01
8.29539925e+01
6.63543015e+01
6.57430382e+01
6.80013485e+01
2.61801453e+01
2.00546749e+01
5.85545193e+01
2.94033461e+01
1.88351476e+01
1.68979696e+01
1.80774459e+01
2.09951458e+01
1.85026943e+01
1.94759445e+01
2.94081633e+01
4.87544775e+01
2.95265412e+01
3.27125072e+01
5.26691046e+01
1.09284718e+02
1.50423461e+00
1.45663756e+00
1.94151825e+00
2.81813180e+00
2.96837473e+01
2.95401850e+01
2.54317520e+01
2.89748483e+01
2.52706668e+01
2.45113450e+01
2.33083467e+01
2.68693802e+01
2.10151196e+01
2.80132140e+01
1.69941785e+01
2.86509553e+01
1.15084286e+01
2.22132017e+01
2.55463502e+01
2.56357555e+01
3.70969067e+01
9.83177673e+01
7.68037119e+01
5.96132021e+01
4.66384544e+01
2.93023829e+01
2.47811421e+01
1.21887558e+02
2.03296028e+01
1.62062355e+01
7.17663689e+01
2.01161789e+01
2.08744643e+01
3.81043141e+01
5.05544090e+01
1.07084445e+02
2.27245398e+01
2.92302902e+01
</DataArray>
<DataArray type="Float32" Name="Stress_Max_Principal" format="ascii">
1.24328983e+00
-1.36639380e+00
-2.69749671e-01
4.86700773e-01
2.52293736e+00
3.83487642e-02
8.29574361e-01
1.42665684e-01
-4.00595331e+00
-5.46160948e+00
-1.28064419e+00
-2.72227892e+00
-7.98642606e+00
-1.03740396e+01
-3.38547117e+00
-5.91884660e+00
-1.12930599e+01
-1.31756516e+01
-5.62527740e+00
-3.31031591e-01
-1.15616354e+01
-4.63908648e+00
-1.91497004e+00
4.44375020e+00
-2.85304184e+01
-2.67974243e+01
-1.46440815e+01
-1.34339892e+01
4.67292190e-01
1.91195035e+00
2.60646924e-01
3.39106786e+00
-1.70481801e-01
-1.49939954e-01
2.08110429e+01
9.88943131e+00
2.77153348e+01
6.48534417e+00
3.09226104e+01
8.46273716e+00
2.48739815e+01
-1.45260048e+00
2.94829440e+00
4.71939838e+00
3.41187978e+00
6.62368257e+00
2.31395140e+01
1.52826265e+01
3.44113364e+01
4.49530156e+01
3.93186531e+01
4.57227332e+01
4.27322667e+01
5.20223179e+01
3.69679508e+01
2.76891918e+01
4.28374112e+00
2.92303121e+00
6.69678974e+00
4.59305874e+00
1.13199784e+01
1.58745341e+01
2.66635389e+01
2.96544559e+01
2.55911398e+01
1.99219233e+01
3.68856448e+00
1.56136897e+01
8.98735285e+00
1.67885102e+01
3.42937416e+00
1.90233111e+00
8.14028996e+00
4.15099140e+00
9.66371766e+00
1.55376893e+01
2.75548791e+01
1.49254948e+01
2.16616170e+01
1.84136550e+01
7.16533348e+00
5.88351946e+00
2.92344332e+00
1.35532330e+00
-9.85704589e+00
-9.07962418e+00
-4.24939775e+00
-9.17441607e+00
-1.22833829e+01
-6.14837816e+00
2.14385009e+01
-1.29565379e+01
1.91379008e+01
9.76447463e+00
8.69469571e+00
7.23992205e+00
3.02328020e-01
1.23432600e+00
1.09961128e+00
1.12746316e+00
3.90581167e+00
1.14108083e+00
4.69163892e+00
5.27330825e+00
4.38104105e+00
1.02214742e+01
4.14927864e+00
3.71905607e+00
8.29883334e+00
4.06006501e+00
9.78532887e+00
7.21430802e+00
6.37646770e+00
2.44126187e+00
-6.95175890e+00
-3.79554102e+01
-2.88898811e+01
-2.76027575e+01
-2.76224174e+01
1.78520526e+01
9.32538021e+00
-1.78715128e+01
3.74451313e+01
1.38360848e+01
1.23319433e+01
3.17016343e+01
3.22317155e+01
1.26691733e+01
1.05207041e+01
3.93627805e+00
-1.00095659e+01
1.67957675e+00
-1.40184522e+00
1.33126292e+01
-6.38666725e+01
8.13387156e-01
7.90398955e-01
9.34252977e-01
1.65325391e+00
6.55936241e-01
1.11577183e+00
5.06337105e+00
1.87988755e+00
5.32790524e+00
6.98715588e+00
6.79367687e+00
1.38264237e+01
9.09019488e+00
3.23814258e+00
1.23168298e+01
9.52853197e+00
1.66616883e+01
2.01384724e+01
6.33069533e+00
6.26872456e+00
1.71556278e+01
-5.46402515e+01
-3.76013255e+01
-2.31141729e+01
-1.10429966e+01
3.68153466e+00
1.76650300e+01
-6.69563923e+01
2.46778572e+01
1.28544736e+01
-3.01155421e+01
2.28318506e+01
1.69568527e+01
3.67846007e+01
4.14661179e+01
-5.02612704e+01
8.37645397e+00
2.20269680e+00
</DataArray>
<DataArray type="Float32" Name="Stress_Mid_Principal" format="ascii">
-3.54545498e+00
-6.69026328e+00
-4.00237864e+00
-2.78321099e+00
-1.93100349e+00
-4.70627630e+00
-2.69161386e+00
-3.32142687e+00
-9.94111049e+00
-1.10857193e+01
-5.30979449e+00
-6.83459535e+00
-1.45160160e+01
-1.69640141e+01
-6.24954748e+00
-1.08251162e+01
-1.75272996e+01
-2.41604726e+01
-9.09091568e+00
-3.63405153e+00
-1.93549739e+01
-1.55556335e+01
-4.76075172e+00
-2.23792863e+00
-4.66154938e+01
-5.08261757e+01
-2.38094378e+01
-2.38615592e+01
-2.90564442e+00
-8.15351486e-01
-1.67677298e+00
2.37718558e+00
-6.44318414e+00
-3.51552221e+00
1.16892971e+01
3.09004913e+00
1.51882280e+01
-1.11417797e+01
1.88971676e+01
-6.05861934e+00
1.81320572e+00
-2.82139600e+01
-4.93999302e+00
-5.38867950e-01
-2.40562198e+00
3.92347145e+00
1.16905852e+01
4.00531095e+00
2.33860766e+01
2.91886829e+01
2.90783434e+01
2.46563206e+01
3.56897837e+01
3.05572367e+01
2.58072701e+01
1.63801689e+01
-5.93727227e+00
-5.37218356e+00
-3.29217792e-01
-1.62803966e+00
2.12196183e+00
7.68512911e+00
2.06388707e+01
2.28703206e+01
1.54717900e+01
4.81892220e+00
-7.88818812e+00
7.63228957e+00
-6.45806670e-01
-6.63860520e-01
-5.65008396e+00
-6.34001827e+00
2.18533407e+00
-2.09073937e+00
1.42847309e+00
6.36056183e+00
1.63596804e+01
2.54951898e+00
9.20934427e+00
3.64194453e+00
2.53035802e+00
7.30921462e-01
-1.37382665e+00
3.05152093e-01
-2.02974210e+01
-2.03569622e+01
-1.08153161e+01
-1.69266291e+01
-2.48959703e+01
-1.32189030e+01
7.76542950e+00
-2.87957468e+01
1.14023783e+01
-8.44269681e+00
4.52104980e+00
2.65867337e+00
-3.99396509e-01
-2.04965875e-01
-2.32540917e+00
-1.20167992e+00
1.00411053e+00
-2.84139329e+00
3.00621951e+00
2.84521820e+00
3.28312007e+00
5.02586756e+00
1.82830471e+00
1.57244849e+00
6.27261272e+00
2.12423283e+00
8.19498491e+00
4.22286606e+00
3.70631704e+00
-1.53595647e+00
-1.15196871e+01
-5.01912866e+01
-3.33391876e+01
-3.34536295e+01
-3.76683493e+01
1.11986025e+01
7.93503487e+00
-2.39220989e+01
1.83839102e+01
8.96888453e+00
1.06961718e+01
2.19118460e+01
2.29577998e+01
8.98516247e+00
7.81518023e+00
-3.35906953e+00
-1.42570572e+01
-2.18852699e-01
-2.90894103e+00
-3.90413809e+00
-7.00654526e+01
-3.59559182e-01
-3.84272769e-01
-5.97421080e-02
-5.96314684e-01
-2.17802525e-02
-2.44479708e-01
2.93624683e+00
3.04885507e-02
2.88706495e+00
3.99006045e+00
4.73048723e+00
7.70159554e+00
6.34330563e+00
2.10399032e-01
1.00338188e+01
4.50579083e+00
1.52952733e+01
1.44286294e+01
1.46613258e+00
1.35458827e+00
7.74727665e+00
-6.24900337e+01
-4.24575205e+01
-2.75180759e+01
-1.75261307e+01
-1.95925116e+00
1.08276558e+01
-8.64392929e+01
1.80773774e+01
1.09287672e+01
-3.72803169e+01
1.62907451e+01
1.27556362e+01
1.87293163e+01
2.75757980e+00
-6.62457425e+01
6.84862283e+00
-6.16300583e-01
</DataArray>
<DataArray type="Float32" Name="Stress_Min_Principal" format="ascii">
-3.21118469e+01
-3.82980318e+01
-3.43940394e+01
-3.23052454e+01
-2.90207586e+01
-3.47077651e+01
-3.18148664e+01
-3.32422814e+01
-4.46270409e+01
-4.75229431e+01
-3.69366951e+01
-4.01628290e+01
-5.38863487e+01
-5.92261443e+01
-4.03811262e+01
-4.79234114e+01
-6.08172665e+01
-6.94233072e+01
-4.58482904e+01
-3.42826288e+01
-6.28925114e+01
-5.07605009e+01
-3.72222085e+01
-3.19500166e+01
-1.09248383e+02
-1.10451504e+02
-7.09791164e+01
-6.97160482e+01
-3.25003412e+01
-2.87301283e+01
-3.15431475e+01
-2.38056044e+01
-3.67068474e+01
-3.37722711e+01
-9.92519236e+00
-2.46819329e+01
-4.95099449e+00
-4.58529256e+01
1.41590571e+00
-4.16361876e+01
-2.80305500e+01
-8.21790047e+01
-3.11320896e+01
-2.50008950e+01
-2.84695911e+01
-1.84670554e+01
-5.90253973e+00
-1.51875818e+01
1.59935329e+01
2.03425994e+01
1.94209394e+01
1.77418639e+01
3.29431985e+01
2.61128456e+01
4.78283882e+00
2.83322239e+00
-3.01115341e+01
-3.15217037e+01
-2.24478060e+01
-2.62051258e+01
-1.42109590e+01
-6.23676127e+00
9.13486937e+00
1.29206646e+01
6.29642276e+00
-6.30635039e+00
-2.97560081e+01
3.11611899e+00
-2.41011562e+01
-5.78867451e+00
-3.10116616e+01
-3.37557774e+01
-1.82626330e+01
-2.70654199e+01
-1.71624043e+01
-1.22110699e+01
3.51066923e+00
-1.54020618e+01
1.09168887e+00
-8.59669137e+00
-4.20087036e+00
-2.80820270e+00
-8.07653785e+00
-6.39517792e+00
-6.16029949e+01
-6.05412865e+01
-4.59434633e+01
-5.76984081e+01
-6.95865555e+01
-5.11023328e+01
-1.32969704e+01
-7.66967564e+01
-2.38772726e+00
-2.92395205e+01
-1.13995349e+01
-7.97362216e+00
-4.81846952e+00
-4.06260753e+00
-3.11651154e+01
-3.00170140e+01
-2.45697655e+01
-3.16088114e+01
-2.17082748e+01
-2.11529676e+01
-2.17287227e+01
-2.12198185e+01
-2.35121267e+01
-2.43134183e+01
-1.42310700e+01
-2.33894664e+01
-1.07330098e+01
-1.77088436e+01
-1.90455144e+01
-2.87817273e+01
-5.15116720e+01
-1.25905354e+02
-9.73561878e+01
-9.60601082e+01
-1.00084740e+02
-9.75201106e+00
-1.13679022e+01
-7.91815182e+01
3.79743731e+00
-6.68783608e+00
-5.29989624e+00
1.19000365e+01
8.94677635e+00
-7.30246868e+00
-1.01631325e+01
-2.83727273e+01
-6.06909623e+01
-2.86907754e+01
-3.48411989e+01
-4.27918873e+01
-1.76114952e+02
-8.82034659e-01
-8.34355980e-01
-1.30270541e+00
-1.48525903e+00
-2.93606033e+01
-2.90807488e+01
-2.13484101e+01
-2.79616234e+01
-2.10709567e+01
-1.87761905e+01
-1.74679435e+01
-1.42198011e+01
-1.31545130e+01
-2.61576017e+01
-5.70257673e+00
-2.04188277e+01
4.53737235e+00
-3.01176548e+00
-2.12541740e+01
-2.14583126e+01
-2.09710925e+01
-1.56420975e+02
-1.16710489e+02
-8.48067379e+01
-6.05837460e+01
-2.79570348e+01
-8.71437764e+00
-1.97389191e+02
3.41124943e+00
-4.22462440e+00
-1.05060522e+02
1.57703662e+00
-4.91595149e+00
-4.07338532e+00
-1.57297297e+01
-1.64270045e+02
-1.48426971e+01
-2.83201857e+01
</DataArray>
<DataArray type="Float32" Name="Stress_Pressure" format="ascii">
1.14713373e+01
1.54515634e+01
1.28887227e+01
1.15339189e+01
9.47627497e+00
1.31252311e+01
1.12256355e+01
1.21403474e+01
1.95247020e+01
2.13567575e+01
1.45090441e+01
1.65732348e+01
2.54629292e+01
2.88547332e+01
1.66720479e+01
2.15557913e+01
2.98792086e+01
3.55864770e+01
2.01881616e+01
1.27492379e+01
3.12697067e+01
2.36517406e+01
1.46326427e+01
9.91473164e+00
6.14647636e+01
6.26917000e+01
3.64775467e+01
3.56705320e+01
1.16462311e+01
9.21117654e+00
1.09864247e+01
6.01245070e+00
1.44401709e+01
1.24792451e+01
-7.52504945e+00
3.90081733e+00
-1.26508565e+01
1.68364526e+01
-1.70785614e+01
1.30773565e+01
4.47786331e-01
3.72818540e+01
1.10412630e+01
6.94012189e+00
9.15444458e+00
2.63996720e+00
-9.64251912e+00
-1.36678518e+00
-2.45969830e+01
-3.14947655e+01
-2.92726456e+01
-2.93736393e+01
-3.71217499e+01
-3.62307987e+01
-2.25193539e+01
-1.56341941e+01
1.05883553e+01
1.13236184e+01
5.36007804e+00
7.74670261e+00
2.56340027e-01
-5.77430075e+00
-1.88124267e+01
-2.18151471e+01
-1.57864507e+01
-6.14483171e+00
1.13185439e+01
-8.78736631e+00
5.25320339e+00
-3.44532498e+00
1.10774567e+01
1.27311546e+01
2.64566952e+00
8.33505613e+00
2.02340484e+00
-3.22906023e+00
-1.58084100e+01
-6.90984408e-01
-1.06542168e+01
-4.48630261e+00
-1.83160704e+00
-1.26874610e+00
2.17564034e+00
1.57823421e+00
3.05858212e+01
2.99926243e+01
2.03360590e+01
2.79331522e+01
3.55886364e+01
2.34898703e+01
-5.30232048e+00
3.94830133e+01
-9.38418397e+00
9.30591422e+00
-6.05403483e-01
-6.41657760e-01
1.63851273e+00
1.01108240e+00
1.07969710e+01
1.00304102e+01
6.55328112e+00
1.11030414e+01
4.67013890e+00
4.34481388e+00
4.68818721e+00
1.99082547e+00
5.84484763e+00
6.34063779e+00
-1.13458931e-01
5.73505566e+00
-2.41576803e+00
2.09055686e+00
2.98757678e+00
9.29214072e+00
2.33277064e+01
7.13506847e+01
5.31950846e+01
5.23721657e+01
5.51251678e+01
-6.43288207e+00
-1.96417105e+00
4.03250434e+01
-1.98754930e+01
-5.37237801e+00
-5.90940630e+00
-2.18378398e+01
-2.13787639e+01
-4.78395580e+00
-2.72425067e+00
9.26517268e+00
2.83191953e+01
9.07668376e+00
1.30506616e+01
1.11278000e+01
1.03349026e+02
1.42735556e-01
1.42743275e-01
1.42731518e-01
1.42773259e-01
9.57548213e+00
9.40315270e+00
4.44959731e+00
8.68374906e+00
4.28532875e+00
2.59965831e+00
1.98126006e+00
-2.43607257e+00
-7.59662390e-01
7.56968695e+00
-5.54935741e+00
2.12816823e+00
-1.21647778e+01
-1.05184454e+01
4.48578191e+00
4.61166656e+00
-1.31060410e+00
9.11837547e+01
6.55897789e+01
4.51463280e+01
2.97176247e+01
8.74491700e+00
-6.59276874e+00
1.16928288e+02
-1.53888286e+01
-6.51953876e+00
5.74854609e+01
-1.35665441e+01
-8.26551215e+00
-1.71468438e+01
-9.49798965e+00
9.35923519e+01
-1.27460480e-01
8.91126347e+00
</DataArray>
<DataArray type="Float32" Name="Stress_Tresca" format="ascii">
3.33551369e+01
3.69316378e+01
3.41242900e+01
3.27919455e+01
3.15436954e+01
3.47461147e+01
3.26444409e+01
3.33849468e+01
4.06210871e+01
4.20613332e+01
3.56560502e+01
3.74405502e+01
4.58999233e+01
4.88521051e+01
3.69956546e+01
4.20045654e+01
4.95242081e+01
5.62476549e+01
4.02230132e+01
3.39515970e+01
5.13308754e+01
4.61214156e+01
3.53072381e+01
3.63937671e+01
8.07179642e+01
8.36540756e+01
5.63350353e+01
5.62820582e+01
3.29676335e+01
3.06420794e+01
3.18037946e+01
2.71966722e+01
3.65363655e+01
3.36223309e+01
3.07362356e+01
3.45713632e+01
3.26663294e+01
5.23382702e+01
2.95067043e+01
5.00989243e+01
5.29045315e+01
8.07264010e+01
3.40803838e+01
2.97202940e+01
3.18814709e+01
2.50907383e+01
2.90420532e+01
3.04702082e+01
1.84178035e+01
2.46104158e+01
1.98977140e+01
2.79808693e+01
9.78906822e+00
2.59094721e+01
3.21851120e+01
2.48559694e+01
3.43952751e+01
3.44447346e+01
2.91445954e+01
3.07981849e+01
2.55309381e+01
2.21112955e+01
1.75286698e+01
1.67337910e+01
1.92947168e+01
2.62282734e+01
3.34445724e+01
1.24975707e+01
3.30885105e+01
2.25771847e+01
3.44410355e+01
3.56581078e+01
2.64029232e+01
3.12164116e+01
2.68261218e+01
2.77487592e+01
2.40442104e+01
3.03275566e+01
2.05699282e+01
2.70103469e+01
1.13662035e+01
8.69172211e+00
1.09999809e+01
7.75050139e+00
5.17459488e+01
5.14616623e+01
4.16940656e+01
4.85239925e+01
5.73031712e+01
4.49539557e+01
3.47354717e+01
6.37402178e+01
2.15256290e+01
3.90039959e+01
2.00942311e+01
1.52135444e+01
5.12079763e+00
5.29693341e+00
3.22647266e+01
3.11444774e+01
2.84755771e+01
3.27498918e+01
2.63999133e+01
2.64262755e+01
2.61097636e+01
3.14412928e+01
2.76614056e+01
2.80324746e+01
2.25299032e+01
2.74495312e+01
2.05183382e+01
2.49231513e+01
2.54219815e+01
3.12229891e+01
4.45599128e+01
8.79499432e+01
6.84663067e+01
6.84573517e+01
7.24623241e+01
2.76040637e+01
2.06932826e+01
6.13100046e+01
3.36476936e+01
2.05239208e+01
1.76318398e+01
1.98015980e+01
2.32849394e+01
1.99716423e+01
2.06838365e+01
3.23090051e+01
5.06813955e+01
3.03703523e+01
3.34393539e+01
5.61045160e+01
1.12248280e+02
1.69542181e+00
1.62475491e+00
2.23695838e+00
3.13851285e+00
3.00165386e+01
3.01965203e+01
2.64117812e+01
2.98415103e+01
2.63988626e+01
2.57633464e+01
2.42616203e+01
2.80462250e+01
2.22447078e+01
2.93957441e+01
1.80194063e+01
2.99473590e+01
1.21243157e+01
2.31502376e+01
2.75848687e+01
2.77270374e+01
3.81267204e+01
1.01780722e+02
7.91091652e+01
6.16925659e+01
4.95407486e+01
3.16385694e+01
2.63794074e+01
1.30432800e+02
2.12666082e+01
1.70790982e+01
7.49449797e+01
2.12548137e+01
2.18728042e+01
4.08579865e+01
5.71958466e+01
1.14008771e+02
2.32191505e+01
3.05228825e+01
</DataArray>
<DataArray type="Float32" Name="Stress_Third_Invariant" format="ascii">
-3.03949757e+01
-3.36355371e+01
-3.18996782e+01
-3.08773108e+01
-2.87998953e+01
-3.18410296e+01
-3.05628010e+01
-3.13398271e+01
-3.69383116e+01
-3.86237583e+01
-3.32573733e+01
-3.50095827e+01
-4.18240414e+01
-4.47956977e+01
-3.53829494e+01
-3.90853419e+01
-4.57602348e+01
-4.88614502e+01
-3.82546873e+01
-3.20278232e+01
-4.64420424e+01
-3.74870763e+01
-3.36697963e+01
-2.91545601e+01
-6.80752182e+01
-6.49625359e+01
-5.05050621e+01
-4.93797975e+01
-3.09917252e+01
-2.90767002e+01
-3.07275314e+01
-2.66527793e+01
-3.24421749e+01
-3.16554423e+01
-1.57908053e+01
-2.56229288e+01
-1.20231063e+01
-3.17020295e+01
-8.70196557e+00
-3.06627688e+01
-1.80312204e+01
-4.76649469e+01
-2.83730440e+01
-2.62844219e+01
-2.78432007e+01
-2.34351473e+01
-1.18618100e+01
-1.77001962e+01
1.88892603e+00
8.98608605e+00
-8.21000099e-01
2.29545062e+01
4.75267887e+00
2.30436014e+01
-8.49103642e+00
-4.58204365e+00
-2.63060188e+01
-2.84734783e+01
-2.40552897e+01
-2.65651612e+01
-1.35229758e+01
-1.32857938e+01
-7.70782137e+00
-4.17419589e+00
4.53367170e+00
8.50374317e+00
-1.29554095e+01
8.16449165e+00
-2.50170093e+01
1.83769175e+01
-2.73395476e+01
-2.98188953e+01
-2.22178879e+01
-2.69342947e+01
-1.84391707e+01
-1.67506783e+01
-6.55446959e+00
-1.40900228e+01
5.89775920e+00
3.36331391e+00
-4.87043792e+00
9.28889990e-01
-3.68571723e+00
-7.06874832e+00
-4.46729965e+01
-4.36389847e+01
-3.74591370e+01
-4.36133423e+01
-4.82975044e+01
-4.02953575e+01
-1.62160006e+01
-5.05957489e+01
-3.71871758e+00
3.60472298e+00
-1.14337223e+01
-1.12088092e+01
-4.69121838e+00
-4.20844507e+00
-3.02614403e+01
-2.98191776e+01
-2.67881743e+01
-3.03626809e+01
-2.54709860e+01
-2.49924335e+01
-2.55048511e+01
-2.32303281e+01
-2.63428555e+01
-2.68055974e+01
-2.13685235e+01
-2.63306066e+01
-1.96261854e+01
-2.30854166e+01
-2.38349395e+01
-2.87885351e+01
-4.18952588e+01
-7.93837265e+01
-6.60153618e+01
-6.51052179e+01
-6.62906704e+01
-1.65759291e+01
-1.98827069e+01
-5.77363323e+01
5.33466291e+00
-1.58522426e+01
-1.66339107e+01
-2.74708538e+00
-7.81288528e+00
-1.69726416e+01
-1.90351367e+01
-2.70193720e+01
-4.81414769e+01
-2.90747972e+01
-3.26322832e+01
-2.99476614e+01
-1.08876278e+02
1.27257657e+00
1.26700932e+00
-1.11078376e+00
2.39204860e+00
-2.96655426e+01
-2.94687147e+01
-2.51776519e+01
-2.87998281e+01
-2.49919322e+01
-2.34881888e+01
-2.30715458e+01
-1.92990097e+01
-2.05765048e+01
-2.76156901e+01
-1.66411183e+01
-2.31620426e+01
-1.13034565e+01
-1.28272589e+01
-2.43191702e+01
-2.45067933e+01
-2.10400293e+01
-9.68990204e+01
-7.64345522e+01
-5.92441416e+01
-4.56078739e+01
-2.77823661e+01
-1.61250622e+01
-1.18232645e+02
-8.77798591e+00
-1.59332855e+01
-7.05326777e+01
-1.03628758e+01
-1.47357326e+01
-8.75127070e+00
4.18669930e+01
-1.03764090e+02
-2.08173517e+01
-2.88737690e+01
</DataArray>
<DataArray type="Float32" Name="Logarithmic_strain_Max_Principal" format="ascii">
4.58982028e-02
4.77887038e-02
4.30928115e-02
4.11685891e-02
4.34713233e-02
4.44763191e-02
4.10208269e-02
4.02364945e-02
5.22910003e-02
4.76854471e-02
4.62130755e-02
4.40049400e-02
5.72289918e-02
5.16923051e-02
4.85804323e-02
4.76560052e-02
6.19271342e-02
5.72383115e-02
5.22130337e-02
4.94341482e-02
6.80980571e-02
6.41379533e-02
5.58559084e-02
5.49968379e-02
8.36837217e-02
7.63322115e-02
6.69125319e-02
6.50854213e-02
3.42775448e-02
3.25963255e-02
3.34264876e-02
3.12250508e-02
3.70293250e-02
3.54295301e-02
3.31814536e-02
3.65986603e-02
3.77422348e-02
4.35261161e-02
3.96111989e-02
4.53200495e-02
4.23812866e-02
5.19318891e-02
2.99059241e-02
2.97207683e-02
2.78427508e-02
2.60503246e-02
2.42215660e-02
2.58724932e-02
1.19306213e-02
1.68368421e-02
1.02465353e-02
2.18075849e-02
1.04796503e-02
2.18434532e-02
9.08530364e-03
1.93244787e-02
2.89268587e-02
3.00458670e-02
2.59008911e-02
2.70961607e-02
2.03900407e-02
2.03860359e-02
7.33377325e-03
1.05434532e-02
1.21575483e-03
2.72022702e-03
5.39792266e-03
3.42795577e-03
5.72658627e-03
5.10635953e-03
2.81882221e-02
3.06666372e-02
2.56270997e-02
2.71670897e-02
2.06074629e-02
2.16366644e-02
6.95396814e-03
1.48444211e-02
5.86193855e-04
2.13851425e-03
1.42093534e-04
1.22668060e-04
9.57936390e-05
5.17756301e-05
3.16648697e-02
3.45131084e-02
2.81150406e-02
3.08170943e-02
2.64408877e-02
2.57914849e-02
1.08022639e-02
2.17294761e-02
9.62834223e-04
4.33688608e-03
2.30912126e-04
1.39608754e-04
2.70721775e-05
4.16139846e-05
3.82383708e-02
3.67927514e-02
3.77349569e-02
3.82486479e-02
3.61527000e-02
3.85949006e-02
3.77783244e-02
4.12933812e-02
4.24018241e-02
4.55511981e-02
4.12709601e-02
4.64729513e-02
4.25451547e-02
4.76003224e-02
3.54203461e-02
3.61126252e-02
3.91332731e-02
5.07832356e-02
5.25166886e-02
5.33378068e-02
5.55221587e-02
2.91547244e-02
2.75138305e-02
3.52855617e-02
4.45264680e-02
2.42558124e-02
2.08542114e-02
2.32366725e-02
2.16990846e-02
2.39361366e-02
2.21426818e-02
2.93331451e-02
3.54766836e-02
2.46005361e-02
2.30252584e-02
3.35250064e-02
4.37690448e-02
2.07047633e-05
2.07598787e-05
2.39321835e-05
4.15675186e-05
3.36883701e-02
3.43135297e-02
3.66741307e-02
3.47196776e-02
3.72235663e-02
3.94683061e-02
3.82415187e-02
4.14015502e-02
3.91418627e-02
4.34381682e-02
3.62974331e-02
4.00811317e-02
3.45869008e-02
3.84454671e-02
4.19671326e-02
4.02676463e-02
3.87398813e-02
5.45742482e-02
5.21411840e-02
4.81066210e-02
4.65461276e-02
4.10599868e-02
3.59483026e-02
6.10132599e-02
2.76617794e-02
2.90810829e-02
3.84362009e-02
2.73097500e-02
2.70885220e-02
3.73922653e-02
5.70670478e-02
6.02113754e-02
3.48910890e-02
3.16106193e-02
</DataArray>
<DataArray type="Float32" Name="Logarithmic_strain_Min_Principal" format="ascii">
-5.88383898e-02
-6.18682988e-02
-5.81079097e-02
-5.62450048e-02
-5.64654190e-02
-5.89664225e-02
-5.63446558e-02
-5.48978075e-02
-6.81528673e-02
-6.37431797e-02
-6.40033493e-02
-6.16307682e-02
-7.63641968e-02
-7.06856679e-02
-7.05523398e-02
-6.80029169e-02
-8.47063065e-02
-7.78950676e-02
-7.72885960e-02
-7.18745003e-02
-9.30953734e-02
-8.21238980e-02
-8.20003469e-02
-7.70477187e-02
-1.02945663e-01
-9.27808248e-02
-8.96506123e-02
-8.48854426e-02
-4.90743127e-02
-4.85390089e-02
-4.92717284e-02
-4.74126339e-02
-4.79626972e-02
-5.04613612e-02
-4.23419401e-02
-5.17789450e-02
-4.34796503e-02
-5.50093508e-02
-4.06751717e-02
-5.59113547e-02
-4.39936556e-02
-6.30393488e-02
-3.88260819e-02
-3.97953000e-02
-3.94600309e-02
-3.87527272e-02
-2.84682373e-02
-3.33650976e-02
-1.10024234e-02
-1.50037942e-02
-7.74677889e-03
-1.72334807e-02
-8.13204935e-03
-1.74923182e-02
-9.39306756e-03
-1.64463017e-02
-3.36143048e-02
-3.67077198e-02
-3.22956885e-02
-3.47113237e-02
-2.21093623e-02
-2.19113773e-02
-5.53777249e-03
-9.46875452e-03
-1.39963615e-03
-2.20742595e-03
-7.90050103e-03
-2.47140992e-03
-7.64717386e-03
-3.06757878e-03
-3.57430438e-02
-3.92777957e-02
-3.29381807e-02
-3.62797156e-02
-2.39946973e-02
-2.62298633e-02
-5.44157845e-03
-1.72031701e-02
-2.96352453e-04
-1.29389828e-03
-1.10105655e-04
-8.01250433e-05
-1.67846702e-04
-1.34667624e-04
-4.23590615e-02
-4.53151055e-02
-3.97348581e-02
-4.31400836e-02
-3.30013065e-02
-3.66394073e-02
-1.03257415e-02
-2.89632091e-02
-1.35000140e-03
-4.35074771e-03
-3.28772330e-04
-1.64550535e-04
-9.60321922e-05
-8.52296143e-05
-5.43342195e-02
-5.48156705e-02
-5.28325816e-02
-5.27454475e-02
-5.57313198e-02
-5.62912994e-02
-5.91677763e-02
-6.20202082e-02
-6.28639497e-02
-6.77987570e-02
-6.38622837e-02
-7.02425409e-02
-6.41859975e-02
-7.02247228e-02
-4.90378803e-02
-4.77911839e-02
-5.85298879e-02
-7.69366518e-02
-8.31305869e-02
-8.53612330e-02
-8.60409513e-02
-4.00995556e-02
-3.86315593e-02
-5.11289202e-02
-3.99774117e-02
-3.22521806e-02
-3.15229259e-02
-2.80175451e-02
-2.18498905e-02
-3.21942298e-02
-3.19773369e-02
-3.80677276e-02
-5.37525099e-02
-3.82939205e-02
-3.75702325e-02
-4.86723529e-02
-7.54918344e-02
-1.91761656e-05
-1.85402209e-05
-2.93545390e-05
-3.37638285e-05
-5.57806306e-02
-5.54411886e-02
-5.45688756e-02
-5.53218313e-02
-5.35250008e-02
-5.58371027e-02
-5.28196227e-02
-5.80308284e-02
-5.23863472e-02
-6.24241093e-02
-5.07362969e-02
-6.06282577e-02
-4.82688583e-02
-5.67525877e-02
-5.54802231e-02
-5.26571907e-02
-6.31744175e-02
-8.74597877e-02
-8.35702587e-02
-7.81349223e-02
-7.34772310e-02
-5.23720650e-02
-4.56787338e-02
-8.73339567e-02
-3.91421063e-02
-3.81595744e-02
-5.85615924e-02
-3.87266907e-02
-3.82574918e-02
-5.05077642e-02
-5.91248795e-02
-8.56502031e-02
-4.72125886e-02
-4.49843034e-02
</DataArray>
<DataArray type="Float32" Name="Plastic_strain_Max_Principal" format="ascii">
4.57442738e-02
4.76615522e-02
4.29703081e-02
4.10103053e-02
4.32873592e-02
4.43446385e-02
4.08710288e-02
4.01172014e-02
5.22170421e-02
4.76432079e-02
4.60740076e-02
4.39305510e-02
5.71663454e-02
5.37006557e-02
4.84646186e-02
4.77740769e-02
6.18978292e-02
5.89986872e-02
5.22203706e-02
4.98526017e-02
6.81673512e-02
6.79993536e-02
5.59180416e-02
5.58096878e-02
8.37154537e-02
8.14611949e-02
6.71180263e-02
6.53991392e-02
3.41419121e-02
3.24311387e-02
3.33079156e-02
3.10416734e-02
3.66693148e-02
3.58446930e-02
2.73183584e-02
3.60826648e-02
3.32131325e-02
4.00471597e-02
2.78488561e-02
3.98362197e-02
2.63678348e-02
4.92093898e-02
2.97104260e-02
2.94921128e-02
2.76675220e-02
2.58112024e-02
2.48561664e-02
2.40224969e-02
9.24908568e-03
1.86219862e-02
8.68095737e-03
2.28934816e-02
9.77999096e-03
2.07704371e-02
9.27936751e-03
1.98283754e-02
2.86991512e-02
2.98100319e-02
2.56512044e-02
2.68852534e-02
2.00993519e-02
2.00062561e-02
7.00750767e-03
1.05202545e-02
8.78860142e-04
2.32308592e-03
5.26321679e-03
3.19286702e-03
5.51830186e-03
4.76820411e-03
2.79675443e-02
3.04998299e-02
2.53943673e-02
2.69620912e-02
2.05120714e-02
2.10771558e-02
5.68188669e-03
1.47365326e-02
2.15022088e-04
1.75802522e-03
1.92413871e-05
4.35972179e-06
0.00000000e+00
0.00000000e+00
3.16195814e-02
3.45189311e-02
2.81125368e-02
3.08128279e-02
2.63573043e-02
2.58183852e-02
1.10140690e-02
2.16513146e-02
6.43200343e-04
3.99493460e-03
3.09969510e-05
4.14712946e-05
0.00000000e+00
0.00000000e+00
3.81228328e-02
3.66516057e-02
3.75641780e-02
3.80896525e-02
3.59898768e-02
3.83490990e-02
3.76067385e-02
4.09407257e-02
4.21978785e-02
4.52623325e-02
4.10952391e-02
4.61611762e-02
4.24227025e-02
4.71587079e-02
3.52092227e-02
3.59725887e-02
3.90356396e-02
5.09189568e-02
5.29124700e-02
5.37214791e-02
5.58330603e-02
2.88403989e-02
2.73256060e-02
3.61631553e-02
4.56326855e-02
2.39564420e-02
2.05955366e-02
2.06371324e-02
2.23804135e-02
2.36773191e-02
2.18923106e-02
2.83589226e-02
3.89736178e-02
2.45016706e-02
2.30307505e-02
3.59097174e-02
4.35616430e-02
0.00000000e+00
0.00000000e+00
0.00000000e+00
0.00000000e+00
3.36056035e-02
3.41500361e-02
3.65330628e-02
3.45361307e-02
3.70282065e-02
3.92431985e-02
3.80596546e-02
4.09751614e-02
3.88236949e-02
4.31570192e-02
3.59184183e-02
3.98259540e-02
3.41690611e-02
3.80411521e-02
4.16755611e-02
4.01091231e-02
3.89079090e-02
5.53932928e-02
5.27458144e-02
4.86098668e-02
4.67604361e-02
4.08352182e-02
3.56907574e-02
6.19564112e-02
2.72687109e-02
2.88372119e-02
3.93277411e-02
2.93282053e-02
2.80274069e-02
3.46119835e-02
5.68458140e-02
6.64739050e-02
3.98206231e-02
3.08649959e-02
</DataArray>
<DataArray type="Float32" Name="Plastic_strain_Min_Principal" format="ascii">
-5.82109913e-02
-6.10880908e-02
-5.74341603e-02
-5.55793159e-02
-5.58820684e-02
-5.82885621e-02
-5.57034700e-02
-5.42658772e-02
-6.72390163e-02
-6.27719760e-02
-6.32161647e-02
-6.08541099e-02
-7.51062892e-02
-7.22942036e-02
-6.96352012e-02
-6.73651323e-02
-8.31698738e-02
-7.83216711e-02
-7.63668753e-02
-7.21410662e-02
-9.15075392e-02
-8.59184526e-02
-8.13947897e-02
-7.80632002e-02
-9.95786041e-02
-9.62924063e-02
-8.78917128e-02
-8.39476548e-02
-4.84200455e-02
-4.79410607e-02
-4.86458209e-02
-4.69057029e-02
-4.68324628e-02
-5.06807421e-02
-3.43724004e-02
-5.12567487e-02
-3.78239094e-02
-4.97472792e-02
-2.53536376e-02
-4.80329175e-02
-2.34336522e-02
-5.90083487e-02
-3.81744048e-02
-3.92433275e-02
-3.88806392e-02
-3.83022130e-02
-3.00626257e-02
-3.02030484e-02
-6.05920627e-03
-1.55616921e-02
-5.40432877e-03
-1.86797762e-02
-5.95507290e-03
-1.78691431e-02
-9.11520165e-03
-1.80300591e-02
-3.29821613e-02
-3.60039342e-02
-3.18007590e-02
-3.41551080e-02
-2.17742464e-02
-2.17121369e-02
-5.64094906e-03
-1.00180712e-02
-1.37555664e-03
-1.98338329e-03
-7.30756950e-03
-2.41492290e-03
-7.11065484e-03
-2.84623637e-03
-3.50789595e-02
-3.86099219e-02
-3.25518770e-02
-3.57041396e-02
-2.40141931e-02
-2.56133513e-02
-4.07648011e-03
-1.72569795e-02
-2.46465330e-04
-1.04786654e-03
-1.21678651e-05
-5.62429661e-06
0.00000000e+00
0.00000000e+00
-4.11168523e-02
-4.41544242e-02
-3.89363086e-02
-4.19998989e-02
-3.15969195e-02
-3.60019561e-02
-1.08932313e-02
-2.76088653e-02
-1.21414318e-03
-3.76479485e-03
-5.03514020e-05
-3.24579232e-05
0.00000000e+00
0.00000000e+00
-5.37460763e-02
-5.42088952e-02
-5.23836855e-02
-5.21093775e-02
-5.53896399e-02
-5.58564872e-02
-5.88116255e-02
-6.16384642e-02
-6.24237591e-02
-6.72473423e-02
-6.37402078e-02
-6.96113240e-02
-6.42128401e-02
-6.95308931e-02
-4.86747469e-02
-4.72692270e-02
-5.72617969e-02
-7.43917361e-02
-8.10362194e-02
-8.33751187e-02
-8.40883553e-02
-3.99382343e-02
-3.84514360e-02
-5.08638149e-02
-4.33105715e-02
-3.20939689e-02
-3.13674966e-02
-2.49665661e-02
-2.08157909e-02
-3.20551314e-02
-3.17089269e-02
-3.31964883e-02
-5.81660420e-02
-3.77627620e-02
-3.70307658e-02
-5.27021093e-02
-6.99276533e-02
0.00000000e+00
0.00000000e+00
0.00000000e+00
0.00000000e+00
-5.52873947e-02
-5.48193026e-02
-5.42615019e-02
-5.47059262e-02
-5.31614460e-02
-5.54866465e-02
-5.25942752e-02
-5.76603082e-02
-5.20960065e-02
-6.18040166e-02
-5.05263889e-02
-6.03000126e-02
-4.82706688e-02
-5.67444507e-02
-5.50473034e-02
-5.23780975e-02
-6.27316189e-02
-8.34190294e-02
-8.11141115e-02
-7.67981689e-02
-7.25338347e-02
-5.17843749e-02
-4.57103159e-02
-8.44148621e-02
-3.92197860e-02
-3.81019595e-02
-5.77007262e-02
-3.39824761e-02
-4.02770671e-02
-4.50366481e-02
-6.31993786e-02
-9.23878551e-02
-5.60478531e-02
-4.35912795e-02
</DataArray>
</PointData>
<Cells>
<DataArray type="Int32" Name="connectivity" format="ascii">
0 1 2 3 4 5 6 7
1 8 9 2 5 10 11 6
8 12 13 9 10 14 15 11
12 16 17 13 14 18 19 15
16 20 21 17 18 22 23 19
20 24 25 21 22 26 27 23
3 2 28 29 7 6 30 31
2 9 32 28 6 11 33 30
9 13 34 32 11 15 35 33
13 17 36 34 15 19 37 35
17 21 38 36 19 23 39 37
21 25 40 38 23 27 41 39
29 28 42 43 31 30 44 45
28 32 46 42 30 33 47 44
32 34 48 46 33 35 49 47
34 36 50 48 35 37 51 49
36 38 52 50 37 39 53 51
38 40 54 52 39 41 55 53
43 42 56 57 45 44 58 59
42 46 60 56 44 47 61 58
46 48 62 60 47 49 63 61
48 50 64 62 49 51 65 63
52 54 66 67 53 55 68 69
57 56 70 71 59 58 72 73
56 60 74 70 58 61 75 72
60 62 76 74 61 63 77 75
62 64 78 76 63 65 79 77
64 67 80 78 65 69 81 79
67 66 82 80 69 68 83 81
71 70 84 85 73 72 86 87
70 74 88 84 72 75 89 86
74 76 90 88 75 77 91 89
76 78 92 90 77 79 93 91
78 80 94 92 79 81 95 93
80 82 96 94 81 83 97 95
4 5 6 7 98 99 100 101
5 10 11 6 99 102 103 100
10 14 15 11 102 104 105 103
14 18 19 15 104 106 107 105
18 22 23 19 106 108 109 107
22 26 27 23 108 110 111 109
7 6 30 31 101 100 112 113
6 11 33 30 100 103 114 112
11 15 35 33 103 105 115 114
15 19 37 35 105 107 116 115
19 23 39 37 107 109 117 116
23 27 41 39 109 111 118 117
31 30 44 45 113 112 119 120
30 33 47 44 112 114 121 119
33 35 49 47 114 115 122 121
45 44 58 59 120 119 123 124
44 47 61 58 119 121 125 123
47 49 63 61 121 122 126 125
59 58 72 73 124 123 127 128
58 61 75 72 123 125 129 127
61 63 77 75 125 126 130 129
73 72 86 87 128 127 131 132
72 75 89 86 127 129 133 131
75 77 91 89 129 130 134 133
81 83 97 95 135 136 137 138
98 99 100 101 139 140 141 142
99 102 103 100 140 143 144 141
102 104 105 103 143 145 146 144
104 106 107 105 145 147 148 146
106 108 109 107 147 149 150 148
108 110 111 109 149 151 152 150
101 100 112 113 142 141 153 154
100 103 114 112 141 144 155 153
103 105 115 114 144 146 156 155
105 107 116 115 146 148 157 156
107 109 117 116 148 150 158 157
109 111 118 117 150 152 159 158
113 112 119 120 154 153 160 161
112 114 121 119 153 155 162 160
120 119 123 124 161 160 163 164
119 121 125 123 160 162 165 163
124 123 127 128 164 163 166 167
123 125 129 127 163 165 168 166
125 126 130 129 165 169 170 168
128 127 131 132 167 166 171 172
</DataArray>
<DataArray type="Int32" Name="offsets" format="ascii">
8
16
24
32
40
48
56
64
72
80
88
96
104
112
120
128
136
144
152
160
168
176
184
192
200
208
216
224
232
240
248
256
264
272
280
288
296
304
312
320
328
336
344
352
360
368
376
384
392
400
408
416
424
432
440
448
456
464
472
480
488
496
504
512
520
528
536
544
552
560
568
576
584
592
600
608
616
624
632
640
</DataArray>
<DataArray type="UInt8" Name="types" format="ascii">
12
12
12
12
12
12
12
12
12
12
12
12
12
12
12
12
12
12
12
12
12
12
12
12
12
12
12
12
12
12
12
12
12
12
12
12
12
12
12
12
12
12
12
12
12
12
12
12
12
12
12
12
12
12
12
12
12
12
12
12
12
12
12
12
12
12
12
12
12
12
12
12
12
12
12
12
12
12
12
12
</DataArray>
</Cells>
</Piece>
</UnstructuredGrid>
</VTKFile>
