<VTKFile type="UnstructuredGrid" version="0.1" byte_order="LittleEndian">
<UnstructuredGrid>
<Piece NumberOfPoints="173" NumberOfCells="80">
<Points>
<DataArray type="Float64" NumberOfComponents="3" format="ascii">
 0.00000000e+00  0.00000000e+00  0.00000000e+00
 1.04674208e+00  0.00000000e+00  0.00000000e+00
 1.04983401e+00  1.08322692e+00  0.00000000e+00
 0.00000000e+00  1.08029413e+00  0.00000000e+00
 0.00000000e+00  0.00000000e+00  9.01661634e-01
 1.04585886e+00  0.00000000e+00  8.97957444e-01
 1.04686832e+00  1.07769811e+00  9.02648926e-01
 0.00000000e+00  1.07656169e+00  9.04395700e-01
 2.09783006e+00  0.00000000e+00  0.00000000e+00
 2.09910727e+00  1.08922279e+00  0.00000000e+00
 2.09534860e+00  0.00000000e+00  8.91503453e-01
 2.09779382e+00  1.08109057e+00  8.96862268e-01
 3.15004158e+00  0.00000000e+00  0.00000000e+00
 3.15494704e+00  1.09771037e+00  0.00000000e+00
 3.15589619e+00  0.00000000e+00  8.85783732e-01
 3.14996219e+00  1.08399463e+00  8.86163235e-01
 4.21924210e+00  0.00000000e+00  0.00000000e+00
 4.20620728e+00  1.10383964e+00  0.00000000e+00
 4.22337246e+00  0.00000000e+00  8.77227783e-01
 4.20875406e+00  1.08432615e+00  8.80282760e-01
 5.28585672e+00  0.00000000e+00  0.00000000e+00
 5.27062893e+00  1.11105394e+00  0.00000000e+00
 5.29217768e+00  0.00000000e+00  8.68981242e-01
 5.28071690e+00  1.08734608e+00  8.74295354e-01
 6.36055088e+00  0.00000000e+00  0.00000000e+00
 6.31764269e+00  1.13759971e+00  0.00000000e+00
 6.35710335e+00  0.00000000e+00  8.67929816e-01
 6.34653854e+00  1.11252689e+00  8.62236619e-01
 1.05414748e+00  2.14918685e+00  0.00000000e+00
 0.00000000e+00  2.14678693e+00  0.00000000e+00
 1.04989862e+00  2.14437079e+00  9.14341092e-01
 0.00000000e+00  2.14066005e+00  9.15150106e-01
 2.10761094e+00  2.16169047e+00  0.00000000e+00
 2.09882975e+00  2.15154052e+00  9.12959039e-01
 3.15123701e+00  2.17261577e+00  0.00000000e+00
 3.14435768e+00  2.15991712e+00  9.21577036e-01
 4.18761015e+00  2.19480515e+00  0.00000000e+00
 4.19051266e+00  2.15869784e+00  9.18591976e-01
 5.21165085e+00  2.19537163e+00  0.00000000e+00
 5.22834921e+00  2.16378427e+00  9.23384786e-01
 6.24618721e+00  2.23420787e+00  0.00000000e+00
 6.27386093e+00  2.19962096e+00  9.23764348e-01
 1.05778503e+00  3.19042563e+00  0.00000000e+00
 0.00000000e+00  3.18701935e+00  0.00000000e+00
 1.05200636e+00  3.19163489e+00  9.29372728e-01
 0.00000000e+00  3.18964338e+00  9.30763900e-01
 2.11628270e+00  3.19298482e+00  0.00000000e+00
 2.10607743e+00  3.19418311e+00  9.43748653e-01
 3.14865613e+00  3.20191717e+00  0.00000000e+00
 3.14178061e+00  3.19911599e+00  9.83717680e-01
 4.15555143e+00  3.20890784e+00  0.00000000e+00
 4.14661932e+00  3.19716859e+00  1.00657284e+00
 5.17194414e+00  3.20102286e+00  0.00000000e+00
 5.17411518e+00  3.17855358e+00  1.01585865e+00
 6.17447233e+00  3.24231839e+00  0.00000000e+00
 6.18166590e+00  3.23913765e+00  1.00498056e+00
 1.06040657e+00  4.21307039e+00  0.00000000e+00
 0.00000000e+00  4.21786022e+00  0.00000000e+00
 1.05285978e+00  4.21576452e+00  9.38444197e-01
 0.00000000e+00  4.22147322e+00  9.36602354e-01
 2.11575317e+00  4.20866776e+00  0.00000000e+00
 2.10347891e+00  4.20446920e+00  9.56596017e-01
 3.14367199e+00  4.20172739e+00  0.00000000e+00
 3.13478780e+00  4.20040035e+00  9.91798043e-01
 4.14021873e+00  4.20765018e+00  0.00000000e+00
 4.13983822e+00  4.20764542e+00  9.99960661e-01
 6.14013481e+00  4.21070957e+00  0.00000000e+00
 5.14019203e+00  4.20900106e+00  0.00000000e+00
 6.14025784e+00  4.21074200e+00  9.99726474e-01
 5.14025497e+00  4.20893764e+00  1.00001752e+00
 1.05823183e+00  5.23450518e+00  0.00000000e+00
 0.00000000e+00  5.24504662e+00  0.00000000e+00
 1.05487752e+00  5.24231672e+00  9.36154008e-01
 0.00000000e+00  5.24684238e+00  9.28640723e-01
 2.11373186e+00  5.21617126e+00  0.00000000e+00
 2.09710789e+00  5.21988916e+00  9.49788868e-01
 3.13492441e+00  5.20298243e+00  0.00000000e+00
 3.12800169e+00  5.20746708e+00  9.87353802e-01
 4.13883305e+00  5.20774078e+00  0.00000000e+00
 4.13859367e+00  5.20775557e+00  1.00024390e+00
 5.13867855e+00  5.20910692e+00  0.00000000e+00
 5.13877344e+00  5.20908689e+00  1.00002861e+00
 6.13879776e+00  5.21046925e+00  0.00000000e+00
 6.13881493e+00  5.21040392e+00  1.00000799e+00
 1.06578565e+00  6.27164078e+00  0.00000000e+00
 0.00000000e+00  6.27648020e+00  0.00000000e+00
 1.05915833e+00  6.27311325e+00  9.22527909e-01
 0.00000000e+00  6.28369951e+00  9.16074276e-01
 2.12228513e+00  6.24040174e+00  0.00000000e+00
 2.10054874e+00  6.26038551e+00  9.28357720e-01
 3.14129925e+00  6.21469736e+00  0.00000000e+00
 3.13367605e+00  6.23209810e+00  9.67292309e-01
 4.13849306e+00  6.20837688e+00  0.00000000e+00
 4.13782406e+00  6.20840549e+00  1.00053704e+00
 5.13748598e+00  6.20896006e+00  0.00000000e+00
 5.13759661e+00  6.20904541e+00  9.99966562e-01
 6.13745070e+00  6.21042728e+00  0.00000000e+00
 6.13747692e+00  6.21039867e+00  9.99995112e-01
 0.00000000e+00  0.00000000e+00  1.81126928e+00
 1.04609859e+00  0.00000000e+00  1.80386901e+00
 1.04551303e+00  1.06552804e+00  1.81155658e+00
 0.00000000e+00  1.06632054e+00  1.81240296e+00
 2.10277247e+00  0.00000000e+00  1.79444385e+00
 2.09230828e+00  1.05866742e+00  1.79921353e+00
 3.15937352e+00  0.00000000e+00  1.78244102e+00
 3.15936947e+00  1.05829656e+00  1.78138697e+00
 4.23238945e+00  0.00000000e+00  1.76352739e+00
 4.22653627e+00  1.05869830e+00  1.77543819e+00
 5.30758190e+00  0.00000000e+00  1.75066304e+00
 5.29997540e+00  1.06074762e+00  1.76401460e+00
 6.36758471e+00  0.00000000e+00  1.74542475e+00
 6.38016272e+00  1.06896329e+00  1.75321579e+00
 1.03982592e+00  2.12858033e+00  1.82891333e+00
 0.00000000e+00  2.13535690e+00  1.83400583e+00
 2.08946872e+00  2.12764263e+00  1.82220674e+00
 3.14367247e+00  2.13198018e+00  1.81754899e+00
 4.21602106e+00  2.14748836e+00  1.79896629e+00
 5.29074335e+00  2.14984059e+00  1.80530500e+00
 6.35569906e+00  2.16137791e+00  1.79299998e+00
 1.03509462e+00  3.18648672e+00  1.85797608e+00
 0.00000000e+00  3.18959379e+00  1.86298108e+00
 2.07604623e+00  3.18821025e+00  1.87203217e+00
 3.06763840e+00  3.16081381e+00  2.01117301e+00
 1.03749084e+00  4.23459387e+00  1.88398445e+00
 0.00000000e+00  4.22840452e+00  1.87435937e+00
 2.08290911e+00  4.21386385e+00  1.91462743e+00
 3.10635209e+00  4.18030167e+00  1.96242237e+00
 1.04659331e+00  5.25451231e+00  1.87479019e+00
 0.00000000e+00  5.26246643e+00  1.86733007e+00
 2.07749510e+00  5.24158859e+00  1.89753032e+00
 3.13110828e+00  5.22338009e+00  1.92099512e+00
 1.04118764e+00  6.29937887e+00  1.84322202e+00
 0.00000000e+00  6.29839325e+00  1.83729529e+00
 2.07926583e+00  6.30586958e+00  1.85209262e+00
 3.14229536e+00  6.29200935e+00  1.85554719e+00
 5.13880968e+00  5.20913124e+00  2.00003386e+00
 6.13881063e+00  5.21042156e+00  2.00003195e+00
 6.13751841e+00  6.21042967e+00  1.99998271e+00
 5.13749075e+00  6.20914555e+00  1.99996555e+00
 0.00000000e+00  0.00000000e+00  2.71879816e+00
 1.05354130e+00  0.00000000e+00  2.71681404e+00
 1.05682349e+00  1.05885196e+00  2.72268867e+00
 0.00000000e+00  1.05658436e+00  2.72795630e+00
 2.11890793e+00  0.00000000e+00  2.70236468e+00
 2.10629749e+00  1.05068696e+00  2.71146321e+00
 3.17690086e+00  0.00000000e+00  2.68649006e+00
 3.17810154e+00  1.04600620e+00  2.69043779e+00
 4.24672365e+00  0.00000000e+00  2.67285252e+00
 4.24975443e+00  1.04771543e+00  2.66785669e+00
 5.32051945e+00  0.00000000e+00  2.65615773e+00
 5.32084322e+00  1.05062079e+00  2.65844131e+00
 6.38886738e+00  0.00000000e+00  2.65095711e+00
 6.38823843e+00  1.05166793e+00  2.65245271e+00
 1.04038584e+00  2.11139679e+00  2.74416614e+00
 0.00000000e+00  2.12657619e+00  2.74763322e+00
 2.10641670e+00  2.11367249e+00  2.72236466e+00
 3.16733027e+00  2.12023735e+00  2.67890692e+00
 4.24456692e+00  2.13273549e+00  2.66760468e+00
 5.31449556e+00  2.12531543e+00  2.67016673e+00
 6.37452793e+00  2.13372469e+00  2.66458178e+00
 1.03638422e+00  3.19050503e+00  2.78925490e+00
 0.00000000e+00  3.18719435e+00  2.78534698e+00
 2.09569669e+00  3.16738248e+00  2.75776505e+00
 1.03696311e+00  4.23612165e+00  2.82271338e+00
 0.00000000e+00  4.24484491e+00  2.81479168e+00
 2.08604956e+00  4.23667908e+00  2.85834646e+00
 1.03784394e+00  5.29337883e+00  2.80807543e+00
 0.00000000e+00  5.28684139e+00  2.80361533e+00
 2.08284855e+00  5.28853559e+00  2.81929922e+00
 3.10065055e+00  4.29354954e+00  3.02224827e+00
 3.12531352e+00  5.27957392e+00  2.79622316e+00
 1.04139614e+00  6.33768463e+00  2.77016091e+00
 0.00000000e+00  6.34222460e+00  2.75855231e+00
</DataArray>
</Points>
<PointData Tensors="Stress_Components,Plastic_strain_components" Vevtors="Spatial_displacement,Reaction_force" Scalars="Equivalent_plastic_strain,Stress_Mises,Stress_Max_Principal,Stress_Mid_Principal,Stress_Min_Principal,Stress_Pressure,Stress_Tresca,Stress_Third_Invariant,Plastic_strain_Max_Principal,Plastic_strain_Min_Principal">
<DataArray type="Float32" Name="Stress_Components" NumberOfComponents="9" format="ascii">
-3.11457729e+00 -1.10167628e-02 -1.21308463e-02 -1.10167628e-02 3.64911973e-01 8.32687877e-03 -1.21308463e-02 8.32687877e-03 -3.27789116e+01
-9.18723661e+00 2.14717209e-01 -5.74057689e-03 2.14717209e-01 -4.89583689e+00 -2.52109349e-01 -5.74057689e-03 -2.52109349e-01 -4.49896011e+01
-4.33764887e+00 4.11364038e-01 -3.61962959e-01 4.11364038e-01 -1.78019238e+00 -3.15433823e-01 -3.61962959e-01 -3.15433823e-01 -3.64912508e+01
-5.64987618e+00 8.93288255e-02 -3.81850019e-01 8.93288255e-02 -3.31753111e+00 1.71688935e-02 -3.81850019e-01 1.71688935e-02 -3.96132603e+01
-1.04507720e+00 -6.79950789e-03 -8.91907886e-02 -6.79950789e-03 2.13553506e+00 -2.20121205e-01 -8.91907886e-02 -2.20121205e-01 -2.86469860e+01
-6.17329812e+00 1.27497023e-01 3.36449321e-01 1.27497023e-01 -2.38812310e+00 -5.59179857e-01 3.36449321e-01 -5.59179857e-01 -3.90369687e+01
-2.87698559e+00 3.03909117e-01 -1.43859169e-01 3.03909117e-01 -3.47593412e-01 -3.19860518e-01 -1.43859169e-01 -3.19860518e-01 -3.33682234e+01
-4.70482218e+00 9.78579456e-02 -2.77841460e-01 9.78579456e-02 -2.15827358e+00 1.85091961e-01 -2.77841460e-01 1.85091961e-01 -3.73087244e+01
-1.17724605e+01 1.88840047e-01 -1.75605770e-02 1.88840047e-01 -6.79005146e+00 -4.50224087e-01 -1.75605770e-02 -4.50224087e-01 -4.97699890e+01
-1.28673594e+01 9.09045640e-01 -6.26817975e-01 9.09045640e-01 -8.67423749e+00 -4.72365385e-01 -6.26817975e-01 -4.72365385e-01 -5.30332869e+01
-7.68591917e+00 1.44282479e-01 3.95185210e-01 1.44282479e-01 -4.36705267e+00 -6.60419017e-02 3.95185210e-01 -6.60419017e-02 -4.29217875e+01
-7.23437151e+00 2.58241233e-01 -7.66891222e-01 2.58241233e-01 -3.71713476e+00 -1.13206984e+00 -7.66891222e-01 -1.13206984e+00 -4.15825348e+01
-1.46100428e+01 5.51897436e-01 -7.02696964e-02 5.51897436e-01 -9.72441196e+00 4.17935789e-01 -7.02696964e-02 4.17935789e-01 -5.60797596e+01
-2.11550875e+01 5.94557263e-01 -1.28489025e+00 5.94557263e-01 -1.49305178e+01 -1.20259048e+00 -1.28489025e+00 -1.20259048e+00 -6.86076534e+01
-6.77323306e+00 -5.08474879e-01 -6.28387831e-01 -5.08474879e-01 -4.88687485e+00 -5.44633835e-02 -6.28387831e-01 -5.44633835e-02 -4.25777253e+01
-1.26514482e+01 -4.37975483e-01 -3.94896116e-01 -4.37975483e-01 -7.99547511e+00 -9.12758678e-01 -3.94896116e-01 -9.12758678e-01 -5.19770478e+01
-1.91859896e+01 -1.43061668e+00 -1.03848901e-01 -1.43061668e+00 -1.50100305e+01 1.32906890e-01 -1.03848901e-01 1.32906890e-01 -6.67835026e+01
-3.04877285e+01 -1.35737266e+00 -2.48265889e+00 -1.35737266e+00 -1.91657208e+01 -1.79453168e-01 -2.48265889e+00 -1.79453168e-01 -8.24568980e+01
-8.36520600e+00 -1.34851018e+00 -3.01179228e-01 -1.34851018e+00 -7.21995282e+00 -1.10556869e-01 -3.01179228e-01 -1.10556869e-01 -4.67993345e+01
3.46202612e-01 -1.00090082e+00 -5.50764057e-01 -1.00090082e+00 1.64276925e+00 2.90439513e-01 -5.50764057e-01 2.90439513e-01 -2.77925383e+01
-1.94788215e+01 -4.41159993e-01 -2.14866415e-01 -4.41159993e-01 -1.32155653e+01 1.16344866e+00 -2.14866415e-01 1.16344866e+00 -6.49792061e+01
-1.23662628e+01 -3.08333714e+00 -2.08908337e+00 -3.08333714e+00 -6.81094849e+00 4.72423539e-01 -2.08908337e+00 4.72423539e-01 -4.95659766e+01
-1.23457348e+00 -5.04248582e-01 -2.46843286e-01 -5.04248582e-01 -2.08623171e-01 1.21037147e+00 -2.46843286e-01 1.21037147e+00 -3.14929695e+01
3.93586545e+00 -1.75944895e+00 -2.94275381e-01 -1.75944895e+00 4.25062485e+00 2.69024324e-01 -2.94275381e-01 2.69024324e-01 -2.09429460e+01
-4.76110115e+01 -4.67630911e+00 -2.21099913e-01 -4.67630911e+00 -3.50707741e+01 5.14859200e-01 -2.21099913e-01 5.14859200e-01 -1.18102211e+02
-6.45572853e+01 -5.20844507e+00 -2.99674511e+00 -5.20844507e+00 -3.90687399e+01 5.31394601e+00 -2.99674511e+00 5.31394601e+00 -1.37009148e+02
-2.68171617e+01 -5.63632965e-01 -1.83041787e+00 -5.63632965e-01 -1.85254258e+01 2.84815118e+00 -1.83041787e+00 2.84815118e+00 -7.81135588e+01
-2.50264306e+01 -1.76553819e+00 -1.17604553e+00 -1.76553819e+00 -1.83852038e+01 2.89634186e+00 -1.17604553e+00 2.89634186e+00 -7.56653939e+01
-1.60390735e+00 8.49143364e-01 -5.16428890e-01 8.49143364e-01 -3.65681481e+00 -4.03908366e-01 -5.16428890e-01 -4.03908366e-01 -3.55529375e+01
5.29141426e-02 1.96045302e-01 -4.91047174e-01 1.96045302e-01 -1.96284056e+00 5.74872550e-03 -4.91047174e-01 5.74872550e-03 -3.19612617e+01
-1.45196504e+00 5.19732092e-01 2.99929259e-02 5.19732092e-01 -1.73994263e+00 -7.27567293e-01 2.99929259e-02 -7.27567293e-01 -3.34186163e+01
1.60734844e+00 1.82051849e-01 8.13943280e-01 1.82051849e-01 1.07170725e+00 5.30316611e-02 8.13943280e-01 5.30316611e-02 -2.70765969e+01
-6.41723919e+00 2.65491497e+00 -8.62307237e-01 2.65491497e+00 -9.05962420e+00 -1.16838234e+00 -8.62307237e-01 -1.16838234e+00 -4.61534724e+01
-4.63445237e+00 2.04119297e+00 1.78329049e+00 2.04119297e+00 -5.57797626e+00 -3.23859021e-01 1.78329049e+00 -3.23859021e-01 -4.00250868e+01
2.02825356e+01 1.33359760e+00 -1.63293749e+00 1.33359760e+00 1.86594620e+01 -5.17823547e-01 -1.63293749e+00 -5.17823547e-01 1.09979602e+01
5.84387902e+00 1.67586620e+00 3.79599739e+00 1.67586620e+00 6.95690720e+00 -2.93350884e-01 3.79599739e+00 -2.93350884e-01 -1.67509450e+01
3.04401612e+01 -8.05766247e-01 -4.59425040e+00 -8.05766247e-01 2.49154406e+01 -1.86107239e-01 -4.59425040e+00 -1.86107239e-01 2.88520419e+01
-1.51246632e+01 -6.85524582e+00 8.72508565e+00 -6.85524582e+00 -1.14583213e+01 5.22628675e-01 8.72508565e+00 5.22628675e-01 -5.33812826e+01
2.96588305e+01 1.08519761e+00 -3.89132257e+00 1.08519761e+00 2.87849845e+01 2.35557090e-01 -3.89132257e+00 2.35557090e-01 3.07810001e+01
-3.82789580e+00 -5.01448149e+00 9.30885489e+00 -5.01448149e+00 -9.07737509e+00 2.53807307e+00 9.30885489e+00 2.53807307e+00 -3.60554475e+01
1.73408003e+01 -5.02143145e+00 -6.95518982e+00 -5.02143145e+00 6.02379036e+00 1.79245198e+00 -6.95518982e+00 1.79245198e+00 -3.61161041e+00
-4.19102936e+01 -1.19591776e+01 1.22380984e+01 -1.19591776e+01 -3.31589355e+01 5.82044431e+00 1.22380984e+01 5.82044431e+00 -1.01069743e+02
-1.03575945e-01 6.27464429e-01 1.68033451e-01 6.27464429e-01 -9.26651061e+00 -8.24582636e-01 1.68033451e-01 -8.24582636e-01 -3.88393455e+01
7.22152233e+00 2.63781726e-01 2.86222622e-01 2.63781726e-01 2.70068264e+00 2.07105372e-03 2.86222622e-01 2.07105372e-03 -1.88579049e+01
2.76019453e+00 1.01567628e-01 1.00549945e+00 1.01567628e-01 -4.07209635e+00 -6.30180057e-01 1.00549945e+00 -6.30180057e-01 -3.06207747e+01
7.36021599e+00 9.25525138e-02 8.20073649e-01 9.25525138e-02 4.46344316e+00 -3.11373865e-01 8.20073649e-01 -3.11373865e-01 -1.69600723e+01
1.72195981e+01 -1.85638860e-01 -7.71731511e-02 -1.85638860e-01 9.70686036e+00 -1.13185512e+00 -7.71731511e-02 -1.13185512e+00 -2.30742455e-01
1.56390074e+01 -1.63967215e-01 1.05379788e+00 -1.63967215e-01 5.34648836e+00 1.58932469e+00 1.05379788e+00 1.58932469e+00 -6.77414489e+00
3.00936179e+01 -3.74184791e-01 9.81899053e-02 -3.74184791e-01 2.82343929e+01 -2.33284782e+00 9.81899053e-02 -2.33284782e+00 3.18685417e+01
2.90369788e+01 -1.85196408e+00 -3.35345606e-01 -1.85196408e+00 2.63182325e+01 2.86885951e+00 -3.35345606e-01 2.86885951e+00 3.12001816e+01
2.33885352e+01 -2.63876639e+00 -2.54162073e-01 -2.63876639e+00 2.16427232e+01 -2.50491929e+00 -2.54162073e-01 -2.50491929e+00 2.91052640e+01
3.22512509e+01 6.60610517e-01 -1.03758548e+01 6.60610517e-01 3.32775941e+01 3.78079071e+00 -1.03758548e+01 3.78079071e+00 5.22344209e+01
3.35146268e+01 -1.02585902e+00 3.48887368e+00 -1.02585902e+00 3.46124833e+01 -4.07960581e-01 3.48887368e+00 -4.07960581e-01 3.43357487e+01
2.68787832e+01 4.94825220e+00 -9.72215382e+00 4.94825220e+00 3.53532829e+01 -1.11373077e+00 -9.72215382e+00 -1.11373077e+00 4.44889288e+01
1.84026068e+01 3.37084210e+00 -5.47463417e-01 3.37084210e+00 8.32901955e+00 1.47269690e+00 -5.47463417e-01 1.47269690e+00 3.03749719e+01
4.39356737e+01 1.03092399e+01 -5.35928452e+00 1.03092399e+01 3.22433450e+01 -1.59702975e+00 -5.35928452e+00 -1.59702975e+00 6.06989164e+01
2.88461332e+00 -8.00241888e-01 2.01793190e-01 -8.00241888e-01 -8.55899650e+00 -1.19520472e+00 2.01793190e-01 -1.19520472e+00 -3.40084326e+01
2.75700283e+00 -8.19532216e-01 2.60547251e-01 -8.19532216e-01 -5.05094337e+00 -4.82727904e-02 2.60547251e-01 -4.82727904e-02 -3.14270868e+01
8.86055622e+00 -1.16708689e+00 1.32850411e+00 -1.16708689e+00 2.34464401e+00 4.11854377e-02 1.32850411e+00 4.11854377e-02 -1.65913024e+01
5.68729711e+00 -6.47321060e-01 2.51219958e-01 -6.47321060e-01 7.30762571e-01 -1.29913906e-01 2.51219958e-01 -1.29913906e-01 -2.25855997e+01
1.65369438e+01 -2.26156951e+00 -9.54501998e-01 -2.26156951e+00 1.12576165e+01 -2.16732926e+00 -9.54501998e-01 -2.16732926e+00 1.38407803e+00
1.84662792e+01 -1.02723171e+00 -7.96923656e-01 -1.02723171e+00 1.37234851e+01 2.86539532e+00 -7.96923656e-01 2.86539532e+00 7.21277523e+00
1.97501429e+01 -7.44969398e-02 5.59505250e-01 -7.44969398e-02 2.53420110e+01 -2.73293298e+00 5.59505250e-01 -2.73293298e+00 2.00421395e+01
2.82660293e+01 6.95829148e-01 -5.24904942e-01 6.95829148e-01 3.31682040e+01 -2.04498523e+00 -5.24904942e-01 -2.04498523e+00 3.35537537e+01
2.16192937e+01 1.34438275e+00 7.92061580e-01 1.34438275e+00 2.52840840e+01 -2.17004787e+00 7.92061580e-01 -2.17004787e+00 2.60399133e+01
1.41133366e+01 3.19403189e+00 3.31384440e-01 3.19403189e+00 1.08083626e+01 2.24817753e+00 3.31384440e-01 2.24817753e+00 4.18554172e+00
-1.07755741e+01 -7.69711852e+00 1.56154245e-01 -7.69711852e+00 -3.17680852e+01 1.45034564e+00 1.56154245e-01 1.45034564e+00 -1.50871866e+01
1.32762588e+01 2.47559094e+00 -7.56600320e-01 2.47559094e+00 1.90313411e+01 8.95118865e-01 -7.56600320e-01 8.95118865e-01 1.53466748e+01
7.48526335e-01 -5.90103292e+00 1.35455501e+00 -5.90103292e+00 -2.09932547e+01 -1.84743144e+00 1.35455501e+00 -1.84743144e+00 -5.06115341e+00
2.26275444e+00 -2.69431082e+00 -2.56127206e+00 -2.69431082e+00 8.99645352e+00 -7.61871412e-01 -2.56127206e+00 -7.61871412e-01 -3.09440547e+00
4.10432254e+00 -2.19807607e+00 1.11473626e+00 -2.19807607e+00 -5.01302198e+00 -4.21858024e-01 1.11473626e+00 -4.21858024e-01 -2.90964131e+01
1.67884302e+00 -1.53817397e+00 4.61923905e-01 -1.53817397e+00 -6.55523968e+00 -1.62698934e-02 4.61923905e-01 -1.62698934e-02 -3.40512941e+01
1.03606535e+01 -1.35773400e+00 8.32095310e-01 -1.35773400e+00 6.27737781e+00 2.69878288e-01 8.32095310e-01 2.69878288e-01 -1.12480712e+01
4.82219493e+00 -7.52646551e-01 -1.22856721e-03 -7.52646551e-01 -1.46287489e+00 7.87026554e-01 -1.22856721e-03 7.87026554e-01 -2.55184542e+01
1.57675252e+01 -2.22998004e+00 3.83940613e-01 -2.22998004e+00 1.01947380e+01 -2.57347462e+00 3.83940613e-01 -2.57347462e+00 -1.06675386e-01
9.87539041e+00 -2.32031410e+00 -7.23834693e-01 -2.32031410e+00 5.90273534e+00 2.66213867e+00 -7.23834693e-01 2.66213867e+00 -1.11527495e+01
1.52282503e+01 2.20658977e+00 2.82650884e+00 2.20658977e+00 1.39094343e+01 -1.63668060e+00 2.82650884e+00 -1.63668060e+00 1.89392710e+00
1.55375032e+01 -1.88988876e+00 -1.44708086e+00 -1.88988876e+00 1.32528721e+01 3.29703773e+00 -1.44708086e+00 3.29703773e+00 3.54241498e+00
1.35975155e+01 2.78721222e+00 -2.77738482e-01 2.78721222e+00 1.87444053e+01 -1.91429001e+00 -2.77738482e-01 -1.91429001e+00 2.00592057e+01
1.36987695e+01 3.07004198e+00 3.37025111e+00 3.07004198e+00 8.56593060e+00 -1.03403950e+00 3.37025111e+00 -1.03403950e+00 9.90023404e+00
-2.50154614e-01 7.49344230e-01 -3.48735072e-01 7.49344230e-01 2.55610847e+00 1.73297167e+00 -3.48735072e-01 1.73297167e+00 4.45022684e+00
3.38399206e+00 6.09834385e-01 -8.25410658e-01 6.09834385e-01 1.01442546e+00 -6.92435658e-01 -8.25410658e-01 -6.92435658e-01 2.69820237e-01
2.93054068e+00 4.22025979e-01 -1.35673797e+00 4.22025979e-01 -7.91005468e+00 3.52572516e-01 -1.35673797e+00 3.52572516e-01 -1.75428414e+00
9.72151518e-01 -1.15082130e+00 9.99681647e-01 -1.15082130e+00 -5.58314296e+00 -2.39224133e-01 9.99681647e-01 -2.39224133e-01 -2.25332464e-01
-2.26459413e+01 -2.88583030e+00 1.40086728e+00 -2.88583030e+00 -3.37892170e+01 -1.50529522e+00 1.40086728e+00 -1.50529522e+00 -8.95182686e+01
-2.02481937e+01 -1.30665135e+00 1.65748572e+00 -1.30665135e+00 -3.55120087e+01 -3.86485681e-02 1.65748572e+00 -3.86485681e-02 -8.83236313e+01
-1.02196864e+01 -1.59802075e+00 1.53956413e-02 -1.59802075e+00 -1.71538936e+01 -1.05048089e+00 1.53956413e-02 -1.05048089e+00 -5.88715525e+01
-2.09152489e+01 -1.54125172e+00 2.31940806e-01 -1.54125172e+00 -3.17286930e+01 9.58287507e-01 2.31940806e-01 9.58287507e-01 -8.59012718e+01
-3.23985972e+01 -6.92482233e+00 6.00191629e+00 -6.92482233e+00 -4.19488239e+01 -5.83924747e+00 6.00191629e+00 -5.83924747e+00 -1.07067554e+02
-1.73622873e+01 -4.48287437e+00 3.25294107e-01 -4.48287437e+00 -1.76996715e+01 2.18012601e-01 3.25294107e-01 2.18012601e-01 -6.70249882e+01
2.24561691e-01 2.05053806e-01 5.46528065e+00 2.05053806e-01 1.37109280e+01 -2.83512723e+00 5.46528065e+00 -2.83512723e+00 -1.34861031e+01
-3.91569354e+01 -9.60340657e+00 2.84786801e-01 -9.60340657e+00 -3.37675438e+01 1.27930909e+01 2.84786801e-01 1.27930909e+01 -1.03306585e+02
2.65261002e+01 3.47941673e+00 -1.25000101e+00 3.47941673e+00 3.62041140e+01 -6.05558538e+00 -1.25000101e+00 -6.05558538e+00 4.92978685e+01
-1.55003760e+01 -1.02137316e+01 2.16152525e+00 -1.02137316e+01 -1.53000345e+01 8.98486280e+00 2.16152525e+00 8.98486280e+00 -1.87428854e+01
-5.24331368e+00 -9.23441172e-01 1.30959329e+00 -9.23441172e-01 2.24212956e+00 1.79077911e+00 1.30959329e+00 1.79077911e+00 5.35435973e+00
-3.50790358e+00 -6.73427979e-01 6.56287690e-01 -6.73427979e-01 2.81299014e+00 -2.57536948e+00 6.56287690e-01 -2.57536948e+00 3.60192125e+00
-1.92027342e+00 2.50101686e+00 -5.92539847e-01 2.50101686e+00 -2.18050194e+00 5.54763854e-01 -5.92539847e-01 5.54763854e-01 -6.17715299e-01
-4.08667791e+00 3.24251369e-01 -1.98298335e-01 3.24251369e-01 6.84339419e-01 1.40979737e+00 -1.98298335e-01 1.40979737e+00 5.22547645e-01
-1.62995720e+00 3.22413212e-03 -1.99477248e-01 3.22413212e-03 1.16653872e+00 -3.85890588e-01 -1.99477248e-01 -3.85890588e-01 -3.03783073e+01
-2.24631369e-01 8.75800187e-02 4.30945709e-01 8.75800187e-02 1.51856911e+00 -3.95423476e-01 4.30945709e-01 -3.95423476e-01 -2.85336351e+01
2.80424811e+00 -1.75273116e-01 -3.93129047e-02 -1.75273116e-01 4.78369810e+00 2.17779577e-01 -3.93129047e-02 2.17779577e-01 -2.17031770e+01
-2.11015356e+00 7.46381329e-03 -2.49265321e-01 7.46381329e-03 8.57675970e-01 2.07526062e-01 -2.49265321e-01 2.07526062e-01 -3.11919339e+01
5.24983987e+00 -7.83928491e-01 4.58668701e-01 -7.83928491e-01 5.22507751e+00 3.24012414e-01 4.58668701e-01 3.24012414e-01 -1.86520033e+01
3.86216883e+00 -3.71329026e-01 -3.61828287e-01 -3.71329026e-01 4.98339894e+00 -7.81485103e-01 -3.61828287e-01 -7.81485103e-01 -2.02605104e+01
2.91073167e+00 -4.66845287e-02 -3.59158102e-01 -4.66845287e-02 2.65277267e+00 7.67328534e-02 -3.59158102e-01 7.67328534e-02 -2.39769220e+01
6.89658910e+00 -3.08774962e-01 -5.62152622e-01 -3.08774962e-01 6.31866401e+00 -4.18645186e-01 -5.62152622e-01 -4.18645186e-01 -1.56789579e+01
4.17406577e+00 -2.82713640e-01 7.00711086e-02 -2.82713640e-01 2.64097115e+00 -1.76279901e-01 7.00711086e-02 -1.76279901e-01 -2.26106000e+01
5.61105049e+00 -5.37816624e-01 -2.65406084e-01 -5.37816624e-01 5.37204480e+00 7.43558101e-01 -2.65406084e-01 7.43558101e-01 -1.80336260e+01
1.07902664e+01 -4.94975492e-01 2.96914624e-02 -4.94975492e-01 9.60322009e+00 5.55497590e-01 2.96914624e-02 5.55497590e-01 -7.87567234e+00
4.91512182e+00 -4.22342077e-01 -3.51814702e-02 -4.22342077e-01 3.91329944e+00 6.23646173e-01 -3.51814702e-02 6.23646173e-01 -2.04483477e+01
8.35912776e+00 4.13238019e-01 -2.88722292e-01 4.13238019e-01 9.22613811e+00 1.68178380e+00 -2.88722292e-01 1.68178380e+00 -1.07602792e+01
4.20989013e+00 2.60469541e-01 -1.00533551e+00 2.60469541e-01 3.49819100e+00 1.07671703e+00 -1.00533551e+00 1.07671703e+00 -2.14877623e+01
5.92205362e+00 -4.25776902e-01 2.53121708e-01 -4.25776902e-01 7.06627977e+00 -7.66858481e-01 2.53121708e-01 -7.66858481e-01 -1.58716182e+01
-1.32901427e+00 -5.07314913e-01 1.31648373e+00 -5.07314913e-01 9.46058437e-01 4.18933027e-02 1.31648373e+00 4.18933027e-02 -3.01879808e+01
-9.05984776e+00 -1.58822898e-01 -4.98568081e-01 -1.58822898e-01 -5.24164297e+00 -7.01694105e-02 -4.98568081e-01 -7.01694105e-02 -4.85784481e+01
-6.43386443e+01 -9.21329500e+00 1.87186500e+01 -9.21329500e+00 -6.55003669e+01 6.70753622e-01 1.87186500e+01 6.70753622e-01 -1.49100546e+02
-4.45926867e+01 -7.08388506e-01 6.87440790e-01 -7.08388506e-01 -4.02535057e+01 2.50865081e+00 6.87440790e-01 2.50865081e+00 -1.21576136e+02
-4.09044793e+01 -1.51991175e+00 2.57608521e+00 -1.51991175e+00 -3.39783403e+01 5.06851089e+00 2.57608521e+00 5.06851089e+00 -1.09574077e+02
-4.77921219e+01 -4.47145486e+00 2.32538527e+00 -4.47145486e+00 -3.69964495e+01 6.54700512e+00 2.32538527e+00 6.54700512e+00 -1.18890980e+02
1.44896681e+01 -4.68535558e-02 7.51963142e-01 -4.68535558e-02 1.58793311e+01 -9.43771818e-01 7.51963142e-01 -9.43771818e-01 2.67354810e+00
1.17451290e+01 -2.42527632e-01 9.66226928e-01 -2.42527632e-01 1.15146586e+01 8.53159316e-02 9.66226928e-01 8.53159316e-02 -4.74234009e+00
-3.71164428e+01 -2.08302732e+00 5.91782256e+00 -2.08302732e+00 -3.23886412e+01 1.32399990e+01 5.91782256e+00 1.32399990e+01 -8.79572682e+01
6.24623852e+01 6.47780371e+00 -1.51930337e+01 6.47780371e+00 6.17164021e+01 -6.82000321e+00 -1.51930337e+01 -6.82000321e+00 9.33538780e+01
1.54962935e+01 -4.55992393e-01 1.85494434e+00 -4.55992393e-01 1.36749028e+01 5.34786934e-01 1.85494434e+00 5.34786934e-01 2.53642070e+00
1.61687473e+01 8.50937024e-01 1.38166541e-01 8.50937024e-01 1.59818481e+01 4.65802336e-01 1.38166541e-01 4.65802336e-01 4.76608303e+00
3.20351143e+01 -1.55284395e+00 -4.39446556e-01 -1.55284395e+00 3.03695879e+01 -1.10933905e+00 -4.39446556e-01 -1.10933905e+00 3.43225355e+01
2.58749615e+01 -5.63502299e-01 -4.53256321e+00 -5.63502299e-01 2.73313637e+01 -1.70085053e-01 -4.53256321e+00 -1.70085053e-01 2.80921731e+01
1.77790792e+01 8.01717266e-02 1.73259988e-01 8.01717266e-02 1.48904373e+01 2.89659556e-02 1.73259988e-01 2.89659556e-02 5.50977993e+00
1.10685405e+01 -6.84440862e-01 4.81363766e-01 -6.84440862e-01 9.01519501e+00 4.09668876e-01 4.81363766e-01 4.09668876e-01 -8.14062214e+00
6.00144893e+00 -2.82625605e+00 8.99172164e-01 -2.82625605e+00 5.13324755e+00 2.49924669e+00 8.99172164e-01 2.49924669e+00 -1.54771858e+01
-2.24062395e+01 -2.05276687e+00 -1.11753931e-01 -2.05276687e+00 -2.03580904e+01 6.36514997e+00 -1.11753931e-01 6.36514997e+00 -7.86609905e+01
-3.14765263e+00 -9.19317216e-01 4.39401045e-02 -9.19317216e-01 -3.84944820e+00 -8.28320440e-02 4.39401045e-02 -8.28320440e-02 -3.76446109e+01
-5.58979034e+00 -6.46492809e-01 -3.05047870e-01 -6.46492809e-01 -8.92921114e+00 1.55120903e+00 -3.05047870e-01 1.55120903e+00 -4.54811802e+01
-1.31640768e+01 -4.41410832e-01 1.44178477e+00 -4.41410832e-01 -6.50489616e+00 -2.90479736e+00 1.44178477e+00 -2.90479736e+00 -5.06208153e+01
-9.13388176e+01 -4.36698174e+00 -6.71996975e+00 -4.36698174e+00 -8.58208008e+01 4.89539909e+00 -6.71996975e+00 4.89539909e+00 -2.21557411e+02
-2.31152322e-01 -5.96091241e-01 -2.75117557e-01 -5.96091241e-01 3.32801146e-01 2.70647936e-01 -2.75117557e-01 2.70647936e-01 -4.89160553e-01
-4.32659566e-01 -3.94139644e-02 -9.16490108e-02 -3.94139644e-02 -1.22536570e-01 -2.25696500e-01 -9.16490108e-02 -2.25696500e-01 1.67832017e-01
6.92205518e-01 -1.66271858e-01 -1.29836336e-01 -1.66271858e-01 -1.11150112e-01 5.72664782e-01 -1.29836336e-01 5.72664782e-01 -9.68491882e-01
3.66003893e-01 -7.23168761e-01 4.20294106e-02 -7.23168761e-01 -1.83485338e-01 -5.16426951e-01 4.20294106e-02 -5.16426951e-01 -5.70068024e-01
1.48857069e+00 4.04424109e-02 1.39954016e-01 4.04424109e-02 2.26306820e+00 -1.24358945e-03 1.39954016e-01 -1.24358945e-03 -2.59647942e+01
2.24043281e+00 4.68490943e-01 1.52262081e-02 4.68490943e-01 2.21872768e+00 2.67500155e-01 1.52262081e-02 2.67500155e-01 -2.51433824e+01
6.70769677e+00 -1.80348155e-01 1.08970180e-02 -1.80348155e-01 7.29612973e+00 4.49519249e-01 1.08970180e-02 4.49519249e-01 -1.48181800e+01
2.03366071e+00 1.83560060e-01 1.20282072e-01 1.83560060e-01 3.43461442e+00 -1.93722308e-01 1.20282072e-01 -1.93722308e-01 -2.40637143e+01
7.27894449e+00 -7.92242445e-01 1.62056301e-01 -7.92242445e-01 6.58135164e+00 -7.12098563e-02 1.62056301e-01 -7.12098563e-02 -1.49891571e+01
6.03081042e+00 -4.81950457e-01 8.27822561e-01 -4.81950457e-01 6.03438827e+00 8.88135434e-01 8.27822561e-01 8.88135434e-01 -1.67326163e+01
6.47070771e+00 1.25741487e-01 2.89311163e-01 1.25741487e-01 5.54823816e+00 6.41066421e-01 2.89311163e-01 6.41066421e-01 -1.69091406e+01
1.14310412e+01 -3.88450115e-02 5.32938088e-02 -3.88450115e-02 1.00378076e+01 -6.89306087e-02 5.32938088e-02 -6.89306087e-02 -6.78316179e+00
9.05666211e+00 8.36954601e-02 -1.88536179e-01 8.36954601e-02 7.17144793e+00 4.98226503e-01 -1.88536179e-01 4.98226503e-01 -1.23259822e+01
6.07027942e+00 -6.45167381e-03 -4.68394265e-01 -6.45167381e-03 4.00117469e+00 1.33968315e-01 -4.68394265e-01 1.33968315e-01 -1.90158410e+01
1.23357384e+01 -1.97825085e-01 -4.70284778e-02 -1.97825085e-01 1.08149438e+01 4.56783678e-02 -4.70284778e-02 4.56783678e-02 -4.88071162e+00
1.01953242e+01 6.48573958e-02 -3.08342066e-01 6.48573958e-02 7.63833654e+00 1.06292468e-01 -3.08342066e-01 1.06292468e-01 -1.06137059e+01
1.25191188e+01 -8.83180033e-02 -1.37614368e-01 -8.83180033e-02 1.18672731e+01 -2.49317765e-01 -1.37614368e-01 -2.49317765e-01 -3.50017691e+00
1.77575947e+01 3.62630882e-01 -4.28055355e-01 3.62630882e-01 1.57800937e+01 8.06308538e-02 -4.28055355e-01 8.06308538e-02 6.24164867e+00
2.41025245e+00 -7.41540091e-01 1.32051083e+00 -7.41540091e-01 4.66504347e+00 1.12553351e-02 1.32051083e+00 1.12553351e-02 -2.18550355e+01
3.81424451e+00 -1.05808911e+00 8.43388695e-01 -1.05808911e+00 7.06098360e+00 -2.50415447e-01 8.43388695e-01 -2.50415447e-01 -1.79164190e+01
1.78401083e+01 3.02867809e+00 4.35417622e+00 3.02867809e+00 1.63252473e+01 3.62411074e+00 4.35417622e+00 3.62411074e+00 -1.17281437e-01
-8.37033783e+01 -7.31463774e+00 -1.84235343e+01 -7.31463774e+00 -8.47151398e+01 -2.14785991e+00 -1.84235343e+01 -2.14785991e+00 -1.90868636e+02
-5.34047413e+01 -1.38709235e+00 -3.99867243e+00 -1.38709235e+00 -4.86383414e+01 1.05997710e+00 -3.99867243e+00 1.05997710e+00 -1.39912663e+02
-3.56478677e+01 -1.75998579e+00 -1.61065742e-01 -1.75998579e+00 -3.10297360e+01 1.59703086e+00 -1.61065742e-01 1.59703086e+00 -1.01871672e+02
-3.08036623e+01 -2.87993312e+00 -7.71001145e-01 -2.87993312e+00 -2.15327148e+01 3.56571451e-01 -7.71001145e-01 3.56571451e-01 -8.57011070e+01
3.63215147e+00 1.35887431e-01 2.63804443e+00 1.35887431e-01 6.15909168e+00 5.73780347e-01 2.63804443e+00 5.73780347e-01 -1.87198363e+01
1.29411242e+01 5.15324147e-02 1.08982651e+00 5.15324147e-02 1.39039037e+01 -2.30261233e-01 1.08982651e+00 -2.30261233e-01 -8.21576715e-01
-1.13513675e+02 -1.24726965e+01 8.93857539e+00 -1.24726965e+01 -1.03695410e+02 -1.58879789e+01 8.93857539e+00 -1.58879789e+01 -2.36971481e+02
2.48274343e+01 -6.08691531e-02 -2.45427367e+00 -6.08691531e-02 2.48649190e+01 2.05473091e-01 -2.45427367e+00 2.05473091e-01 2.29588148e+01
1.40935742e+01 -3.79437201e-01 1.19007886e+00 -3.79437201e-01 1.42942356e+01 6.59192167e-01 1.19007886e+00 6.59192167e-01 1.06128168e+00
-6.15760944e+01 2.09768846e+00 6.05159566e+00 2.09768846e+00 -5.76606304e+01 1.99044881e+01 6.05159566e+00 1.99044881e+01 -1.37265137e+02
1.63651540e+01 5.82461683e-02 8.53929414e-01 5.82461683e-02 1.69639957e+01 -3.24797109e-01 8.53929414e-01 -3.24797109e-01 5.99264210e+00
1.47807649e+01 -6.40136544e-02 7.11601488e-02 -6.40136544e-02 1.46653861e+01 2.55507521e-01 7.11601488e-02 2.55507521e-01 1.89017820e+00
2.35958693e+01 -2.47533322e+00 3.26841776e+00 -2.47533322e+00 2.61630086e+01 8.33527531e-02 3.26841776e+00 8.33527531e-02 1.92530283e+01
5.06638680e+01 -1.48572996e-02 1.22375317e+01 -1.48572996e-02 5.41473618e+01 2.36489177e+00 1.22375317e+01 2.36489177e+00 9.83437500e+01
-7.54862423e+01 9.13868284e+00 -2.81989412e+01 9.13868284e+00 -8.00840379e+01 -1.73116811e+00 -2.81989412e+01 -1.73116811e+00 -1.76504346e+02
1.23393211e+01 -2.95082279e-01 3.63934107e-01 -2.95082279e-01 1.09559644e+01 4.32325792e-01 3.63934107e-01 4.32325792e-01 -5.22888088e+00
4.43717289e+00 -4.32972699e-01 -3.07743132e-01 -4.32972699e-01 6.44482899e+00 7.62583196e-01 -3.07743132e-01 7.62583196e-01 -1.82365475e+01
</DataArray>
<DataArray type="Float32" Name="Logarithmic_strain_components" NumberOfComponents="9" format="ascii">
4.55995537e-02 -1.43488433e-06 1.09581106e-06 -1.43488433e-06 7.71534070e-02 -1.54304726e-05 1.09581106e-06 -1.54304726e-05 -1.03611052e-01
4.75183334e-02 2.94337585e-03 5.04418267e-06 2.94337585e-03 7.97108524e-02 -8.40154622e-04 5.04418267e-06 -8.40154622e-04 -1.07910916e-01
4.85847387e-02 7.68183416e-03 -5.10814402e-03 7.68183416e-03 7.21545555e-02 -2.79583456e-03 -5.10814402e-03 -2.79583456e-03 -1.02168182e-01
4.83617336e-02 2.73158657e-03 -3.45908967e-03 2.73158657e-03 7.05621503e-02 4.03282320e-06 -3.45908967e-03 4.03282320e-06 -1.00803148e-01
4.45239972e-02 4.54687142e-06 3.00316385e-03 4.54687142e-06 7.34671466e-02 -4.03508404e-03 3.00316385e-03 -4.03508404e-03 -9.94734988e-02
4.67168782e-02 9.72917333e-04 5.18001767e-03 9.72917333e-04 7.49701448e-02 -5.92053059e-03 5.18001767e-03 -5.92053059e-03 -1.03021823e-01
4.75926413e-02 4.05175099e-03 7.77560014e-04 4.05175099e-03 6.95915911e-02 -6.17508541e-03 7.77560014e-04 -6.17508541e-03 -9.90771521e-02
4.65573063e-02 1.06005321e-03 8.98101222e-04 1.06005321e-03 6.87200055e-02 -1.96194515e-03 8.98101222e-04 -1.96194515e-03 -9.75898467e-02
5.01720645e-02 1.21148297e-03 6.83481312e-06 1.21148297e-03 8.52790847e-02 -2.35634611e-03 6.83481312e-06 -2.35634611e-03 -1.15070790e-01
5.08735096e-02 1.13382125e-02 -7.47572922e-03 1.13382125e-02 7.74175338e-02 -1.19698627e-03 -7.47572922e-03 -1.19698627e-03 -1.09251129e-01
5.24355583e-02 2.31390074e-03 5.95310831e-03 2.31390074e-03 7.68705010e-02 -4.41558797e-03 5.95310831e-03 -4.41558797e-03 -1.09736336e-01
5.06301806e-02 4.60890215e-03 -2.29090205e-03 4.60890215e-03 7.35289166e-02 -1.23058998e-02 -2.29090205e-03 -1.23058998e-02 -1.05271604e-01
5.60014341e-02 4.61517624e-03 -1.35410737e-05 4.61517624e-03 9.04028118e-02 5.48897497e-03 -1.35410737e-05 5.48897497e-03 -1.24782689e-01
5.38889766e-02 7.30342302e-03 -1.25204499e-02 7.30342302e-03 8.45038742e-02 -4.65040770e-03 -1.25204499e-02 -4.65040770e-03 -1.18849164e-01
5.99447815e-02 -5.58954489e-03 4.04424056e-04 -5.58954489e-03 7.85729196e-02 -3.62718879e-03 4.04424056e-04 -3.62718879e-03 -1.17637692e-01
5.54164778e-02 -4.01799250e-03 1.74476940e-03 -4.01799250e-03 7.84019744e-02 -7.23235102e-03 1.74476940e-03 -7.23235102e-03 -1.13799114e-01
6.23664875e-02 -1.22513473e-02 2.31890008e-05 -1.22513473e-02 9.54895392e-02 3.84094613e-03 2.31890008e-05 3.84094613e-03 -1.35088429e-01
5.58200525e-02 -8.90375231e-03 -1.76373445e-02 -8.90375231e-03 9.25642997e-02 2.29516224e-03 -1.76373445e-02 2.29516224e-03 -1.28193125e-01
6.63016066e-02 -1.36715057e-02 3.42022115e-03 -1.36715057e-02 8.12193993e-02 -3.38254910e-03 3.42022115e-03 -3.38254910e-03 -1.25382489e-01
6.36485186e-02 -1.40672028e-02 2.35998759e-03 -1.40672028e-02 7.66570913e-02 2.51664146e-03 2.35998759e-03 2.51664146e-03 -1.18500030e-01
6.55429214e-02 -1.42217251e-02 5.65415467e-05 -1.42217251e-02 1.02564264e-01 5.83186420e-03 5.65415467e-05 5.83186420e-03 -1.43852077e-01
5.74887134e-02 -1.97805683e-02 -2.12960308e-02 -1.97805683e-02 9.58199687e-02 9.17958212e-03 -2.12960308e-02 9.17958212e-03 -1.31287511e-01
6.74423706e-02 -1.07119388e-02 6.07483415e-03 -1.07119388e-02 8.62730648e-02 4.77168529e-03 6.07483415e-03 4.77168529e-03 -1.29913356e-01
6.78040269e-02 -1.71059464e-02 7.35618721e-03 -1.71059464e-02 7.94741986e-02 2.40824295e-03 7.35618721e-03 2.40824295e-03 -1.24069579e-01
6.09494857e-02 -4.02076691e-02 -4.28393541e-05 -4.02076691e-02 1.17794529e-01 -3.33508407e-03 -4.28393541e-05 -3.33508407e-03 -1.55718058e-01
5.07983211e-02 -3.08933277e-02 -2.17374042e-02 -3.08933277e-02 1.14091258e-01 2.68498762e-02 -2.17374042e-02 2.68498762e-02 -1.44423760e-01
5.95048293e-02 -9.82873235e-03 -6.36529783e-03 -9.82873235e-03 1.03369635e-01 2.06418545e-03 -6.36529783e-03 2.06418545e-03 -1.40222088e-01
6.28874218e-02 -1.68415427e-02 2.78295483e-04 -1.68415427e-02 9.33298245e-02 1.37504102e-02 2.78295483e-04 1.37504102e-02 -1.33363176e-01
5.27084516e-02 1.08522685e-02 -4.53489216e-03 1.08522685e-02 5.25184348e-02 -3.99413356e-03 -4.53489216e-03 -3.99413356e-03 -8.91901962e-02
5.27417623e-02 2.27807288e-03 -5.80192124e-03 2.27807288e-03 5.19846343e-02 8.85849295e-06 -5.80192124e-03 8.85849295e-06 -8.86648186e-02
4.87852124e-02 7.68095785e-03 4.85793711e-03 7.68095785e-03 5.59859429e-02 -7.97301700e-03 4.85793711e-03 -7.97301700e-03 -8.87271082e-02
4.83232904e-02 3.50558711e-03 8.93006555e-03 3.50558711e-03 5.46223791e-02 -9.04211411e-04 8.93006555e-03 -9.04211411e-04 -8.69824197e-02
5.01049282e-02 1.93308936e-02 -9.52606695e-03 1.93308936e-02 5.32448981e-02 -8.22848873e-03 -9.52606695e-03 -8.22848873e-03 -8.79521761e-02
4.84260786e-02 1.14663810e-02 9.55031137e-03 1.14663810e-02 5.73393395e-02 -4.56157850e-03 9.55031137e-03 -4.56157850e-03 -9.01968814e-02
4.14863145e-02 1.27404525e-02 -1.20219565e-02 1.27404525e-02 5.31156044e-02 -6.53711124e-03 -1.20219565e-02 -6.53711124e-03 -7.91431833e-02
4.65851240e-02 -6.98765673e-05 3.30893878e-02 -6.98765673e-05 6.02442138e-02 8.76302365e-05 3.30893878e-02 8.76302365e-05 -9.05481811e-02
3.61712556e-02 -1.36148046e-02 -3.41196340e-02 -1.36148046e-02 5.74122635e-02 2.57993030e-03 -3.41196340e-02 2.57993030e-03 -7.83276800e-02
4.59359375e-02 -2.40080450e-02 3.36163635e-02 -2.40080450e-02 6.48220672e-02 9.71008954e-03 3.36163635e-02 9.71008954e-03 -9.21534598e-02
3.68681913e-02 -2.91227610e-02 -2.97998535e-02 -2.91227610e-02 5.11026033e-02 1.56916957e-02 -2.97998535e-02 1.56916957e-02 -7.21649602e-02
4.75793909e-02 -3.23436872e-02 4.49812481e-02 -3.23436872e-02 5.93867935e-02 3.03544225e-02 4.49812481e-02 3.03544225e-02 -8.70440242e-02
3.87776969e-02 -3.25385770e-02 -3.23922075e-02 -3.25385770e-02 5.39690657e-02 2.61570755e-02 -3.23922075e-02 2.61570755e-02 -7.69451335e-02
4.79838165e-02 -4.41891290e-02 4.20544197e-02 -4.41891290e-02 6.92758573e-02 3.90020379e-02 4.20544197e-02 3.90020379e-02 -9.71196766e-02
5.60267754e-02 5.86005743e-03 1.18411388e-03 5.86005743e-03 3.09203193e-02 -5.45208238e-03 1.18411388e-03 -5.45208238e-03 -7.38173686e-02
5.44496346e-02 3.29375081e-03 2.52733461e-03 3.29375081e-03 3.31624523e-02 -7.55099973e-06 2.52733461e-03 -7.55099973e-06 -7.37131909e-02
5.17838919e-02 3.65154198e-03 1.10814489e-02 3.65154198e-03 3.50860567e-02 -3.77412348e-03 1.10814489e-02 -3.77412348e-03 -7.35193212e-02
4.89217583e-02 1.91784164e-03 1.27615116e-02 1.91784164e-03 3.77627015e-02 -1.51552606e-03 1.27615116e-02 -1.51552606e-03 -7.29436595e-02
4.49816817e-02 9.56051738e-03 1.21259165e-03 9.56051738e-03 2.37646238e-02 -9.75005608e-03 1.21259165e-03 -9.75005608e-03 -5.73285762e-02
4.63421671e-02 5.88904208e-03 2.11807787e-02 5.88904208e-03 2.81731103e-02 9.82424547e-03 2.11807787e-02 9.82424547e-03 -6.31215563e-02
1.65744026e-02 4.27830569e-03 -2.74941977e-03 4.27830569e-03 1.15817031e-02 -6.78402989e-03 -2.74941977e-03 -6.78402989e-03 -1.94376973e-02
1.45896354e-02 -1.33654594e-03 2.14530842e-02 -1.33654594e-03 8.72203580e-03 6.23400727e-03 2.14530842e-02 6.23400727e-03 -1.22711993e-02
4.44958662e-03 -2.41628944e-02 -1.19133232e-02 -2.41628944e-02 3.19055654e-03 -8.99821489e-03 -1.19133232e-02 -8.99821489e-03 6.73477538e-04
-7.54826935e-04 -3.87863349e-02 4.53119048e-02 -3.87863349e-02 1.44718569e-02 8.48895100e-03 4.53119048e-02 8.48895100e-03 -5.08345136e-03
1.19240023e-04 -1.21873586e-02 -2.25213474e-02 -1.21873586e-02 -4.44234135e-04 2.15960907e-03 -2.25213474e-02 2.15960907e-03 8.12196545e-03
4.91123841e-04 -1.36380563e-02 3.33505770e-02 -1.36380563e-02 5.78635302e-03 -4.09103356e-03 3.33505770e-02 -4.09103356e-03 3.39630308e-03
6.92936004e-03 -1.11571108e-02 -3.27700737e-03 -1.11571108e-02 -8.15285044e-03 7.32773845e-03 -3.27700737e-03 7.32773845e-03 7.88900931e-03
5.48096234e-03 -6.14485238e-03 3.43405702e-02 -6.14485238e-03 1.72370858e-03 -6.52192801e-03 3.43405702e-02 -6.52192801e-03 1.40689220e-03
5.54111814e-02 -4.30023766e-03 2.63361615e-03 -4.30023766e-03 2.09091380e-02 -7.11717329e-03 2.63361615e-03 -7.11717329e-03 -6.45225570e-02
5.57471309e-02 -4.66782716e-03 3.51623283e-03 -4.66782716e-03 2.56222924e-02 7.98029578e-06 3.51623283e-03 7.98029578e-06 -6.87823817e-02
4.92060357e-02 -7.05838131e-03 1.40065377e-02 -7.05838131e-03 2.37565273e-02 -2.31178361e-04 1.40065377e-02 -2.31178361e-04 -6.11597267e-02
5.06964820e-02 -5.54247899e-03 3.98888416e-03 -5.54247899e-03 2.73735025e-02 1.97806486e-03 3.98888416e-03 1.97806486e-03 -6.57713488e-02
4.11335812e-02 -6.78725005e-03 -4.18290612e-03 -6.78725005e-03 1.18810403e-02 -1.17832294e-02 -4.18290612e-03 -1.17832294e-02 -4.40542400e-02
4.01122374e-02 -1.20050184e-02 5.60720661e-03 -1.20050184e-02 1.26507797e-02 1.20367428e-02 5.60720661e-03 1.20367428e-02 -4.33171391e-02
1.20443969e-02 -7.30667812e-03 -1.37068293e-03 -7.30667812e-03 4.31786000e-04 -8.79577920e-03 -1.37068293e-03 -8.79577920e-03 -8.35857238e-03
2.03760401e-02 -6.95168788e-03 -5.65872520e-03 -6.95168788e-03 2.23312462e-03 1.17329113e-02 -5.65872520e-03 1.17329113e-02 -1.70042707e-02
-1.08067857e-03 -1.65059890e-03 -1.29380336e-06 -1.65059890e-03 8.50848344e-04 -3.90674482e-04 -1.29380336e-06 -3.90674482e-04 1.16836285e-03
1.45553858e-03 2.16280672e-03 -1.98808444e-03 2.16280672e-03 1.53051620e-03 5.11141487e-03 -1.98808444e-03 5.11141487e-03 -2.07582591e-03
5.88276754e-03 -1.59178759e-02 4.26244696e-05 -1.59178759e-02 -1.03867086e-02 1.15393210e-04 4.26244696e-05 1.15393210e-04 5.47625175e-03
-5.59141220e-04 -1.00361523e-02 -5.01974476e-05 -1.00361523e-02 2.01951164e-03 3.68005616e-05 -5.01974476e-05 3.68005616e-05 -6.03650402e-04
5.52752528e-03 -1.94050101e-02 -2.37096491e-03 -1.94050101e-02 -9.41467530e-03 -1.17476342e-04 -2.37096491e-03 -1.17476342e-04 4.94776214e-03
-2.90366303e-03 -1.07756638e-02 -5.34260031e-03 -1.07756638e-02 6.85671515e-03 -5.90246830e-05 -5.34260031e-03 -5.90246830e-05 -3.15749038e-03
5.34791043e-02 -1.15214187e-02 7.56611011e-03 -1.15214187e-02 2.70782025e-02 -3.12354718e-03 7.56611011e-03 -3.12354718e-03 -6.80269748e-02
5.71705773e-02 -1.02389390e-02 1.73366826e-03 -1.02389390e-02 2.95240972e-02 8.87409624e-06 1.73366826e-03 8.87409624e-06 -7.33583607e-02
4.77514206e-02 -1.01352414e-02 1.09351514e-03 -1.01352414e-02 2.87762135e-02 5.68625095e-03 1.09351514e-03 5.68625095e-03 -6.41256361e-02
5.25737870e-02 -4.39026731e-03 -2.55757701e-03 -4.39026731e-03 2.98326206e-02 8.02633120e-03 -2.55757701e-03 8.02633120e-03 -6.95200730e-02
4.00999729e-02 -1.24017373e-02 3.56155657e-03 -1.24017373e-02 1.83436670e-02 -1.59756108e-02 3.56155657e-03 -1.59756108e-02 -4.88872165e-02
3.58252851e-02 -1.85653578e-02 -2.85918932e-03 -1.85653578e-02 2.75791604e-02 9.43466752e-03 -2.85918932e-03 9.43466752e-03 -5.22186849e-02
1.20085125e-02 -5.41495206e-03 4.46244807e-03 -5.41495206e-03 6.01253474e-03 -6.86714111e-03 4.46244807e-03 -6.86714111e-03 -1.32201700e-02
2.30902835e-02 -8.56932059e-03 -4.58959538e-03 -8.56932059e-03 1.52938857e-02 2.68012306e-02 -4.58959538e-03 2.68012306e-02 -3.12286572e-02
1.35476333e-03 2.20248745e-03 1.81115386e-05 2.20248745e-03 -1.53399204e-04 -2.42748160e-04 1.81115386e-05 -2.42748160e-04 -2.74980152e-04
3.66870177e-03 -1.91839674e-04 3.39846505e-04 -1.91839674e-04 -1.31330965e-03 6.11974046e-03 3.39846505e-04 6.11974046e-03 -1.43891611e-03
9.86137150e-06 1.11322624e-05 -2.05425940e-05 1.11322624e-05 6.82124937e-06 9.47157259e-05 -2.05425940e-05 9.47157259e-05 5.53733400e-05
6.32839872e-05 2.40976893e-05 -4.04719118e-05 2.40976893e-05 1.76774120e-06 -1.57059972e-05 -4.04719118e-05 -1.57059972e-05 -1.01812525e-05
9.64223655e-05 2.04247467e-05 -6.49203976e-05 2.04247467e-05 -1.63229462e-04 1.68306124e-05 -6.49203976e-05 1.68306124e-05 -1.50120441e-05
4.26972274e-05 -5.50133112e-05 4.78146991e-05 -5.50133112e-05 -1.14958425e-04 -1.10509824e-05 4.78146991e-05 -1.10509824e-05 1.38607750e-05
5.83896842e-02 -1.02735932e-02 1.33977510e-03 -1.02735932e-02 3.56718749e-02 -6.23258948e-03 1.33977510e-03 -6.23258948e-03 -8.16987082e-02
6.56300783e-02 -4.69887443e-03 6.96711987e-03 -4.69887443e-03 3.29538211e-02 2.68265576e-05 6.96711987e-03 2.68265576e-05 -8.54380354e-02
5.37219197e-02 -7.34766258e-03 -1.41081773e-03 -7.34766258e-03 3.51981530e-02 -5.09437111e-03 -1.41081773e-03 -5.09437111e-03 -7.62853101e-02
5.86197171e-02 -1.01840370e-02 -3.14225530e-03 -1.01840370e-02 3.74845583e-02 6.96853036e-03 -3.14225530e-03 6.96853036e-03 -8.33862834e-02
4.42954712e-02 -1.96413277e-02 1.91379916e-02 -1.96413277e-02 3.16566760e-02 -2.06530225e-02 1.91379916e-02 -2.06530225e-02 -6.64612819e-02
4.02578898e-02 -1.69415986e-02 7.82532443e-03 -1.69415986e-02 4.39148098e-02 3.36344843e-03 7.82532443e-03 3.36344843e-03 -7.22203292e-02
1.42775506e-02 -9.60675471e-03 1.71425799e-02 -9.60675471e-03 1.80398207e-02 -7.48338504e-03 1.71425799e-02 -7.48338504e-03 -2.68687643e-02
2.94530472e-02 -2.05707947e-02 8.75480380e-03 -2.05707947e-02 3.18480600e-02 3.67642449e-02 8.75480380e-03 3.67642449e-02 -5.33099206e-02
-1.23730523e-03 -3.19320180e-03 7.17188132e-05 -3.19320180e-03 1.28216675e-03 -6.74876937e-04 7.17188132e-05 -6.74876937e-04 1.19303813e-03
1.14762623e-03 -1.22888673e-02 2.56396204e-04 -1.22888673e-02 6.55338517e-05 1.56815688e-02 2.56396204e-04 1.56815688e-02 1.98798371e-05
-2.68934552e-04 -1.68237719e-04 8.51215045e-05 -1.68237719e-04 1.05512372e-04 1.11150737e-04 8.51215045e-05 1.11150737e-04 2.18290190e-04
-7.13587287e-05 -6.12957034e-05 2.79369287e-05 -6.12957034e-05 4.32204708e-05 -1.32189642e-04 2.79369287e-05 -1.32189642e-04 6.15040008e-05
-2.63888378e-05 1.20106815e-04 -2.80089407e-05 1.20106815e-04 -3.27258058e-05 2.68232488e-05 -2.80089407e-05 2.68232488e-05 3.04867581e-06
-8.61883636e-05 1.56782762e-05 -1.18680828e-05 1.56782762e-05 2.81019820e-05 6.24135137e-05 -1.18680828e-05 6.24135137e-05 2.35033831e-05
4.63078152e-02 4.13391626e-06 1.24222657e-03 4.13391626e-06 6.54438995e-02 -8.11216235e-03 1.24222657e-03 -8.11216235e-03 -9.44290310e-02
4.97351447e-02 -5.39124405e-04 8.41555558e-03 -5.39124405e-04 6.30868226e-02 -5.57897717e-03 8.41555558e-03 -5.57897717e-03 -9.53245591e-02
4.64656060e-02 -6.62023663e-03 4.89889737e-03 -6.62023663e-03 6.36526914e-02 -2.49469726e-03 4.89889737e-03 -2.49469726e-03 -9.26278885e-02
4.42674113e-02 -7.46378370e-04 3.10494541e-03 -7.46378370e-04 6.52653966e-02 -9.12956544e-04 3.10494541e-03 -9.12956544e-04 -9.25316755e-02
5.69079453e-02 -9.90368892e-03 5.23533765e-03 -9.90368892e-03 5.87069364e-02 -6.93198468e-04 5.23533765e-03 -6.93198468e-04 -9.72428899e-02
5.48246619e-02 -9.70370288e-03 1.01510700e-03 -9.70370288e-03 6.14289083e-02 -1.26160353e-02 1.01510700e-03 -1.26160353e-02 -9.76829873e-02
6.42600432e-02 3.12978500e-07 -1.16420444e-03 3.12978500e-07 5.80964172e-02 -7.24627083e-03 -1.16420444e-03 -7.24627083e-03 -1.03147225e-01
6.32555913e-02 -7.56496732e-03 1.69381965e-03 -7.56496732e-03 6.21520295e-02 -1.73814245e-04 1.69381965e-03 -1.73814245e-04 -1.04788315e-01
7.13256206e-02 -5.40058571e-03 1.31782386e-02 -5.40058571e-03 5.67796202e-02 -6.81593400e-03 1.31782386e-02 -6.81593400e-03 -1.07877411e-01
6.63240100e-02 -6.83723247e-03 2.82230589e-03 -6.83723247e-03 6.94574886e-02 9.25084739e-03 2.82230589e-03 9.25084739e-03 -1.14241848e-01
6.83800140e-02 -7.11652765e-03 1.48474318e-02 -7.11652765e-03 6.18216312e-02 3.06198858e-03 1.48474318e-02 3.06198858e-03 -1.08966038e-01
7.07956254e-02 -3.40433950e-03 1.35287467e-02 -3.40433950e-03 6.89365608e-02 5.93435322e-03 1.35287467e-02 5.93435322e-03 -1.17712361e-01
6.18728139e-02 1.18204262e-02 8.66572559e-03 1.18204262e-02 7.01200664e-02 9.08301049e-03 8.66572559e-03 9.08301049e-03 -1.10644747e-01
7.02266078e-02 1.50595768e-03 -1.54473295e-03 1.50595768e-03 7.07930168e-02 6.93364651e-03 -1.54473295e-03 6.93364651e-03 -1.18955906e-01
4.46524392e-02 -8.50023818e-03 9.72317415e-03 -8.50023818e-03 5.97016537e-02 -1.10104398e-02 9.72317415e-03 -1.10104398e-02 -8.76036035e-02
4.04494675e-02 -6.33469911e-03 2.08633184e-02 -6.33469911e-03 6.11094227e-02 -5.47136890e-03 2.08633184e-02 -5.47136890e-03 -8.56030881e-02
5.09617999e-02 -5.68195783e-03 1.95525896e-02 -5.68195783e-03 6.39846884e-02 -4.57692945e-03 1.95525896e-02 -4.57692945e-03 -9.85291409e-02
6.61034092e-02 -1.78389441e-02 5.46961393e-02 -1.78389441e-02 6.74342692e-02 -4.17712262e-03 5.46961393e-02 -4.17712262e-03 -1.15475354e-01
7.03812949e-02 -1.99928612e-03 1.48545553e-02 -1.99928612e-03 8.43227990e-02 1.78350003e-02 1.48545553e-02 1.78350003e-02 -1.34829391e-01
6.87865373e-02 -3.33199237e-03 2.93252254e-02 -3.33199237e-03 8.60964768e-02 3.62713858e-02 2.93252254e-02 3.62713858e-02 -1.33989241e-01
6.61736466e-02 -1.40136210e-02 1.54008889e-02 -1.40136210e-02 9.08223540e-02 3.19454423e-02 1.54008889e-02 3.19454423e-02 -1.35719292e-01
3.69170858e-02 -1.71610426e-03 2.89594173e-02 -1.71610426e-03 5.09851798e-02 -2.60871832e-03 2.89594173e-02 -2.60871832e-03 -7.29532428e-02
3.76345413e-02 -2.90994660e-03 2.04731366e-02 -2.90994660e-03 4.84643634e-02 -5.32466697e-03 2.04731366e-02 -5.32466697e-03 -7.18363374e-02
3.48451531e-02 -1.15936369e-02 3.90355618e-02 -1.15936369e-02 5.33122017e-02 4.62252999e-02 3.90355618e-02 4.62252999e-02 -7.44189167e-02
-1.67975361e-02 -4.42129392e-02 3.13417837e-02 -4.42129392e-02 1.01891914e-02 6.00182526e-02 3.13417837e-02 6.00182526e-02 2.96032391e-02
4.00236617e-02 -1.74623553e-03 1.86433210e-02 -1.74623553e-03 3.28157677e-02 1.37544856e-02 1.86433210e-02 1.37544856e-02 -5.99915166e-02
3.76783442e-02 5.91040088e-03 1.35638230e-02 5.91040088e-03 3.66886230e-02 1.01911020e-02 1.35638230e-02 1.01911020e-02 -6.18573539e-02
3.46475688e-02 -2.60820199e-02 2.27731534e-02 -2.60820199e-02 2.58565103e-02 3.01798575e-02 2.27731534e-02 3.01798575e-02 -4.92433927e-02
7.47420794e-03 -4.60784277e-03 -2.26236929e-02 -4.60784277e-03 2.03546447e-02 2.75464623e-02 -2.26236929e-02 2.75464623e-02 -1.59261494e-02
4.07643602e-02 -8.50883399e-03 2.77922701e-03 -8.50883399e-03 3.49519958e-02 7.89318637e-03 2.77922701e-03 7.89318637e-03 -6.27605892e-02
4.45019575e-02 -7.66558503e-03 -4.72462620e-04 -7.66558503e-03 3.35403858e-02 7.94240553e-03 -4.72462620e-04 7.94240553e-03 -6.54423125e-02
3.91221493e-02 -1.67652837e-02 -7.89053505e-04 -1.67652837e-02 4.32998559e-02 1.79166202e-02 -7.89053505e-04 1.79166202e-02 -6.91431998e-02
5.32517051e-02 2.13439809e-04 -2.55202779e-02 2.13439809e-04 5.63341454e-02 2.38337074e-02 -2.55202779e-02 2.38337074e-02 -9.76533797e-02
4.16983049e-02 -1.81103004e-03 -3.14040075e-03 -1.81103004e-03 4.70899539e-02 -3.44741391e-04 -3.14040075e-03 -3.44741391e-04 -7.55795874e-02
4.62609157e-02 9.71094414e-04 -4.27617971e-03 9.71094414e-04 4.16830648e-02 6.37701340e-03 -4.27617971e-03 6.37701340e-03 -7.48770423e-02
4.55175526e-02 -2.50464561e-03 2.44583935e-03 -2.50464561e-03 5.98191684e-02 -7.89898026e-03 2.44583935e-03 -7.89898026e-03 -8.92472807e-02
6.73789084e-02 -8.58090210e-04 -2.23685065e-02 -8.58090210e-04 7.37636760e-02 2.54153074e-02 -2.23685065e-02 2.54153074e-02 -1.26842026e-01
-3.92776928e-06 -2.84204361e-05 -1.49377875e-05 -2.84204361e-05 9.13639167e-06 1.03171687e-05 -1.49377875e-05 1.03171687e-05 -9.77917421e-06
-9.35711250e-06 -1.71105887e-06 -4.68888811e-06 -1.71105887e-06 -1.56675787e-06 -1.39031092e-05 -4.68888811e-06 -1.39031092e-05 5.02296598e-06
1.81252108e-05 -8.21182493e-06 -7.15599822e-06 -8.21182493e-06 -1.46682683e-06 2.56605538e-05 -7.15599822e-06 2.56605538e-05 -2.10126209e-05
1.05493882e-05 -3.44705804e-05 8.11936843e-07 -3.44705804e-05 -2.57361444e-06 -2.69328975e-05 8.11936843e-07 -2.69328975e-05 -1.35977334e-05
5.51033784e-02 8.64024469e-06 1.00395340e-02 8.64024469e-06 5.79608511e-02 -2.18069204e-03 1.00395340e-02 -2.18069204e-03 -9.53843668e-02
5.68306725e-02 3.08639649e-03 6.43175968e-03 3.08639649e-03 5.61907748e-02 3.13028414e-03 6.43175968e-03 3.13028414e-03 -9.53825433e-02
5.49064544e-02 -9.07882361e-03 1.19174152e-02 -9.07882361e-03 5.71561167e-02 4.30511995e-03 1.19174152e-02 4.30511995e-03 -9.39959157e-02
5.34160361e-02 2.14343210e-03 1.05542703e-02 2.14343210e-03 5.95155759e-02 -5.77346550e-03 1.05542703e-02 -5.77346550e-03 -9.52971708e-02
6.10357858e-02 -1.18785282e-02 9.96694341e-03 -1.18785282e-02 5.04195532e-02 4.74747430e-04 9.96694341e-03 4.74747430e-04 -9.35110822e-02
5.96718881e-02 -1.18894032e-02 1.28377853e-02 -1.18894032e-02 5.57931289e-02 5.76452164e-03 1.28377853e-02 5.76452164e-03 -9.69331665e-02
6.48805611e-02 1.12463281e-03 4.32668999e-03 1.12463281e-03 4.77024587e-02 6.45351077e-03 4.32668999e-03 6.45351077e-03 -9.44320131e-02
6.56343536e-02 -5.91630285e-03 -5.90640242e-03 -5.91630285e-03 5.45076169e-02 -4.72411551e-03 -5.90640242e-03 -4.72411551e-03 -1.00323543e-01
6.83313776e-02 2.83951231e-03 -5.49252960e-03 2.83951231e-03 4.54283506e-02 7.31659820e-05 -5.49252960e-03 7.31659820e-05 -9.53146946e-02
6.63495893e-02 1.02875309e-03 -8.98267553e-03 1.02875309e-03 6.14428828e-02 9.72325506e-05 -8.98267553e-03 9.72325506e-05 -1.07567015e-01
6.62932936e-02 3.09956820e-04 2.48351489e-03 3.09956820e-04 4.69438136e-02 -2.89377019e-03 2.48351489e-03 -2.89377019e-03 -9.47548114e-02
6.66340780e-02 -1.07097563e-03 3.65302782e-04 -1.07097563e-03 6.03716155e-02 3.56403175e-03 3.65302782e-04 3.56403175e-03 -1.06469883e-01
6.39669076e-02 -6.15046913e-04 1.62273407e-03 -6.15046913e-04 4.81387433e-02 -2.37359107e-03 1.62273407e-03 -2.37359107e-03 -9.37169082e-02
6.22676956e-02 -5.83751516e-03 -3.32830544e-03 -5.83751516e-03 6.17514439e-02 -2.04765168e-03 -3.32830544e-03 -2.04765168e-03 -1.03406055e-01
5.09790257e-02 -1.57567973e-02 3.19683547e-02 -1.57567973e-02 6.24947473e-02 2.06515915e-03 3.19683547e-02 2.06515915e-03 -9.49079003e-02
4.30219388e-02 -1.41990914e-02 2.36105178e-02 -1.41990914e-02 6.65821107e-02 -3.60362150e-03 2.36105178e-02 -3.60362150e-03 -9.17664468e-02
6.36323674e-02 -2.95728611e-04 2.45975649e-02 -2.95728611e-04 5.86427679e-02 -3.46345401e-03 2.45975649e-02 -3.46345401e-03 -1.05119878e-01
7.21651435e-02 -1.75395895e-02 -6.77764660e-02 -1.75395895e-02 6.53418448e-02 -1.35822361e-03 -6.77764660e-02 -1.35822361e-03 -1.22711954e-01
7.16198720e-02 -2.72710086e-03 -1.98788454e-02 -2.72710086e-03 8.22251774e-02 1.24460394e-02 -1.98788454e-02 1.24460394e-02 -1.34908907e-01
7.03972708e-02 -5.70461879e-03 -1.54555123e-03 -5.70461879e-03 7.95013104e-02 1.18175191e-02 -1.54555123e-03 1.18175191e-02 -1.29545737e-01
6.31614309e-02 -5.33874962e-03 -4.44937660e-03 -5.33874962e-03 8.37368444e-02 3.73838586e-03 -4.44937660e-03 3.73838586e-03 -1.26316857e-01
4.42665062e-02 -9.58973898e-03 4.48492664e-02 -9.58973898e-03 6.12846054e-02 2.38105202e-03 4.48492664e-02 2.38105202e-03 -8.81311542e-02
3.94408796e-02 3.07273702e-03 3.49485241e-02 3.07273702e-03 6.07962701e-02 4.20811668e-03 3.49485241e-02 4.20811668e-03 -8.30813311e-02
5.38735143e-02 -3.02164569e-02 5.83667704e-02 -3.02164569e-02 7.35832918e-02 -6.78812633e-02 5.83667704e-02 -6.78812633e-02 -1.08936455e-01
3.84708832e-02 -3.82057043e-03 1.65703330e-02 -3.82057043e-03 4.81931333e-02 2.92445164e-02 1.65703330e-02 2.92445164e-02 -7.08852911e-02
3.83022940e-02 -8.41288199e-03 2.83723744e-02 -8.41288199e-03 5.05041583e-02 8.59924918e-03 2.83723744e-02 8.59924918e-03 -7.37359524e-02
3.67718488e-02 9.60867704e-03 1.97358390e-02 9.60867704e-03 5.31140938e-02 8.47152034e-02 1.97358390e-02 8.47152034e-02 -7.79953385e-02
4.08621705e-02 2.97435627e-03 1.23042048e-02 2.97435627e-03 5.05670821e-02 1.02290587e-02 1.23042048e-02 1.02290587e-02 -7.51023423e-02
3.99729088e-02 6.24901790e-03 -3.63626517e-03 6.24901790e-03 5.06039290e-02 4.77763230e-03 -3.63626517e-03 4.77763230e-03 -7.57977664e-02
4.02959793e-02 -1.38398070e-02 -1.63256868e-02 -1.38398070e-02 6.46180739e-02 1.56003593e-02 -1.63256868e-02 1.56003593e-02 -8.73718773e-02
-6.43670745e-03 8.89794752e-02 -1.01179622e-01 8.89794752e-02 -2.61639468e-02 1.51301220e-01 -1.01179622e-01 1.51301220e-01 6.79230839e-02
7.16205922e-02 3.34204460e-02 -1.05900555e-01 3.34204460e-02 6.38645490e-02 -2.09716645e-02 -1.05900555e-01 -2.09716645e-02 -1.16959559e-01
4.54553477e-02 1.76238471e-02 5.56861318e-03 1.76238471e-02 5.57474690e-02 1.66925798e-02 5.56861318e-03 1.66925798e-02 -8.50514807e-02
4.17439230e-02 -4.32800245e-03 6.75858418e-03 -4.32800245e-03 5.66637143e-02 1.26408874e-02 6.75858418e-03 1.26408874e-02 -8.19252841e-02
</DataArray>
<DataArray type="Float32" Name="Plastic_strain_components" NumberOfComponents="9" format="ascii">
4.55409326e-02 -4.52819222e-07 4.03013189e-07 -4.52819222e-07 7.70092458e-02 -1.34333095e-06 4.03013189e-07 -1.34333095e-06 -1.02946296e-01
4.75944988e-02 2.93393550e-03 1.86033992e-06 2.93393550e-03 7.96816312e-02 -8.23724258e-04 1.86033992e-06 -8.23724258e-04 -1.06930450e-01
4.85767424e-02 7.66711310e-03 -5.09875407e-03 7.66711310e-03 7.20736422e-02 -2.78067740e-03 -5.09875407e-03 -2.78067740e-03 -1.01428516e-01
4.83627673e-02 2.72711623e-03 -3.44405521e-03 2.72711623e-03 7.04805925e-02 2.13756721e-06 -3.44405521e-03 2.13756721e-06 -9.99411494e-02
4.44133189e-02 4.85919736e-06 3.01995361e-03 4.85919736e-06 7.32741691e-02 -4.06974950e-03 3.01995361e-03 -4.06974950e-03 -9.88879129e-02
4.67409855e-02 9.67816901e-04 5.16465132e-03 9.67816901e-04 7.49131124e-02 -5.89147973e-03 5.16465132e-03 -5.89147973e-03 -1.02243705e-01
4.75336057e-02 4.04115333e-03 7.96754655e-04 4.04115333e-03 6.94655525e-02 -6.16895125e-03 7.96754655e-04 -6.16895125e-03 -9.83799528e-02
4.65722093e-02 1.05762394e-03 9.32884628e-04 1.05762394e-03 6.86833430e-02 -1.93975327e-03 9.32884628e-04 -1.93975327e-03 -9.69080403e-02
5.03290370e-02 1.20350823e-03 3.87406772e-06 1.20350823e-03 8.53123888e-02 -2.32659874e-03 3.87406772e-06 -2.32659874e-03 -1.13964118e-01
5.10555767e-02 1.13016479e-02 -7.45806284e-03 1.13016479e-02 7.74782766e-02 -1.16655105e-03 -7.45806284e-03 -1.16655105e-03 -1.08030703e-01
5.24411574e-02 2.31142272e-03 5.93917724e-03 2.31142272e-03 7.67920520e-02 -4.42740833e-03 5.93917724e-03 -4.42740833e-03 -1.08700745e-01
5.06950002e-02 4.60488757e-03 -2.22489258e-03 4.60488757e-03 7.35154096e-02 -1.22525602e-02 -2.22489258e-03 -1.22525602e-02 -1.04448554e-01
5.61139360e-02 4.57952311e-03 -5.31136175e-06 4.57952311e-03 9.03165080e-02 5.48101356e-03 -5.31136175e-06 5.48101356e-03 -1.23080112e-01
5.68973320e-02 8.00411508e-03 -1.32734799e-02 8.00411508e-03 8.98784641e-02 -5.02510404e-03 -1.32734799e-02 -5.02510404e-03 -1.24676920e-01
5.98878646e-02 -5.55124192e-03 4.74642613e-04 -5.55124192e-03 7.84519278e-02 -3.61321872e-03 4.74642613e-04 -3.61321872e-03 -1.16450507e-01
5.65728233e-02 -4.23017624e-03 2.14813626e-03 -4.23017624e-03 7.99906729e-02 -7.41962591e-03 2.14813626e-03 -7.41962591e-03 -1.15237541e-01
6.26047794e-02 -1.21394228e-02 3.08133558e-05 -1.21394228e-02 9.55327153e-02 3.84038140e-03 3.08133558e-05 3.84038140e-03 -1.32967152e-01
5.85306669e-02 -1.00534044e-02 -2.02417886e-02 -1.00534044e-02 9.95893069e-02 2.50848278e-03 -2.02417886e-02 2.50848278e-03 -1.34305891e-01
6.64266590e-02 -1.36115297e-02 3.44819063e-03 -1.36115297e-02 8.13439116e-02 -3.38700775e-03 3.44819063e-03 -3.38700775e-03 -1.24416864e-01
6.52989037e-02 -1.46436248e-02 1.94466324e-03 -1.46436248e-02 7.93309845e-02 2.63020210e-03 1.94466324e-03 2.63020210e-03 -1.22496058e-01
6.51657321e-02 -1.42791183e-02 2.98706285e-04 -1.42791183e-02 1.01599202e-01 5.61920251e-03 2.98706285e-04 5.61920251e-03 -1.39907382e-01
6.30380483e-02 -2.40274551e-02 -2.48428308e-02 -2.40274551e-02 1.07691418e-01 1.11257278e-02 -2.48428308e-02 1.11257278e-02 -1.46231167e-01
6.89533092e-02 -1.05566585e-02 5.70259348e-03 -1.05566585e-02 8.85323435e-02 4.90097480e-03 5.70259348e-03 4.90097480e-03 -1.33108407e-01
6.71400363e-02 -1.88087572e-02 8.67588492e-03 -1.88087572e-02 7.88678695e-02 2.64025066e-03 8.67588492e-03 2.64025066e-03 -1.22758801e-01
6.21679239e-02 -3.96045744e-02 -9.54298885e-05 -3.96045744e-02 1.18301414e-01 -3.34321964e-03 -9.54298885e-05 -3.34321964e-03 -1.51499704e-01
5.52976951e-02 -3.47850816e-02 -2.47706361e-02 -3.47850816e-02 1.25471614e-01 2.96392227e-02 -2.47706361e-02 2.96392227e-02 -1.53408721e-01
5.93735725e-02 -9.89964698e-03 -6.00401289e-03 -9.89964698e-03 1.02613926e-01 1.70743582e-03 -6.00401289e-03 1.70743582e-03 -1.35831140e-01
6.61712373e-02 -1.81483547e-02 5.32965176e-04 -1.81483547e-02 9.83757302e-02 1.46842084e-02 5.32965176e-04 1.46842084e-02 -1.39379006e-01
5.26535213e-02 1.08134069e-02 -4.50865319e-03 1.08134069e-02 5.24757253e-02 -3.97919619e-03 -4.50865319e-03 -3.97919619e-03 -8.84630736e-02
5.26401829e-02 2.26914382e-03 -5.77550894e-03 2.26914382e-03 5.18848225e-02 8.94066761e-06 -5.77550894e-03 8.94066761e-06 -8.79877657e-02
4.87387604e-02 7.65954272e-03 4.88213556e-03 7.65954272e-03 5.59282489e-02 -7.94020831e-03 4.88213556e-03 -7.94020831e-03 -8.80774176e-02
4.81638499e-02 3.49659350e-03 8.90015601e-03 3.49659350e-03 5.44578023e-02 -9.06844492e-04 8.90015601e-03 -9.06844492e-04 -8.63925554e-02
5.14952326e-02 1.97973661e-02 -9.25201108e-03 1.97973661e-02 5.46172261e-02 -8.04770424e-03 -9.25201108e-03 -8.04770424e-03 -8.95154793e-02
4.95502991e-02 1.13760708e-02 9.77685628e-03 1.13760708e-02 5.90077550e-02 -3.52669249e-03 9.77685628e-03 -3.52669249e-03 -9.16104512e-02
3.47228412e-02 1.10136642e-02 -8.67802919e-03 1.10136642e-02 3.80434141e-02 -5.64210949e-03 -8.67802919e-03 -5.64210949e-03 -5.80380289e-02
4.40773385e-02 1.78664050e-04 3.80428854e-02 1.78664050e-04 5.63119549e-02 1.90485076e-03 3.80428854e-02 1.90485076e-03 -8.37001311e-02
3.04428556e-02 -1.42045411e-02 -2.45434843e-02 -1.42045411e-02 3.48595751e-02 8.69681175e-04 -2.45434843e-02 8.69681175e-04 -5.08326972e-02
3.70805751e-02 -2.23906201e-02 3.92730311e-02 -2.23906201e-02 5.16818839e-02 9.25863381e-03 3.92730311e-02 9.25863381e-03 -7.02946230e-02
2.49863153e-02 -1.67385468e-02 -2.04721991e-02 -1.67385468e-02 1.71092668e-02 1.03272059e-02 -2.04721991e-02 1.03272059e-02 -2.73822816e-02
3.71990959e-02 -2.59307143e-02 4.66904657e-02 -2.59307143e-02 4.25025707e-02 2.65804899e-02 4.66904657e-02 2.65804899e-02 -6.10209955e-02
2.78654846e-02 -2.33899259e-02 -1.86705801e-02 -2.33899259e-02 1.49592245e-02 1.58843060e-02 -1.86705801e-02 1.58843060e-02 -2.72985832e-02
3.94743743e-02 -3.61410749e-02 4.03841225e-02 -3.61410749e-02 5.47629353e-02 3.38666287e-02 4.03841225e-02 3.38666287e-02 -7.38761841e-02
5.59103154e-02 5.81742194e-03 1.18086857e-03 5.81742194e-03 3.09982332e-02 -5.41246706e-03 1.18086857e-03 -5.41246706e-03 -7.29691777e-02
5.41064907e-02 3.27349361e-03 2.51500425e-03 3.27349361e-03 3.29601811e-02 -5.95496385e-06 2.51500425e-03 -5.95496385e-06 -7.31890798e-02
5.14198695e-02 3.69302384e-03 1.09415829e-02 3.69302384e-03 3.50166620e-02 -3.73412247e-03 1.09415829e-02 -3.73412247e-03 -7.25981332e-02
4.86099422e-02 1.90852745e-03 1.26890361e-02 1.90852745e-03 3.75158126e-02 -1.48635963e-03 1.26890361e-02 -1.48635963e-03 -7.24399444e-02
4.00832030e-02 7.68656604e-03 2.94537604e-04 7.68656604e-03 1.91752722e-02 -1.01751222e-02 2.94537604e-04 -1.01751222e-02 -4.83358186e-02
4.44922768e-02 5.83451391e-03 1.91315209e-02 5.83451391e-03 2.30090477e-02 5.96193020e-03 1.91315209e-02 5.96193020e-03 -5.57886872e-02
6.70980662e-03 -1.36590097e-05 -3.94249219e-03 -1.36590097e-05 -1.97420793e-03 -4.11407820e-03 -3.94249219e-03 -4.11407820e-03 1.91498944e-03
4.06401193e-03 1.20630282e-03 1.35341853e-03 1.20630282e-03 -7.61100401e-04 2.32371261e-03 1.35341853e-03 2.32371261e-03 4.61214688e-03
-3.07931231e-03 1.07133451e-03 -8.59889916e-03 1.07133451e-03 -5.65781258e-03 -3.79791786e-03 -8.59889916e-03 -3.79791786e-03 1.53228981e-02
-1.37915590e-03 -2.56854693e-02 2.00451265e-02 -2.56854693e-02 7.07799383e-03 6.02619513e-03 2.00451265e-02 6.02619513e-03 3.63845790e-04
-5.38457907e-03 8.23722128e-03 -4.62045138e-03 8.23722128e-03 -2.39648049e-03 -2.74617174e-03 -4.62045138e-03 -2.74617174e-03 1.41820755e-02
-3.32576750e-03 -5.81182834e-03 3.03454697e-03 -5.81182834e-03 2.48666519e-03 -3.03935104e-03 3.03454697e-03 -3.03935104e-03 7.18894333e-03
2.18940992e-03 9.19891242e-03 -9.31415544e-03 9.19891242e-03 -1.55937024e-02 2.25496711e-03 -9.31415544e-03 2.25496711e-03 1.88742992e-02
5.62821911e-03 -6.27633929e-03 2.89177061e-02 -6.27633929e-03 -2.01783609e-03 -5.57237177e-03 2.89177061e-02 -5.57237177e-03 9.02065076e-04
5.51195545e-02 -4.24139507e-03 2.60857813e-03 -4.24139507e-03 2.09818818e-02 -7.05651939e-03 2.60857813e-03 -7.05651939e-03 -6.36426155e-02
5.54251894e-02 -4.61474736e-03 3.49642953e-03 -4.61474736e-03 2.55746134e-02 1.09840221e-05 3.49642953e-03 1.09840221e-05 -6.78944848e-02
4.96670087e-02 -7.18966624e-03 1.42936599e-02 -7.18966624e-03 2.38115175e-02 -2.39250716e-04 1.42936599e-02 -2.39250716e-04 -6.17058994e-02
5.04554017e-02 -5.50967723e-03 3.96920615e-03 -5.50967723e-03 2.72575440e-02 1.98243570e-03 3.96920615e-03 1.98243570e-03 -6.52449764e-02
4.33720713e-02 -7.93464202e-03 -4.17987711e-03 -7.93464202e-03 1.14749433e-02 -1.19363333e-02 -4.17987711e-03 -1.19363333e-02 -4.63091247e-02
3.78495106e-02 -1.13876936e-02 3.76599962e-03 -1.13876936e-02 1.18483708e-02 1.28135614e-02 3.76599962e-03 1.28135614e-02 -4.08383885e-02
3.21705783e-03 -2.87364621e-03 -1.10537027e-03 -2.87364621e-03 1.07265165e-03 -7.69518560e-03 -1.10537027e-03 -7.69518560e-03 -1.18793407e-03
1.14290776e-02 -4.37477873e-03 -2.49244606e-03 -4.37477873e-03 -6.33051347e-04 5.09022364e-03 -2.49244606e-03 5.09022364e-03 -6.49863314e-03
-1.30902058e-03 -1.71645690e-03 -4.37908082e-05 -1.71645690e-03 5.33025212e-04 -2.81901733e-04 -4.37908082e-05 -2.81901733e-04 8.31385264e-04
1.23921414e-03 2.00747586e-03 -2.00303317e-03 2.00747586e-03 1.38939704e-03 4.99904977e-03 -2.00303317e-03 4.99904977e-03 -2.04725980e-03
6.24368247e-03 -1.57326423e-02 6.23281638e-04 -1.57326423e-02 -9.70950164e-03 -1.91922663e-06 6.23281638e-04 -1.91922663e-06 5.67997247e-03
-8.66205300e-04 -1.00927214e-02 -1.48652813e-03 -1.00927214e-02 1.70862657e-03 1.18272177e-04 -1.48652813e-03 1.18272177e-04 -3.04916571e-04
5.55909798e-03 -1.92881562e-02 -2.63729109e-03 -1.92881562e-02 -8.91480781e-03 -1.93217875e-05 -2.63729109e-03 -1.93217875e-05 5.18221455e-03
-2.75238919e-03 -1.05218663e-02 -4.80767041e-03 -1.05218663e-02 6.80153588e-03 -5.82570147e-05 -4.80767041e-03 -5.82570147e-05 -3.03782309e-03
5.32014528e-02 -1.13989360e-02 7.50770059e-03 -1.13989360e-02 2.70488933e-02 -3.10773205e-03 7.50770059e-03 -3.10773205e-03 -6.72702733e-02
5.70513848e-02 -1.01685631e-02 1.71285903e-03 -1.01685631e-02 2.95855291e-02 7.63325988e-06 1.71285903e-03 7.63325988e-06 -7.26990961e-02
4.74901102e-02 -1.00891216e-02 1.05368436e-03 -1.00891216e-02 2.86153622e-02 5.68285425e-03 1.05368436e-03 5.68285425e-03 -6.38977336e-02
5.23388311e-02 -4.34753206e-03 -2.56115198e-03 -4.34753206e-03 2.97609004e-02 7.98558840e-03 -2.56115198e-03 7.98558840e-03 -6.89200703e-02
4.21277694e-02 -1.38275384e-02 4.07944625e-03 -1.38275384e-02 1.92698354e-02 -1.62142368e-02 4.07944625e-03 -1.62142368e-02 -5.21333907e-02
3.07134595e-02 -1.64671889e-02 -2.68562977e-03 -1.64671889e-02 2.17317872e-02 6.74521526e-03 -2.68562977e-03 6.74521526e-03 -4.18548300e-02
3.34669492e-03 1.84098550e-04 2.28175891e-03 1.84098550e-04 1.88558013e-03 -5.34753141e-03 2.28175891e-03 -5.34753141e-03 -1.11557348e-03
2.39270187e-02 -9.29401124e-03 -3.63980133e-03 -9.29401124e-03 1.54966022e-02 2.54956216e-02 -3.63980133e-03 2.54956216e-02 -3.28403626e-02
7.52275923e-04 1.80401278e-03 -6.03218239e-05 1.80401278e-03 -5.86993871e-04 -4.43114812e-04 -6.03218239e-05 -4.43114812e-04 1.15484473e-04
3.58763105e-03 -2.65277951e-04 1.99426577e-04 -2.65277951e-04 -1.33373831e-03 6.22923590e-03 1.99426577e-04 6.22923590e-03 -1.73039074e-03
4.24933622e-05 -2.49975498e-05 -3.71047220e-06 -2.49975498e-05 -2.76591396e-05 1.16268834e-05 -3.71047220e-06 1.16268834e-05 -2.47576413e-05
7.33687239e-07 -5.11810563e-06 -5.30395542e-06 -5.11810563e-06 -4.01113000e-06 1.93800976e-05 -5.30395542e-06 1.93800976e-05 1.68087715e-06
0.00000000e+00 0.00000000e+00 0.00000000e+00 0.00000000e+00 0.00000000e+00 0.00000000e+00 0.00000000e+00 0.00000000e+00 0.00000000e+00
0.00000000e+00 0.00000000e+00 0.00000000e+00 0.00000000e+00 0.00000000e+00 0.00000000e+00 0.00000000e+00 0.00000000e+00 0.00000000e+00
5.86463697e-02 -1.01376560e-02 1.28072803e-03 -1.01376560e-02 3.62243950e-02 -6.16036658e-03 1.28072803e-03 -6.16036658e-03 -7.96870217e-02
6.60527945e-02 -4.64281486e-03 6.89493818e-03 -4.64281486e-03 3.36775593e-02 2.48021242e-05 6.89493818e-03 2.48021242e-05 -8.36847275e-02
5.40569648e-02 -7.31320260e-03 -1.42174703e-03 -7.31320260e-03 3.56370853e-02 -5.05826375e-03 -1.42174703e-03 -5.05826375e-03 -7.53905457e-02
5.89988083e-02 -1.01232892e-02 -3.16126473e-03 -1.01232892e-02 3.80961057e-02 6.94418536e-03 -3.16126473e-03 6.94418536e-03 -8.16258341e-02
4.63613179e-02 -2.02583531e-02 1.95517512e-02 -2.02583531e-02 3.34308418e-02 -2.06522020e-02 1.95517512e-02 -2.06522020e-02 -6.71169497e-02
4.25713304e-02 -1.76276749e-02 7.64017843e-03 -1.76276749e-02 4.68817782e-02 4.80559515e-03 7.64017843e-03 4.80559515e-03 -7.61327930e-02
8.83723120e-03 -6.61081364e-03 1.46571961e-02 -6.61081364e-03 1.42600629e-02 -6.71362877e-03 1.46571961e-02 -6.71362877e-03 -1.77936736e-02
3.19776703e-02 -2.11648569e-02 8.58687105e-03 -2.11648569e-02 3.34432976e-02 3.72947007e-02 8.58687105e-03 3.72947007e-02 -5.49324856e-02
-1.19163186e-03 -3.22822920e-03 1.73391937e-04 -3.22822920e-03 9.30292372e-04 -2.15508262e-04 1.73391937e-04 -2.15508262e-04 8.98869621e-05
1.23441135e-03 -1.18253315e-02 1.43205805e-04 -1.18253315e-02 1.81656927e-04 1.51940766e-02 1.43205805e-04 1.51940766e-02 3.51528543e-04
-1.33000969e-04 -1.23645703e-04 2.27061009e-05 -1.23645703e-04 6.16284015e-05 2.49294208e-05 2.27061009e-05 2.49294208e-05 9.66626831e-05
2.45395495e-05 -2.90715082e-05 -6.90211588e-06 -2.90715082e-05 -1.27214286e-05 -5.14036219e-06 -6.90211588e-06 -5.14036219e-06 -1.51755085e-05
0.00000000e+00 0.00000000e+00 0.00000000e+00 0.00000000e+00 0.00000000e+00 0.00000000e+00 0.00000000e+00 0.00000000e+00 0.00000000e+00
0.00000000e+00 0.00000000e+00 0.00000000e+00 0.00000000e+00 0.00000000e+00 0.00000000e+00 0.00000000e+00 0.00000000e+00 0.00000000e+00
4.62870933e-02 4.04987713e-06 1.26106542e-03 4.04987713e-06 6.53863214e-02 -8.10303865e-03 1.26106542e-03 -8.10303865e-03 -9.39506218e-02
4.96084187e-02 -5.38747117e-04 8.40308261e-03 -5.38747117e-04 6.29239241e-02 -5.55987735e-03 8.40308261e-03 -5.55987735e-03 -9.47163925e-02
4.63339365e-02 -6.61470697e-03 4.92505176e-03 -6.61470697e-03 6.34985548e-02 -2.52740737e-03 4.92505176e-03 -2.52740737e-03 -9.23698116e-02
4.41851458e-02 -7.45446654e-04 3.12740030e-03 -7.45446654e-04 6.51021749e-02 -9.41608436e-04 3.12740030e-03 -9.41608436e-04 -9.18871239e-02
5.67491194e-02 -9.87399579e-03 5.22163021e-03 -9.87399579e-03 5.85596254e-02 -7.27124803e-04 5.22163021e-03 -7.27124803e-04 -9.71252825e-02
5.45485765e-02 -9.68997183e-03 1.01891035e-03 -9.68997183e-03 6.11436088e-02 -1.25909212e-02 1.01891035e-03 -1.25909212e-02 -9.72780818e-02
6.41413955e-02 -2.49813638e-06 -1.14415615e-03 -2.49813638e-06 5.80121391e-02 -7.28368905e-03 -1.14415615e-03 -7.28368905e-03 -1.02869106e-01
5.74249746e-02 -6.53166882e-03 6.27428642e-04 -6.53166882e-03 5.60519190e-02 -1.00360603e-03 6.27428642e-04 -1.00360603e-03 -9.35797952e-02
7.10943229e-02 -5.39100158e-03 1.32159127e-02 -5.39100158e-03 5.66079086e-02 -6.84522922e-03 1.32159127e-02 -6.84522922e-03 -1.07471745e-01
6.73593441e-02 -7.06159248e-03 3.08600895e-03 -7.06159248e-03 7.05266753e-02 9.41890851e-03 3.08600895e-03 9.41890851e-03 -1.16586001e-01
6.82129757e-02 -7.10742187e-03 1.49354280e-02 -7.10742187e-03 6.16903249e-02 3.01450310e-03 1.49354280e-02 3.01450310e-03 -1.09304246e-01
7.03551183e-02 -3.36001638e-03 1.34306275e-02 -3.36001638e-03 6.84806621e-02 5.85391349e-03 1.34306275e-02 5.85391349e-03 -1.16838528e-01
6.18142318e-02 1.18344049e-02 8.71391548e-03 1.18344049e-02 7.01027960e-02 8.95138073e-03 8.71391548e-03 8.95138073e-03 -1.11014880e-01
6.95850756e-02 1.55970687e-03 -1.61598623e-03 1.55970687e-03 7.01277917e-02 6.79200771e-03 -1.61598623e-03 6.79200771e-03 -1.17507866e-01
4.54122755e-02 -8.62424896e-03 1.02960203e-02 -8.62424896e-03 6.07303553e-02 -1.09075914e-02 1.02960203e-02 -1.09075914e-02 -8.96234158e-02
4.04130481e-02 -6.31621247e-03 2.08680946e-02 -6.31621247e-03 6.10326929e-02 -5.49131574e-03 2.08680946e-02 -5.49131574e-03 -8.51316843e-02
5.06239161e-02 -5.65322781e-03 1.92109077e-02 -5.65322781e-03 6.33008602e-02 -5.01940639e-03 1.92109077e-02 -5.01940639e-03 -9.57335734e-02
6.94230244e-02 -1.77140191e-02 5.36109157e-02 -1.77140191e-02 7.08136998e-02 -3.61612926e-03 5.36109157e-02 -3.61612926e-03 -1.17329414e-01
7.06564225e-02 -1.81074778e-03 1.46710372e-02 -1.81074778e-03 8.44337922e-02 1.75763390e-02 1.46710372e-02 1.75763390e-02 -1.30228397e-01
6.97829183e-02 -3.22497665e-03 2.92876204e-02 -3.22497665e-03 8.69242102e-02 3.59507038e-02 2.92876204e-02 3.59507038e-02 -1.31528465e-01
6.72470778e-02 -1.38146989e-02 1.53253251e-02 -1.38146989e-02 9.16558467e-02 3.15923282e-02 1.53253251e-02 3.15923282e-02 -1.33372404e-01
3.44336901e-02 -1.67984726e-03 2.81677356e-02 -1.67984726e-03 4.72946940e-02 -1.96008178e-03 2.81677356e-02 -1.96008178e-03 -6.76038758e-02
3.74363400e-02 -2.89866806e-03 2.05008136e-02 -2.89866806e-03 4.82917773e-02 -5.34346455e-03 2.05008136e-02 -5.34346455e-03 -7.20041879e-02
3.74644641e-02 -1.14693445e-02 4.08858530e-02 -1.14693445e-02 5.75804493e-02 4.76312862e-02 4.08858530e-02 4.76312862e-02 -7.92940129e-02
-1.65000404e-02 -4.65008598e-02 3.64340320e-02 -4.65008598e-02 7.22753361e-03 5.81763890e-02 3.64340320e-02 5.81763890e-02 1.80614702e-02
3.39041241e-02 8.66570044e-05 1.36928703e-02 8.66570044e-05 2.73000987e-02 1.02141584e-02 1.36928703e-02 1.02141584e-02 -4.92162488e-02
3.73531319e-02 5.86650346e-03 1.35854231e-02 5.86650346e-03 3.63662187e-02 1.01845397e-02 1.35854231e-02 1.01845397e-02 -6.20021364e-02
3.14641087e-02 -2.31993313e-02 2.38663810e-02 -2.31993313e-02 2.13017806e-02 1.98057791e-02 2.38663810e-02 1.98057791e-02 -4.23244850e-02
1.11150043e-02 -8.21622399e-03 -3.70135096e-02 -8.21622399e-03 1.63319050e-02 2.65047575e-04 -3.70135096e-02 2.65047575e-04 -1.81262145e-02
4.02892707e-02 -8.46362284e-03 2.78764236e-03 -8.46362284e-03 3.44519941e-02 7.90969165e-03 2.78764236e-03 7.90969165e-03 -6.26612068e-02
4.41930946e-02 -7.63187488e-03 -4.93055210e-04 -7.63187488e-03 3.32923373e-02 7.91962841e-03 -4.93055210e-04 7.91962841e-03 -6.51687924e-02
3.45416524e-02 -1.61945907e-02 5.99705469e-04 -1.61945907e-02 3.72564344e-02 1.74237419e-02 5.99705469e-04 1.74237419e-02 -5.80373085e-02
5.71107510e-02 1.70043088e-04 -2.30574135e-02 1.70043088e-04 6.23513488e-02 3.10860942e-02 -2.30574135e-02 3.10860942e-02 -1.03205726e-01
4.18845462e-02 -1.81140272e-03 -3.16605857e-03 -1.81140272e-03 4.73524453e-02 -3.22782202e-04 -3.16605857e-03 -3.22782202e-04 -7.52031785e-02
4.64844890e-02 9.88544023e-04 -4.32294887e-03 9.88544023e-04 4.19584271e-02 6.33890158e-03 -4.32294887e-03 6.33890158e-03 -7.44498000e-02
3.68669005e-02 7.07777712e-04 1.70810183e-03 7.07777712e-04 5.08778007e-02 -5.82336733e-03 1.70810183e-03 -5.82336733e-03 -7.10290428e-02
7.39836544e-02 -2.22364219e-03 -2.19887989e-02 -2.22364219e-03 8.03110339e-02 2.40152031e-02 -2.19887989e-02 2.40152031e-02 -1.31489579e-01
0.00000000e+00 0.00000000e+00 0.00000000e+00 0.00000000e+00 0.00000000e+00 0.00000000e+00 0.00000000e+00 0.00000000e+00 0.00000000e+00
0.00000000e+00 0.00000000e+00 0.00000000e+00 0.00000000e+00 0.00000000e+00 0.00000000e+00 0.00000000e+00 0.00000000e+00 0.00000000e+00
0.00000000e+00 0.00000000e+00 0.00000000e+00 0.00000000e+00 0.00000000e+00 0.00000000e+00 0.00000000e+00 0.00000000e+00 0.00000000e+00
0.00000000e+00 0.00000000e+00 0.00000000e+00 0.00000000e+00 0.00000000e+00 0.00000000e+00 0.00000000e+00 0.00000000e+00 0.00000000e+00
5.51094543e-02 8.91254695e-06 1.00856945e-02 8.91254695e-06 5.79469707e-02 -2.19019991e-03 1.00856945e-02 -2.19019991e-03 -9.52050537e-02
5.66078322e-02 3.06760787e-03 6.43882377e-03 3.06760787e-03 5.59704397e-02 3.13155644e-03 6.43882377e-03 3.13155644e-03 -9.47898272e-02
5.47994808e-02 -9.09000565e-03 1.19958647e-02 -9.09000565e-03 5.70299868e-02 4.27644026e-03 1.19958647e-02 4.27644026e-03 -9.40934066e-02
5.31864902e-02 2.14815064e-03 1.05387129e-02 2.14815064e-03 5.92192532e-02 -5.77170483e-03 1.05387129e-02 -5.77170483e-03 -9.46307313e-02
6.07949132e-02 -1.18427514e-02 9.98229743e-03 -1.18427514e-02 5.01847761e-02 4.61552670e-04 9.98229743e-03 4.61552670e-04 -9.33925193e-02
5.94388191e-02 -1.18791485e-02 1.28188959e-02 -1.18791485e-02 5.55718951e-02 5.75195874e-03 1.28188959e-02 5.75195874e-03 -9.67069194e-02
6.47429945e-02 1.11491021e-03 4.32528439e-03 1.11491021e-03 4.75535374e-02 6.41688539e-03 4.32528439e-03 6.41688539e-03 -9.44763999e-02
5.98503791e-02 -5.44472324e-03 -4.65579092e-03 -5.44472324e-03 4.87055464e-02 -4.67879209e-03 -4.65579092e-03 -4.67879209e-03 -8.95665879e-02
6.79091811e-02 2.82983482e-03 -5.47194213e-03 2.82983482e-03 4.50769514e-02 3.11356271e-05 -5.47194213e-03 3.11356271e-05 -9.50164385e-02
6.80253464e-02 8.24847084e-04 -9.52645994e-03 8.24847084e-04 6.31388458e-02 8.97710561e-05 -9.52645994e-03 8.97710561e-05 -1.11102473e-01
6.57703588e-02 3.16692167e-04 2.50655354e-03 3.16692167e-04 4.65028910e-02 -2.90674424e-03 2.50655354e-03 -2.90674424e-03 -9.44645014e-02
6.60369750e-02 -1.03942692e-03 4.62199037e-04 -1.03942692e-03 5.98032000e-02 3.55490224e-03 4.62199037e-04 3.55490224e-03 -1.05885443e-01
6.34681191e-02 -6.18413032e-04 1.65300473e-03 -6.18413032e-04 4.76856604e-02 -2.33353721e-03 1.65300473e-03 -2.33353721e-03 -9.34914537e-02
6.15989463e-02 -5.82029836e-03 -3.30047990e-03 -5.82029836e-03 6.10801009e-02 -2.07319221e-03 -3.30047990e-03 -2.07319221e-03 -1.03254607e-01
5.04446970e-02 -1.57007130e-02 3.17530872e-02 -1.57007130e-02 6.18125242e-02 2.09194998e-03 3.17530872e-02 2.09194998e-03 -9.38379737e-02
4.29563392e-02 -1.41705950e-02 2.37262414e-02 -1.41705950e-02 6.64900476e-02 -3.60713259e-03 2.37262414e-02 -3.60713259e-03 -9.18588135e-02
6.43513996e-02 -3.91630323e-04 2.42970226e-02 -3.91630323e-04 5.93053975e-02 -3.56161288e-03 2.42970226e-02 -3.56161288e-03 -1.04835685e-01
7.65307233e-02 -1.75287718e-02 -6.66970722e-02 -1.75287718e-02 6.99452996e-02 -1.08707119e-03 -6.66970722e-02 -1.08707119e-03 -1.21801949e-01
7.18199089e-02 -2.53335480e-03 -1.92933804e-02 -2.53335480e-03 8.23169127e-02 1.24459089e-02 -1.92933804e-02 1.24459089e-02 -1.29342493e-01
7.17564952e-02 -5.67072484e-03 -1.56117009e-03 -5.67072484e-03 8.08315519e-02 1.18218083e-02 -1.56117009e-03 1.18218083e-02 -1.28502119e-01
6.40746560e-02 -5.24656358e-03 -4.40490071e-03 -5.24656358e-03 8.45145732e-02 3.72777961e-03 -4.40490071e-03 3.72777961e-03 -1.25034757e-01
4.61948458e-02 -9.75020702e-03 4.65723271e-02 -9.75020702e-03 6.35952965e-02 3.18573113e-03 4.65723271e-02 3.18573113e-03 -9.24041974e-02
3.85000054e-02 3.17240960e-03 3.43324910e-02 3.17240960e-03 5.98427085e-02 3.80423467e-03 3.43324910e-02 3.80423467e-03 -8.21046233e-02
5.41080344e-02 -3.00465263e-02 6.03222377e-02 -3.00465263e-02 7.42440866e-02 -6.85752751e-02 6.03222377e-02 -6.85752751e-02 -1.04320066e-01
3.40233008e-02 -3.59710321e-03 1.21060247e-02 -3.59710321e-03 4.31590921e-02 2.68391701e-02 1.21060247e-02 2.68391701e-02 -6.30462287e-02
4.06530416e-02 -8.78189015e-03 3.12268751e-02 -8.78189015e-03 5.30797374e-02 1.01997338e-02 3.12268751e-02 1.01997338e-02 -7.93381818e-02
3.98519933e-02 8.25414885e-03 1.87062172e-02 8.25414885e-03 5.65601364e-02 8.87490958e-02 1.87062172e-02 8.87490958e-02 -7.83696445e-02
2.20886292e-02 4.32863584e-04 1.49798559e-02 4.32863584e-04 2.81032857e-02 6.49356924e-04 1.49798559e-02 6.49356924e-04 -3.52207669e-02
4.23080949e-02 7.06413912e-03 -3.78206326e-03 7.06413912e-03 5.29970508e-02 5.95579797e-03 -3.78206326e-03 5.95579797e-03 -8.10075626e-02
2.68213849e-02 -9.43953168e-03 -6.90027227e-03 -9.43953168e-03 4.10309283e-02 2.47353615e-02 -6.90027227e-03 2.47353615e-02 -5.09397366e-02
-1.47534497e-02 8.97396207e-02 -8.90666544e-02 8.97396207e-02 -3.02122496e-02 1.73166618e-01 -8.90666544e-02 1.73166618e-01 5.63284680e-02
8.43292549e-02 3.11472571e-02 -1.14997597e-01 3.11472571e-02 8.27053369e-02 -2.78094939e-02 -1.14997597e-01 -2.78094939e-02 -1.43275283e-01
5.55496318e-02 1.92162846e-02 4.05120198e-03 1.92162846e-02 6.80070510e-02 2.20782696e-02 4.05120198e-03 2.20782696e-02 -1.07492639e-01
3.99874821e-02 -4.75393585e-03 6.89365738e-03 -4.75393585e-03 5.49168047e-02 1.19156027e-02 6.89365738e-03 1.19156027e-02 -7.93393590e-02
</DataArray>
<DataArray type="Float32" Name="Spatial_displacement" NumberOfComponents="3" format="ascii">
0.00000000e+00 0.00000000e+00 0.00000000e+00
4.67421189e-02 0.00000000e+00 0.00000000e+00
4.98339832e-02 8.32269117e-02 0.00000000e+00
0.00000000e+00 8.02941844e-02 0.00000000e+00
0.00000000e+00 0.00000000e+00 -9.83383656e-02
4.58588898e-02 0.00000000e+00 -1.02042586e-01
4.68683466e-02 7.76981339e-02 -9.73510444e-02
0.00000000e+00 7.65617043e-02 -9.56042856e-02
9.78301689e-02 0.00000000e+00 0.00000000e+00
9.91073623e-02 8.92227367e-02 0.00000000e+00
9.53485817e-02 0.00000000e+00 -1.08496517e-01
9.77938622e-02 8.10905248e-02 -1.03137732e-01
1.50041625e-01 0.00000000e+00 0.00000000e+00
1.54947117e-01 9.77104306e-02 0.00000000e+00
1.55896068e-01 0.00000000e+00 -1.14216268e-01
1.49962112e-01 8.39946494e-02 -1.13836750e-01
2.19241977e-01 0.00000000e+00 0.00000000e+00
2.06207350e-01 1.03839613e-01 0.00000000e+00
2.23372549e-01 0.00000000e+00 -1.22772217e-01
2.08753854e-01 8.43261480e-02 -1.19717211e-01
2.85856813e-01 0.00000000e+00 0.00000000e+00
2.70629078e-01 1.11053899e-01 0.00000000e+00
2.92177558e-01 0.00000000e+00 -1.31018758e-01
2.80716985e-01 8.73460844e-02 -1.25704616e-01
3.60551000e-01 0.00000000e+00 0.00000000e+00
3.17642629e-01 1.37599677e-01 0.00000000e+00
3.57103407e-01 0.00000000e+00 -1.32070199e-01
3.46538663e-01 1.12526953e-01 -1.37763396e-01
5.41474670e-02 1.49186835e-01 0.00000000e+00
0.00000000e+00 1.46786988e-01 0.00000000e+00
4.98985946e-02 1.44370779e-01 -8.56588930e-02
0.00000000e+00 1.40659988e-01 -8.48498791e-02
1.07610896e-01 1.61690444e-01 0.00000000e+00
9.88296419e-02 1.51540533e-01 -8.70409608e-02
1.51236936e-01 1.72615752e-01 0.00000000e+00
1.44357741e-01 1.59917191e-01 -7.84229785e-02
1.87609956e-01 1.94805175e-01 0.00000000e+00
1.90512657e-01 1.58697829e-01 -8.14080238e-02
2.11650848e-01 1.95371658e-01 0.00000000e+00
2.28349298e-01 1.63784266e-01 -7.66152143e-02
2.46187419e-01 2.34207898e-01 0.00000000e+00
2.73861110e-01 1.99620962e-01 -7.62356669e-02
5.77850491e-02 1.90425575e-01 0.00000000e+00
0.00000000e+00 1.87019348e-01 0.00000000e+00
5.20063266e-02 1.91634879e-01 -7.06272572e-02
0.00000000e+00 1.89643443e-01 -6.92360848e-02
1.16282724e-01 1.92984790e-01 0.00000000e+00
1.06077537e-01 1.94183141e-01 -5.62513620e-02
1.48656026e-01 2.01917112e-01 0.00000000e+00
1.41780645e-01 1.99116021e-01 -1.62822902e-02
1.55551493e-01 2.08907768e-01 0.00000000e+00
1.46619111e-01 1.97168663e-01 6.57284260e-03
1.71944216e-01 2.01022923e-01 0.00000000e+00
1.74115196e-01 1.78553626e-01 1.58586800e-02
1.74472302e-01 2.42318481e-01 0.00000000e+00
1.81665793e-01 2.39137739e-01 4.98056412e-03
6.04065284e-02 2.13070616e-01 0.00000000e+00
0.00000000e+00 2.17860013e-01 0.00000000e+00
5.28597981e-02 2.15764493e-01 -6.15557879e-02
0.00000000e+00 2.21473366e-01 -6.33976460e-02
1.15753070e-01 2.08667904e-01 0.00000000e+00
1.03479028e-01 2.04469413e-01 -4.34039533e-02
1.43672049e-01 2.01727256e-01 0.00000000e+00
1.34787783e-01 2.00400457e-01 -8.20198655e-03
1.40218601e-01 2.07650036e-01 0.00000000e+00
1.39838219e-01 2.07645252e-01 -3.93390656e-05
1.40134588e-01 2.10709780e-01 0.00000000e+00
1.40191883e-01 2.09001169e-01 0.00000000e+00
1.40257731e-01 2.10741937e-01 -2.73525715e-04
1.40255138e-01 2.08937854e-01 1.75535679e-05
5.82318455e-02 2.34505057e-01 0.00000000e+00
0.00000000e+00 2.45046824e-01 0.00000000e+00
5.48775122e-02 2.42316931e-01 -6.38459623e-02
0.00000000e+00 2.46842414e-01 -7.13592768e-02
1.13731772e-01 2.16171190e-01 0.00000000e+00
9.71078575e-02 2.19889134e-01 -5.02111316e-02
1.34924486e-01 2.02982217e-01 0.00000000e+00
1.28001705e-01 2.07467273e-01 -1.26461685e-02
1.38833135e-01 2.07740992e-01 0.00000000e+00
1.38593897e-01 2.07755536e-01 2.43902206e-04
1.38678700e-01 2.09107116e-01 0.00000000e+00
1.38773501e-01 2.09086716e-01 2.86698341e-05
1.38797790e-01 2.10469157e-01 0.00000000e+00
1.38814688e-01 2.10404128e-01 7.95722008e-06
6.57856837e-02 2.71641016e-01 0.00000000e+00
0.00000000e+00 2.76480138e-01 0.00000000e+00
5.91583401e-02 2.73113191e-01 -7.74720609e-02
0.00000000e+00 2.83699453e-01 -8.39257091e-02
1.22285090e-01 2.40401670e-01 0.00000000e+00
1.00548781e-01 2.60385454e-01 -7.16422945e-02
1.41299188e-01 2.14697346e-01 0.00000000e+00
1.33676082e-01 2.32098073e-01 -3.27077210e-02
1.38493001e-01 2.08376646e-01 0.00000000e+00
1.37824148e-01 2.08405375e-01 5.37067652e-04
1.37485832e-01 2.08959982e-01 0.00000000e+00
1.37596667e-01 2.09045604e-01 -3.34382057e-05
1.37450516e-01 2.10427433e-01 0.00000000e+00
1.37477100e-01 2.10398868e-01 -4.88758087e-06
0.00000000e+00 0.00000000e+00 -1.88730732e-01
4.60985824e-02 0.00000000e+00 -1.96130961e-01
4.55130413e-02 6.55280724e-02 -1.88443437e-01
0.00000000e+00 6.63205087e-02 -1.87597096e-01
1.02772400e-01 0.00000000e+00 -2.05556184e-01
9.23083574e-02 5.86674660e-02 -2.00786501e-01
1.59373626e-01 0.00000000e+00 -2.17558980e-01
1.59369409e-01 5.82965538e-02 -2.18612999e-01
2.32389346e-01 0.00000000e+00 -2.36472577e-01
2.26536334e-01 5.86982667e-02 -2.24561840e-01
3.07581723e-01 0.00000000e+00 -2.49336943e-01
2.99975395e-01 6.07476458e-02 -2.35985428e-01
3.67584884e-01 0.00000000e+00 -2.54575193e-01
3.80162656e-01 6.89632520e-02 -2.46784225e-01
3.98258865e-02 1.28580421e-01 -1.71086669e-01
0.00000000e+00 1.35357022e-01 -1.65994182e-01
8.94687623e-02 1.27642602e-01 -1.77793279e-01
1.43672511e-01 1.31980196e-01 -1.82450995e-01
2.16020867e-01 1.47488415e-01 -2.01033667e-01
2.90743172e-01 1.49840593e-01 -1.94694981e-01
3.55699062e-01 1.61377802e-01 -2.06999958e-01
3.50946486e-02 1.86486840e-01 -1.42023951e-01
0.00000000e+00 1.89593688e-01 -1.37018874e-01
7.60462433e-02 1.88210323e-01 -1.27967879e-01
6.76384270e-02 1.60813808e-01 1.11729801e-02
3.74908149e-02 2.34593838e-01 -1.16015583e-01
0.00000000e+00 2.28404462e-01 -1.25640586e-01
8.29090774e-02 2.13863894e-01 -8.53725821e-02
1.06352143e-01 1.80301771e-01 -3.75776440e-02
4.65932786e-02 2.54512250e-01 -1.25209793e-01
0.00000000e+00 2.62466341e-01 -1.32669911e-01
7.74951652e-02 2.41588831e-01 -1.02469638e-01
1.31108269e-01 2.23380059e-01 -7.90048391e-02
4.11876813e-02 2.99378991e-01 -1.56777948e-01
0.00000000e+00 2.98393190e-01 -1.62704766e-01
7.92658702e-02 3.05869758e-01 -1.47907361e-01
1.42295390e-01 2.92009592e-01 -1.44452870e-01
1.38809770e-01 2.09131122e-01 3.39150429e-05
1.38810605e-01 2.10421368e-01 3.19778919e-05
1.37518510e-01 2.10429698e-01 -1.73151493e-05
1.37490913e-01 2.09145516e-01 -3.44514847e-05
0.00000000e+00 0.00000000e+00 -2.81201959e-01
5.35413101e-02 0.00000000e+00 -2.83186078e-01
5.68234921e-02 5.88519275e-02 -2.77311355e-01
0.00000000e+00 5.65843135e-02 -2.72043616e-01
1.18907943e-01 0.00000000e+00 -2.97635376e-01
1.06297478e-01 5.06869778e-02 -2.88536817e-01
1.76900774e-01 0.00000000e+00 -3.13509822e-01
1.78101569e-01 4.60062549e-02 -3.09562206e-01
2.46723443e-01 0.00000000e+00 -3.27147454e-01
2.49754414e-01 4.77154478e-02 -3.32143366e-01
3.20519507e-01 0.00000000e+00 -3.43842179e-01
3.20843041e-01 5.06207421e-02 -3.41558725e-01
3.88867378e-01 0.00000000e+00 -3.49042952e-01
3.88238609e-01 5.16679808e-02 -3.47547323e-01
4.03858721e-02 1.11396804e-01 -2.55833924e-01
0.00000000e+00 1.26576200e-01 -2.52366841e-01
1.06416591e-01 1.13672584e-01 -2.77635306e-01
1.67330235e-01 1.20237365e-01 -3.21093202e-01
2.44567066e-01 1.32735550e-01 -3.32395345e-01
3.14495444e-01 1.25315443e-01 -3.29833269e-01
3.74527752e-01 1.33724615e-01 -3.35418224e-01
3.63842100e-02 1.90504923e-01 -2.10745037e-01
0.00000000e+00 1.87194258e-01 -2.14652956e-01
9.56967399e-02 1.67382509e-01 -2.42234945e-01
3.69631499e-02 2.36121610e-01 -1.77286565e-01
0.00000000e+00 2.44844705e-01 -1.85208291e-01
8.60495716e-02 2.36679271e-01 -1.41653493e-01
3.78438979e-02 2.93378621e-01 -1.91924557e-01
0.00000000e+00 2.86841601e-01 -1.96384698e-01
8.28484595e-02 2.88535535e-01 -1.80700719e-01
1.00650571e-01 2.93549418e-01 2.22482681e-02
1.25313520e-01 2.79573709e-01 -2.03776941e-01
4.13961336e-02 3.37684661e-01 -2.29839131e-01
0.00000000e+00 3.42224449e-01 -2.41447598e-01
</DataArray>
<DataArray type="Float32" Name="Spatial_acceleration" NumberOfComponents="3" format="ascii">
0.00000000e+00 0.00000000e+00 0.00000000e+00
-1.40388806e-07 0.00000000e+00 0.00000000e+00
-1.78098674e-07 -2.26517514e-07 0.00000000e+00
0.00000000e+00 -2.41796187e-07 0.00000000e+00
0.00000000e+00 0.00000000e+00 2.55584723e-07
-1.42673656e-07 0.00000000e+00 2.56220488e-07
-1.60704062e-07 -1.88791816e-07 2.46365857e-07
0.00000000e+00 -2.16046971e-07 2.52405812e-07
-3.18090116e-07 0.00000000e+00 0.00000000e+00
-3.45706923e-07 -2.40226598e-07 0.00000000e+00
-2.86678471e-07 0.00000000e+00 2.80380249e-07
-2.96711931e-07 -2.10245446e-07 2.48273210e-07
-4.69565379e-07 0.00000000e+00 0.00000000e+00
-4.91539652e-07 -2.44299571e-07 0.00000000e+00
-4.73578780e-07 0.00000000e+00 2.56220488e-07
-4.74890072e-07 -2.03569726e-07 2.67028810e-07
-6.38579309e-07 0.00000000e+00 0.00000000e+00
-6.29623742e-07 -2.53995267e-07 0.00000000e+00
-6.75916681e-07 0.00000000e+00 2.46047961e-07
-6.22669859e-07 -2.02536583e-07 2.53041577e-07
-8.20130083e-07 0.00000000e+00 0.00000000e+00
-7.96635959e-07 -2.51690551e-07 0.00000000e+00
-8.23338837e-07 0.00000000e+00 2.38418579e-07
-8.13206043e-07 -2.13106475e-07 2.64644626e-07
-1.02662045e-06 0.00000000e+00 0.00000000e+00
-8.76744593e-07 -2.77837103e-07 0.00000000e+00
-9.72946509e-07 0.00000000e+00 2.23795567e-07
-9.62734248e-07 -2.74658191e-07 2.63214105e-07
-1.85251238e-07 -3.96490094e-07 0.00000000e+00
0.00000000e+00 -4.03285014e-07 0.00000000e+00
-1.48663915e-07 -4.01419896e-07 2.34603874e-07
0.00000000e+00 -3.99748473e-07 2.47319548e-07
-3.51270046e-07 -4.33762864e-07 0.00000000e+00
-3.04530062e-07 -4.07894447e-07 2.58763635e-07
-4.91539652e-07 -4.43855924e-07 0.00000000e+00
-4.72034714e-07 -4.20979092e-07 2.48136985e-07
-5.75701392e-07 -5.09738925e-07 0.00000000e+00
-5.97159101e-07 -4.07536817e-07 2.41597490e-07
-6.72419844e-07 -4.76678196e-07 0.00000000e+00
-6.97424014e-07 -3.98238512e-07 2.05569805e-07
-7.30514500e-07 -5.61078366e-07 0.00000000e+00
-8.34570983e-07 -4.79804157e-07 1.79714633e-07
-1.93436932e-07 -5.50826371e-07 0.00000000e+00
0.00000000e+00 -5.40653843e-07 0.00000000e+00
-1.55647598e-07 -5.27064003e-07 2.22841891e-07
0.00000000e+00 -5.34673518e-07 2.22206111e-07
-3.95456937e-07 -5.54402675e-07 0.00000000e+00
-3.53495267e-07 -5.37733229e-07 2.05993643e-07
-4.90029663e-07 -5.46852732e-07 0.00000000e+00
-4.78302468e-07 -5.46819649e-07 4.87433560e-08
-5.06930860e-07 -5.60760498e-07 0.00000000e+00
-4.81075688e-07 -5.28123621e-07 -3.00937231e-08
-5.46349440e-07 -5.42150588e-07 0.00000000e+00
-5.66694496e-07 -4.02874434e-07 -2.16166178e-08
-5.35329150e-07 -6.00337955e-07 0.00000000e+00
-5.87781244e-07 -6.16987563e-07 -3.27428182e-08
-1.83661783e-07 -6.22928155e-07 0.00000000e+00
0.00000000e+00 -6.17822025e-07 0.00000000e+00
-1.59839786e-07 -6.23991070e-07 1.95662182e-07
0.00000000e+00 -6.60742330e-07 1.99635821e-07
-3.88383853e-07 -6.05230525e-07 0.00000000e+00
-3.45865885e-07 -5.53806615e-07 1.50203704e-07
-4.90903858e-07 -5.44110947e-07 0.00000000e+00
-4.60942601e-07 -5.30719774e-07 2.43716780e-08
-4.78426614e-07 -5.63939409e-07 0.00000000e+00
-4.63909572e-07 -5.70933025e-07 -3.28487815e-09
-4.83274448e-07 -5.24838754e-07 0.00000000e+00
-4.80744575e-07 -5.57859721e-07 0.00000000e+00
-4.82241319e-07 -5.18480931e-07 6.19888318e-09
-4.77472952e-07 -5.24755990e-07 9.21885146e-09
-1.89304345e-07 -6.74049033e-07 0.00000000e+00
0.00000000e+00 -7.16229295e-07 0.00000000e+00
-1.80492790e-07 -7.14023884e-07 1.86602279e-07
0.00000000e+00 -7.29163503e-07 2.16484068e-07
-3.98119283e-07 -6.25769303e-07 0.00000000e+00
-3.34819163e-07 -6.33001321e-07 1.72773994e-07
-4.60863106e-07 -5.62310220e-07 0.00000000e+00
-4.55220544e-07 -5.63409571e-07 4.95910655e-08
-5.12758902e-07 -5.59488910e-07 0.00000000e+00
-4.96864288e-07 -5.52336360e-07 -2.46365861e-09
-5.00281658e-07 -5.16533873e-07 0.00000000e+00
-5.10327027e-07 -5.48986577e-07 -2.10185842e-08
-5.11407848e-07 -5.28017665e-07 0.00000000e+00
-5.22507548e-07 -5.32627098e-07 1.15397079e-08
-2.10603076e-07 -8.13404711e-07 0.00000000e+00
0.00000000e+00 -8.18798924e-07 0.00000000e+00
-2.03847890e-07 -8.14716032e-07 2.32696536e-07
0.00000000e+00 -8.37823961e-07 2.68300369e-07
-4.05788427e-07 -7.11758901e-07 0.00000000e+00
-3.44713527e-07 -7.79310881e-07 2.38418579e-07
-4.98453744e-07 -6.03993726e-07 0.00000000e+00
-4.89128979e-07 -6.70539009e-07 1.40719948e-07
-4.99407463e-07 -5.41369104e-07 0.00000000e+00
-5.29607121e-07 -5.70615100e-07 -7.31150296e-09
-5.12440977e-07 -5.44230147e-07 0.00000000e+00
-5.13712564e-07 -5.26269275e-07 2.22819967e-08
-4.88877276e-07 -5.54064911e-07 0.00000000e+00
-5.04195668e-07 -5.31951571e-07 1.41235068e-08
0.00000000e+00 0.00000000e+00 5.25156679e-07
-1.23699508e-07 0.00000000e+00 5.21341974e-07
-1.24375021e-07 -1.88544391e-07 4.97818007e-07
0.00000000e+00 -1.92921604e-07 5.25792416e-07
-3.06730470e-07 0.00000000e+00 5.33103957e-07
-2.68936162e-07 -1.76509218e-07 5.27064003e-07
-4.74452975e-07 0.00000000e+00 5.36600737e-07
-4.66028837e-07 -1.69475868e-07 5.45183809e-07
-6.83426833e-07 0.00000000e+00 5.30560783e-07
-6.66220956e-07 -1.81019303e-07 5.38667052e-07
-8.79287711e-07 0.00000000e+00 5.28971327e-07
-8.59856584e-07 -1.61687538e-07 5.59647845e-07
-1.04729338e-06 0.00000000e+00 5.23885092e-07
-1.05754532e-06 -1.97052955e-07 5.54084750e-07
-1.39276182e-07 -3.54289995e-07 4.82877113e-07
0.00000000e+00 -3.63349898e-07 5.03222168e-07
-3.06265690e-07 -3.55572922e-07 5.06809783e-07
-4.11732998e-07 -3.56864945e-07 5.00488284e-07
-6.15596775e-07 -3.97135807e-07 5.32786032e-07
-8.09550272e-07 -4.02371086e-07 4.95910626e-07
-9.58283749e-07 -4.31075676e-07 5.04811624e-07
-1.39951709e-07 -5.31117109e-07 4.33286033e-07
0.00000000e+00 -5.56508667e-07 4.31696577e-07
-2.47266570e-07 -5.38455140e-07 4.30636931e-07
-2.22841891e-07 -4.11987287e-07 -2.94049585e-08
-1.23739241e-07 -6.81097902e-07 3.68436162e-07
0.00000000e+00 -6.63042044e-07 3.95456937e-07
-2.90030528e-07 -6.00951068e-07 3.08354686e-07
-3.69389852e-07 -5.07884579e-07 1.28851994e-07
-1.81396800e-07 -7.65959442e-07 4.17868279e-07
0.00000000e+00 -7.92863432e-07 4.37100738e-07
-2.81453140e-07 -7.02619559e-07 3.57151038e-07
-4.51485306e-07 -6.36339166e-07 2.74022426e-07
-1.80562338e-07 -8.92877551e-07 4.99725331e-07
0.00000000e+00 -9.00646057e-07 5.14984151e-07
-2.94903913e-07 -9.13302074e-07 4.97182214e-07
-4.59631281e-07 -8.34147102e-07 4.73022453e-07
-4.84215718e-07 -5.24150835e-07 6.63250646e-08
-4.61677701e-07 -5.25703001e-07 -5.28842214e-08
-5.24029133e-07 -5.25380187e-07 3.12477333e-08
-5.23249298e-07 -5.32170134e-07 -4.22447926e-08
0.00000000e+00 0.00000000e+00 7.24792471e-07
-1.59263607e-07 0.00000000e+00 7.65482582e-07
-1.58727161e-07 -1.71621636e-07 7.47680645e-07
0.00000000e+00 -1.44143897e-07 7.47680645e-07
-3.35256260e-07 0.00000000e+00 7.89006549e-07
-2.99334516e-07 -1.53216220e-07 7.64687854e-07
-4.74577149e-07 0.00000000e+00 8.06172693e-07
-5.03937372e-07 -1.63356461e-07 7.84238182e-07
-6.81166853e-07 0.00000000e+00 7.90278136e-07
-6.88950195e-07 -1.53124333e-07 7.93457048e-07
-9.14235898e-07 0.00000000e+00 8.13484178e-07
-8.91089428e-07 -1.61315000e-07 8.19842001e-07
-1.11387169e-06 0.00000000e+00 7.73111992e-07
-1.11969314e-06 -1.77939725e-07 8.05536899e-07
-1.44561128e-07 -3.35772825e-07 7.14619944e-07
0.00000000e+00 -3.63032029e-07 7.20659898e-07
-3.42232823e-07 -3.52814084e-07 7.47680645e-07
-5.01632712e-07 -3.71805839e-07 7.97017435e-07
-6.60181058e-07 -3.70502477e-07 8.19524132e-07
-8.52147707e-07 -3.63230697e-07 8.11258928e-07
-1.01692979e-06 -4.16874883e-07 8.01086401e-07
-1.31425395e-07 -5.41073916e-07 6.51768289e-07
0.00000000e+00 -5.23716210e-07 6.58035276e-07
-2.79267624e-07 -4.80492929e-07 6.65028892e-07
-1.33605226e-07 -6.78652782e-07 5.76200932e-07
0.00000000e+00 -7.08093239e-07 6.00496946e-07
-2.98817952e-07 -6.78181664e-07 4.98453744e-07
-1.35421757e-07 -8.67644928e-07 6.39478344e-07
0.00000000e+00 -8.36173683e-07 6.44683837e-07
-2.84467433e-07 -8.21976414e-07 5.79107393e-07
-3.04162512e-07 -9.71794066e-07 -9.53674331e-08
-3.73310513e-07 -8.03629575e-07 6.39173720e-07
-1.36454901e-07 -9.96033350e-07 7.49111166e-07
0.00000000e+00 -1.04244543e-06 7.68025700e-07
</DataArray>
<DataArray type="Float32" Name="Spatial_velocity" NumberOfComponents="3" format="ascii">
0.00000000e+00 0.00000000e+00 0.00000000e+00
4.08321557e-06 0.00000000e+00 0.00000000e+00
4.24824748e-06 5.75495596e-06 0.00000000e+00
0.00000000e+00 5.67394000e-06 0.00000000e+00
0.00000000e+00 0.00000000e+00 -6.84352653e-06
3.93458731e-06 0.00000000e+00 -7.00449436e-06
4.03399508e-06 5.50576897e-06 -6.77387243e-06
0.00000000e+00 5.43209808e-06 -6.91826381e-06
8.19623619e-06 0.00000000e+00 0.00000000e+00
8.32607475e-06 5.95045458e-06 0.00000000e+00
7.96265431e-06 0.00000000e+00 -7.01723911e-06
8.09798075e-06 5.57779504e-06 -6.80853191e-06
1.22580932e-05 0.00000000e+00 0.00000000e+00
1.26109999e-05 6.15788167e-06 0.00000000e+00
1.25372953e-05 0.00000000e+00 -6.84560382e-06
1.20859968e-05 5.50986215e-06 -7.29642807e-06
1.73228764e-05 0.00000000e+00 0.00000000e+00
1.64026314e-05 6.18212425e-06 0.00000000e+00
1.74275610e-05 0.00000000e+00 -7.04726972e-06
1.63996119e-05 5.33953880e-06 -7.20218213e-06
2.14709726e-05 0.00000000e+00 0.00000000e+00
2.10090457e-05 6.41051065e-06 0.00000000e+00
2.19879494e-05 0.00000000e+00 -6.91767491e-06
2.14888205e-05 5.36233301e-06 -7.16876548e-06
2.61404257e-05 0.00000000e+00 0.00000000e+00
2.38611919e-05 7.41616577e-06 0.00000000e+00
2.61826335e-05 0.00000000e+00 -6.47861725e-06
2.56266958e-05 6.77815024e-06 -7.38678318e-06
4.50638618e-06 1.07548831e-05 0.00000000e+00
0.00000000e+00 1.06153702e-05 0.00000000e+00
4.25287408e-06 1.04008604e-05 -6.39405789e-06
0.00000000e+00 1.02387939e-05 -6.46006310e-06
8.82815857e-06 1.13275073e-05 0.00000000e+00
8.25198640e-06 1.08081522e-05 -6.61823015e-06
1.25167426e-05 1.19206343e-05 0.00000000e+00
1.19923661e-05 1.12097478e-05 -6.34414982e-06
1.54935678e-05 1.33947869e-05 0.00000000e+00
1.55077305e-05 1.04877308e-05 -6.35115521e-06
1.74196375e-05 1.25524739e-05 0.00000000e+00
1.83675838e-05 1.05429681e-05 -6.10750203e-06
2.00157447e-05 1.50591241e-05 0.00000000e+00
2.13923049e-05 1.23880891e-05 -5.85184489e-06
4.79319988e-06 1.42157096e-05 0.00000000e+00
0.00000000e+00 1.39720860e-05 0.00000000e+00
4.37114068e-06 1.42670706e-05 -5.73859734e-06
0.00000000e+00 1.41303090e-05 -5.47321815e-06
9.96610197e-06 1.42468825e-05 0.00000000e+00
9.33814590e-06 1.42268082e-05 -5.13130499e-06
1.29032842e-05 1.44634423e-05 0.00000000e+00
1.23586042e-05 1.44063142e-05 -9.54609845e-07
1.33908970e-05 1.45484782e-05 0.00000000e+00
1.27373996e-05 1.39108506e-05 5.80525466e-07
1.44574014e-05 1.38787846e-05 0.00000000e+00
1.48239578e-05 1.11766522e-05 1.25229860e-06
1.44995829e-05 1.58615985e-05 0.00000000e+00
1.52262082e-05 1.59802094e-05 3.95748515e-07
5.07332197e-06 1.62525357e-05 0.00000000e+00
0.00000000e+00 1.67845628e-05 0.00000000e+00
4.49972185e-06 1.64406101e-05 -5.13481700e-06
0.00000000e+00 1.69581617e-05 -5.09376241e-06
1.02919739e-05 1.56259030e-05 0.00000000e+00
9.11290044e-06 1.51004306e-05 -3.86558850e-06
1.28896090e-05 1.43173984e-05 0.00000000e+00
1.23481577e-05 1.43858915e-05 -5.75597824e-07
1.25805736e-05 1.45429431e-05 0.00000000e+00
1.25846618e-05 1.45488730e-05 -1.30918343e-08
1.25895303e-05 1.36037361e-05 0.00000000e+00
1.25871984e-05 1.40800166e-05 0.00000000e+00
1.25828037e-05 1.36232447e-05 6.73233291e-09
1.25798870e-05 1.40683969e-05 3.63006736e-10
5.09397751e-06 1.80316783e-05 0.00000000e+00
0.00000000e+00 1.90467581e-05 0.00000000e+00
4.90419689e-06 1.87455880e-05 -5.21014317e-06
0.00000000e+00 1.93173546e-05 -5.74877686e-06
1.02696777e-05 1.61507614e-05 0.00000000e+00
8.84697874e-06 1.65639594e-05 -4.68927783e-06
1.23983018e-05 1.43862499e-05 0.00000000e+00
1.18732678e-05 1.50920105e-05 -1.43554848e-06
1.30510198e-05 1.45411441e-05 0.00000000e+00
1.30462422e-05 1.45372451e-05 -1.49861734e-09
1.30488115e-05 1.40782922e-05 0.00000000e+00
1.30444741e-05 1.40777793e-05 -2.00165728e-09
1.30468825e-05 1.36187937e-05 0.00000000e+00
1.30411208e-05 1.36076915e-05 -7.53154539e-10
5.77984201e-06 2.11416227e-05 0.00000000e+00
0.00000000e+00 2.16353365e-05 0.00000000e+00
5.23911240e-06 2.16195513e-05 -6.42788245e-06
0.00000000e+00 2.22674316e-05 -6.73917339e-06
1.07869728e-05 1.84688324e-05 0.00000000e+00
9.32004787e-06 2.01593375e-05 -6.43983049e-06
1.35851069e-05 1.58848088e-05 0.00000000e+00
1.25940878e-05 1.74470515e-05 -3.79107587e-06
1.35109076e-05 1.45404756e-05 0.00000000e+00
1.35115788e-05 1.45574768e-05 -4.16241042e-09
1.35103064e-05 1.40826796e-05 0.00000000e+00
1.35072032e-05 1.40739394e-05 3.11639958e-09
1.35087139e-05 1.36194003e-05 0.00000000e+00
1.35070759e-05 1.36100380e-05 1.23098403e-08
0.00000000e+00 0.00000000e+00 -1.32821342e-05
3.65982964e-06 0.00000000e+00 -1.35624896e-05
3.73427974e-06 4.84837756e-06 -1.32514897e-05
0.00000000e+00 4.82772111e-06 -1.34192287e-05
8.14333180e-06 0.00000000e+00 -1.37542183e-05
7.43331748e-06 4.47781531e-06 -1.33935791e-05
1.24203780e-05 0.00000000e+00 -1.36933322e-05
1.23587124e-05 4.58707427e-06 -1.40920383e-05
1.75336991e-05 0.00000000e+00 -1.40475304e-05
1.71465272e-05 4.48465516e-06 -1.40171123e-05
2.29020316e-05 0.00000000e+00 -1.39752719e-05
2.23374300e-05 4.48142328e-06 -1.41153023e-05
2.72297311e-05 0.00000000e+00 -1.34857901e-05
2.78826737e-05 5.36811694e-06 -1.41760420e-05
3.65901474e-06 9.43016039e-06 -1.26651275e-05
0.00000000e+00 9.83304835e-06 -1.27300045e-05
7.67597066e-06 9.44755539e-06 -1.29752079e-05
1.13793049e-05 9.41774488e-06 -1.32165633e-05
1.64921130e-05 1.03123475e-05 -1.35980754e-05
2.12877785e-05 1.03997681e-05 -1.29885248e-05
2.50863814e-05 1.15354705e-05 -1.29848677e-05
3.40400970e-06 1.37561165e-05 -1.12856542e-05
0.00000000e+00 1.41143737e-05 -1.12285497e-05
6.72171655e-06 1.39605208e-05 -1.10624933e-05
5.45090870e-06 1.01491241e-05 1.23059692e-06
3.42016597e-06 1.79613689e-05 -9.75278635e-06
0.00000000e+00 1.72995642e-05 -1.03946686e-05
7.97961366e-06 1.57850955e-05 -7.90323702e-06
9.91026718e-06 1.29576965e-05 -3.53320684e-06
4.48741230e-06 1.98903235e-05 -1.07000305e-05
0.00000000e+00 2.06458208e-05 -1.11390045e-05
7.21085962e-06 1.84296787e-05 -9.31972045e-06
1.15124094e-05 1.69381092e-05 -6.59538000e-06
4.28245494e-06 2.36190444e-05 -1.27097883e-05
0.00000000e+00 2.39264009e-05 -1.35717864e-05
7.56802774e-06 2.37875247e-05 -1.28023157e-05
1.25117449e-05 2.20099282e-05 -1.21738885e-05
1.30317612e-05 1.40580723e-05 -1.20598109e-08
1.30347571e-05 1.35910441e-05 -1.24252875e-09
1.34962156e-05 1.35866130e-05 2.37157618e-08
1.34941365e-05 1.40631691e-05 3.48360452e-09
0.00000000e+00 0.00000000e+00 -1.95562116e-05
3.87195087e-06 0.00000000e+00 -1.95397151e-05
4.30107184e-06 4.39667156e-06 -1.95788616e-05
0.00000000e+00 4.17279489e-06 -1.94396744e-05
8.71107295e-06 0.00000000e+00 -2.00810500e-05
7.92802348e-06 4.13466978e-06 -1.98917332e-05
1.29188356e-05 0.00000000e+00 -2.06087570e-05
1.30232138e-05 4.14439410e-06 -2.03398286e-05
1.79865929e-05 0.00000000e+00 -2.07661360e-05
1.81042487e-05 4.13676753e-06 -2.10065318e-05
2.36172818e-05 0.00000000e+00 -2.09552563e-05
2.33817609e-05 4.21104642e-06 -2.10782073e-05
2.89613654e-05 0.00000000e+00 -2.06545246e-05
2.87216917e-05 4.65030143e-06 -2.10518538e-05
3.37361553e-06 8.50445849e-06 -1.90425690e-05
0.00000000e+00 9.45138709e-06 -1.88998583e-05
8.53720667e-06 8.98078633e-06 -1.92192711e-05
1.24522103e-05 9.09280880e-06 -2.07490066e-05
1.73807803e-05 9.83803875e-06 -2.13044641e-05
2.20382135e-05 9.71537429e-06 -2.08074835e-05
2.59634526e-05 1.12401976e-05 -2.10164180e-05
3.59885598e-06 1.41568062e-05 -1.71234133e-05
0.00000000e+00 1.40868215e-05 -1.71580868e-05
7.82253028e-06 1.25923361e-05 -1.78940754e-05
3.81086602e-06 1.79456201e-05 -1.49002353e-05
0.00000000e+00 1.86062080e-05 -1.59418305e-05
7.71421310e-06 1.78810969e-05 -1.29226701e-05
3.60353238e-06 2.27587079e-05 -1.65345537e-05
0.00000000e+00 2.24164760e-05 -1.69378782e-05
7.36271386e-06 2.18790701e-05 -1.49911066e-05
8.53431447e-06 2.46569925e-05 2.17665183e-06
9.75392049e-06 2.14755910e-05 -1.64036319e-05
3.94222798e-06 2.65826857e-05 -1.94389995e-05
0.00000000e+00 2.71853369e-05 -1.98289890e-05
</DataArray>
<DataArray type="Float32" Name="Reaction_force" NumberOfComponents="3" format="ascii">
4.21345890e-01 -1.66933909e-01 8.90269947e+00
0.00000000e+00 -5.46574652e-01 1.82668076e+01
0.00000000e+00 0.00000000e+00 3.47613220e+01
4.03198898e-01 0.00000000e+00 1.76203270e+01
8.87888551e-01 -3.67910713e-01 0.00000000e+00
0.00000000e+00 -6.96987569e-01 0.00000000e+00
0.00000000e+00 0.00000000e+00 0.00000000e+00
8.55964601e-01 0.00000000e+00 0.00000000e+00
0.00000000e+00 -7.37972081e-01 1.83799744e+01
0.00000000e+00 0.00000000e+00 3.65851097e+01
0.00000000e+00 -4.27991927e-01 0.00000000e+00
0.00000000e+00 0.00000000e+00 0.00000000e+00
0.00000000e+00 -5.26886582e-01 1.94339485e+01
0.00000000e+00 0.00000000e+00 3.61203384e+01
0.00000000e+00 -1.28374800e-01 0.00000000e+00
0.00000000e+00 0.00000000e+00 0.00000000e+00
0.00000000e+00 -7.91092873e-01 1.91124630e+01
0.00000000e+00 0.00000000e+00 3.53275108e+01
0.00000000e+00 -4.26625550e-01 0.00000000e+00
0.00000000e+00 0.00000000e+00 0.00000000e+00
0.00000000e+00 -1.20784414e+00 1.68190327e+01
0.00000000e+00 0.00000000e+00 3.17340889e+01
0.00000000e+00 -1.56871629e+00 0.00000000e+00
0.00000000e+00 0.00000000e+00 0.00000000e+00
0.00000000e+00 -2.30369687e+00 1.07601233e+01
0.00000000e+00 0.00000000e+00 2.01442833e+01
0.00000000e+00 -3.14470577e+00 0.00000000e+00
0.00000000e+00 0.00000000e+00 0.00000000e+00
0.00000000e+00 0.00000000e+00 3.27306671e+01
-5.13412416e-01 0.00000000e+00 1.61446114e+01
0.00000000e+00 0.00000000e+00 0.00000000e+00
-4.56009269e-01 0.00000000e+00 0.00000000e+00
0.00000000e+00 0.00000000e+00 2.97696095e+01
0.00000000e+00 0.00000000e+00 0.00000000e+00
0.00000000e+00 0.00000000e+00 2.35696716e+01
0.00000000e+00 0.00000000e+00 0.00000000e+00
0.00000000e+00 0.00000000e+00 1.93177109e+01
0.00000000e+00 0.00000000e+00 0.00000000e+00
0.00000000e+00 0.00000000e+00 1.88073368e+01
0.00000000e+00 0.00000000e+00 0.00000000e+00
0.00000000e+00 0.00000000e+00 1.53513174e+01
0.00000000e+00 0.00000000e+00 0.00000000e+00
0.00000000e+00 0.00000000e+00 2.94615402e+01
-1.00552917e+00 0.00000000e+00 1.47309933e+01
0.00000000e+00 0.00000000e+00 0.00000000e+00
-1.48728848e+00 0.00000000e+00 0.00000000e+00
0.00000000e+00 0.00000000e+00 2.14225559e+01
0.00000000e+00 0.00000000e+00 0.00000000e+00
0.00000000e+00 0.00000000e+00 1.25824423e+01
0.00000000e+00 0.00000000e+00 0.00000000e+00
0.00000000e+00 0.00000000e+00 4.92291307e+00
0.00000000e+00 0.00000000e+00 0.00000000e+00
0.00000000e+00 0.00000000e+00 3.81130815e+00
0.00000000e+00 0.00000000e+00 0.00000000e+00
0.00000000e+00 0.00000000e+00 3.30452180e+00
0.00000000e+00 0.00000000e+00 0.00000000e+00
0.00000000e+00 0.00000000e+00 2.66505394e+01
-1.61783123e+00 0.00000000e+00 1.45818253e+01
0.00000000e+00 0.00000000e+00 0.00000000e+00
-2.45604515e+00 0.00000000e+00 0.00000000e+00
0.00000000e+00 0.00000000e+00 1.94465179e+01
0.00000000e+00 0.00000000e+00 0.00000000e+00
0.00000000e+00 0.00000000e+00 9.34638596e+00
0.00000000e+00 0.00000000e+00 0.00000000e+00
0.00000000e+00 0.00000000e+00 2.28849471e-01
0.00000000e+00 0.00000000e+00 0.00000000e+00
0.00000000e+00 0.00000000e+00 -2.40247965e+00
0.00000000e+00 0.00000000e+00 -3.24925351e+00
0.00000000e+00 0.00000000e+00 0.00000000e+00
0.00000000e+00 0.00000000e+00 0.00000000e+00
0.00000000e+00 0.00000000e+00 2.71057301e+01
-2.23051596e+00 0.00000000e+00 1.42909718e+01
0.00000000e+00 0.00000000e+00 0.00000000e+00
-3.19854999e+00 0.00000000e+00 0.00000000e+00
0.00000000e+00 0.00000000e+00 2.24919186e+01
0.00000000e+00 0.00000000e+00 0.00000000e+00
0.00000000e+00 0.00000000e+00 1.81260815e+01
0.00000000e+00 0.00000000e+00 0.00000000e+00
0.00000000e+00 0.00000000e+00 7.16611767e+00
0.00000000e+00 0.00000000e+00 0.00000000e+00
0.00000000e+00 0.00000000e+00 -4.23266697e+00
0.00000000e+00 0.00000000e+00 0.00000000e+00
0.00000000e+00 0.00000000e+00 1.81787229e+00
0.00000000e+00 0.00000000e+00 0.00000000e+00
0.00000000e+00 0.00000000e+00 1.84976406e+01
-2.20006156e+00 0.00000000e+00 9.17702007e+00
0.00000000e+00 0.00000000e+00 0.00000000e+00
-3.86956978e+00 0.00000000e+00 0.00000000e+00
0.00000000e+00 0.00000000e+00 1.91339874e+01
0.00000000e+00 0.00000000e+00 0.00000000e+00
0.00000000e+00 0.00000000e+00 1.48285904e+01
0.00000000e+00 0.00000000e+00 0.00000000e+00
0.00000000e+00 0.00000000e+00 6.33862877e+00
0.00000000e+00 0.00000000e+00 0.00000000e+00
0.00000000e+00 0.00000000e+00 -2.91899753e+00
0.00000000e+00 0.00000000e+00 0.00000000e+00
0.00000000e+00 0.00000000e+00 3.88194889e-01
0.00000000e+00 0.00000000e+00 0.00000000e+00
4.55298781e-01 -4.62327957e-01 0.00000000e+00
0.00000000e+00 3.46394420e-01 0.00000000e+00
0.00000000e+00 0.00000000e+00 0.00000000e+00
1.43170714e+00 0.00000000e+00 0.00000000e+00
0.00000000e+00 9.81378078e-01 0.00000000e+00
0.00000000e+00 0.00000000e+00 0.00000000e+00
0.00000000e+00 1.18208098e+00 0.00000000e+00
0.00000000e+00 0.00000000e+00 0.00000000e+00
0.00000000e+00 1.66369772e+00 0.00000000e+00
0.00000000e+00 0.00000000e+00 0.00000000e+00
0.00000000e+00 -1.49074256e-01 0.00000000e+00
0.00000000e+00 0.00000000e+00 0.00000000e+00
0.00000000e+00 -1.13647330e+00 0.00000000e+00
0.00000000e+00 0.00000000e+00 0.00000000e+00
0.00000000e+00 0.00000000e+00 0.00000000e+00
4.76334304e-01 0.00000000e+00 0.00000000e+00
0.00000000e+00 0.00000000e+00 0.00000000e+00
0.00000000e+00 0.00000000e+00 0.00000000e+00
0.00000000e+00 0.00000000e+00 0.00000000e+00
0.00000000e+00 0.00000000e+00 0.00000000e+00
0.00000000e+00 0.00000000e+00 0.00000000e+00
0.00000000e+00 0.00000000e+00 0.00000000e+00
-7.95008481e-01 0.00000000e+00 0.00000000e+00
0.00000000e+00 0.00000000e+00 0.00000000e+00
0.00000000e+00 0.00000000e+00 0.00000000e+00
0.00000000e+00 0.00000000e+00 0.00000000e+00
-2.49253184e-01 0.00000000e+00 0.00000000e+00
0.00000000e+00 0.00000000e+00 0.00000000e+00
0.00000000e+00 0.00000000e+00 0.00000000e+00
0.00000000e+00 0.00000000e+00 0.00000000e+00
-1.03615904e+00 0.00000000e+00 0.00000000e+00
0.00000000e+00 0.00000000e+00 0.00000000e+00
0.00000000e+00 0.00000000e+00 0.00000000e+00
0.00000000e+00 0.00000000e+00 0.00000000e+00
-2.18375492e+00 0.00000000e+00 0.00000000e+00
0.00000000e+00 0.00000000e+00 0.00000000e+00
0.00000000e+00 0.00000000e+00 0.00000000e+00
0.00000000e+00 0.00000000e+00 0.00000000e+00
0.00000000e+00 0.00000000e+00 0.00000000e+00
0.00000000e+00 0.00000000e+00 0.00000000e+00
0.00000000e+00 0.00000000e+00 0.00000000e+00
1.15038022e-01 -1.09885901e-01 0.00000000e+00
0.00000000e+00 1.01140380e+00 0.00000000e+00
0.00000000e+00 0.00000000e+00 0.00000000e+00
1.85194635e+00 0.00000000e+00 0.00000000e+00
0.00000000e+00 1.59320426e+00 0.00000000e+00
0.00000000e+00 0.00000000e+00 0.00000000e+00
0.00000000e+00 2.00335717e+00 0.00000000e+00
0.00000000e+00 0.00000000e+00 0.00000000e+00
0.00000000e+00 2.70618773e+00 0.00000000e+00
0.00000000e+00 0.00000000e+00 0.00000000e+00
0.00000000e+00 9.95736122e-01 0.00000000e+00
0.00000000e+00 0.00000000e+00 0.00000000e+00
0.00000000e+00 7.17361271e-03 0.00000000e+00
0.00000000e+00 0.00000000e+00 0.00000000e+00
0.00000000e+00 0.00000000e+00 0.00000000e+00
1.49884033e+00 0.00000000e+00 0.00000000e+00
0.00000000e+00 0.00000000e+00 0.00000000e+00
0.00000000e+00 0.00000000e+00 0.00000000e+00
0.00000000e+00 0.00000000e+00 0.00000000e+00
0.00000000e+00 0.00000000e+00 0.00000000e+00
0.00000000e+00 0.00000000e+00 0.00000000e+00
0.00000000e+00 0.00000000e+00 0.00000000e+00
3.16581503e-02 0.00000000e+00 0.00000000e+00
0.00000000e+00 0.00000000e+00 0.00000000e+00
0.00000000e+00 0.00000000e+00 0.00000000e+00
9.05992329e-01 0.00000000e+00 0.00000000e+00
0.00000000e+00 0.00000000e+00 0.00000000e+00
0.00000000e+00 0.00000000e+00 0.00000000e+00
4.49295878e-01 0.00000000e+00 0.00000000e+00
0.00000000e+00 0.00000000e+00 0.00000000e+00
0.00000000e+00 0.00000000e+00 0.00000000e+00
0.00000000e+00 0.00000000e+00 0.00000000e+00
0.00000000e+00 0.00000000e+00 0.00000000e+00
-6.86418712e-01 0.00000000e+00 0.00000000e+00
</DataArray>
<DataArray type="Float32" Name="Equivalent_plastic_strain" format="ascii">
1.04641445e-01
1.08609937e-01
1.02598330e-01
1.00900557e-01
1.00371934e-01
1.03626288e-01
9.93778426e-02
9.79246218e-02
1.15704544e-01
1.09430570e-01
1.09613843e-01
1.05491849e-01
1.24640081e-01
1.23996628e-01
1.16846154e-01
1.15783405e-01
1.34326190e-01
1.33914229e-01
1.24709796e-01
1.21990630e-01
1.41840771e-01
1.44725882e-01
1.32728431e-01
1.24202292e-01
1.55430824e-01
1.56679757e-01
1.38281643e-01
1.40877210e-01
8.89441986e-02
8.82498920e-02
8.85533029e-02
8.66278894e-02
9.03175641e-02
9.19500832e-02
6.34160158e-02
8.74568102e-02
5.91564495e-02
8.08567529e-02
4.30835139e-02
7.73239362e-02
4.48106294e-02
8.87282516e-02
7.44335484e-02
7.40813948e-02
7.36557748e-02
7.30539914e-02
5.17964936e-02
5.92749193e-02
8.06942419e-03
5.77026187e-03
-1.33754717e-03
2.14031668e-02
-3.50825054e-03
1.93561398e-02
4.98815347e-03
2.50263778e-02
6.64070975e-02
6.99229166e-02
6.36783186e-02
6.65553603e-02
4.86375457e-02
4.52552983e-02
6.28206856e-03
1.27587924e-02
2.95771512e-04
3.10368640e-03
1.14598293e-02
3.76479634e-03
9.84571222e-03
5.15850947e-03
6.92747012e-02
7.44058713e-02
6.51712720e-02
7.03515261e-02
5.35058118e-02
4.72202556e-02
7.22039439e-03
3.64884068e-02
1.70224821e-05
3.19121380e-03
-5.29740420e-05
-8.52135927e-06
0.00000000e+00
0.00000000e+00
8.10597241e-02
8.55998993e-02
7.63430800e-02
8.26014504e-02
6.94070570e-02
7.55329933e-02
2.15669209e-02
5.87180195e-02
-1.20980199e-04
9.22208314e-03
1.34992399e-04
-1.79269155e-05
0.00000000e+00
0.00000000e+00
9.46043171e-02
9.51168463e-02
9.31970170e-02
9.28908102e-02
9.70661864e-02
9.82914828e-02
1.02925297e-01
9.74770221e-02
1.08019421e-01
1.16052600e-01
1.09955706e-01
1.17418953e-01
1.11584924e-01
1.18521769e-01
8.99288887e-02
8.70781224e-02
9.58452076e-02
1.24545662e-01
1.31467909e-01
1.34406470e-01
1.36303648e-01
7.13082822e-02
7.32538458e-02
8.78377060e-02
6.73456900e-02
5.49613739e-02
6.25361884e-02
4.93688143e-02
2.20682460e-02
6.41703634e-02
6.57406393e-02
6.44391690e-02
9.94109474e-02
7.50744380e-02
7.46904127e-02
7.57004172e-02
1.28656987e-01
0.00000000e+00
0.00000000e+00
0.00000000e+00
0.00000000e+00
9.52973962e-02
9.49664749e-02
9.46678584e-02
9.48879365e-02
9.38884672e-02
9.77139203e-02
9.51658525e-02
9.31658386e-02
9.59104113e-02
1.10430537e-01
9.50588025e-02
1.06208483e-01
9.42819975e-02
1.03701506e-01
9.78636853e-02
9.38757528e-02
1.01034595e-01
1.33078891e-01
1.30551808e-01
1.28696037e-01
1.25721265e-01
9.66556487e-02
8.54631718e-02
1.24724850e-01
6.85414624e-02
8.13639536e-02
9.95293967e-02
4.70014184e-02
8.03915914e-02
5.96449617e-02
8.68347287e-02
1.46989822e-01
1.03343049e-01
8.08786973e-02
</DataArray>
<DataArray type="Float32" Name="Stress_Mises" format="ascii">
3.15483341e+01
3.81339493e+01
3.35318117e+01
3.52019958e+01
2.93248520e+01
3.49305596e+01
3.18531370e+01
3.39718847e+01
4.07270708e+01
4.24780447e+01
3.70251603e+01
3.68690837e+01
4.41490421e+01
5.09598794e+01
3.68197989e+01
4.19817444e+01
4.98903532e+01
5.87147002e+01
3.90961956e+01
2.89447318e+01
4.89940205e+01
4.35701370e+01
3.57587118e+01
3.20300024e+01
7.79537582e+01
8.92266083e+01
5.62409449e+01
5.51861548e+01
3.30542419e+01
3.11096840e+01
3.18944841e+01
2.84690521e+01
3.91509315e+01
3.79919605e+01
2.62085817e+01
3.98172797e+01
2.49089379e+01
5.61252680e+01
1.90585400e+01
4.70555762e+01
4.70809889e+01
9.05479501e+01
3.51494615e+01
2.41503088e+01
3.07494297e+01
2.30863039e+01
4.09126725e+01
3.20439939e+01
2.17366394e+01
2.17927147e+01
1.36104786e+01
3.43778826e+01
8.36330326e+00
2.75127093e+01
2.45131435e+01
3.59119349e+01
3.28157301e+01
3.10723715e+01
2.34061220e+01
2.62264242e+01
2.15635474e+01
2.60070382e+01
1.42250586e+01
2.22597988e+01
1.10333049e+01
2.02068768e+01
3.46934690e+01
1.02506603e+01
3.36864510e+01
2.21085857e+01
3.01458727e+01
3.25343347e+01
2.41826259e+01
2.78468468e+01
2.19859151e+01
2.92195166e+01
2.38394608e+01
4.35003349e+01
1.55101030e+01
2.40930791e+01
1.25648482e+01
8.62685747e+00
9.98932791e+00
7.65613317e+00
6.25268364e+01
6.19800529e+01
4.58597021e+01
6.04419289e+01
7.30436649e+01
5.71223555e+01
5.69658852e+01
7.52517563e+01
2.85181274e+01
4.00099430e+01
1.82554393e+01
1.44273806e+01
4.77966499e+00
5.44625139e+00
3.02532043e+01
2.92554741e+01
2.55822467e+01
3.07019043e+01
2.40352957e+01
2.54677126e+01
2.67876427e+01
2.87040608e+01
2.60634646e+01
2.59386058e+01
1.93144312e+01
2.58617901e+01
1.98319492e+01
2.56524198e+01
2.49884537e+01
3.01886334e+01
4.21259703e+01
1.00994449e+02
7.94373932e+01
7.33620348e+01
7.87008934e+01
3.03351212e+01
1.64982200e+01
6.81007369e+01
4.65027637e+01
1.72793363e+01
1.34614847e+01
2.19434255e+01
1.15002732e+01
1.88883035e+01
1.93158962e+01
2.94908406e+01
6.14582121e+01
3.49324321e+01
3.85436344e+01
6.38611298e+01
1.34202293e+02
1.71972233e+00
1.26099813e+00
2.09150499e+00
2.95607090e+00
2.78505392e+01
2.74315970e+01
2.30066621e+01
2.68665743e+01
2.19872117e+01
2.45141622e+01
2.30110121e+01
2.43998838e+01
2.10078911e+01
2.74801391e+01
1.65218539e+01
3.11897988e+01
1.58217125e+01
2.53388638e+01
2.59231043e+01
2.53718014e+01
4.51554105e+01
1.21083403e+02
8.94141560e+01
6.88592567e+01
6.03174381e+01
2.44942239e+01
2.93326272e+01
1.48177830e+02
2.72087743e+01
1.80995001e+01
9.36503801e+01
2.43672684e+01
2.24080620e+01
3.96130903e+01
5.08474541e+01
1.20574390e+02
2.88164265e+01
4.01510324e+01
</DataArray>
<DataArray type="Float32" Name="Stress_Max_Principal" format="ascii">
3.64951313e-01
-4.88505495e+00
-1.69637221e+00
-3.30943561e+00
2.13581651e+00
-2.38103163e+00
-2.96202943e-01
-2.14459860e+00
-6.78281403e+00
-8.43291247e+00
-4.35493839e+00
-3.40134342e+00
-9.64687347e+00
-1.48343269e+01
-4.74504113e+00
-7.88105878e+00
-1.45602711e+01
-1.88785816e+01
-6.31643796e+00
2.35263476e+00
-1.31538640e+01
-3.60946786e+00
2.63606960e+00
9.41732879e+00
-3.35173492e+01
-3.77461023e+01
-1.84170039e+01
-1.65727119e+01
-1.08885980e+00
3.24841022e-01
-8.10594991e-01
1.84843564e+00
-4.36355710e+00
-1.41706311e+00
2.97808197e+01
1.62860304e+01
4.11277688e+01
9.19522603e-01
3.98297548e+01
6.12574967e+00
3.26710019e+01
-1.35479647e+01
-3.21571231e-02
7.23755550e+00
2.82036293e+00
7.36718634e+00
3.08942742e+01
2.21838230e+01
4.31148634e+01
4.14474327e+01
3.18748843e+01
6.14737937e+01
3.92611135e+01
5.33237489e+01
3.21396623e+01
6.60820675e+01
2.98042716e+00
2.84461594e+00
9.17262894e+00
5.77401888e+00
2.13865480e+01
2.76319897e+01
2.90506611e+01
4.44280936e+01
2.94690202e+01
2.15945873e+01
-2.30261326e+00
2.20258056e+01
7.33066368e+00
1.69664787e+01
4.69974190e+00
1.96418333e+00
1.31577301e+01
4.93355906e+00
2.08019850e+01
1.59358981e+01
2.33121679e+01
3.49888628e+01
2.64272413e+01
2.47853742e+01
8.66836321e+00
6.67851253e+00
2.96670449e+00
1.46823883e+00
-2.13667035e+01
-2.01366768e+01
-9.61966972e+00
-2.06867266e+01
-2.75587330e+01
-9.43041170e+00
3.06200991e+01
-2.38822117e+01
5.25663152e+01
6.74426389e+00
8.62697816e+00
7.91990018e+00
4.54045057e-01
1.43227479e+00
1.16783857e+00
1.53014046e+00
4.82607392e+00
8.74102533e-01
6.04291129e+00
5.83329672e+00
3.20442343e+00
1.04173859e+01
4.23146129e+00
7.43442714e+00
1.15978017e+01
5.76067883e+00
9.57433510e+00
5.43851709e+00
8.50892383e+00
1.12505677e+00
-4.64739625e+00
-5.06581452e+01
-4.00542197e+01
-3.32734454e+01
-3.53328600e+01
2.48814514e+01
1.20808615e+01
-2.54253153e+01
1.02874985e+02
1.84674183e+01
1.78073095e+01
4.47613389e+01
3.42950312e+01
2.16344234e+01
1.17081819e+01
1.28550698e+01
-1.65774723e+01
-2.04020989e+00
-5.40094233e+00
5.65315580e+00
-8.28386822e+01
9.62742805e-01
6.79468006e-01
1.08195546e+00
1.76024824e+00
2.26665068e+00
2.97587237e+00
8.34894235e+00
3.59130073e+00
7.86750531e+00
7.96891800e+00
6.62111986e+00
1.48979040e+01
9.28805114e+00
7.74649829e+00
1.23703473e+01
1.57266532e+01
1.26075912e+01
2.45789715e+01
5.56336230e+00
8.26428950e+00
3.28822969e+01
-7.30889771e+01
-4.79783130e+01
-2.99691167e+01
-2.06992145e+01
6.99100024e+00
2.17242212e+01
-9.13620749e+01
3.80126504e+01
1.71504362e+01
-4.93489904e+01
2.42796986e+01
1.98831350e+01
4.41002077e+01
1.01608536e+02
-6.15689259e+01
1.77950037e+01
1.49320650e+01
</DataArray>
<DataArray type="Float32" Name="Stress_Mid_Principal" format="ascii">
-3.11460996e+00
-9.19624239e+00
-4.41466892e+00
-5.65394199e+00
-1.04332435e+00
-6.16717875e+00
-2.92055198e+00
-4.70801258e+00
-1.17741743e+01
-1.30944352e+01
-7.68993723e+00
-7.20619456e+00
-1.46831260e+01
-2.11900642e+01
-6.89951193e+00
-1.26867302e+01
-1.96351017e+01
-3.06753619e+01
-9.26518273e+00
-3.32823962e-01
-1.95083030e+01
-1.39753085e+01
-1.38648629e+00
2.37035452e+00
-4.91602554e+01
-6.54206867e+01
-2.66994450e+01
-2.64870651e+01
-4.15897942e+00
-2.22672844e+00
-2.35351570e+00
8.57262373e-01
-1.09066705e+01
-7.25838572e+00
1.84640985e+01
5.64546599e+00
2.89336989e+01
-1.96900129e+01
3.01173289e+01
-9.62802029e+00
7.96830368e+00
-4.79535561e+01
-9.31887209e+00
2.68999147e+00
-4.04542682e+00
4.50145161e+00
1.00949166e+01
5.76300883e+00
2.85494936e+01
2.76235879e+01
2.52625593e+01
3.27588965e+01
3.31790015e+01
3.03580977e+01
2.05311368e+01
4.52135534e+01
-8.61405277e+00
-5.13581991e+00
2.30543944e+00
6.80077180e-01
1.09482840e+01
1.37026044e+01
2.29456568e+01
3.14301941e+01
2.60896358e+01
9.03436009e+00
-1.52301402e+01
1.53478085e+01
-2.58332920e+00
-1.49882897e+00
-5.52754799e+00
-6.83267689e+00
5.68610334e+00
-1.52467990e+00
9.30756906e+00
4.87501966e+00
1.16375660e+01
1.05041513e+01
1.73597208e+01
9.57090962e+00
3.49033898e+00
8.42520049e-01
-1.33754951e+00
3.13113600e-01
-3.50024834e+01
-3.55715561e+01
-1.76644022e+01
-3.19064226e+01
-4.58735657e+01
-2.19206948e+01
2.75806236e+00
-4.53509700e+01
3.82083435e+01
-1.71885421e+01
4.55496335e+00
3.16580701e+00
-4.56972837e-01
2.06766605e-01
-1.62474585e+00
-2.20337987e-01
2.77644917e+00
-2.10884488e+00
4.49789089e+00
3.40354453e+00
2.37081730e+00
6.04303318e+00
2.58674461e+00
4.81934559e+00
9.47962832e+00
3.57049775e+00
8.17214537e+00
2.37187314e+00
5.79250912e+00
-1.43861377e+00
-9.37688521e+00
-6.92997592e+01
-4.46746702e+01
-4.09982045e+01
-4.85444660e+01
1.48979201e+01
1.12472081e+01
-3.44712428e+01
6.20482712e+01
1.35513647e+01
1.55431071e+01
3.06760558e+01
2.54207341e+01
1.53055248e+01
8.92467988e+00
2.39895034e+00
-2.36445369e+01
-4.53944170e+00
-8.98797703e+00
-1.34034834e+01
-9.37310066e+01
-3.72467384e-01
-3.67971130e-01
-1.36599354e-01
-6.36000037e-01
1.48568678e+00
1.50171623e+00
6.27966905e+00
1.88998187e+00
5.99541652e+00
4.96803964e+00
5.43990481e+00
1.00118966e+01
7.21533951e+00
4.14857078e+00
1.07847430e+01
8.19486117e+00
1.18517931e+01
1.69711291e+01
1.67981184e+00
3.55119336e+00
1.57777644e+01
-8.63761887e+01
-5.38159037e+01
-3.66550622e+01
-3.16107550e+01
3.16736746e+00
1.29196043e+01
-1.13504385e+02
2.46204346e+01
1.38794868e+01
-5.96302595e+01
1.63857734e+01
1.47688659e+01
2.35491660e+01
5.14146767e+01
-8.04968751e+01
1.21454389e+01
4.42611504e+00
</DataArray>
<DataArray type="Float32" Name="Stress_Min_Principal" format="ascii">
-3.27789192e+01
-4.49913778e+01
-3.64980505e+01
-3.96172895e+01
-2.86490211e+01
-3.90501797e+01
-3.33760474e+01
-3.73192079e+01
-4.97755146e+01
-5.30475370e+01
-4.29298844e+01
-4.19265028e+01
-5.60842133e+01
-6.86688659e+01
-4.25932810e+01
-5.20561827e+01
-6.67841482e+01
-8.25564041e+01
-4.68028731e+01
-2.78233766e+01
-6.50114269e+01
-5.11584125e+01
-3.41857500e+01
-2.45441393e+01
-1.18106392e+02
-1.37468384e+02
-7.83396997e+01
-7.60172529e+01
-3.55658205e+01
-3.19692998e+01
-3.34464129e+01
-2.71032389e+01
-4.63601077e+01
-4.15620660e+01
1.69503793e+00
-2.58816547e+01
1.41461759e+01
-6.11937762e+01
1.92777309e+01
-4.54584490e+01
-2.08863277e+01
-1.14637452e+02
-3.88584031e+01
-1.88632474e+01
-3.07076131e+01
-1.70050514e+01
-1.42934747e+01
-1.37354806e+01
1.85321946e+01
1.74843720e+01
1.69990784e+01
2.35305767e+01
3.00227432e+01
2.30391483e+01
4.43579865e+00
2.55823116e+01
-3.40491891e+01
-3.14298239e+01
-1.68641706e+01
-2.26216358e+01
-3.15619326e+00
-1.93205321e+00
1.31379766e+01
1.91297002e+01
1.73846353e+01
-1.52170610e+00
-4.00980945e+01
1.02806618e+01
-3.00532169e+01
-7.30284737e+00
-2.91773062e+01
-3.40591978e+01
-1.34538737e+01
-2.55680133e+01
-4.25396729e+00
-1.61855420e+01
-3.91812277e+00
-1.31602236e+01
8.61416447e+00
-2.19135016e+00
-5.40252151e+00
-2.85279484e+00
-8.36295319e+00
-6.61767646e+00
-8.95842400e+01
-8.83756027e+01
-5.89610605e+01
-8.59520645e+01
-1.07982674e+02
-7.07358389e+01
-3.29287758e+01
-1.06997883e+02
2.12534275e+01
-3.90990171e+01
-1.08287663e+01
-8.17869949e+00
-4.71556282e+00
-4.51883221e+00
-3.03848200e+01
-2.85494995e+01
-2.17177539e+01
-3.12096686e+01
-1.87178879e+01
-2.06517838e+01
-2.39886584e+01
-1.89241243e+01
-2.26137692e+01
-1.93043027e+01
-8.55961585e+00
-2.09511033e+01
-1.09214935e+01
-2.15900713e+01
-1.71847178e+01
-3.02573794e+01
-4.88556575e+01
-1.58981651e+02
-1.21693438e+02
-1.10185247e+02
-1.19802219e+02
-6.73682463e+00
-4.81062222e+00
-9.75657951e+01
5.26094036e+01
-3.11166495e-01
3.56626143e+00
2.12898431e+01
2.15827334e+01
1.23934817e+00
-8.68974876e+00
-1.95965099e+01
-8.12033088e+01
-3.80620599e+01
-4.56112614e+01
-6.25394602e+01
-2.22147331e+02
-9.77787107e-01
-6.98860988e-01
-1.33279261e+00
-1.51179764e+00
-2.59654922e+01
-2.51618108e+01
-1.54429646e+01
-2.40767221e+01
-1.49917831e+01
-1.76043756e+01
-1.69512191e+01
-1.02241131e+01
-1.26012617e+01
-2.08394561e+01
-4.88511968e+00
-1.67015591e+01
-3.57316923e+00
-1.77076340e+00
-2.20229134e+01
-1.88566742e+01
-1.46119866e+01
-1.99821985e+02
-1.40161528e+02
-1.01925095e+02
-8.57275124e+01
-1.90869611e+01
-8.62037373e+00
-2.49314098e+02
1.00180830e+01
-1.58083200e+00
-1.47522611e+02
-1.34367985e+00
-3.31567216e+00
1.36253330e+00
5.01317673e+01
-1.90008830e+02
-1.18740387e+01
-2.67127247e+01
</DataArray>
<DataArray type="Float32" Name="Stress_Pressure" format="ascii">
1.18428593e+01
1.96908917e+01
1.42030305e+01
1.61935556e+01
9.18550920e+00
1.58661298e+01
1.21976008e+01
1.47239406e+01
2.27775010e+01
2.48582942e+01
1.83249199e+01
1.75113471e+01
2.68047390e+01
3.48977538e+01
1.80792785e+01
2.42079901e+01
3.36598420e+01
4.40367808e+01
2.07948313e+01
8.60118911e+00
3.25578642e+01
2.29143955e+01
1.09787223e+01
4.25215191e+00
6.69280014e+01
8.02117271e+01
4.11520467e+01
3.96923437e+01
1.36045532e+01
1.12903957e+01
1.22035078e+01
8.13251305e+00
2.05434454e+01
1.67458379e+01
-1.66466525e+01
1.31671933e+00
-2.80692145e+01
2.66547566e+01
-2.97416057e+01
1.63202392e+01
-6.58432579e+00
5.87129898e+01
1.60698108e+01
2.97856712e+00
1.06442251e+01
1.71213770e+00
-8.89857078e+00
-4.73711735e+00
-3.00655177e+01
-2.88517977e+01
-2.47121747e+01
-3.92544223e+01
-3.41542854e+01
-3.55736646e+01
-1.90355334e+01
-4.56259794e+01
1.32276050e+01
1.12403426e+01
1.79536751e+00
5.38918015e+00
-9.72621274e+00
-1.31341800e+01
-2.17114314e+01
-3.16626627e+01
-2.43144301e+01
-9.70241340e+00
1.92102810e+01
-1.58847578e+01
8.43529367e+00
-2.72160085e+00
1.00017043e+01
1.29758971e+01
-1.79665342e+00
7.38637805e+00
-8.61852929e+00
-1.54179162e+00
-1.03438709e+01
-1.07775968e+01
-1.74670423e+01
-1.07216450e+01
-2.25206017e+00
-1.55607923e+00
2.24459934e+00
1.61210797e+00
4.86511421e+01
4.80279465e+01
2.87483776e+01
4.61817379e+01
6.04716587e+01
3.40289817e+01
-1.49795532e-01
5.87436860e+01
-3.73426923e+01
1.65144313e+01
-7.84391940e-01
-9.69002535e-01
1.57283020e+00
9.59930256e-01
1.02805752e+01
9.07989931e+00
4.70507677e+00
1.08148039e+01
2.72569555e+00
3.80498086e+00
6.13780570e+00
8.21235284e-01
5.26518790e+00
2.35017732e+00
-4.17260504e+00
3.87330908e+00
-2.27499557e+00
4.59322671e+00
9.61095095e-01
1.01903124e+01
2.09599795e+01
9.29798504e+01
6.88074427e+01
6.14856334e+01
6.78931847e+01
-1.10141832e+01
-6.17248213e+00
5.24874500e+01
-7.25108891e+01
-1.05692058e+01
-1.23055594e+01
-3.22424127e+01
-2.70995000e+01
-1.27264320e+01
-3.98103762e+00
1.44749594e+00
4.04751070e+01
1.48805709e+01
2.00000601e+01
2.34299297e+01
1.32905674e+02
1.29170574e-01
1.29121378e-01
1.29145496e-01
1.29183155e-01
7.40438533e+00
6.89474058e+00
2.71451116e-01
6.19847989e+00
3.76287192e-01
1.55580601e+00
1.63006496e+00
-4.89522889e+00
-1.30070949e+00
2.98146242e+00
-6.08999023e+00
-2.40665174e+00
-6.96207166e+00
-1.32597796e+01
4.92657965e+00
2.34706360e+00
-1.13493571e+01
1.19762386e+02
8.06519127e+01
5.61830921e+01
4.60124950e+01
2.97619752e+00
-8.67448437e+00
1.51393524e+02
-2.42170559e+01
-9.81636363e+00
8.55006196e+01
-1.31072643e+01
-1.04454430e+01
-2.30039686e+01
-6.77183228e+01
1.10691540e+02
-6.02213526e+00
2.45151520e+00
</DataArray>
<DataArray type="Float32" Name="Stress_Tresca" format="ascii">
3.31438713e+01
4.01063242e+01
3.48016782e+01
3.63078537e+01
3.07848368e+01
3.66691484e+01
3.30798442e+01
3.51746082e+01
4.29926996e+01
4.46146243e+01
3.85749464e+01
3.85251598e+01
4.64373398e+01
5.38345399e+01
3.78482394e+01
4.41751235e+01
5.22238789e+01
6.36778216e+01
4.04864349e+01
3.01760116e+01
5.18575630e+01
4.75489450e+01
3.68218203e+01
3.39614687e+01
8.45890427e+01
9.97222824e+01
5.99226980e+01
5.94445400e+01
3.44769597e+01
3.22941408e+01
3.26358173e+01
2.89516749e+01
4.19965501e+01
4.01450022e+01
2.80857821e+01
4.21676851e+01
2.69815931e+01
6.21132991e+01
2.05520244e+01
5.15841990e+01
5.35573292e+01
1.01089486e+02
3.88262463e+01
2.61008029e+01
3.35279765e+01
2.43722370e+01
4.51877489e+01
3.59193041e+01
2.45826688e+01
2.39630609e+01
1.48758062e+01
3.79432170e+01
9.23837026e+00
3.02846006e+01
2.77038631e+01
4.04997559e+01
3.70296164e+01
3.42744389e+01
2.60367993e+01
2.83956542e+01
2.45427413e+01
2.95640432e+01
1.59126849e+01
2.52983936e+01
1.20843849e+01
2.31162936e+01
3.77954807e+01
1.17451436e+01
3.73838806e+01
2.42693265e+01
3.38770485e+01
3.60233803e+01
2.66116035e+01
3.05015726e+01
2.50559521e+01
3.21214403e+01
2.72302909e+01
4.81490860e+01
1.78130770e+01
2.69767246e+01
1.40708845e+01
9.53130722e+00
1.13296576e+01
8.08591493e+00
6.82175369e+01
6.82389221e+01
4.93413906e+01
6.52653370e+01
8.04239426e+01
6.13054256e+01
6.35488739e+01
8.31156731e+01
3.13128872e+01
4.58432827e+01
1.94557447e+01
1.60986001e+01
5.16960812e+00
5.95110703e+00
3.15526581e+01
3.00796394e+01
2.65438280e+01
3.20837703e+01
2.47607989e+01
2.64850805e+01
2.71930823e+01
2.93415104e+01
2.68452301e+01
2.67387298e+01
2.01574175e+01
2.67117825e+01
2.04958286e+01
2.70285890e+01
2.56936411e+01
3.13824363e+01
4.42082618e+01
1.08323503e+02
8.16392174e+01
7.69118042e+01
8.44693604e+01
3.16182754e+01
1.68914838e+01
7.21404794e+01
5.02655811e+01
1.87785847e+01
1.42410481e+01
2.34714955e+01
1.27122981e+01
2.03950751e+01
2.03979301e+01
3.24515791e+01
6.46258364e+01
3.60218496e+01
4.02103176e+01
6.81926165e+01
1.39308647e+02
1.94052994e+00
1.37832904e+00
2.41474807e+00
3.27204573e+00
2.82321434e+01
2.81376836e+01
2.37919068e+01
2.76680231e+01
2.28592877e+01
2.55732933e+01
2.35723391e+01
2.51220167e+01
2.18893127e+01
2.85859540e+01
1.72554669e+01
3.24282122e+01
1.61807599e+01
2.63497348e+01
2.75862756e+01
2.71209636e+01
4.74942839e+01
1.26733008e+02
9.21832161e+01
7.19559784e+01
6.50282993e+01
2.60779608e+01
3.03445959e+01
1.57952023e+02
2.79945676e+01
1.87312677e+01
9.81736174e+01
2.56233785e+01
2.31988068e+01
4.27376744e+01
5.14767685e+01
1.28439907e+02
2.96690421e+01
4.16447887e+01
</DataArray>
<DataArray type="Float32" Name="Stress_Third_Invariant" format="ascii">
-3.11122379e+01
-3.75797844e+01
-3.32623899e+01
-3.50018625e+01
-2.89331656e+01
-3.44635978e+01
-3.15953268e+01
-3.37337031e+01
-4.00302486e+01
-4.18907609e+01
-3.66698508e+01
-3.59458820e+01
-4.34521542e+01
-5.00402532e+01
-3.66730542e+01
-4.13477800e+01
-4.92734652e+01
-5.58179784e+01
-3.88428454e+01
-2.85984557e+01
-4.80421848e+01
-3.83389763e+01
-3.08368301e+01
-2.45600469e+01
-7.42983551e+01
-7.83715401e+01
-5.48429918e+01
-5.30353024e+01
-3.27150532e+01
-3.08339033e+01
-3.18038580e+01
-2.84301286e+01
-3.78451936e+01
-3.47552519e+01
-8.45468855e+00
-2.26023471e+01
-2.54202795e+00
-3.88431489e+01
1.86171937e+00
-3.18285432e+01
-1.39773874e+01
-6.11716391e+01
-3.20778260e+01
-2.31574113e+01
-2.86741825e+01
-2.26397225e+01
-1.13896518e+01
-1.30849151e+01
4.18750054e+00
1.00168379e+00
-3.36162837e+00
3.09695301e+01
4.88919727e+00
2.45078875e+01
-6.58348846e+00
5.47380352e+00
-2.75550919e+01
-2.85880623e+01
-2.07639620e+01
-2.50627785e+01
-1.01213005e+01
-6.88285616e+00
-5.42998207e+00
1.52319026e+00
-6.87184048e+00
7.80506452e-01
-1.72120571e+01
3.39021238e+00
-2.93772516e+01
1.94441907e+01
-2.55203595e+01
-2.96570163e+01
-1.85429090e+01
-2.60551755e+01
-8.76827133e+00
-1.77748654e+01
-8.58505315e+00
-8.57468732e+00
1.20339334e+00
1.85029387e-01
-7.15868783e+00
3.12277622e+00
-4.08373785e+00
-6.46293902e+00
-5.90337887e+01
-5.74122009e+01
-4.42019062e+01
-5.80281658e+01
-6.74444733e+01
-4.86238329e+01
-1.90597715e+01
-6.43470327e+01
2.28481197e+00
1.07588205e+01
-1.05820531e+01
-1.19907069e+01
-4.57817411e+00
-5.10908580e+00
-2.99611149e+01
-2.91014466e+01
-2.53916733e+01
-3.03710427e+01
-2.38894035e+01
-2.46198778e+01
-2.67535095e+01
-2.22833443e+01
-2.59413142e+01
-2.35487757e+01
-1.80406951e+01
-2.47106746e+01
-1.97199507e+01
-2.51728272e+01
-2.23457278e+01
-2.99228370e+01
-4.10891273e+01
-9.45291664e+01
-7.91112309e+01
-7.24167614e+01
-7.61418266e+01
-1.25777903e+01
-1.64267501e+01
-6.66280826e+01
4.34552059e+01
-1.22489298e+01
-1.13261542e+01
4.65864335e+00
8.26971181e+00
-1.03307398e+01
-1.80190483e+01
-1.98396172e+01
-6.03412328e+01
-3.38628206e+01
-3.81609249e+01
-4.01069431e+01
-1.33178131e+02
1.44915891e+00
1.08640754e+00
-4.34095263e-02
2.53840554e+00
-2.78238897e+01
-2.73384113e+01
-2.17710578e+01
-2.67183075e+01
-2.17940183e+01
-2.27197058e+01
-2.29229059e+01
-1.74649548e+01
-2.03125900e+01
-2.39772886e+01
-1.63430686e+01
-1.97402839e+01
-1.57648849e+01
-1.07087055e+01
-2.50069127e+01
-2.28981381e+01
-1.41333125e+01
-1.17993480e+02
-8.89634552e+01
-6.81158600e+01
-5.80339832e+01
-2.34235291e+01
-1.42839848e+01
-1.44217953e+02
-1.45717743e+00
-1.33705659e+01
-9.17474041e+01
-1.08050435e+01
-1.29965019e+01
-1.94070169e+00
5.08110123e+01
-1.15308617e+02
-1.86659133e+01
-2.35237827e+01
</DataArray>
<DataArray type="Float32" Name="Logarithmic_strain_Max_Principal" format="ascii">
7.71534070e-02
7.97782503e-02
7.29282554e-02
7.06710890e-02
7.34801963e-02
7.50148147e-02
6.98751556e-02
6.87773544e-02
8.52895379e-02
7.90530182e-02
7.69719556e-02
7.38883205e-02
9.05652381e-02
8.51796251e-02
7.89957903e-02
7.91579718e-02
9.65877213e-02
9.35656261e-02
8.39039274e-02
8.06224002e-02
1.03894554e-01
1.02407463e-01
8.77262801e-02
8.84223264e-02
1.24186695e-01
1.19856678e-01
1.03958070e-01
1.02719717e-01
6.08522054e-02
5.87233342e-02
5.89238652e-02
5.59321251e-02
6.57843510e-02
6.27127215e-02
6.09155241e-02
6.44808678e-02
6.94778264e-02
7.49874587e-02
7.04107108e-02
7.65941373e-02
7.56453797e-02
8.62145846e-02
5.64870434e-02
5.45819271e-02
5.23978285e-02
4.91047669e-02
4.76938179e-02
5.06253592e-02
2.30364883e-02
3.21834257e-02
1.76346246e-02
4.22340175e-02
2.10224545e-02
4.12875041e-02
1.83202345e-02
3.66681283e-02
5.56892203e-02
5.59275728e-02
4.99780057e-02
5.10325152e-02
4.20640549e-02
4.21698829e-02
1.53038104e-02
2.30387982e-02
2.50317894e-03
4.66517877e-03
9.27069555e-03
5.98661368e-03
1.05036416e-02
9.86398877e-03
5.48923071e-02
5.80924172e-02
5.03515983e-02
5.29373381e-02
4.33261623e-02
4.40027514e-02
1.68554385e-02
3.07627159e-02
2.16527417e-03
5.40743309e-03
1.59179017e-04
1.34871955e-04
9.72947309e-05
5.46231886e-05
6.12651538e-02
6.57985061e-02
5.48205096e-02
5.98813910e-02
5.33812474e-02
5.13307313e-02
2.61942251e-02
4.43332288e-02
2.31282486e-03
1.11861442e-02
2.92576035e-04
1.86836143e-04
3.05799585e-05
4.48103801e-05
6.54463246e-02
6.32091844e-02
6.45751245e-02
6.54848441e-02
6.28830576e-02
6.57905275e-02
6.51474595e-02
6.91227457e-02
7.19503053e-02
7.58697335e-02
7.07927514e-02
7.73840342e-02
7.34100379e-02
8.10792148e-02
6.11577821e-02
6.24617413e-02
6.61886712e-02
8.34074765e-02
8.51956028e-02
8.73635206e-02
9.29136761e-02
5.31049799e-02
4.98415586e-02
6.21386400e-02
8.42502825e-02
4.78307176e-02
4.12725164e-02
4.69400191e-02
4.54645157e-02
4.72503752e-02
4.58914228e-02
5.48938126e-02
6.37024567e-02
4.76574963e-02
4.63942867e-02
6.26905011e-02
7.46287331e-02
2.46299669e-05
1.75307723e-05
2.73664473e-05
4.35736965e-05
5.81253413e-02
5.98007496e-02
6.28101942e-02
6.03608908e-02
6.38315016e-02
6.65598670e-02
6.50348859e-02
6.92690844e-02
6.84412606e-02
7.29615875e-02
6.63825357e-02
6.96589136e-02
6.44171592e-02
7.03112520e-02
7.11786086e-02
6.96183108e-02
6.57976461e-02
8.82176459e-02
8.45163651e-02
8.20031427e-02
8.41800943e-02
6.97105697e-02
6.30505886e-02
9.79318786e-02
5.13441467e-02
5.42372810e-02
6.96461033e-02
5.22033055e-02
5.23752784e-02
6.77747950e-02
1.18177675e-01
1.00662375e-01
6.18572449e-02
5.73700350e-02
</DataArray>
<DataArray type="Float32" Name="Logarithmic_strain_Min_Principal" format="ascii">
-1.03611052e-01
-1.07912052e-01
-1.02217641e-01
-1.00820635e-01
-9.95148197e-02
-1.03122000e-01
-9.91879767e-02
-9.76405684e-02
-1.15079191e-01
-1.09327609e-01
-1.09846678e-01
-1.05646650e-01
-1.24824472e-01
-1.19070912e-01
-1.17661703e-01
-1.14484690e-01
-1.35107130e-01
-1.28550313e-01
-1.25417126e-01
-1.19093847e-01
-1.43892765e-01
-1.31879661e-01
-1.30033161e-01
-1.24946949e-01
-1.55731007e-01
-1.45714574e-01
-1.40321396e-01
-1.35366054e-01
-8.92525446e-02
-8.87252763e-02
-8.89530834e-02
-8.71418137e-02
-8.82207714e-02
-9.06499848e-02
-7.94983450e-02
-9.31834706e-02
-8.06471519e-02
-9.54830882e-02
-7.45040178e-02
-9.45672964e-02
-8.01977552e-02
-1.03954775e-01
-7.38786869e-02
-7.37281702e-02
-7.40610687e-02
-7.33596403e-02
-5.75737003e-02
-6.53215577e-02
-1.98574562e-02
-2.79796238e-02
-1.29369314e-02
-3.20495060e-02
-1.40349753e-02
-3.22807971e-02
-1.72902653e-02
-2.96121929e-02
-6.46464601e-02
-6.88151419e-02
-6.22447715e-02
-6.59696404e-02
-4.45688814e-02
-4.49052691e-02
-1.01140758e-02
-1.98304431e-02
-2.77556859e-03
-4.00867499e-03
-1.37715144e-02
-4.52687947e-03
-1.44612666e-02
-5.98512233e-03
-6.81929830e-02
-7.33656846e-02
-6.43561697e-02
-6.97924756e-02
-4.96504931e-02
-5.33988494e-02
-1.39669015e-02
-3.52406374e-02
-9.30495462e-04
-3.15281970e-03
-1.22298998e-04
-8.89907213e-05
-1.74038349e-04
-1.40040548e-04
-8.17709491e-02
-8.55404884e-02
-7.67060835e-02
-8.35150220e-02
-6.81985877e-02
-7.34162666e-02
-2.86995098e-02
-5.82911670e-02
-2.29561084e-03
-1.00229480e-02
-4.21327160e-04
-2.07925361e-04
-9.35851203e-05
-9.53052986e-05
-9.45482478e-02
-9.55098346e-02
-9.28679053e-02
-9.27458964e-02
-9.73181687e-02
-9.83204534e-02
-1.03308907e-01
-1.05581379e-01
-1.08225163e-01
-1.14518846e-01
-1.09334474e-01
-1.18382477e-01
-1.10911768e-01
-1.19846577e-01
-8.81002126e-02
-8.64376538e-02
-9.97224663e-02
-1.26448779e-01
-1.35718353e-01
-1.37168862e-01
-1.38277464e-01
-7.50680771e-02
-7.29021206e-02
-9.10326267e-02
-7.43228421e-02
-6.27059215e-02
-6.28336379e-02
-5.69935830e-02
-4.60801882e-02
-6.39051013e-02
-6.60068784e-02
-7.10241836e-02
-1.00690488e-01
-7.58354180e-02
-7.54161626e-02
-8.95744879e-02
-1.28471509e-01
-2.19028407e-05
-1.64302464e-05
-2.96248199e-05
-3.61066732e-05
-9.55564156e-02
-9.55883339e-02
-9.44377398e-02
-9.56015456e-02
-9.36920699e-02
-9.76233166e-02
-9.45952162e-02
-1.00685771e-01
-9.53899808e-02
-1.07822760e-01
-9.48537868e-02
-1.06616518e-01
-9.41656008e-02
-1.03542028e-01
-9.75159872e-02
-9.28228367e-02
-1.07023605e-01
-1.41048275e-01
-1.35753758e-01
-1.29889356e-01
-1.26483124e-01
-9.25757672e-02
-8.52306373e-02
-1.38799615e-01
-7.51995370e-02
-7.62882587e-02
-1.05557796e-01
-7.61297084e-02
-7.65585061e-02
-8.96915804e-02
-1.06483102e-01
-1.40484720e-01
-8.61506145e-02
-8.26817900e-02
</DataArray>
<DataArray type="Float32" Name="Plastic_strain_Max_Principal" format="ascii">
7.70092458e-02
7.97488168e-02
7.28466660e-02
7.05895089e-02
7.32874274e-02
7.49576800e-02
6.97487108e-02
6.87406417e-02
8.53227414e-02
7.91110620e-02
7.68936388e-02
7.38750696e-02
9.04773548e-02
9.06041786e-02
7.88706932e-02
8.07783073e-02
9.66174789e-02
1.00749563e-01
8.40087831e-02
8.32138667e-02
1.02964297e-01
1.15091579e-01
8.99125580e-02
8.80459948e-02
1.24584712e-01
1.31689392e-01
1.03213970e-01
1.08008835e-01
6.07678592e-02
5.85955661e-02
5.88512914e-02
5.57549940e-02
6.73379190e-02
6.40811804e-02
5.20156915e-02
6.07636129e-02
4.96449161e-02
6.26785687e-02
4.41467916e-02
6.09011529e-02
4.16964097e-02
7.00641635e-02
5.63674858e-02
5.42380419e-02
5.20372232e-02
4.87919552e-02
4.19742581e-02
5.10161237e-02
2.03877161e-02
2.94605324e-02
1.72404023e-02
2.52754164e-02
1.58232194e-02
2.73022695e-02
2.05850666e-02
3.13156471e-02
5.53949606e-02
5.56031708e-02
5.04459199e-02
5.07893935e-02
4.44025565e-02
3.99283031e-02
7.06030941e-03
1.34168902e-02
2.14536589e-03
4.27054458e-03
9.47373826e-03
5.69561234e-03
1.04444250e-02
9.51385638e-03
5.45993354e-02
5.79665508e-02
5.00805923e-02
5.26993545e-02
4.55832155e-02
4.26154397e-02
1.25384994e-02
3.13190180e-02
1.43067566e-03
5.07643987e-03
4.54824894e-05
1.24340391e-05
0.00000000e+00
0.00000000e+00
6.14932608e-02
6.62187636e-02
5.51510518e-02
6.02593049e-02
5.55178970e-02
5.43754464e-02
1.98991112e-02
4.67325374e-02
2.01212839e-03
1.07990271e-02
1.00243502e-04
2.95777281e-05
0.00000000e+00
0.00000000e+00
6.53888285e-02
6.30464684e-02
6.44211927e-02
6.53225314e-02
6.27166331e-02
6.54944330e-02
6.50350293e-02
6.27787735e-02
7.17207510e-02
7.69762928e-02
7.06301285e-02
7.68932691e-02
7.33892918e-02
8.03177468e-02
6.22179052e-02
6.23864811e-02
6.55760329e-02
8.63560155e-02
8.53221603e-02
8.81819706e-02
9.37139057e-02
4.96029728e-02
4.96656261e-02
6.63519620e-02
8.56716298e-02
4.34059291e-02
4.09324160e-02
4.57677993e-02
4.49390262e-02
4.67089312e-02
4.55780402e-02
5.57025825e-02
6.95868200e-02
4.79096472e-02
4.66197524e-02
5.24893440e-02
8.14321898e-02
0.00000000e+00
0.00000000e+00
0.00000000e+00
0.00000000e+00
5.81131894e-02
5.95621150e-02
6.26878128e-02
6.00660462e-02
6.35785544e-02
6.63118972e-02
6.48958208e-02
6.32386236e-02
6.80184774e-02
7.46681150e-02
6.58599213e-02
6.90541230e-02
6.39156587e-02
6.96161389e-02
7.04831276e-02
6.95295446e-02
6.64947991e-02
9.25411433e-02
8.46057851e-02
8.33251365e-02
8.49496536e-02
7.19977772e-02
6.20609280e-02
9.96550526e-02
4.66474623e-02
5.70619320e-02
7.24908663e-02
6.01695352e-02
5.49005866e-02
6.63653418e-02
1.15530983e-01
1.18667406e-01
7.41456822e-02
5.57079390e-02
</DataArray>
<DataArray type="Float32" Name="Plastic_strain_Min_Principal" format="ascii">
-1.02946296e-01
-1.06931545e-01
-1.01477938e-01
-9.99585837e-02
-9.89300683e-02
-1.02343651e-01
-9.84911304e-02
-9.69586428e-02
-1.13972355e-01
-1.08107215e-01
-1.08811505e-01
-1.04822632e-01
-1.23122126e-01
-1.24914521e-01
-1.16474420e-01
-1.15932581e-01
-1.32986031e-01
-1.34753115e-01
-1.24451943e-01
-1.23040259e-01
-1.39946237e-01
-1.46961473e-01
-1.33224208e-01
-1.23622568e-01
-1.51512936e-01
-1.54903166e-01
-1.35926180e-01
-1.41391225e-01
-8.85251388e-02
-8.80479962e-02
-8.83036731e-02
-8.65518097e-02
-8.97642486e-02
-9.20727225e-02
-6.58783460e-02
-8.73701040e-02
-5.62923361e-02
-7.51033465e-02
-3.82371588e-02
-7.21686423e-02
-3.65290578e-02
-8.12833576e-02
-7.30300955e-02
-7.32040182e-02
-7.31366174e-02
-7.28537217e-02
-4.87454808e-02
-6.21280975e-02
-1.18162616e-02
-1.85896593e-02
-9.56799680e-03
-1.83562636e-02
-8.80340363e-03
-1.97837098e-02
-1.83078856e-02
-2.82485681e-02
-6.37655873e-02
-6.79272078e-02
-6.28139293e-02
-6.54422026e-02
-4.68101138e-02
-4.23276050e-02
-5.13780146e-03
-1.03150054e-02
-2.92275318e-03
-3.84391141e-03
-1.29402662e-02
-4.82567638e-03
-1.38091380e-02
-5.54187472e-03
-6.74351491e-02
-7.27062859e-02
-6.41274252e-02
-6.91914745e-02
-5.28708473e-02
-4.84352103e-02
-8.72542150e-03
-3.63608402e-02
-1.12121910e-03
-3.22278572e-03
-3.02622225e-05
-9.12777227e-06
0.00000000e+00
0.00000000e+00
-7.97583014e-02
-8.37859511e-02
-7.58103840e-02
-8.17546211e-02
-6.88383952e-02
-7.73283020e-02
-1.96859520e-02
-5.98322935e-02
-2.27410562e-03
-9.29896563e-03
-1.51901069e-04
-2.07527022e-05
0.00000000e+00
0.00000000e+00
-9.40700732e-02
-9.49016791e-02
-9.26110493e-02
-9.21023469e-02
-9.72005054e-02
-9.79163488e-02
-1.03031579e-01
-9.45605352e-02
-1.07822809e-01
-1.16868613e-01
-1.09675910e-01
-1.17505957e-01
-1.11279156e-01
-1.18395122e-01
-9.01381262e-02
-8.59698225e-02
-9.69472432e-02
-1.27888712e-01
-1.31112527e-01
-1.34691842e-01
-1.35905437e-01
-7.01159261e-02
-7.30724912e-02
-9.52296878e-02
-8.44500214e-02
-5.42194857e-02
-6.29804013e-02
-5.50206043e-02
-4.79709587e-02
-6.38092589e-02
-6.57316912e-02
-6.69931297e-02
-1.06864508e-01
-7.54609015e-02
-7.49883763e-02
-7.14200754e-02
-1.32850174e-01
0.00000000e+00
0.00000000e+00
0.00000000e+00
0.00000000e+00
-9.53789055e-02
-9.49960407e-02
-9.45384046e-02
-9.49358661e-02
-9.35744233e-02
-9.73961083e-02
-9.46386345e-02
-8.99999232e-02
-9.50912908e-02
-1.11365522e-01
-9.45640132e-02
-1.06033897e-01
-9.39374901e-02
-1.03390055e-01
-9.64496667e-02
-9.29242857e-02
-1.06687053e-01
-1.39923830e-01
-1.30174384e-01
-1.28846267e-01
-1.25201877e-01
-9.69964521e-02
-8.42082463e-02
-1.35460433e-01
-6.78256200e-02
-8.21930487e-02
-1.05597313e-01
-6.69021667e-02
-8.17790516e-02
-7.74660299e-02
-1.17340513e-01
-1.68105215e-01
-1.08688742e-01
-8.01064335e-02
</DataArray>
</PointData>
<Cells>
<DataArray type="Int32" Name="connectivity" format="ascii">
0 1 2 3 4 5 6 7
1 8 9 2 5 10 11 6
8 12 13 9 10 14 15 11
12 16 17 13 14 18 19 15
16 20 21 17 18 22 23 19
20 24 25 21 22 26 27 23
3 2 28 29 7 6 30 31
2 9 32 28 6 11 33 30
9 13 34 32 11 15 35 33
13 17 36 34 15 19 37 35
17 21 38 36 19 23 39 37
21 25 40 38 23 27 41 39
29 28 42 43 31 30 44 45
28 32 46 42 30 33 47 44
32 34 48 46 33 35 49 47
34 36 50 48 35 37 51 49
36 38 52 50 37 39 53 51
38 40 54 52 39 41 55 53
43 42 56 57 45 44 58 59
42 46 60 56 44 47 61 58
46 48 62 60 47 49 63 61
48 50 64 62 49 51 65 63
52 54 66 67 53 55 68 69
57 56 70 71 59 58 72 73
56 60 74 70 58 61 75 72
60 62 76 74 61 63 77 75
62 64 78 76 63 65 79 77
64 67 80 78 65 69 81 79
67 66 82 80 69 68 83 81
71 70 84 85 73 72 86 87
70 74 88 84 72 75 89 86
74 76 90 88 75 77 91 89
76 78 92 90 77 79 93 91
78 80 94 92 79 81 95 93
80 82 96 94 81 83 97 95
4 5 6 7 98 99 100 101
5 10 11 6 99 102 103 100
10 14 15 11 102 104 105 103
14 18 19 15 104 106 107 105
18 22 23 19 106 108 109 107
22 26 27 23 108 110 111 109
7 6 30 31 101 100 112 113
6 11 33 30 100 103 114 112
11 15 35 33 103 105 115 114
15 19 37 35 105 107 116 115
19 23 39 37 107 109 117 116
23 27 41 39 109 111 118 117
31 30 44 45 113 112 119 120
30 33 47 44 112 114 121 119
33 35 49 47 114 115 122 121
45 44 58 59 120 119 123 124
44 47 61 58 119 121 125 123
47 49 63 61 121 122 126 125
59 58 72 73 124 123 127 128
58 61 75 72 123 125 129 127
61 63 77 75 125 126 130 129
73 72 86 87 128 127 131 132
72 75 89 86 127 129 133 131
75 77 91 89 129 130 134 133
81 83 97 95 135 136 137 138
98 99 100 101 139 140 141 142
99 102 103 100 140 143 144 141
102 104 105 103 143 145 146 144
104 106 107 105 145 147 148 146
106 108 109 107 147 149 150 148
108 110 111 109 149 151 152 150
101 100 112 113 142 141 153 154
100 103 114 112 141 144 155 153
103 105 115 114 144 146 156 155
105 107 116 115 146 148 157 156
107 109 117 116 148 150 158 157
109 111 118 117 150 152 159 158
113 112 119 120 154 153 160 161
112 114 121 119 153 155 162 160
120 119 123 124 161 160 163 164
119 121 125 123 160 162 165 163
124 123 127 128 164 163 166 167
123 125 129 127 163 165 168 166
125 126 130 129 165 169 170 168
128 127 131 132 167 166 171 172
</DataArray>
<DataArray type="Int32" Name="offsets" format="ascii">
8
16
24
32
40
48
56
64
72
80
88
96
104
112
120
128
136
144
152
160
168
176
184
192
200
208
216
224
232
240
248
256
264
272
280
288
296
304
312
320
328
336
344
352
360
368
376
384
392
400
408
416
424
432
440
448
456
464
472
480
488
496
504
512
520
528
536
544
552
560
568
576
584
592
600
608
616
624
632
640
</DataArray>
<DataArray type="UInt8" Name="types" format="ascii">
12
12
12
12
12
12
12
12
12
12
12
12
12
12
12
12
12
12
12
12
12
12
12
12
12
12
12
12
12
12
12
12
12
12
12
12
12
12
12
12
12
12
12
12
12
12
12
12
12
12
12
12
12
12
12
12
12
12
12
12
12
12
12
12
12
12
12
12
12
12
12
12
12
12
12
12
12
12
12
12
</DataArray>
</Cells>
</Piece>
</UnstructuredGrid>
</VTKFile>
