<VTKFile type="UnstructuredGrid" version="0.1" byte_order="LittleEndian">
<UnstructuredGrid>
<Piece NumberOfPoints="173" NumberOfCells="80">
<Points>
<DataArray type="Float64" NumberOfComponents="3" format="ascii">
 0.00000000e+00  0.00000000e+00  0.00000000e+00
 1.00002170e+00  0.00000000e+00  0.00000000e+00
 1.00002348e+00  1.00002873e+00  0.00000000e+00
 0.00000000e+00  1.00002742e+00  0.00000000e+00
 0.00000000e+00  0.00000000e+00  9.99883950e-01
 1.00002027e+00  0.00000000e+00  9.99883056e-01
 1.00002122e+00  1.00002658e+00  9.99884725e-01
 0.00000000e+00  1.00002611e+00  9.99885142e-01
 2.00004292e+00  0.00000000e+00  0.00000000e+00
 2.00004554e+00  1.00003195e+00  0.00000000e+00
 2.00004125e+00  0.00000000e+00  9.99880373e-01
 2.00004244e+00  1.00002766e+00  9.99885142e-01
 3.00006390e+00  0.00000000e+00  0.00000000e+00
 3.00006557e+00  1.00003457e+00  0.00000000e+00
 3.00006390e+00  0.00000000e+00  9.99879420e-01
 3.00006342e+00  1.00002718e+00  9.99883175e-01
 4.00008583e+00  0.00000000e+00  0.00000000e+00
 4.00008535e+00  1.00003445e+00  0.00000000e+00
 4.00008678e+00  0.00000000e+00  9.99880672e-01
 4.00008488e+00  1.00002563e+00  9.99880016e-01
 5.00010872e+00  0.00000000e+00  0.00000000e+00
 5.00010586e+00  1.00003541e+00  0.00000000e+00
 5.00011015e+00  0.00000000e+00  9.99880254e-01
 5.00010824e+00  1.00002551e+00  9.99879360e-01
 6.00013256e+00  0.00000000e+00  0.00000000e+00
 6.00012541e+00  1.00004196e+00  0.00000000e+00
 6.00013256e+00  0.00000000e+00  9.99878347e-01
 6.00013113e+00  1.00003040e+00  9.99875247e-01
 1.00002789e+00  2.00005245e+00  0.00000000e+00
 0.00000000e+00  2.00005102e+00  0.00000000e+00
 1.00002480e+00  2.00005078e+00  9.99892116e-01
 0.00000000e+00  2.00005007e+00  9.99888420e-01
 2.00005364e+00  2.00005579e+00  0.00000000e+00
 2.00004745e+00  2.00005484e+00  9.99902368e-01
 3.00007439e+00  2.00006127e+00  0.00000000e+00
 3.00006390e+00  2.00005412e+00  9.99920964e-01
 4.00008678e+00  2.00006795e+00  0.00000000e+00
 4.00008440e+00  2.00004125e+00  9.99925315e-01
 5.00009775e+00  2.00007010e+00  0.00000000e+00
 5.00010204e+00  2.00004411e+00  9.99922991e-01
 6.00011015e+00  2.00008035e+00  0.00000000e+00
 6.00011778e+00  2.00005221e+00  9.99920309e-01
 1.00003254e+00  3.00006819e+00  0.00000000e+00
 0.00000000e+00  3.00006819e+00  0.00000000e+00
 1.00002837e+00  3.00006819e+00  9.99901235e-01
 0.00000000e+00  3.00006914e+00  9.99894142e-01
 2.00006151e+00  3.00006819e+00  0.00000000e+00
 2.00005698e+00  3.00006652e+00  9.99924064e-01
 3.00008440e+00  3.00006843e+00  0.00000000e+00
 3.00007463e+00  3.00006461e+00  9.99968171e-01
 4.00009203e+00  3.00007725e+00  0.00000000e+00
 4.00007725e+00  3.00004506e+00  1.00002122e+00
 5.00009108e+00  3.00007796e+00  0.00000000e+00
 5.00009394e+00  3.00004601e+00  1.00001645e+00
 6.00009298e+00  3.00008297e+00  0.00000000e+00
 6.00009966e+00  3.00006533e+00  1.00000465e+00
 1.00003386e+00  4.00007820e+00  0.00000000e+00
 0.00000000e+00  4.00008106e+00  0.00000000e+00
 1.00003028e+00  4.00008011e+00  9.99904275e-01
 0.00000000e+00  4.00008297e+00  9.99898076e-01
 2.00006485e+00  4.00007248e+00  0.00000000e+00
 2.00005841e+00  4.00007057e+00  9.99926388e-01
 3.00008821e+00  4.00006676e+00  0.00000000e+00
 3.00007176e+00  4.00006390e+00  9.99966919e-01
 4.00008965e+00  4.00006437e+00  0.00000000e+00
 4.00007677e+00  4.00007010e+00  1.00000799e+00
 6.00008249e+00  4.00006580e+00  0.00000000e+00
 5.00008488e+00  4.00006390e+00  0.00000000e+00
 6.00008535e+00  4.00007010e+00  1.00000024e+00
 5.00008535e+00  4.00006723e+00  1.00000298e+00
 1.00003302e+00  5.00008965e+00  0.00000000e+00
 0.00000000e+00  5.00009441e+00  0.00000000e+00
 1.00003004e+00  5.00009203e+00  9.99899209e-01
 0.00000000e+00  5.00009632e+00  9.99894857e-01
 2.00006533e+00  5.00007963e+00  0.00000000e+00
 2.00005555e+00  5.00008106e+00  9.99909163e-01
 3.00009012e+00  5.00007105e+00  0.00000000e+00
 3.00007105e+00  5.00007391e+00  9.99949574e-01
 4.00009203e+00  5.00006771e+00  0.00000000e+00
 4.00007915e+00  5.00006914e+00  1.00000525e+00
 5.00008297e+00  5.00006628e+00  0.00000000e+00
 5.00008583e+00  5.00006628e+00  1.00000072e+00
 6.00008535e+00  5.00006485e+00  0.00000000e+00
 6.00008583e+00  5.00006485e+00  9.99998689e-01
 1.00003684e+00  6.00010681e+00  0.00000000e+00
 0.00000000e+00  6.00011063e+00  0.00000000e+00
 1.00003326e+00  6.00010824e+00  9.99890625e-01
 0.00000000e+00  6.00011444e+00  9.99888361e-01
 2.00007248e+00  6.00009394e+00  0.00000000e+00
 2.00005960e+00  6.00009823e+00  9.99893785e-01
 3.00009894e+00  6.00007915e+00  0.00000000e+00
 3.00007677e+00  6.00008631e+00  9.99935806e-01
 4.00009871e+00  6.00007153e+00  0.00000000e+00
 4.00008297e+00  6.00007343e+00  1.00000656e+00
 5.00008678e+00  6.00006485e+00  0.00000000e+00
 5.00008917e+00  6.00006628e+00  1.00000083e+00
 6.00008631e+00  6.00006485e+00  0.00000000e+00
 6.00008774e+00  6.00006390e+00  9.99999285e-01
 0.00000000e+00  0.00000000e+00  1.99977052e+00
 1.00001848e+00  0.00000000e+00  1.99976945e+00
 1.00001669e+00  1.00002158e+00  1.99977195e+00
 0.00000000e+00  1.00002384e+00  1.99977279e+00
 2.00003982e+00  0.00000000e+00  1.99976826e+00
 2.00003576e+00  1.00001574e+00  1.99976504e+00
 3.00006247e+00  0.00000000e+00  1.99976552e+00
 3.00006223e+00  1.00001311e+00  1.99976301e+00
 4.00008821e+00  0.00000000e+00  1.99976146e+00
 4.00008726e+00  1.00001478e+00  1.99977088e+00
 5.00011349e+00  0.00000000e+00  1.99976158e+00
 5.00011206e+00  1.00001657e+00  1.99976969e+00
 6.00013590e+00  0.00000000e+00  1.99975920e+00
 6.00013828e+00  1.00001764e+00  1.99976695e+00
 1.00001192e+00  2.00004554e+00  1.99977732e+00
 0.00000000e+00  2.00004888e+00  1.99978232e+00
 2.00003171e+00  2.00003624e+00  1.99979889e+00
 3.00005436e+00  2.00002956e+00  1.99980867e+00
 4.00008488e+00  2.00004053e+00  1.99977136e+00
 5.00011015e+00  2.00004005e+00  1.99977791e+00
 6.00013590e+00  2.00004315e+00  1.99977243e+00
 1.00001490e+00  3.00007176e+00  1.99979401e+00
 0.00000000e+00  3.00007010e+00  1.99979603e+00
 2.00002265e+00  3.00006533e+00  1.99985254e+00
 3.00001407e+00  3.00003743e+00  1.99998558e+00
 1.00002253e+00  4.00008583e+00  1.99981058e+00
 0.00000000e+00  4.00008631e+00  1.99979913e+00
 2.00003982e+00  4.00007868e+00  1.99985731e+00
 3.00005221e+00  4.00006199e+00  1.99992192e+00
 1.00002134e+00  5.00009871e+00  1.99979889e+00
 0.00000000e+00  5.00010300e+00  1.99979091e+00
 2.00003862e+00  5.00009108e+00  1.99982440e+00
 3.00005817e+00  5.00008392e+00  1.99984777e+00
 1.00001919e+00  6.00012159e+00  1.99977839e+00
 0.00000000e+00  6.00012159e+00  1.99978030e+00
 2.00003743e+00  6.00011683e+00  1.99978518e+00
 3.00005579e+00  6.00011063e+00  1.99980175e+00
 5.00008774e+00  5.00006628e+00  2.00000072e+00
 6.00008774e+00  5.00006342e+00  1.99999893e+00
 6.00009012e+00  6.00006390e+00  1.99999940e+00
 5.00008965e+00  6.00006628e+00  2.00000095e+00
 0.00000000e+00  0.00000000e+00  2.99965787e+00
 1.00001895e+00  0.00000000e+00  2.99965668e+00
 1.00001705e+00  1.00002122e+00  2.99966002e+00
 0.00000000e+00  1.00002301e+00  2.99966216e+00
 2.00004101e+00  0.00000000e+00  2.99965286e+00
 2.00003624e+00  1.00001419e+00  2.99965906e+00
 3.00006390e+00  0.00000000e+00  2.99965096e+00
 3.00006318e+00  1.00001025e+00  2.99965310e+00
 4.00008965e+00  0.00000000e+00  2.99965167e+00
 4.00008965e+00  1.00001311e+00  2.99964428e+00
 5.00011539e+00  0.00000000e+00  2.99964952e+00
 5.00011539e+00  1.00001776e+00  2.99964857e+00
 6.00014114e+00  0.00000000e+00  2.99964857e+00
 6.00013924e+00  1.00001931e+00  2.99964857e+00
 1.00000811e+00  2.00004077e+00  2.99967194e+00
 0.00000000e+00  2.00004888e+00  2.99967432e+00
 2.00002456e+00  2.00003266e+00  2.99963236e+00
 3.00005007e+00  2.00002599e+00  2.99961162e+00
 4.00008869e+00  2.00003982e+00  2.99964929e+00
 5.00011396e+00  2.00004005e+00  2.99964523e+00
 6.00013733e+00  2.00004196e+00  2.99964929e+00
 1.00000799e+00  3.00006819e+00  2.99971223e+00
 0.00000000e+00  3.00007272e+00  2.99968410e+00
 2.00001264e+00  3.00004244e+00  2.99966908e+00
 1.00001013e+00  4.00009251e+00  2.99972486e+00
 0.00000000e+00  4.00009680e+00  2.99969625e+00
 2.00002384e+00  4.00009680e+00  2.99980903e+00
 1.00001276e+00  5.00011683e+00  2.99969459e+00
 0.00000000e+00  5.00011253e+00  2.99969268e+00
 2.00001979e+00  5.00012541e+00  2.99971557e+00
 3.00002050e+00  4.00015736e+00  2.99993157e+00
 3.00002766e+00  5.00013876e+00  2.99975228e+00
 1.00000811e+00  6.00013494e+00  2.99967623e+00
 0.00000000e+00  6.00013447e+00  2.99966812e+00
</DataArray>
</Points>
<PointData Tensors="Stress_Components,Plastic_strain_components" Vevtors="Spatial_displacement,Reaction_force" Scalars="Equivalent_plastic_strain,Stress_Mises,Stress_Max_Principal,Stress_Mid_Principal,Stress_Min_Principal,Stress_Pressure,Stress_Tresca,Stress_Third_Invariant,Plastic_strain_Max_Principal,Plastic_strain_Min_Principal">
<DataArray type="Float32" Name="Stress_Components" NumberOfComponents="9" format="ascii">
-2.61720363e-02 -1.65309757e-08 -2.29920261e-08 -1.65309757e-08 2.13158995e-01 -1.51339918e-08 -2.29920261e-08 -1.51339918e-08 -5.76372671e+00
-3.22473329e-02 3.83031778e-02 7.23521225e-08 3.83031778e-02 2.70998284e-01 -2.94645699e-02 7.23521225e-08 -2.94645699e-02 -5.79976773e+00
7.25094960e-02 1.11373024e-01 -4.40990794e-02 1.11373024e-01 2.14544833e-01 -4.89801420e-02 -4.40990794e-02 -4.89801420e-02 -5.68124425e+00
7.26757883e-02 2.73175454e-02 -2.65372731e-02 2.73175454e-02 1.55704960e-01 5.54427970e-09 -2.65372731e-02 5.54427970e-09 -5.69399619e+00
-1.00046745e-01 -2.09183781e-09 2.37465678e-02 -2.09183781e-09 1.45138834e-01 -1.96215510e-02 2.37465678e-02 -1.96215510e-02 -5.72473001e+00
-9.72024822e-02 1.87876383e-02 3.49188056e-02 1.87876383e-02 1.52146727e-01 -7.10160043e-02 3.49188056e-02 -7.10160043e-02 -5.76112235e+00
-4.02496383e-02 6.28019588e-02 2.05862237e-02 6.28019588e-02 1.33781144e-01 -7.10851480e-02 2.05862237e-02 -7.10851480e-02 -5.67773896e+00
-5.04143154e-02 9.75555182e-03 8.78660264e-03 9.75555182e-03 1.09418139e-01 -8.44931207e-03 8.78660264e-03 -8.44931207e-03 -5.66665888e+00
-4.38692365e-02 5.60735762e-02 6.10962161e-08 5.60735762e-02 4.07592490e-01 -3.43016814e-02 6.10962161e-08 -3.43016814e-02 -5.90727997e+00
5.22869080e-02 1.73297282e-01 -8.88034068e-02 1.73297282e-01 3.39067221e-01 -6.46011103e-02 -8.88034068e-02 -6.46011103e-02 -5.61251748e+00
-9.01757265e-02 2.57739560e-02 9.85613354e-02 2.57739560e-02 1.54713051e-01 -6.99938089e-02 9.85613354e-02 -6.99938089e-02 -5.82607472e+00
-1.05676604e-02 7.03578492e-02 5.99922228e-02 7.03578492e-02 2.52963707e-01 -1.17614743e-01 5.99922228e-02 -1.17614743e-01 -5.78320742e+00
-6.48337584e-02 3.68219316e-02 -1.51485438e-08 3.68219316e-02 4.82607886e-01 -4.98285284e-04 -1.51485438e-08 -4.98285284e-04 -5.98450112e+00
5.94671853e-02 1.36319047e-01 -1.54678326e-01 1.36319047e-01 5.07332340e-01 -4.89028161e-02 -1.54678326e-01 -4.89028161e-02 -5.63681722e+00
-4.27613724e-02 -1.15830142e-02 7.89453853e-02 -1.15830142e-02 1.38224139e-01 -1.07676280e-02 7.89453853e-02 -1.07676280e-02 -5.87991464e+00
9.64993145e-04 -2.01744114e-02 2.09134755e-01 -2.01744114e-02 2.43417599e-01 -8.80537760e-02 2.09134755e-01 -8.80537760e-02 -5.82148778e+00
-6.60693347e-02 -9.41893831e-03 3.73693183e-08 -9.41893831e-03 4.37939227e-01 2.27978155e-02 3.73693183e-08 2.27978155e-02 -5.96858907e+00
7.51546472e-02 1.84252302e-02 -1.83707070e-01 1.84252302e-02 6.48429617e-01 -9.50346235e-03 -1.83707070e-01 -9.50346235e-03 -5.76689661e+00
2.88059374e-02 -4.17200876e-02 -1.42198252e-02 -4.17200876e-02 1.35808364e-01 3.30778139e-02 -1.42198252e-02 3.30778139e-02 -5.90252876e+00
2.85896240e-02 -4.23259585e-02 2.59682778e-01 -4.23259585e-02 -4.94592544e-02 -1.88331525e-02 2.59682778e-01 -1.88331525e-02 -5.68050140e+00
-3.29399514e-02 -5.20808175e-02 -1.11758709e-08 -5.20808175e-02 4.69778046e-01 2.90928604e-02 -1.11758709e-08 2.90928604e-02 -5.99602270e+00
6.41836766e-02 -3.46196396e-02 -2.05684796e-01 -3.46196396e-02 6.87115267e-01 4.51643337e-02 -2.05684796e-01 4.51643337e-02 -5.79872596e+00
5.15714112e-02 -3.60092055e-02 -1.79128312e-02 -3.60092055e-02 1.68043228e-01 2.59992224e-02 -1.79128312e-02 2.59992224e-02 -5.86330855e+00
2.90970374e-02 -3.29113184e-02 2.48884369e-01 -3.29113184e-02 -1.15095447e-02 1.19869653e-02 2.48884369e-01 1.19869653e-02 -5.72941190e+00
-6.47456720e-02 -1.45412385e-01 1.05239451e-07 -1.45412385e-01 6.82462513e-01 -2.32740492e-03 1.05239451e-07 -2.32740492e-03 -6.13427639e+00
4.06695232e-02 -9.58161494e-02 -2.39642359e-01 -9.58161494e-02 9.00565773e-01 1.13680948e-01 -2.39642359e-01 1.13680948e-01 -5.96994281e+00
1.11220079e-02 -2.94041317e-02 -6.38690218e-02 -2.94041317e-02 3.41884106e-01 -6.79708458e-03 -6.38690218e-02 -6.79708458e-03 -5.94312119e+00
3.73983569e-03 -5.17307036e-02 1.84597760e-01 -5.17307036e-02 1.43443078e-01 4.58762059e-02 1.84597760e-01 4.58762059e-02 -5.80142725e+00
3.02658238e-01 1.44516975e-01 -3.26061910e-02 1.44516975e-01 7.87643064e-03 -6.43404648e-02 -3.26061910e-02 -6.43404648e-02 -5.30984807e+00
3.09891298e-01 2.91935690e-02 -2.11574771e-02 2.91935690e-02 -4.32243571e-04 5.23577910e-08 -2.11574771e-02 5.23577910e-08 -5.49890614e+00
1.78162222e-01 1.25334287e-01 9.99902831e-02 1.25334287e-01 5.46383108e-02 -2.08924995e-02 9.99902831e-02 -2.08924995e-02 -5.44893950e+00
1.02864595e-01 1.77443991e-02 7.26273395e-02 1.77443991e-02 -3.16264499e-02 7.70073067e-02 7.26273395e-02 7.70073067e-02 -5.46262574e+00
2.73024765e-01 2.58988343e-01 -2.31731231e-02 2.58988343e-01 5.60937477e-02 -1.29603144e-01 -2.31731231e-02 -1.29603144e-01 -4.76719904e+00
1.08565196e-01 1.85228206e-01 1.99806020e-01 1.85228206e-01 1.02891730e-01 7.17257019e-02 1.99806020e-01 7.17257019e-02 -4.89739585e+00
1.18054412e-01 3.20154078e-01 -1.50313035e-01 3.20154078e-01 1.33376229e-01 -2.18583040e-01 -1.50313035e-01 -2.18583040e-01 -3.86645818e+00
9.00090741e-02 -2.12277169e-02 5.66465791e-01 -2.12277169e-02 1.58208595e-01 4.95101043e-02 5.66465791e-01 4.95101043e-02 -4.55922648e+00
7.72096515e-02 1.60027964e-01 -5.57254389e-01 1.60027964e-01 4.84234877e-01 -4.76953201e-02 -5.57254389e-01 -4.76953201e-02 -3.51976776e+00
3.53786011e-01 -1.59548740e-01 9.19382781e-01 -1.59548740e-01 4.67171576e-02 -9.41682234e-03 9.19382781e-01 -9.41682234e-03 -4.65263796e+00
1.35851160e-01 -2.73974882e-02 -5.40353000e-01 -2.73974882e-02 5.32196827e-01 8.84465761e-02 -5.40353000e-01 8.84465761e-02 -3.56373060e+00
2.40911556e-01 -2.87378469e-02 8.66747086e-01 -2.87378469e-02 9.22926736e-02 6.39062915e-02 8.66747086e-01 6.39062915e-02 -4.60507190e+00
1.57978743e-01 -1.29647069e-01 -5.83162606e-01 -1.29647069e-01 4.90683481e-01 1.53759286e-01 -5.83162606e-01 1.53759286e-01 -3.68644691e+00
1.54457214e-01 -1.39479801e-01 7.59126474e-01 -1.39479801e-01 2.89703949e-01 1.72959372e-01 7.59126474e-01 1.72959372e-01 -4.76799941e+00
5.14272258e-01 6.25846027e-02 -2.44227814e-03 6.25846027e-02 -2.35653400e-01 -8.53306595e-02 -2.44227814e-03 -8.53306595e-02 -4.88375711e+00
5.31913221e-01 5.84207795e-04 2.06144601e-02 5.84207795e-04 -1.96443796e-01 -1.95577741e-08 2.06144601e-02 -1.95577741e-08 -5.23365831e+00
4.19617534e-01 3.04580636e-02 1.62647415e-01 3.04580636e-02 -1.54634089e-01 1.28616009e-01 1.62647415e-01 1.28616009e-01 -5.06031942e+00
2.79690693e-01 -2.24730633e-02 1.19375255e-01 -2.24730633e-02 -2.20903834e-01 1.48219239e-01 1.19375255e-01 1.48219239e-01 -5.15344226e+00
4.26349603e-01 1.19163109e-01 -3.17871273e-02 1.19163109e-01 -3.06633045e-01 -9.44183934e-02 -3.17871273e-02 -9.44183934e-02 -3.81819552e+00
3.28592957e-01 7.79488446e-02 2.19881801e-01 7.79488446e-02 -3.05814422e-01 2.91622028e-01 2.19881801e-01 2.91622028e-01 -3.70406184e+00
1.39716525e-01 2.39533491e-01 -8.04222729e-02 2.39533491e-01 -3.77413990e-01 -2.04434674e-01 -8.04222729e-02 -2.04434674e-01 -1.82141501e+00
-2.56710646e-01 -8.21632668e-02 2.35370585e-01 -8.21632668e-02 -5.74490860e-01 4.24729834e-01 2.35370585e-01 4.24729834e-01 -1.42427984e+00
-5.25457752e-01 1.82563839e-01 -6.72243377e-01 1.82563839e-01 -6.46874507e-01 -3.05871129e-01 -6.72243377e-01 -3.05871129e-01 1.57872344e-01
-5.81739614e-01 -3.68923535e-01 5.67459504e-01 -3.68923535e-01 -4.30013478e-01 3.98124894e-01 5.67459504e-01 3.98124894e-01 -2.70577272e-03
-4.39810296e-01 -6.02830090e-02 -6.64762040e-01 -6.02830090e-02 -4.46776479e-01 5.36569580e-02 -6.64762040e-01 5.36569580e-02 2.12870707e-01
-3.03615252e-01 1.02985814e-01 5.39588511e-01 1.02985814e-01 -3.54707986e-01 -1.43415979e-01 5.39588511e-01 -1.43415979e-01 -1.53922612e-02
-9.20731723e-02 -1.87599611e-01 -3.66959691e-01 -1.87599611e-01 -4.63800326e-01 1.47311561e-01 -3.66959691e-01 1.47311561e-01 3.36356759e-02
-1.91726960e-01 6.50022952e-02 4.65362266e-01 6.50022952e-02 -7.72293210e-02 -9.89231281e-02 4.65362266e-01 -9.89231281e-02 -2.53280818e-01
5.96192911e-01 -8.26520715e-02 4.86508785e-02 -8.26520715e-02 -3.07701163e-01 -7.61894267e-02 4.86508785e-02 -7.61894267e-02 -4.74312270e+00
5.94811887e-01 -6.34772591e-02 3.59445754e-02 -6.34772591e-02 -2.70516202e-01 9.29576345e-08 3.59445754e-02 9.29576345e-08 -5.06514668e+00
4.24607035e-01 -1.10966210e-01 6.24486502e-02 -1.10966210e-01 -2.88131038e-01 1.77192282e-01 6.24486502e-02 1.77192282e-01 -4.73770612e+00
4.17441793e-01 -5.07712616e-02 6.47546262e-02 -5.07712616e-02 -2.79759720e-01 1.29321251e-01 6.47546262e-02 1.29321251e-01 -5.02712047e+00
5.35482191e-01 -7.58405812e-02 -4.36895089e-02 -7.58405812e-02 -3.63368314e-01 -1.34047747e-01 -4.36895089e-02 -1.34047747e-01 -3.66569996e+00
2.74877375e-01 -1.84114950e-01 -8.94624132e-02 -1.84114950e-01 -2.94130595e-01 3.92669515e-01 -8.94624132e-02 3.92669515e-01 -3.56295094e+00
2.35712461e-01 -2.77882973e-02 -6.00334927e-02 -2.77882973e-02 -2.25304715e-01 -3.44027117e-01 -6.00334927e-02 -3.44027117e-01 -1.66043007e+00
5.79288428e-02 -8.25183379e-02 -2.48350686e-01 -8.25183379e-02 -1.91376063e-01 4.82798760e-01 -2.48350686e-01 4.82798760e-01 -1.92790844e+00
-1.56585669e-01 -1.93234174e-02 1.24105359e-01 -1.93234174e-02 -2.09530463e-01 -2.67857283e-01 1.24105359e-01 -2.67857283e-01 2.04241032e-01
-9.98507539e-02 9.11343526e-02 -5.48408180e-03 9.11343526e-02 -3.62513835e-02 2.67661850e-01 -5.48408180e-03 2.67661850e-01 -2.57715682e-02
1.20621275e-01 -4.35076021e-02 9.03791189e-02 -4.35076021e-02 -1.43957942e-01 6.33636713e-02 9.03791189e-02 6.33636713e-02 2.42644329e-01
1.08489965e-02 -5.03947825e-02 6.47132869e-02 -5.03947825e-02 2.04737460e-02 9.95415635e-03 6.47132869e-02 9.95415635e-03 2.73868258e-01
7.06908461e-02 -8.85059163e-02 2.82180291e-02 -8.85059163e-02 6.27216473e-02 6.54479093e-03 2.82180291e-02 6.54479093e-03 8.58942978e-02
4.69948861e-02 -3.22318661e-02 -5.98640777e-02 -3.22318661e-02 2.04601960e-01 -6.28830070e-02 -5.98640777e-02 -6.28830070e-02 5.35952126e-02
5.83666876e-01 -1.25200387e-01 5.46642644e-02 -1.25200387e-01 -1.72853958e-01 -6.23236699e-02 5.46642644e-02 -6.23236699e-02 -4.97797322e+00
6.00409061e-01 -9.99804847e-02 3.63624766e-02 -9.99804847e-02 -1.52743485e-01 9.87784006e-08 3.63624766e-02 9.87784006e-08 -5.15536714e+00
4.04435487e-01 -1.28176673e-01 -4.72360577e-02 -1.28176673e-01 -1.69514679e-01 2.73066463e-02 -4.72360577e-02 2.73066463e-02 -4.94477290e+00
4.41244230e-01 -8.16786438e-02 -1.33114669e-02 -8.16786438e-02 -1.48307957e-01 9.05513130e-02 -1.33114669e-02 9.05513130e-02 -5.16419315e+00
6.19506136e-01 -1.11659824e-01 3.02192117e-02 -1.11659824e-01 -1.20276261e-01 -2.02283759e-01 3.02192117e-02 -2.02283759e-01 -4.35342467e+00
1.66114373e-01 -1.78246687e-01 -2.20319030e-01 -1.78246687e-01 -1.13607379e-01 2.46228457e-01 -2.20319030e-01 2.46228457e-01 -4.34887603e+00
2.74514493e-01 -1.01695040e-02 5.61601883e-02 -1.01695040e-02 -2.89787874e-02 -3.93834531e-01 5.61601883e-02 -3.93834531e-01 -2.38618892e+00
1.32368207e-01 -7.72696144e-02 -2.16313032e-01 -7.72696144e-02 5.87424984e-02 5.96236557e-01 -2.16313032e-01 5.96236557e-01 -3.22049121e+00
-3.29738364e-01 4.33494775e-02 2.84153074e-02 4.33494775e-02 -2.98866406e-02 -2.75619879e-01 2.84153074e-02 -2.75619879e-01 3.78651433e-02
4.62285616e-03 -1.33981479e-02 1.32120913e-02 -1.33981479e-02 -2.41718263e-01 2.57477179e-01 1.32120913e-02 2.57477179e-01 -8.46642312e-02
-6.05910562e-02 -1.29840756e-02 3.27761663e-03 -1.29840756e-02 1.00727159e-01 6.30825888e-02 3.27761663e-03 6.30825888e-02 1.13273973e-01
1.09129120e-01 -2.82966346e-04 -1.56480050e-02 -2.82966346e-04 -1.56976556e-02 -6.01422805e-03 -1.56480050e-02 -6.01422805e-03 2.50051176e-02
7.40859956e-02 1.26748718e-02 -3.53027973e-03 1.26748718e-02 -4.15652823e-02 5.98558434e-03 -3.53027973e-03 5.98558434e-03 -8.17279592e-02
1.99182739e-02 -2.00962679e-03 -1.27801225e-02 -2.00962679e-03 -5.94226591e-02 -2.35530921e-02 -1.27801225e-02 -2.35530921e-02 -4.52651953e-04
7.30370104e-01 -9.32116873e-02 2.89377561e-02 -9.32116873e-02 -5.70223611e-02 -7.59976134e-02 2.89377561e-02 -7.59976134e-02 -5.33743024e+00
7.79050648e-01 -7.98773617e-02 7.48976916e-02 -7.98773617e-02 -7.45085403e-02 1.62748620e-07 7.48976916e-02 1.62748620e-07 -5.41021824e+00
5.30140996e-01 -1.01903406e-01 -2.57348772e-02 -1.01903406e-01 -3.99867002e-02 -1.28116496e-01 -2.57348772e-02 -1.28116496e-01 -5.32803667e+00
5.60340345e-01 -1.25836648e-01 -2.52034487e-02 -1.25836648e-01 -6.41532186e-02 4.77535054e-02 -2.52034487e-02 4.77535054e-02 -5.40202069e+00
7.53402561e-01 -1.40556678e-01 8.48637857e-02 -1.40556678e-01 7.17129856e-02 -2.68718287e-01 8.48637857e-02 -2.68718287e-01 -4.96589732e+00
2.77003523e-01 -1.46731794e-01 -8.46026372e-02 -1.46731794e-01 8.92218049e-02 1.05652448e-01 -8.46026372e-02 1.05652448e-01 -5.10534060e+00
3.30702811e-01 -4.94162161e-02 1.49462692e-01 -4.94162161e-02 1.16220176e-01 -4.60620940e-01 1.49462692e-01 -4.60620940e-01 -2.88965416e+00
2.35276457e-01 -1.36632870e-01 -1.94995999e-02 -1.36632870e-01 1.90244184e-01 6.23064289e-01 -1.94995999e-02 6.23064289e-01 -3.97318308e+00
-4.77258131e-01 -1.25965546e-02 3.48260794e-02 -1.25965546e-02 -6.87414855e-02 -3.28468442e-01 3.48260794e-02 -3.28468442e-01 5.03520370e-02
-1.40041657e-01 -1.26199938e-01 6.11393601e-02 -1.26199938e-01 -2.30955904e-01 3.49440008e-01 6.11393601e-02 3.49440008e-01 -1.24648966e-01
-1.34024512e-01 9.74629447e-03 2.79562278e-02 9.74629447e-03 6.61666021e-02 5.16439416e-02 2.79562278e-02 5.16439416e-02 1.62024828e-01
4.73369037e-02 -1.21251357e-02 2.18255080e-02 -1.21251357e-02 -1.36402218e-02 -2.23271990e-02 2.18255080e-02 -2.23271990e-02 2.19290437e-02
-1.66615769e-02 2.07408015e-02 -1.88950989e-02 2.07408015e-02 -1.23528764e-04 3.36979628e-02 -1.88950989e-02 3.36979628e-02 -2.99763400e-02
-3.17361616e-02 1.60188368e-03 1.87124871e-03 1.60188368e-03 -1.00363153e-02 7.57116149e-03 1.87124871e-03 7.57116149e-03 7.66330492e-03
-2.08432943e-01 -4.40422809e-09 4.60148118e-02 -4.40422809e-09 1.49575649e-02 -2.38881502e-02 4.60148118e-02 -2.38881502e-02 -5.68778086e+00
-1.55686971e-01 -3.66498176e-02 5.22019807e-02 -3.66498176e-02 -8.46059924e-02 -3.66119591e-02 5.22019807e-02 -3.66119591e-02 -5.69864917e+00
-2.61655597e-01 -1.52043331e-01 2.60572257e-02 -1.52043331e-01 -6.00892227e-02 -1.22623278e-01 2.60572257e-02 -1.22623278e-01 -5.68847466e+00
-2.84234021e-01 -4.57125241e-02 9.03833929e-02 -4.57125241e-02 4.10710103e-02 -1.77011038e-02 9.03833929e-02 -1.77011038e-02 -5.62546957e+00
-3.72180436e-02 -8.31967816e-02 -6.71139378e-02 -8.31967816e-02 -3.00435513e-01 -4.40395947e-02 -6.71139378e-02 -4.40395947e-02 -5.69689238e+00
-1.74780057e-01 -1.72589630e-01 1.79099174e-01 -1.72589630e-01 -3.72381190e-01 -1.57780406e-01 1.79099174e-01 -1.57780406e-01 -5.83277172e+00
3.45744425e-02 -4.97140072e-03 -5.27974134e-02 -4.97140072e-03 -4.25894268e-01 -7.00095943e-02 -5.27974134e-02 -7.00095943e-02 -5.73288083e+00
-8.37710449e-02 -9.61716131e-02 2.72796365e-01 -9.61716131e-02 -5.41627720e-01 5.95779275e-02 2.72796365e-01 5.95779275e-02 -5.95085675e+00
4.86190598e-02 -1.63825084e-02 1.97808113e-01 -1.63825084e-02 -3.98311477e-01 -1.20554911e-02 1.97808113e-01 -1.20554911e-02 -5.78133583e+00
-1.13664113e-01 -8.32994701e-04 -2.68815383e-02 -8.32994701e-04 -3.03918546e-01 1.17880421e-01 -2.68815383e-02 1.17880421e-01 -6.06020588e+00
3.91850471e-02 -3.04525434e-02 1.68682475e-01 -3.04525434e-02 -2.62058325e-01 3.22104630e-02 1.68682475e-01 3.22104630e-02 -5.76032758e+00
-7.73527343e-02 -3.07005411e-03 8.97410200e-02 -3.07005411e-03 -3.00786235e-01 3.07584270e-02 8.97410200e-02 3.07584270e-02 -5.94648349e+00
1.07363649e-02 5.18539827e-02 1.62271380e-01 5.18539827e-02 -1.84819665e-01 3.75338886e-02 1.62271380e-01 3.75338886e-02 -5.70619226e+00
-7.53502492e-02 2.36476986e-02 2.34337896e-02 2.36476986e-02 -2.71901170e-01 2.75596343e-02 2.34337896e-02 2.75596343e-02 -5.89085948e+00
-3.96434281e-01 -1.52485585e-01 1.25356613e-01 -1.52485585e-01 -1.32084894e-02 -4.80394810e-04 1.25356613e-01 -4.80394810e-04 -5.64663666e+00
-3.96432482e-01 -7.27514587e-02 2.29899168e-01 -7.27514587e-02 7.04402374e-02 -1.04805605e-01 2.29899168e-01 -1.04805605e-01 -5.35324800e+00
-6.23656756e-03 -2.99442772e-01 6.28249339e-01 -2.99442772e-01 1.23912797e-01 9.35972982e-02 6.28249339e-01 9.35972982e-02 -6.31840651e+00
4.40959534e-01 -2.91149933e-01 1.16114845e+00 -2.91149933e-01 -1.72017872e-02 -3.46849141e-01 1.16114845e+00 -3.46849141e-01 -6.72332220e+00
6.02215426e-02 5.30259106e-02 -7.11134193e-03 5.30259106e-02 -2.92481445e-02 -2.75101233e-01 -7.11134193e-03 -2.75101233e-01 -6.85552740e+00
9.17958277e-02 -9.47665982e-03 1.28575791e-01 -9.47665982e-03 6.59202784e-03 1.37236950e-01 1.28575791e-01 1.37236950e-01 -6.76442885e+00
4.17131400e-02 1.30115747e-02 7.40753487e-03 1.30115747e-02 3.43070012e-02 8.99958126e-02 7.40753487e-03 8.99958126e-02 -6.67197013e+00
-4.91473177e-01 6.08755024e-02 3.47752009e-01 6.08755024e-02 -1.18914063e-01 3.77529401e-01 3.47752009e-01 3.77529401e-01 -4.90140098e+00
-1.62513900e-01 3.48134032e-02 2.10748646e-01 3.48134032e-02 -8.43212008e-04 -4.16678684e-02 2.10748646e-01 -4.16678684e-02 -5.15770435e+00
-2.82678735e-01 -1.98990218e-01 4.30097031e-01 -1.98990218e-01 5.11387644e-01 1.19068346e+00 4.30097031e-01 1.19068346e+00 -4.91312917e+00
-1.58625877e+00 -6.03147164e-01 6.11422837e-01 -6.03147164e-01 -5.57961378e-01 1.51140088e+00 6.11422837e-01 1.51140088e+00 -5.04007727e-01
-1.85687725e-02 -1.25083463e-02 1.76180112e-01 -1.25083463e-02 -2.85333160e-01 3.97214473e-01 1.76180112e-01 3.97214473e-01 -4.58812565e+00
8.69557988e-02 -1.04187410e-02 9.23728570e-02 -1.04187410e-02 -1.68881357e-01 2.38581505e-01 9.23728570e-02 2.38581505e-01 -5.06001616e+00
-2.39212526e-01 -9.74135624e-02 -9.16609509e-02 -9.74135624e-02 -3.41324144e-01 7.71256055e-01 -9.16609509e-02 7.71256055e-01 -3.37678490e+00
-6.18346780e-01 -5.45943280e-03 -8.38148981e-01 -5.45943280e-03 -1.77851657e-01 8.54058206e-01 -8.38148981e-01 8.54058206e-01 -2.24807040e+00
-3.29029001e-03 -1.60258984e-01 -8.17909455e-02 -1.60258984e-01 -6.46121036e-02 1.68596504e-01 -8.17909455e-02 1.68596504e-01 -5.07042402e+00
-5.35215624e-03 -8.62595364e-02 -2.64582201e-02 -8.62595364e-02 -1.64404075e-01 1.65560029e-01 -2.64582201e-02 1.65560029e-01 -5.10657465e+00
-3.83475383e-02 -1.78072384e-01 -2.85439020e-01 -1.78072384e-01 -1.92463878e-02 1.35970868e-01 -2.85439020e-01 1.35970868e-01 -4.84379685e+00
-2.23717764e-02 -1.04869622e-01 -5.75955927e-01 -1.04869622e-01 1.70171097e-01 3.68397497e-02 -5.75955927e-01 3.68397497e-02 -4.95024574e+00
-1.37488626e-01 -9.29787597e-02 -1.50332406e-01 -9.29787597e-02 3.70885227e-02 -2.09882675e-01 -1.50332406e-01 -2.09882675e-01 -5.38470733e+00
1.42458826e-04 4.65827668e-03 -1.45566333e-02 4.65827668e-03 -2.46309787e-02 -3.84981316e-02 -1.45566333e-02 -3.84981316e-02 -5.38395596e+00
-1.72879813e-01 -1.40689205e-01 -2.42297933e-01 -1.40689205e-01 1.39061496e-01 -2.69428154e-01 -2.42297933e-01 -2.69428154e-01 -5.74428368e+00
1.38548020e-01 -1.80810459e-01 -2.04616789e-01 -1.80810459e-01 4.70047891e-01 4.97324392e-03 -2.04616789e-01 4.97324392e-03 -6.60303998e+00
2.40622857e-03 -7.03762681e-03 -9.40315746e-04 -7.03762681e-03 1.34205841e-03 -1.03555708e-03 -9.40315746e-04 -1.03555708e-03 -1.17173470e-02
-3.14478995e-03 -3.11741536e-03 -3.07139102e-03 -3.11741536e-03 1.21855433e-03 4.51846980e-04 -3.07139102e-03 4.51846980e-04 -6.04304892e-03
3.83753132e-03 -4.03595361e-04 2.36498076e-03 -4.03595361e-04 3.60410195e-04 5.24544995e-03 2.36498076e-03 5.24544995e-03 -1.21669751e-02
4.65625554e-03 -4.32385621e-03 -3.92834190e-04 -4.32385621e-03 -4.24837045e-03 -5.30800223e-03 -3.92834190e-04 -5.30800223e-03 -8.37696716e-03
-2.19578214e-01 3.35930963e-08 8.85583311e-02 3.35930963e-08 -5.30029349e-02 -2.23488286e-02 8.85583311e-02 -2.23488286e-02 -5.73998332e+00
-1.79153301e-01 -4.01066430e-02 6.78643137e-02 -4.01066430e-02 -1.49182465e-01 -7.04125728e-03 6.78643137e-02 -7.04125728e-03 -5.74506223e+00
-2.32452163e-01 -2.04697161e-01 1.67280556e-01 -2.04697161e-01 -1.38253849e-01 3.65496723e-02 1.67280556e-01 3.65496723e-02 -5.75575012e+00
-2.87771992e-01 -3.79788512e-02 1.54819060e-01 -3.79788512e-02 1.79526841e-02 -4.30425284e-02 1.54819060e-01 -4.30425284e-02 -5.72414553e+00
-5.64319144e-02 -9.67055559e-02 1.31919350e-01 -9.67055559e-02 -4.01958317e-01 -1.53632904e-03 1.31919350e-01 -1.53632904e-03 -5.70783484e+00
-1.70621058e-01 -2.82434681e-01 -1.36106410e-01 -2.82434681e-01 -4.52776395e-01 2.65394073e-02 -1.36106410e-01 2.65394073e-02 -5.89925396e+00
2.73158876e-02 -1.73282302e-02 4.61147837e-02 -1.73282302e-02 -5.60943797e-01 5.71571579e-02 4.61147837e-02 5.71571579e-02 -5.71410990e+00
-1.05607790e-01 -1.56801909e-01 -3.30216731e-01 -1.56801909e-01 -6.75825797e-01 -1.11284950e-01 -3.30216731e-01 -1.11284950e-01 -5.99016958e+00
-3.07076517e-03 -3.32951243e-03 -1.56287458e-01 -3.32951243e-03 -5.23970999e-01 2.54270975e-02 -1.56287458e-01 2.54270975e-02 -5.75630152e+00
-8.60814130e-02 6.85910131e-02 9.98349348e-03 6.85910131e-02 -3.41479163e-01 -1.42734693e-02 9.98349348e-03 -1.42734693e-02 -6.16026634e+00
-3.80792791e-02 -3.37547547e-03 -1.92943169e-02 -3.37547547e-03 -3.63874763e-01 -1.00672131e-02 -1.92943169e-02 -1.00672131e-02 -5.77050030e+00
-1.18331384e-03 5.13393608e-02 -4.28942063e-02 5.13393608e-02 -2.02993585e-01 7.60827792e-02 -4.28942063e-02 7.60827792e-02 -6.07660508e+00
-5.43230325e-02 -3.65308039e-02 2.16035289e-03 -3.65308039e-02 -3.14392328e-01 6.76594675e-03 2.16035289e-03 6.76594675e-03 -5.70678115e+00
-3.15606843e-02 -4.10235662e-03 1.81550336e-02 -4.10235662e-03 -1.57548640e-01 1.70649278e-02 1.81550336e-02 1.70649278e-02 -5.95364296e+00
-6.32819990e-01 -2.63329575e-01 5.77176647e-01 -2.63329575e-01 -1.66072783e-01 -3.27756755e-01 5.77176647e-01 -3.27756755e-01 -5.69233268e+00
-5.55940442e-01 -1.67369738e-01 2.54094899e-01 -1.67369738e-01 1.40190637e-01 -5.22051426e-02 2.54094899e-01 -5.22051426e-02 -5.46837056e+00
-1.63695369e-01 -4.02036348e-01 1.57142865e-01 -4.02036348e-01 -3.98399992e-01 -4.47328930e-01 1.57142865e-01 -4.47328930e-01 -6.33472334e+00
5.65022531e-01 -4.56611856e-01 -1.44504522e+00 -4.56611856e-01 -2.02686002e-01 1.83357549e-01 -1.44504522e+00 1.83357549e-01 -7.22580204e+00
1.98162096e-01 1.30191875e-01 -2.63617374e-02 1.30191875e-01 -2.91664172e-02 3.18728196e-01 -2.63617374e-02 3.18728196e-01 -7.06131184e+00
4.19577770e-03 2.12711282e-04 -3.91884319e-02 2.12711282e-04 -8.62149700e-02 1.84115251e-02 -3.91884319e-02 1.84115251e-02 -6.30709004e+00
3.86496261e-03 5.31249773e-03 5.95215429e-03 5.31249773e-03 -2.70037167e-02 1.16417930e-01 5.95215429e-03 1.16417930e-01 -6.18686748e+00
-7.18889723e-01 -2.66028791e-01 6.67227583e-01 -2.66028791e-01 9.07528895e-02 -7.60008437e-02 6.67227583e-01 -7.60008437e-02 -5.62036828e+00
-6.86713859e-01 -9.18423086e-02 3.14420886e-01 -9.18423086e-02 -2.46319026e-02 5.84901601e-01 3.14420886e-01 5.84901601e-01 -5.01737726e+00
-6.45709708e-02 -6.24589972e-01 1.45979396e+00 -6.24589972e-01 9.45484060e-01 -1.87459815e+00 1.45979396e+00 -1.87459815e+00 -7.37092257e+00
-4.80913028e-01 3.55893629e-02 -5.39756034e-02 3.55893629e-02 3.86596152e-02 9.64529685e-01 -5.39756034e-02 9.64529685e-01 -5.08652564e+00
-5.16027100e-01 -9.03760437e-02 2.03967248e-01 -9.03760437e-02 -1.07756247e-01 5.96568629e-01 2.03967248e-01 5.96568629e-01 -4.87600195e+00
-7.51129068e-01 3.75471100e-01 -2.69167900e-01 3.75471100e-01 3.24567191e-01 1.67238334e+00 -2.69167900e-01 1.67238334e+00 -4.59021121e+00
-6.19044608e-01 1.15329378e-01 -1.11398597e-01 1.15329378e-01 -1.43923268e-01 1.43026413e-01 -1.11398597e-01 1.43026413e-01 -4.97935128e+00
-3.09940081e-01 8.47399645e-02 -7.03832880e-02 8.47399645e-02 -5.43059153e-02 4.19826871e-02 -7.03832880e-02 4.19826871e-02 -5.26065767e+00
-7.57670977e-01 7.75843333e-02 -8.05529816e-01 7.75843333e-02 1.07497466e-01 4.49948064e-01 -8.05529816e-01 4.49948064e-01 -5.44013827e+00
-1.09430444e+00 1.41590679e+00 -1.74714875e+00 1.41590679e+00 -1.72223270e+00 1.89362311e+00 -1.74714875e+00 1.89362311e+00 -5.48260391e-01
9.67829426e-02 5.55969993e-01 -1.77779154e+00 5.55969993e-01 6.19376004e-02 3.36843913e-01 -1.77779154e+00 3.36843913e-01 -6.55649050e+00
-4.82131869e-01 1.00978022e-01 7.35708680e-02 1.00978022e-01 6.24959953e-02 -1.29940044e-01 7.35708680e-02 -1.29940044e-01 -5.52158022e+00
-4.71437603e-01 1.07317185e-02 -1.02263875e-01 1.07317185e-02 1.00754790e-01 1.67111069e-01 -1.02263875e-01 1.67111069e-01 -5.54413247e+00
</DataArray>
<DataArray type="Float32" Name="Logarithmic_strain_components" NumberOfComponents="9" format="ascii">
2.21493192e-05 -1.22343678e-07 -3.23707411e-07 -1.22343678e-07 2.75469229e-05 -1.46838559e-07 -3.23707411e-07 -1.46838559e-07 -1.16543066e-04
2.16109120e-05 1.92923875e-06 3.91156561e-07 1.92923875e-06 2.84520247e-05 -1.23756456e-06 3.91156561e-07 -1.23756456e-06 -1.16469444e-04
2.32720954e-05 5.51964024e-06 -2.20908046e-06 5.51964024e-06 2.66038096e-05 -2.02310900e-06 -2.20908046e-06 -2.02310900e-06 -1.15013676e-04
2.36092264e-05 1.10422508e-06 -1.27886051e-06 1.10422508e-06 2.55490340e-05 -3.06242953e-07 -1.27886051e-06 -3.06242953e-07 -1.14735249e-04
2.04119742e-05 -1.35457441e-08 9.62347741e-07 -1.35457441e-08 2.63231768e-05 -1.00712731e-06 9.62347741e-07 -1.00712731e-06 -1.14002221e-04
2.04054650e-05 8.02352332e-07 1.81913683e-06 8.02352332e-07 2.64924397e-05 -3.30874849e-06 1.81913683e-06 -3.30874849e-06 -1.15849487e-04
2.14374707e-05 2.92992438e-06 1.01648020e-06 2.92992438e-06 2.55649852e-05 -3.39465453e-06 1.01648020e-06 -3.39465453e-06 -1.13471358e-04
2.12889277e-05 7.30400160e-07 3.08694775e-07 7.30400160e-07 2.51375136e-05 -6.47855344e-07 3.08694775e-07 -6.47855344e-07 -1.13690441e-04
2.10264589e-05 2.73324429e-06 1.54503681e-08 2.73324429e-06 3.20612853e-05 -1.69885482e-06 1.54503681e-08 -1.69885482e-06 -1.19812921e-04
2.20756119e-05 8.17331886e-06 -4.30357125e-06 8.17331886e-06 2.88458255e-05 -3.22012119e-06 -4.30357125e-06 -3.22012119e-06 -1.13951462e-04
2.10125272e-05 1.21504820e-06 4.84415250e-06 1.21504820e-06 2.66417674e-05 -3.44584407e-06 4.84415250e-06 -3.44584407e-06 -1.16716325e-04
2.20060895e-05 3.49960263e-06 2.69579499e-06 3.49960263e-06 2.82813273e-05 -5.50921570e-06 2.69579499e-06 -5.50921570e-06 -1.16681354e-04
2.08807842e-05 1.76098655e-06 -1.99824409e-07 1.76098655e-06 3.38822483e-05 7.69286572e-08 -1.99824409e-07 7.69286572e-08 -1.21002773e-04
2.16306757e-05 6.58818698e-06 -7.26446626e-06 6.58818698e-06 3.26579739e-05 -2.33931559e-06 -7.26446626e-06 -2.33931559e-06 -1.15196553e-04
2.20383849e-05 -5.51604330e-07 3.74859576e-06 -5.51604330e-07 2.63090524e-05 -5.21395478e-07 3.74859576e-06 -5.21395478e-07 -1.17880711e-04
2.23872880e-05 -9.28708047e-07 1.00552275e-05 -9.28708047e-07 2.80678501e-05 -4.16676113e-06 1.00552275e-05 -4.16676113e-06 -1.17468651e-04
2.07939474e-05 -4.66764234e-07 2.80047288e-07 -4.66764234e-07 3.27902872e-05 1.16435808e-06 2.80047288e-07 1.16435808e-06 -1.20847821e-04
2.19688363e-05 9.57139122e-07 -8.95597032e-06 9.57139122e-07 3.54027270e-05 -3.54851146e-07 -8.95597032e-06 -3.54851146e-07 -1.17826134e-04
2.36856304e-05 -2.03557084e-06 -1.93156609e-07 -2.03557084e-06 2.61678815e-05 1.68182093e-06 -1.93156609e-07 1.68182093e-06 -1.18419030e-04
2.36400501e-05 -2.06757756e-06 1.24489512e-05 -2.06757756e-06 2.16200409e-05 -9.63531555e-07 1.24489512e-05 -9.63531555e-07 -1.13568804e-04
2.14989386e-05 -2.37452150e-06 1.56467166e-07 -2.37452150e-06 3.30516687e-05 1.35896414e-06 1.56467166e-07 1.35896414e-06 -1.21498149e-04
2.17641277e-05 -1.55119130e-06 -9.84951998e-06 -1.55119130e-06 3.64458801e-05 2.14503990e-06 -9.84951998e-06 2.14503990e-06 -1.19143191e-04
2.40706609e-05 -1.40120818e-06 -9.29286060e-07 -1.40120818e-06 2.65284984e-05 1.38894021e-06 -9.29286060e-07 1.38894021e-06 -1.18240383e-04
2.34943777e-05 -1.75042764e-06 1.19479705e-05 -1.75042764e-06 2.26085939e-05 6.24729036e-07 1.19479705e-05 6.24729036e-07 -1.14440969e-04
2.09106493e-05 -7.00163218e-06 -9.78691048e-08 -7.00163218e-06 3.80959500e-05 4.29238696e-07 -9.78691048e-08 4.29238696e-07 -1.24111481e-04
2.07019248e-05 -4.60166977e-06 -1.19255906e-05 -4.60166977e-06 4.18316085e-05 5.29531576e-06 -1.19255906e-05 5.29531576e-06 -1.23245823e-04
2.26956317e-05 -1.36554331e-06 -2.79846859e-06 -1.36554331e-06 3.06369284e-05 -5.45993544e-07 -2.79846859e-06 -5.45993544e-07 -1.20100616e-04
2.31386471e-05 -2.45898423e-06 8.91289460e-06 -2.45898423e-06 2.59061444e-05 2.19852822e-06 8.91289460e-06 2.19852822e-06 -1.16680858e-04
2.73743130e-05 7.01025897e-06 -1.63648355e-06 7.01025897e-06 2.05204910e-05 -3.40405228e-06 -1.63648355e-06 -3.40405228e-06 -1.07525264e-04
2.85490514e-05 1.30702267e-06 -7.99968831e-07 1.30702267e-06 2.08489064e-05 -1.32027409e-07 -7.99968831e-07 -1.32027409e-07 -1.10904613e-04
2.51980571e-05 5.84634418e-06 4.85222668e-06 5.84634418e-06 2.21665478e-05 -1.15352236e-06 4.85222668e-06 -1.15352236e-06 -1.09856375e-04
2.42076831e-05 7.08030946e-07 3.43521728e-06 7.08030946e-07 2.07592084e-05 3.80054382e-06 3.43521728e-06 3.80054382e-06 -1.09823872e-04
2.44051143e-05 1.25165293e-05 -1.16778543e-06 1.25165293e-05 1.91505276e-05 -6.17544322e-06 -1.16778543e-06 -6.17544322e-06 -9.66585358e-05
2.12303003e-05 8.82020771e-06 9.65578897e-06 8.82020771e-06 2.12279260e-05 3.22312155e-06 9.65578897e-06 3.22312155e-06 -9.86794548e-05
1.72103391e-05 1.54839879e-05 -7.36952677e-06 1.54839879e-05 1.79798194e-05 -1.04887329e-05 -7.36952677e-06 -1.04887329e-05 -7.83344713e-05
1.93006551e-05 -1.13805582e-06 2.71138655e-05 -1.13805582e-06 2.09097595e-05 2.46940687e-06 2.71138655e-05 2.46940687e-06 -9.22359967e-05
1.35847955e-05 7.52918544e-06 -2.68296276e-05 7.52918544e-06 2.32257994e-05 -2.32261425e-06 -2.68296276e-05 -2.32261425e-06 -7.26289400e-05
2.57362520e-05 -7.54358018e-06 4.41239272e-05 -7.54358018e-06 1.83330570e-05 -2.60057808e-07 4.41239272e-05 -2.60057808e-07 -9.47693788e-05
1.48825058e-05 -1.40188183e-06 -2.58976893e-05 -1.40188183e-06 2.41572016e-05 4.25107964e-06 -2.58976893e-05 4.25107964e-06 -7.40567048e-05
2.26360412e-05 -1.38887129e-06 4.16000815e-05 -1.38887129e-06 1.91337504e-05 3.09492215e-06 4.16000815e-05 3.09492215e-06 -9.35970614e-05
1.59545764e-05 -6.22289258e-06 -2.80479644e-05 -6.22289258e-06 2.40047339e-05 7.62405239e-06 -2.80479644e-05 7.62405239e-06 -7.63744683e-05
2.09305226e-05 -6.93119925e-06 3.62292873e-05 -6.93119925e-06 2.44174092e-05 8.48634894e-06 3.62292873e-05 8.48634894e-06 -9.68561386e-05
3.07882101e-05 2.97915858e-06 -1.27892806e-07 2.97915858e-06 1.28557865e-05 -4.26133670e-06 -1.27892806e-07 -4.26133670e-06 -9.85234219e-05
3.23756231e-05 3.82997278e-08 9.89604700e-07 3.82997278e-08 1.47262972e-05 1.82694812e-07 9.89604700e-07 1.82694812e-07 -1.05801701e-04
2.92262021e-05 1.52086042e-06 7.66937731e-06 1.52086042e-06 1.54759759e-05 6.19740439e-06 7.66937731e-06 6.19740439e-06 -1.02387897e-04
2.72469324e-05 -1.16713488e-06 5.75606646e-06 -1.16713488e-06 1.51045845e-05 7.09626204e-06 5.75606646e-06 7.09626204e-06 -1.03207998e-04
2.50359726e-05 5.65150168e-06 -1.56476969e-06 5.65150168e-06 7.71886272e-06 -4.47139951e-06 -1.56476969e-06 -4.47139951e-06 -7.63435764e-05
2.26145264e-05 3.69125021e-06 1.05739556e-05 3.69125021e-06 7.28088125e-06 1.39303389e-05 1.05739556e-05 1.39303389e-05 -7.41042732e-05
1.16794762e-05 1.14005452e-05 -3.89109283e-06 1.14005452e-05 -9.90681997e-07 -9.77444643e-06 -3.89109283e-06 -9.77444643e-06 -3.54284884e-05
2.83079315e-06 -3.87637154e-06 1.13680644e-05 -3.87637154e-06 -4.62273230e-06 2.02227217e-05 1.13680644e-05 2.02227217e-05 -2.51523575e-05
-8.63017021e-06 8.87711212e-06 -3.23483534e-05 8.87711212e-06 -1.15784628e-05 -1.47034331e-05 -3.23483534e-05 -1.47034331e-05 7.56556066e-06
-9.94822184e-06 -1.78515634e-05 2.72749542e-05 -1.78515634e-05 -6.24562229e-06 1.91614320e-05 2.72749542e-05 1.91614320e-05 4.24251872e-06
-7.87466130e-06 -2.93861494e-06 -3.18011334e-05 -2.93861494e-06 -7.71900007e-06 2.80809938e-06 -3.18011334e-05 2.80809938e-06 8.15017923e-06
-4.19684973e-06 5.02648891e-06 2.58835510e-05 5.02648891e-06 -5.86211718e-06 -6.75129346e-06 2.58835510e-05 -6.75129346e-06 2.05636028e-06
-1.09487246e-08 -8.98711892e-06 -1.78361788e-05 -8.98711892e-06 -9.24930032e-06 6.89176022e-06 -1.78361788e-05 6.89176022e-06 2.48295987e-06
-2.38923246e-06 3.01608827e-06 2.24790847e-05 3.01608827e-06 1.65143661e-07 -4.89729177e-06 2.24790847e-05 -4.89729177e-06 -3.68671658e-06
3.24217963e-05 -4.05997579e-06 2.42691175e-06 -4.05997579e-06 1.04191768e-05 -3.62015771e-06 2.42691175e-06 -3.62015771e-06 -9.61710321e-05
3.34251490e-05 -3.12709312e-06 1.51586147e-06 -3.12709312e-06 1.24779258e-05 4.26325109e-08 1.51586147e-06 4.26325109e-08 -1.02403283e-04
2.85873161e-05 -5.15743039e-06 3.06455760e-06 -5.15743039e-06 1.14510689e-05 8.55744008e-06 3.06455760e-06 8.55744008e-06 -9.50448093e-05
2.96668909e-05 -2.58516746e-06 3.09251901e-06 -2.58516746e-06 1.26992222e-05 5.88841431e-06 3.09251901e-06 5.88841431e-06 -1.01063821e-04
2.67845835e-05 -3.59093775e-06 -2.19200655e-06 -3.59093775e-06 5.13652277e-06 -6.38695519e-06 -2.19200655e-06 -6.38695519e-06 -7.42466145e-05
2.09103616e-05 -8.91398946e-06 -4.59933746e-06 -8.91398946e-06 7.40143128e-06 1.89284053e-05 -4.59933746e-06 1.89284053e-05 -7.13060704e-05
1.21371484e-05 -1.24325115e-06 -2.87407090e-06 -1.24325115e-06 1.17343257e-06 -1.65377546e-05 -2.87407090e-06 -1.65377546e-05 -3.33862927e-05
9.62881745e-06 -4.01210411e-06 -1.19369771e-05 -4.01210411e-06 3.52902320e-06 2.32244329e-05 -1.19369771e-05 2.32244329e-05 -3.82290918e-05
-3.20208377e-06 -9.04395305e-07 5.72495689e-06 -9.04395305e-07 -4.34009500e-06 -1.28519475e-05 5.72495689e-06 -1.28519475e-05 5.30309800e-06
-1.70484320e-06 4.26842280e-06 -3.07748905e-07 4.26842280e-06 -1.59120191e-07 1.27390522e-05 -3.07748905e-07 1.27390522e-05 6.99930448e-08
2.15895079e-06 -2.28432896e-06 4.09177369e-06 -2.28432896e-06 -4.08829209e-06 2.98397185e-06 4.09177369e-06 2.98397185e-06 4.72593774e-06
-9.06666173e-07 -2.31954500e-06 3.08308449e-06 -2.31954500e-06 -7.69131172e-07 3.32030387e-07 3.08308449e-06 3.32030387e-07 5.26397146e-06
1.01658847e-06 -3.84779753e-06 1.40118789e-06 -3.84779753e-06 6.08170126e-07 6.96770286e-07 1.40118789e-06 6.96770286e-07 1.18066350e-06
-6.88862277e-08 -1.61008840e-06 -2.83746294e-06 -1.61008840e-06 3.75480079e-06 -3.19191539e-06 -2.83746294e-06 -3.19191539e-06 1.28056020e-07
3.20406189e-05 -5.96871718e-06 2.35372516e-06 -5.96871718e-06 1.41875935e-05 -2.69609887e-06 2.35372516e-06 -2.69609887e-06 -1.00966583e-04
3.33657572e-05 -4.39465748e-06 1.95727171e-06 -4.39465748e-06 1.53566411e-05 1.38625212e-07 1.95727171e-06 1.38625212e-07 -1.04807757e-04
2.86856070e-05 -6.16409141e-06 -2.42120271e-06 -6.16409141e-06 1.47071980e-05 1.29583952e-06 -2.42120271e-06 1.29583952e-06 -9.98867154e-05
3.04454197e-05 -4.01558452e-06 -2.98310638e-07 -4.01558452e-06 1.61014736e-05 4.26714053e-06 -2.98310638e-07 4.26714053e-06 -1.04218390e-04
3.04832070e-05 -5.46207278e-06 1.62565698e-06 -5.46207278e-06 1.25791308e-05 -9.93421440e-06 1.62565698e-06 -9.93421440e-06 -8.85899062e-05
2.10577124e-05 -8.49605595e-06 -1.05694849e-05 -8.49605595e-06 1.43760451e-05 1.17821548e-05 -1.05694849e-05 1.17821548e-05 -8.74173666e-05
1.50448118e-05 -4.29018712e-07 2.41325017e-06 -4.29018712e-07 7.93074764e-06 -1.88642953e-05 2.41325017e-06 -1.88642953e-05 -4.86337249e-05
1.55301620e-05 -3.82819500e-06 -1.02387138e-05 -3.82819500e-06 1.35973567e-05 2.87154295e-05 -1.02387138e-05 2.87154295e-05 -6.52343503e-05
-6.48397838e-06 2.09998447e-06 1.26312693e-06 2.09998447e-06 6.34660012e-07 -1.33262595e-05 1.26312693e-06 -1.33262595e-05 2.14792206e-06
1.24306587e-06 -5.45153028e-07 4.48554403e-07 -5.45153028e-07 -4.69502393e-06 1.21622593e-05 4.48554403e-07 1.21622593e-05 -6.60720247e-07
-2.13403744e-06 -5.85944008e-07 7.21096427e-09 -5.85944008e-07 1.62447130e-06 2.83811653e-06 7.21096427e-09 2.83811653e-06 2.00600284e-06
2.22851942e-06 -1.59534187e-07 -8.64428623e-07 -1.59534187e-07 -6.59033235e-07 -5.30549046e-07 -8.64428623e-07 -5.30549046e-07 2.27540693e-07
2.41227588e-06 3.54917916e-07 1.16811520e-08 3.54917916e-07 -6.70889378e-07 5.45250487e-07 1.16811520e-08 5.45250487e-07 -1.35278208e-06
5.56650257e-07 1.52627138e-07 -4.53560309e-07 1.52627138e-07 -1.37054314e-06 -1.10722817e-06 -4.53560309e-07 -1.10722817e-06 -4.01806612e-08
3.62160299e-05 -4.36606167e-06 1.72548766e-06 -4.36606167e-06 1.76144476e-05 -4.05472451e-06 1.72548766e-06 -4.05472451e-06 -1.09537588e-04
3.73462535e-05 -3.93256505e-06 3.58099396e-06 -3.93256505e-06 1.70714538e-05 4.60022108e-07 3.58099396e-06 4.60022108e-07 -1.11081827e-04
3.20789627e-05 -5.12685290e-06 -1.35556161e-06 -5.12685290e-06 1.84338296e-05 -6.26193325e-06 -1.35556161e-06 -6.26193325e-06 -1.08307120e-04
3.30368821e-05 -5.67722827e-06 -1.31736897e-06 -5.67722827e-06 1.81821097e-05 2.34659319e-06 -1.31736897e-06 2.34659319e-06 -1.10334015e-04
3.46923207e-05 -6.86951967e-06 3.84231816e-06 -6.86951967e-06 1.85297572e-05 -1.27847625e-05 3.84231816e-06 -1.27847625e-05 -1.02834394e-04
2.55321684e-05 -7.12303097e-06 -4.05685790e-06 -7.12303097e-06 2.12744021e-05 5.16878390e-06 -4.05685790e-06 5.16878390e-06 -1.03743923e-04
1.78906380e-05 -2.32163512e-06 7.43025362e-06 -2.32163512e-06 1.20247029e-05 -2.21043765e-05 7.43025362e-06 -2.21043765e-05 -5.96599548e-05
1.97324744e-05 -6.57544706e-06 -4.82604113e-07 -6.57544706e-06 1.85391030e-05 2.97659208e-05 -4.82604113e-07 2.97659208e-05 -8.09448987e-05
-9.70330120e-06 -8.44274936e-07 1.28178937e-06 -8.44274936e-07 4.79546998e-07 -1.55151092e-05 1.28178937e-06 -1.55151092e-05 3.70061184e-06
-1.19645648e-06 -5.59973773e-06 2.27592614e-06 -5.59973773e-06 -3.91625304e-06 1.70391058e-05 2.27592614e-06 1.70391058e-05 -1.08820984e-06
-3.74439392e-06 2.02862452e-07 1.91369367e-06 2.02862452e-07 1.45840824e-06 2.34760364e-06 1.91369367e-06 2.34760364e-06 3.54750949e-06
1.23647807e-06 -3.36432038e-07 1.36972924e-06 -3.36432038e-07 -5.84037662e-07 -9.21205052e-07 1.36972924e-06 -9.21205052e-07 3.75388235e-07
-5.14501778e-07 1.65480890e-06 -1.01469800e-06 1.65480890e-06 2.68453903e-07 1.47155731e-06 -1.01469800e-06 1.47155731e-06 -2.68575633e-07
-7.84471780e-07 -1.67027380e-07 5.96542606e-07 -1.67027380e-07 -4.06597820e-07 1.90652628e-07 5.96542606e-07 1.90652628e-07 1.88985507e-07
1.83851216e-05 5.11669045e-08 2.46736568e-06 5.11669045e-08 2.37772101e-05 -1.15480071e-06 2.46736568e-06 -1.15480071e-06 -1.13056336e-04
2.02160227e-05 -1.77183333e-06 2.56909334e-06 -1.77183333e-06 2.16985018e-05 -1.86123681e-06 2.56909334e-06 -1.86123681e-06 -1.12576547e-04
1.76434573e-05 -7.26647397e-06 1.33480636e-06 -7.26647397e-06 2.23057029e-05 -5.94891930e-06 1.33480636e-06 -5.94891930e-06 -1.12414631e-04
1.69442983e-05 -2.36110009e-06 4.23393269e-06 -2.36110009e-06 2.47339813e-05 -9.57527547e-07 4.23393269e-06 -9.57527547e-07 -1.11507548e-04
2.33229557e-05 -3.92824631e-06 -3.16725379e-06 -3.92824631e-06 1.68945485e-05 -2.03434169e-06 -3.16725379e-06 -2.03434169e-06 -1.12423111e-04
2.15257123e-05 -8.22847375e-06 8.61665166e-06 -8.22847375e-06 1.65309642e-05 -7.57196931e-06 8.61665166e-06 -7.57196931e-06 -1.14273058e-04
2.53608905e-05 -3.02511268e-07 -2.43093780e-06 -3.02511268e-07 1.43512971e-05 -3.27258820e-06 -2.43093780e-06 -3.27258820e-06 -1.13154860e-04
2.43306126e-05 -4.50690372e-06 1.29381771e-05 -4.50690372e-06 1.33663493e-05 2.86627306e-06 1.29381771e-05 2.86627306e-06 -1.16183875e-04
2.55271311e-05 -7.82857398e-07 9.64445803e-06 -7.82857398e-07 1.50664523e-05 -4.65844352e-07 9.64445803e-06 -4.65844352e-07 -1.14076835e-04
2.30802548e-05 4.52081110e-08 -1.24942351e-06 4.52081110e-08 1.84910366e-05 5.46766518e-06 -1.24942351e-06 5.46766518e-06 -1.19517777e-04
2.46587829e-05 -1.31718394e-06 8.21206072e-06 -1.31718394e-06 1.76203584e-05 1.66223396e-06 8.21206072e-06 1.66223396e-06 -1.14338185e-04
2.37348372e-05 -1.03184810e-07 4.26814910e-06 -1.03184810e-07 1.81301452e-05 1.57807880e-06 4.26814910e-06 1.57807880e-06 -1.17361295e-04
2.40892705e-05 2.32579509e-06 7.83059500e-06 2.32579509e-06 1.93260830e-05 1.65982730e-06 7.83059500e-06 1.65982730e-06 -1.13134560e-04
2.29058119e-05 1.21706532e-06 1.19073934e-06 1.21706532e-06 1.81785490e-05 1.24444895e-06 1.19073934e-06 1.24444895e-06 -1.16546762e-04
1.46649099e-05 -7.23241446e-06 5.97697372e-06 -7.23241446e-06 2.38217625e-05 -2.70214287e-08 5.97697372e-06 -2.70214287e-08 -1.11298686e-04
1.34100560e-05 -3.67738176e-06 1.08708891e-05 -3.67738176e-06 2.45602864e-05 -5.02811804e-06 1.08708891e-05 -5.02811804e-06 -1.05369571e-04
2.47274695e-05 -1.41856034e-05 3.02255898e-05 -1.41856034e-05 2.76802267e-05 4.31758859e-06 3.02255898e-05 4.31758859e-06 -1.26830313e-04
3.56795612e-05 -1.41415081e-05 5.56735456e-05 -1.41415081e-05 2.46642019e-05 -1.65524854e-05 5.56735456e-05 -1.65524854e-05 -1.36239915e-04
2.90099747e-05 2.39576951e-06 -1.38465651e-07 2.39576951e-06 2.64607138e-05 -1.31972197e-05 -1.38465651e-07 -1.31972197e-05 -1.37180454e-04
2.87044104e-05 -6.53028948e-07 6.00535287e-06 -6.53028948e-07 2.66528255e-05 6.48437495e-06 6.00535287e-06 6.48437495e-06 -1.35645252e-04
2.76222199e-05 5.48995359e-07 3.66703603e-07 5.48995359e-07 2.75076891e-05 4.75092997e-06 3.66703603e-07 4.75092997e-06 -1.33382564e-04
1.03515083e-05 3.07856502e-06 1.67116054e-05 3.07856502e-06 1.92240090e-05 1.80582269e-05 1.67116054e-05 1.80582269e-05 -9.54901025e-05
1.75423279e-05 1.72902236e-06 1.01507809e-05 1.72902236e-06 2.11387528e-05 -1.98236839e-06 1.01507809e-05 -1.98236839e-06 -1.02567643e-04
1.18113998e-05 -9.67570744e-06 2.06817254e-05 -9.67570744e-06 3.10492942e-05 5.70816768e-05 2.06817254e-05 5.70816768e-05 -9.93174114e-05
-2.70788723e-05 -2.87592129e-05 2.90682256e-05 -2.87592129e-05 -2.52717291e-06 7.27104380e-05 2.90682256e-05 7.27104380e-05 -1.07636072e-06
1.92063860e-05 -8.37406954e-07 8.58499817e-06 -8.37406954e-07 1.26129548e-05 1.91363399e-05 8.58499817e-06 1.91363399e-05 -9.05228562e-05
2.24247747e-05 -5.94131919e-07 4.46827244e-06 -5.94131919e-07 1.65445476e-05 1.12722528e-05 4.46827244e-06 1.12722528e-05 -1.00862433e-04
1.00585762e-05 -4.54658085e-06 -4.46462426e-06 -4.54658085e-06 7.44281642e-06 3.69607626e-05 -4.46462426e-06 3.69607626e-05 -6.52789911e-05
-2.51818036e-06 -6.13658206e-07 -4.02726843e-05 -6.13658206e-07 7.97216171e-06 4.10817738e-05 -4.02726843e-05 4.10817738e-05 -4.18091434e-05
2.05157309e-05 -7.72185024e-06 -3.97892413e-06 -7.72185024e-06 1.90918333e-05 8.06847725e-06 -3.97892413e-06 8.06847725e-06 -1.01091488e-04
2.09683712e-05 -3.93628966e-06 -1.16607671e-06 -3.93628966e-06 1.71007155e-05 7.91251000e-06 -1.16607671e-06 7.91251000e-06 -1.01626118e-04
1.87925193e-05 -8.56279087e-06 -1.38074535e-05 -8.56279087e-06 1.92814420e-05 6.50460754e-06 -1.38074535e-05 6.50460754e-06 -9.64932460e-05
1.85791430e-05 -4.77108718e-06 -2.74036804e-05 -4.77108718e-06 2.30846031e-05 1.71322336e-06 -2.74036804e-05 1.71322336e-06 -9.95445698e-05
1.87916382e-05 -4.60182622e-06 -7.32345529e-06 -4.60182622e-06 2.30562509e-05 -1.03119220e-05 -7.32345529e-06 -1.03119220e-05 -1.07325975e-04
2.19430531e-05 9.50750554e-08 -8.04118145e-07 9.50750554e-08 2.10204653e-05 -1.67234293e-06 -8.04118145e-07 -1.67234293e-06 -1.07168180e-04
1.88940585e-05 -6.78263928e-06 -1.16467198e-05 -6.78263928e-06 2.65783028e-05 -1.28486564e-05 -1.16467198e-05 -1.28486564e-05 -1.14790571e-04
2.75485227e-05 -8.66973869e-06 -9.61148851e-06 -8.66973869e-06 3.53999203e-05 3.89745992e-07 -9.61148851e-06 3.89745992e-07 -1.34581322e-04
5.42792513e-08 1.68292913e-07 1.91190040e-07 1.68292913e-07 -6.95290012e-08 2.17230443e-07 1.91190040e-07 2.17230443e-07 -1.08630552e-07
1.37097711e-07 2.75940233e-08 -3.78682465e-07 2.75940233e-08 1.01795045e-07 -5.86287143e-08 -3.78682465e-07 -5.86287143e-08 1.69582250e-08
-1.71312056e-07 -1.60327965e-07 2.53470205e-08 -1.60327965e-07 5.58723272e-08 2.13494516e-07 2.53470205e-08 2.13494516e-07 -2.75304970e-07
7.25611287e-08 7.56483232e-09 -5.23069460e-07 7.56483232e-09 8.25690947e-08 -3.80575010e-07 -5.23069460e-07 -3.80575010e-07 -3.32482735e-07
1.90828378e-05 -2.98126849e-07 4.44512762e-06 -2.98126849e-07 2.25156728e-05 -1.28076863e-06 4.44512762e-06 -1.28076863e-06 -1.13665577e-04
2.00428362e-05 -1.78817004e-06 3.25877119e-06 -1.78817004e-06 2.04260004e-05 -4.26331667e-07 3.25877119e-06 -4.26331667e-07 -1.13551267e-04
1.90580818e-05 -9.69287072e-06 8.09320179e-06 -9.69287072e-06 2.11552172e-05 1.86009124e-06 8.09320179e-06 1.86009124e-06 -1.13501968e-04
1.70037106e-05 -1.81532764e-06 7.39234508e-06 -1.81532764e-06 2.43477107e-05 -2.02250484e-06 7.39234508e-06 -2.02250484e-06 -1.13628807e-04
2.32982215e-05 -4.54172789e-06 6.42991392e-06 -4.54172789e-06 1.53202702e-05 6.78590908e-08 6.42991392e-06 6.78590908e-08 -1.12293954e-04
2.21118731e-05 -1.38168490e-05 -6.42688019e-06 -1.38168490e-05 1.52247744e-05 1.22348915e-06 -6.42688019e-06 1.22348915e-06 -1.15414811e-04
2.55924106e-05 -8.02755920e-07 2.16788729e-06 -8.02755920e-07 1.15665152e-05 2.68870816e-06 2.16788729e-06 2.68870816e-06 -1.11983525e-04
2.45406513e-05 -7.54840002e-06 -1.58551064e-05 -7.54840002e-06 1.08435173e-05 -5.37823601e-06 -1.58551064e-05 -5.37823601e-06 -1.16776315e-04
2.50155990e-05 -3.51030646e-07 -7.48015998e-06 -3.51030646e-07 1.26057780e-05 1.17298396e-06 -7.48015998e-06 1.17298396e-06 -1.12978278e-04
2.44730620e-05 3.36905703e-06 3.91348237e-07 3.36905703e-06 1.84497918e-05 -5.89139631e-07 3.91348237e-07 -5.89139631e-07 -1.21345663e-04
2.39193541e-05 -2.92898516e-07 -9.18856117e-07 -2.92898516e-07 1.57764105e-05 -5.24774322e-07 -9.18856117e-07 -5.24774322e-07 -1.13738864e-04
2.49706998e-05 2.50641735e-06 -1.93676637e-06 2.50641735e-06 2.03201882e-05 3.48682062e-06 -1.93676637e-06 3.48682062e-06 -1.20662447e-04
2.29177904e-05 -1.55983020e-06 2.80480990e-07 -1.55983020e-06 1.68678998e-05 5.63748927e-07 2.80480990e-07 5.63748927e-07 -1.12680631e-04
2.39910241e-05 -2.49125036e-07 7.49008990e-07 -2.49125036e-07 2.06639274e-05 8.07234690e-07 7.49008990e-07 8.07234690e-07 -1.18245402e-04
1.09394994e-05 -1.27154465e-05 2.76857656e-05 -1.27154465e-05 2.20035456e-05 -1.58540789e-05 2.76857656e-05 -1.58540789e-05 -1.10682536e-04
1.01389733e-05 -7.92658784e-06 1.21281612e-05 -7.92658784e-06 2.68545900e-05 -2.58893505e-06 1.21281612e-05 -2.58893505e-06 -1.07616939e-04
2.38710739e-05 -1.94228542e-05 7.53590744e-06 -1.94228542e-05 1.82182532e-05 -2.15469440e-05 7.53590744e-06 -2.15469440e-05 -1.24356429e-04
4.12355912e-05 -2.18396692e-05 -6.94594135e-05 -2.18396692e-05 2.27051321e-05 8.82849781e-06 -6.94594135e-05 8.82849781e-06 -1.45783895e-04
3.19478777e-05 6.35138998e-06 -1.32644436e-06 6.35138998e-06 2.69523975e-05 1.53928291e-05 -1.32644436e-06 1.53928291e-05 -1.41948905e-04
2.61128112e-05 -1.99611492e-08 -1.91741001e-06 -1.99611492e-08 2.38272501e-05 8.64761290e-07 -1.91741001e-06 8.64761290e-07 -1.25520588e-04
2.47491607e-05 4.41309709e-08 3.98392729e-07 4.41309709e-08 2.43669756e-05 5.61635261e-06 3.98392729e-07 5.61635261e-06 -1.23781414e-04
7.68251214e-06 -1.27621830e-05 3.20570381e-05 -1.27621830e-05 2.71894453e-05 -3.57567270e-06 3.20570381e-05 -3.57567270e-06 -1.09873456e-04
6.51501911e-06 -4.51737333e-06 1.50844967e-05 -4.51737333e-06 2.24749183e-05 2.79981696e-05 1.50844967e-05 2.79981696e-05 -9.75892181e-05
2.45725664e-05 -2.99162652e-05 7.00184999e-05 -2.99162652e-05 4.85031242e-05 -9.00202826e-05 7.00184999e-05 -9.00202826e-05 -1.50972490e-04
1.07966931e-05 1.83350968e-06 -2.52440441e-06 1.83350968e-06 2.31742740e-05 4.61366999e-05 -2.52440441e-06 4.61366999e-05 -9.98349341e-05
9.66431435e-06 -4.32455579e-06 9.71642316e-06 -4.32455579e-06 1.92201196e-05 2.88111332e-05 9.71642316e-06 2.88111332e-05 -9.49778678e-05
1.99450119e-06 1.78224134e-05 -1.29818063e-05 1.78224134e-05 2.81032781e-05 8.01444330e-05 -1.29818063e-05 8.01444330e-05 -8.99804672e-05
8.21594784e-06 5.41619912e-06 -5.42526911e-06 5.41619912e-06 1.95859927e-05 6.89931048e-06 -5.42526911e-06 6.89931048e-06 -9.65117306e-05
1.49550256e-05 3.86879043e-06 -3.35315974e-06 3.86879043e-06 2.11745028e-05 1.89552796e-06 -3.35315974e-06 1.89552796e-06 -1.03870459e-04
6.15422515e-06 3.85382768e-06 -3.85978975e-05 3.85382768e-06 2.69369779e-05 2.16303466e-05 -3.85978975e-05 2.16303466e-05 -1.06163825e-04
-1.33034018e-05 6.84987826e-05 -8.38319538e-05 6.84987826e-05 -2.81496305e-05 9.06445275e-05 -8.38319538e-05 9.06445275e-05 3.25762812e-08
2.80843663e-05 2.65848988e-05 -8.52487950e-05 2.65848988e-05 2.73232592e-05 1.62112624e-05 -8.52487950e-05 1.62112624e-05 -1.31821721e-04
1.21670669e-05 4.71749217e-06 3.70852388e-06 4.71749217e-06 2.50312232e-05 -6.29248689e-06 3.70852388e-06 -6.29248689e-06 -1.08647861e-04
1.24148351e-05 8.91800227e-07 -5.08428934e-06 8.91800227e-07 2.63146540e-05 8.16827469e-06 -5.08428934e-06 8.16827469e-06 -1.09530694e-04
</DataArray>
<DataArray type="Float32" Name="Plastic_strain_components" NumberOfComponents="9" format="ascii">
0.00000000e+00 0.00000000e+00 0.00000000e+00 0.00000000e+00 0.00000000e+00 0.00000000e+00 0.00000000e+00 0.00000000e+00 0.00000000e+00
0.00000000e+00 0.00000000e+00 0.00000000e+00 0.00000000e+00 0.00000000e+00 0.00000000e+00 0.00000000e+00 0.00000000e+00 0.00000000e+00
0.00000000e+00 0.00000000e+00 0.00000000e+00 0.00000000e+00 0.00000000e+00 0.00000000e+00 0.00000000e+00 0.00000000e+00 0.00000000e+00
0.00000000e+00 0.00000000e+00 0.00000000e+00 0.00000000e+00 0.00000000e+00 0.00000000e+00 0.00000000e+00 0.00000000e+00 0.00000000e+00
0.00000000e+00 0.00000000e+00 0.00000000e+00 0.00000000e+00 0.00000000e+00 0.00000000e+00 0.00000000e+00 0.00000000e+00 0.00000000e+00
0.00000000e+00 0.00000000e+00 0.00000000e+00 0.00000000e+00 0.00000000e+00 0.00000000e+00 0.00000000e+00 0.00000000e+00 0.00000000e+00
0.00000000e+00 0.00000000e+00 0.00000000e+00 0.00000000e+00 0.00000000e+00 0.00000000e+00 0.00000000e+00 0.00000000e+00 0.00000000e+00
0.00000000e+00 0.00000000e+00 0.00000000e+00 0.00000000e+00 0.00000000e+00 0.00000000e+00 0.00000000e+00 0.00000000e+00 0.00000000e+00
0.00000000e+00 0.00000000e+00 0.00000000e+00 0.00000000e+00 0.00000000e+00 0.00000000e+00 0.00000000e+00 0.00000000e+00 0.00000000e+00
0.00000000e+00 0.00000000e+00 0.00000000e+00 0.00000000e+00 0.00000000e+00 0.00000000e+00 0.00000000e+00 0.00000000e+00 0.00000000e+00
0.00000000e+00 0.00000000e+00 0.00000000e+00 0.00000000e+00 0.00000000e+00 0.00000000e+00 0.00000000e+00 0.00000000e+00 0.00000000e+00
0.00000000e+00 0.00000000e+00 0.00000000e+00 0.00000000e+00 0.00000000e+00 0.00000000e+00 0.00000000e+00 0.00000000e+00 0.00000000e+00
0.00000000e+00 0.00000000e+00 0.00000000e+00 0.00000000e+00 0.00000000e+00 0.00000000e+00 0.00000000e+00 0.00000000e+00 0.00000000e+00
0.00000000e+00 0.00000000e+00 0.00000000e+00 0.00000000e+00 0.00000000e+00 0.00000000e+00 0.00000000e+00 0.00000000e+00 0.00000000e+00
0.00000000e+00 0.00000000e+00 0.00000000e+00 0.00000000e+00 0.00000000e+00 0.00000000e+00 0.00000000e+00 0.00000000e+00 0.00000000e+00
0.00000000e+00 0.00000000e+00 0.00000000e+00 0.00000000e+00 0.00000000e+00 0.00000000e+00 0.00000000e+00 0.00000000e+00 0.00000000e+00
0.00000000e+00 0.00000000e+00 0.00000000e+00 0.00000000e+00 0.00000000e+00 0.00000000e+00 0.00000000e+00 0.00000000e+00 0.00000000e+00
0.00000000e+00 0.00000000e+00 0.00000000e+00 0.00000000e+00 0.00000000e+00 0.00000000e+00 0.00000000e+00 0.00000000e+00 0.00000000e+00
0.00000000e+00 0.00000000e+00 0.00000000e+00 0.00000000e+00 0.00000000e+00 0.00000000e+00 0.00000000e+00 0.00000000e+00 0.00000000e+00
0.00000000e+00 0.00000000e+00 0.00000000e+00 0.00000000e+00 0.00000000e+00 0.00000000e+00 0.00000000e+00 0.00000000e+00 0.00000000e+00
0.00000000e+00 0.00000000e+00 0.00000000e+00 0.00000000e+00 0.00000000e+00 0.00000000e+00 0.00000000e+00 0.00000000e+00 0.00000000e+00
0.00000000e+00 0.00000000e+00 0.00000000e+00 0.00000000e+00 0.00000000e+00 0.00000000e+00 0.00000000e+00 0.00000000e+00 0.00000000e+00
0.00000000e+00 0.00000000e+00 0.00000000e+00 0.00000000e+00 0.00000000e+00 0.00000000e+00 0.00000000e+00 0.00000000e+00 0.00000000e+00
0.00000000e+00 0.00000000e+00 0.00000000e+00 0.00000000e+00 0.00000000e+00 0.00000000e+00 0.00000000e+00 0.00000000e+00 0.00000000e+00
0.00000000e+00 0.00000000e+00 0.00000000e+00 0.00000000e+00 0.00000000e+00 0.00000000e+00 0.00000000e+00 0.00000000e+00 0.00000000e+00
0.00000000e+00 0.00000000e+00 0.00000000e+00 0.00000000e+00 0.00000000e+00 0.00000000e+00 0.00000000e+00 0.00000000e+00 0.00000000e+00
0.00000000e+00 0.00000000e+00 0.00000000e+00 0.00000000e+00 0.00000000e+00 0.00000000e+00 0.00000000e+00 0.00000000e+00 0.00000000e+00
0.00000000e+00 0.00000000e+00 0.00000000e+00 0.00000000e+00 0.00000000e+00 0.00000000e+00 0.00000000e+00 0.00000000e+00 0.00000000e+00
0.00000000e+00 0.00000000e+00 0.00000000e+00 0.00000000e+00 0.00000000e+00 0.00000000e+00 0.00000000e+00 0.00000000e+00 0.00000000e+00
0.00000000e+00 0.00000000e+00 0.00000000e+00 0.00000000e+00 0.00000000e+00 0.00000000e+00 0.00000000e+00 0.00000000e+00 0.00000000e+00
0.00000000e+00 0.00000000e+00 0.00000000e+00 0.00000000e+00 0.00000000e+00 0.00000000e+00 0.00000000e+00 0.00000000e+00 0.00000000e+00
0.00000000e+00 0.00000000e+00 0.00000000e+00 0.00000000e+00 0.00000000e+00 0.00000000e+00 0.00000000e+00 0.00000000e+00 0.00000000e+00
0.00000000e+00 0.00000000e+00 0.00000000e+00 0.00000000e+00 0.00000000e+00 0.00000000e+00 0.00000000e+00 0.00000000e+00 0.00000000e+00
0.00000000e+00 0.00000000e+00 0.00000000e+00 0.00000000e+00 0.00000000e+00 0.00000000e+00 0.00000000e+00 0.00000000e+00 0.00000000e+00
0.00000000e+00 0.00000000e+00 0.00000000e+00 0.00000000e+00 0.00000000e+00 0.00000000e+00 0.00000000e+00 0.00000000e+00 0.00000000e+00
0.00000000e+00 0.00000000e+00 0.00000000e+00 0.00000000e+00 0.00000000e+00 0.00000000e+00 0.00000000e+00 0.00000000e+00 0.00000000e+00
0.00000000e+00 0.00000000e+00 0.00000000e+00 0.00000000e+00 0.00000000e+00 0.00000000e+00 0.00000000e+00 0.00000000e+00 0.00000000e+00
0.00000000e+00 0.00000000e+00 0.00000000e+00 0.00000000e+00 0.00000000e+00 0.00000000e+00 0.00000000e+00 0.00000000e+00 0.00000000e+00
0.00000000e+00 0.00000000e+00 0.00000000e+00 0.00000000e+00 0.00000000e+00 0.00000000e+00 0.00000000e+00 0.00000000e+00 0.00000000e+00
0.00000000e+00 0.00000000e+00 0.00000000e+00 0.00000000e+00 0.00000000e+00 0.00000000e+00 0.00000000e+00 0.00000000e+00 0.00000000e+00
0.00000000e+00 0.00000000e+00 0.00000000e+00 0.00000000e+00 0.00000000e+00 0.00000000e+00 0.00000000e+00 0.00000000e+00 0.00000000e+00
0.00000000e+00 0.00000000e+00 0.00000000e+00 0.00000000e+00 0.00000000e+00 0.00000000e+00 0.00000000e+00 0.00000000e+00 0.00000000e+00
0.00000000e+00 0.00000000e+00 0.00000000e+00 0.00000000e+00 0.00000000e+00 0.00000000e+00 0.00000000e+00 0.00000000e+00 0.00000000e+00
0.00000000e+00 0.00000000e+00 0.00000000e+00 0.00000000e+00 0.00000000e+00 0.00000000e+00 0.00000000e+00 0.00000000e+00 0.00000000e+00
0.00000000e+00 0.00000000e+00 0.00000000e+00 0.00000000e+00 0.00000000e+00 0.00000000e+00 0.00000000e+00 0.00000000e+00 0.00000000e+00
0.00000000e+00 0.00000000e+00 0.00000000e+00 0.00000000e+00 0.00000000e+00 0.00000000e+00 0.00000000e+00 0.00000000e+00 0.00000000e+00
0.00000000e+00 0.00000000e+00 0.00000000e+00 0.00000000e+00 0.00000000e+00 0.00000000e+00 0.00000000e+00 0.00000000e+00 0.00000000e+00
0.00000000e+00 0.00000000e+00 0.00000000e+00 0.00000000e+00 0.00000000e+00 0.00000000e+00 0.00000000e+00 0.00000000e+00 0.00000000e+00
0.00000000e+00 0.00000000e+00 0.00000000e+00 0.00000000e+00 0.00000000e+00 0.00000000e+00 0.00000000e+00 0.00000000e+00 0.00000000e+00
0.00000000e+00 0.00000000e+00 0.00000000e+00 0.00000000e+00 0.00000000e+00 0.00000000e+00 0.00000000e+00 0.00000000e+00 0.00000000e+00
0.00000000e+00 0.00000000e+00 0.00000000e+00 0.00000000e+00 0.00000000e+00 0.00000000e+00 0.00000000e+00 0.00000000e+00 0.00000000e+00
0.00000000e+00 0.00000000e+00 0.00000000e+00 0.00000000e+00 0.00000000e+00 0.00000000e+00 0.00000000e+00 0.00000000e+00 0.00000000e+00
0.00000000e+00 0.00000000e+00 0.00000000e+00 0.00000000e+00 0.00000000e+00 0.00000000e+00 0.00000000e+00 0.00000000e+00 0.00000000e+00
0.00000000e+00 0.00000000e+00 0.00000000e+00 0.00000000e+00 0.00000000e+00 0.00000000e+00 0.00000000e+00 0.00000000e+00 0.00000000e+00
0.00000000e+00 0.00000000e+00 0.00000000e+00 0.00000000e+00 0.00000000e+00 0.00000000e+00 0.00000000e+00 0.00000000e+00 0.00000000e+00
0.00000000e+00 0.00000000e+00 0.00000000e+00 0.00000000e+00 0.00000000e+00 0.00000000e+00 0.00000000e+00 0.00000000e+00 0.00000000e+00
0.00000000e+00 0.00000000e+00 0.00000000e+00 0.00000000e+00 0.00000000e+00 0.00000000e+00 0.00000000e+00 0.00000000e+00 0.00000000e+00
0.00000000e+00 0.00000000e+00 0.00000000e+00 0.00000000e+00 0.00000000e+00 0.00000000e+00 0.00000000e+00 0.00000000e+00 0.00000000e+00
0.00000000e+00 0.00000000e+00 0.00000000e+00 0.00000000e+00 0.00000000e+00 0.00000000e+00 0.00000000e+00 0.00000000e+00 0.00000000e+00
0.00000000e+00 0.00000000e+00 0.00000000e+00 0.00000000e+00 0.00000000e+00 0.00000000e+00 0.00000000e+00 0.00000000e+00 0.00000000e+00
0.00000000e+00 0.00000000e+00 0.00000000e+00 0.00000000e+00 0.00000000e+00 0.00000000e+00 0.00000000e+00 0.00000000e+00 0.00000000e+00
0.00000000e+00 0.00000000e+00 0.00000000e+00 0.00000000e+00 0.00000000e+00 0.00000000e+00 0.00000000e+00 0.00000000e+00 0.00000000e+00
0.00000000e+00 0.00000000e+00 0.00000000e+00 0.00000000e+00 0.00000000e+00 0.00000000e+00 0.00000000e+00 0.00000000e+00 0.00000000e+00
0.00000000e+00 0.00000000e+00 0.00000000e+00 0.00000000e+00 0.00000000e+00 0.00000000e+00 0.00000000e+00 0.00000000e+00 0.00000000e+00
0.00000000e+00 0.00000000e+00 0.00000000e+00 0.00000000e+00 0.00000000e+00 0.00000000e+00 0.00000000e+00 0.00000000e+00 0.00000000e+00
0.00000000e+00 0.00000000e+00 0.00000000e+00 0.00000000e+00 0.00000000e+00 0.00000000e+00 0.00000000e+00 0.00000000e+00 0.00000000e+00
0.00000000e+00 0.00000000e+00 0.00000000e+00 0.00000000e+00 0.00000000e+00 0.00000000e+00 0.00000000e+00 0.00000000e+00 0.00000000e+00
0.00000000e+00 0.00000000e+00 0.00000000e+00 0.00000000e+00 0.00000000e+00 0.00000000e+00 0.00000000e+00 0.00000000e+00 0.00000000e+00
0.00000000e+00 0.00000000e+00 0.00000000e+00 0.00000000e+00 0.00000000e+00 0.00000000e+00 0.00000000e+00 0.00000000e+00 0.00000000e+00
0.00000000e+00 0.00000000e+00 0.00000000e+00 0.00000000e+00 0.00000000e+00 0.00000000e+00 0.00000000e+00 0.00000000e+00 0.00000000e+00
0.00000000e+00 0.00000000e+00 0.00000000e+00 0.00000000e+00 0.00000000e+00 0.00000000e+00 0.00000000e+00 0.00000000e+00 0.00000000e+00
0.00000000e+00 0.00000000e+00 0.00000000e+00 0.00000000e+00 0.00000000e+00 0.00000000e+00 0.00000000e+00 0.00000000e+00 0.00000000e+00
0.00000000e+00 0.00000000e+00 0.00000000e+00 0.00000000e+00 0.00000000e+00 0.00000000e+00 0.00000000e+00 0.00000000e+00 0.00000000e+00
0.00000000e+00 0.00000000e+00 0.00000000e+00 0.00000000e+00 0.00000000e+00 0.00000000e+00 0.00000000e+00 0.00000000e+00 0.00000000e+00
0.00000000e+00 0.00000000e+00 0.00000000e+00 0.00000000e+00 0.00000000e+00 0.00000000e+00 0.00000000e+00 0.00000000e+00 0.00000000e+00
0.00000000e+00 0.00000000e+00 0.00000000e+00 0.00000000e+00 0.00000000e+00 0.00000000e+00 0.00000000e+00 0.00000000e+00 0.00000000e+00
0.00000000e+00 0.00000000e+00 0.00000000e+00 0.00000000e+00 0.00000000e+00 0.00000000e+00 0.00000000e+00 0.00000000e+00 0.00000000e+00
0.00000000e+00 0.00000000e+00 0.00000000e+00 0.00000000e+00 0.00000000e+00 0.00000000e+00 0.00000000e+00 0.00000000e+00 0.00000000e+00
0.00000000e+00 0.00000000e+00 0.00000000e+00 0.00000000e+00 0.00000000e+00 0.00000000e+00 0.00000000e+00 0.00000000e+00 0.00000000e+00
0.00000000e+00 0.00000000e+00 0.00000000e+00 0.00000000e+00 0.00000000e+00 0.00000000e+00 0.00000000e+00 0.00000000e+00 0.00000000e+00
0.00000000e+00 0.00000000e+00 0.00000000e+00 0.00000000e+00 0.00000000e+00 0.00000000e+00 0.00000000e+00 0.00000000e+00 0.00000000e+00
0.00000000e+00 0.00000000e+00 0.00000000e+00 0.00000000e+00 0.00000000e+00 0.00000000e+00 0.00000000e+00 0.00000000e+00 0.00000000e+00
0.00000000e+00 0.00000000e+00 0.00000000e+00 0.00000000e+00 0.00000000e+00 0.00000000e+00 0.00000000e+00 0.00000000e+00 0.00000000e+00
0.00000000e+00 0.00000000e+00 0.00000000e+00 0.00000000e+00 0.00000000e+00 0.00000000e+00 0.00000000e+00 0.00000000e+00 0.00000000e+00
0.00000000e+00 0.00000000e+00 0.00000000e+00 0.00000000e+00 0.00000000e+00 0.00000000e+00 0.00000000e+00 0.00000000e+00 0.00000000e+00
0.00000000e+00 0.00000000e+00 0.00000000e+00 0.00000000e+00 0.00000000e+00 0.00000000e+00 0.00000000e+00 0.00000000e+00 0.00000000e+00
0.00000000e+00 0.00000000e+00 0.00000000e+00 0.00000000e+00 0.00000000e+00 0.00000000e+00 0.00000000e+00 0.00000000e+00 0.00000000e+00
0.00000000e+00 0.00000000e+00 0.00000000e+00 0.00000000e+00 0.00000000e+00 0.00000000e+00 0.00000000e+00 0.00000000e+00 0.00000000e+00
0.00000000e+00 0.00000000e+00 0.00000000e+00 0.00000000e+00 0.00000000e+00 0.00000000e+00 0.00000000e+00 0.00000000e+00 0.00000000e+00
0.00000000e+00 0.00000000e+00 0.00000000e+00 0.00000000e+00 0.00000000e+00 0.00000000e+00 0.00000000e+00 0.00000000e+00 0.00000000e+00
0.00000000e+00 0.00000000e+00 0.00000000e+00 0.00000000e+00 0.00000000e+00 0.00000000e+00 0.00000000e+00 0.00000000e+00 0.00000000e+00
0.00000000e+00 0.00000000e+00 0.00000000e+00 0.00000000e+00 0.00000000e+00 0.00000000e+00 0.00000000e+00 0.00000000e+00 0.00000000e+00
0.00000000e+00 0.00000000e+00 0.00000000e+00 0.00000000e+00 0.00000000e+00 0.00000000e+00 0.00000000e+00 0.00000000e+00 0.00000000e+00
0.00000000e+00 0.00000000e+00 0.00000000e+00 0.00000000e+00 0.00000000e+00 0.00000000e+00 0.00000000e+00 0.00000000e+00 0.00000000e+00
0.00000000e+00 0.00000000e+00 0.00000000e+00 0.00000000e+00 0.00000000e+00 0.00000000e+00 0.00000000e+00 0.00000000e+00 0.00000000e+00
0.00000000e+00 0.00000000e+00 0.00000000e+00 0.00000000e+00 0.00000000e+00 0.00000000e+00 0.00000000e+00 0.00000000e+00 0.00000000e+00
0.00000000e+00 0.00000000e+00 0.00000000e+00 0.00000000e+00 0.00000000e+00 0.00000000e+00 0.00000000e+00 0.00000000e+00 0.00000000e+00
0.00000000e+00 0.00000000e+00 0.00000000e+00 0.00000000e+00 0.00000000e+00 0.00000000e+00 0.00000000e+00 0.00000000e+00 0.00000000e+00
0.00000000e+00 0.00000000e+00 0.00000000e+00 0.00000000e+00 0.00000000e+00 0.00000000e+00 0.00000000e+00 0.00000000e+00 0.00000000e+00
0.00000000e+00 0.00000000e+00 0.00000000e+00 0.00000000e+00 0.00000000e+00 0.00000000e+00 0.00000000e+00 0.00000000e+00 0.00000000e+00
0.00000000e+00 0.00000000e+00 0.00000000e+00 0.00000000e+00 0.00000000e+00 0.00000000e+00 0.00000000e+00 0.00000000e+00 0.00000000e+00
0.00000000e+00 0.00000000e+00 0.00000000e+00 0.00000000e+00 0.00000000e+00 0.00000000e+00 0.00000000e+00 0.00000000e+00 0.00000000e+00
0.00000000e+00 0.00000000e+00 0.00000000e+00 0.00000000e+00 0.00000000e+00 0.00000000e+00 0.00000000e+00 0.00000000e+00 0.00000000e+00
0.00000000e+00 0.00000000e+00 0.00000000e+00 0.00000000e+00 0.00000000e+00 0.00000000e+00 0.00000000e+00 0.00000000e+00 0.00000000e+00
0.00000000e+00 0.00000000e+00 0.00000000e+00 0.00000000e+00 0.00000000e+00 0.00000000e+00 0.00000000e+00 0.00000000e+00 0.00000000e+00
0.00000000e+00 0.00000000e+00 0.00000000e+00 0.00000000e+00 0.00000000e+00 0.00000000e+00 0.00000000e+00 0.00000000e+00 0.00000000e+00
0.00000000e+00 0.00000000e+00 0.00000000e+00 0.00000000e+00 0.00000000e+00 0.00000000e+00 0.00000000e+00 0.00000000e+00 0.00000000e+00
0.00000000e+00 0.00000000e+00 0.00000000e+00 0.00000000e+00 0.00000000e+00 0.00000000e+00 0.00000000e+00 0.00000000e+00 0.00000000e+00
0.00000000e+00 0.00000000e+00 0.00000000e+00 0.00000000e+00 0.00000000e+00 0.00000000e+00 0.00000000e+00 0.00000000e+00 0.00000000e+00
0.00000000e+00 0.00000000e+00 0.00000000e+00 0.00000000e+00 0.00000000e+00 0.00000000e+00 0.00000000e+00 0.00000000e+00 0.00000000e+00
0.00000000e+00 0.00000000e+00 0.00000000e+00 0.00000000e+00 0.00000000e+00 0.00000000e+00 0.00000000e+00 0.00000000e+00 0.00000000e+00
0.00000000e+00 0.00000000e+00 0.00000000e+00 0.00000000e+00 0.00000000e+00 0.00000000e+00 0.00000000e+00 0.00000000e+00 0.00000000e+00
0.00000000e+00 0.00000000e+00 0.00000000e+00 0.00000000e+00 0.00000000e+00 0.00000000e+00 0.00000000e+00 0.00000000e+00 0.00000000e+00
0.00000000e+00 0.00000000e+00 0.00000000e+00 0.00000000e+00 0.00000000e+00 0.00000000e+00 0.00000000e+00 0.00000000e+00 0.00000000e+00
0.00000000e+00 0.00000000e+00 0.00000000e+00 0.00000000e+00 0.00000000e+00 0.00000000e+00 0.00000000e+00 0.00000000e+00 0.00000000e+00
0.00000000e+00 0.00000000e+00 0.00000000e+00 0.00000000e+00 0.00000000e+00 0.00000000e+00 0.00000000e+00 0.00000000e+00 0.00000000e+00
0.00000000e+00 0.00000000e+00 0.00000000e+00 0.00000000e+00 0.00000000e+00 0.00000000e+00 0.00000000e+00 0.00000000e+00 0.00000000e+00
0.00000000e+00 0.00000000e+00 0.00000000e+00 0.00000000e+00 0.00000000e+00 0.00000000e+00 0.00000000e+00 0.00000000e+00 0.00000000e+00
0.00000000e+00 0.00000000e+00 0.00000000e+00 0.00000000e+00 0.00000000e+00 0.00000000e+00 0.00000000e+00 0.00000000e+00 0.00000000e+00
0.00000000e+00 0.00000000e+00 0.00000000e+00 0.00000000e+00 0.00000000e+00 0.00000000e+00 0.00000000e+00 0.00000000e+00 0.00000000e+00
0.00000000e+00 0.00000000e+00 0.00000000e+00 0.00000000e+00 0.00000000e+00 0.00000000e+00 0.00000000e+00 0.00000000e+00 0.00000000e+00
0.00000000e+00 0.00000000e+00 0.00000000e+00 0.00000000e+00 0.00000000e+00 0.00000000e+00 0.00000000e+00 0.00000000e+00 0.00000000e+00
0.00000000e+00 0.00000000e+00 0.00000000e+00 0.00000000e+00 0.00000000e+00 0.00000000e+00 0.00000000e+00 0.00000000e+00 0.00000000e+00
0.00000000e+00 0.00000000e+00 0.00000000e+00 0.00000000e+00 0.00000000e+00 0.00000000e+00 0.00000000e+00 0.00000000e+00 0.00000000e+00
0.00000000e+00 0.00000000e+00 0.00000000e+00 0.00000000e+00 0.00000000e+00 0.00000000e+00 0.00000000e+00 0.00000000e+00 0.00000000e+00
0.00000000e+00 0.00000000e+00 0.00000000e+00 0.00000000e+00 0.00000000e+00 0.00000000e+00 0.00000000e+00 0.00000000e+00 0.00000000e+00
0.00000000e+00 0.00000000e+00 0.00000000e+00 0.00000000e+00 0.00000000e+00 0.00000000e+00 0.00000000e+00 0.00000000e+00 0.00000000e+00
0.00000000e+00 0.00000000e+00 0.00000000e+00 0.00000000e+00 0.00000000e+00 0.00000000e+00 0.00000000e+00 0.00000000e+00 0.00000000e+00
0.00000000e+00 0.00000000e+00 0.00000000e+00 0.00000000e+00 0.00000000e+00 0.00000000e+00 0.00000000e+00 0.00000000e+00 0.00000000e+00
0.00000000e+00 0.00000000e+00 0.00000000e+00 0.00000000e+00 0.00000000e+00 0.00000000e+00 0.00000000e+00 0.00000000e+00 0.00000000e+00
0.00000000e+00 0.00000000e+00 0.00000000e+00 0.00000000e+00 0.00000000e+00 0.00000000e+00 0.00000000e+00 0.00000000e+00 0.00000000e+00
0.00000000e+00 0.00000000e+00 0.00000000e+00 0.00000000e+00 0.00000000e+00 0.00000000e+00 0.00000000e+00 0.00000000e+00 0.00000000e+00
0.00000000e+00 0.00000000e+00 0.00000000e+00 0.00000000e+00 0.00000000e+00 0.00000000e+00 0.00000000e+00 0.00000000e+00 0.00000000e+00
0.00000000e+00 0.00000000e+00 0.00000000e+00 0.00000000e+00 0.00000000e+00 0.00000000e+00 0.00000000e+00 0.00000000e+00 0.00000000e+00
0.00000000e+00 0.00000000e+00 0.00000000e+00 0.00000000e+00 0.00000000e+00 0.00000000e+00 0.00000000e+00 0.00000000e+00 0.00000000e+00
0.00000000e+00 0.00000000e+00 0.00000000e+00 0.00000000e+00 0.00000000e+00 0.00000000e+00 0.00000000e+00 0.00000000e+00 0.00000000e+00
0.00000000e+00 0.00000000e+00 0.00000000e+00 0.00000000e+00 0.00000000e+00 0.00000000e+00 0.00000000e+00 0.00000000e+00 0.00000000e+00
0.00000000e+00 0.00000000e+00 0.00000000e+00 0.00000000e+00 0.00000000e+00 0.00000000e+00 0.00000000e+00 0.00000000e+00 0.00000000e+00
0.00000000e+00 0.00000000e+00 0.00000000e+00 0.00000000e+00 0.00000000e+00 0.00000000e+00 0.00000000e+00 0.00000000e+00 0.00000000e+00
0.00000000e+00 0.00000000e+00 0.00000000e+00 0.00000000e+00 0.00000000e+00 0.00000000e+00 0.00000000e+00 0.00000000e+00 0.00000000e+00
0.00000000e+00 0.00000000e+00 0.00000000e+00 0.00000000e+00 0.00000000e+00 0.00000000e+00 0.00000000e+00 0.00000000e+00 0.00000000e+00
0.00000000e+00 0.00000000e+00 0.00000000e+00 0.00000000e+00 0.00000000e+00 0.00000000e+00 0.00000000e+00 0.00000000e+00 0.00000000e+00
0.00000000e+00 0.00000000e+00 0.00000000e+00 0.00000000e+00 0.00000000e+00 0.00000000e+00 0.00000000e+00 0.00000000e+00 0.00000000e+00
0.00000000e+00 0.00000000e+00 0.00000000e+00 0.00000000e+00 0.00000000e+00 0.00000000e+00 0.00000000e+00 0.00000000e+00 0.00000000e+00
0.00000000e+00 0.00000000e+00 0.00000000e+00 0.00000000e+00 0.00000000e+00 0.00000000e+00 0.00000000e+00 0.00000000e+00 0.00000000e+00
0.00000000e+00 0.00000000e+00 0.00000000e+00 0.00000000e+00 0.00000000e+00 0.00000000e+00 0.00000000e+00 0.00000000e+00 0.00000000e+00
0.00000000e+00 0.00000000e+00 0.00000000e+00 0.00000000e+00 0.00000000e+00 0.00000000e+00 0.00000000e+00 0.00000000e+00 0.00000000e+00
0.00000000e+00 0.00000000e+00 0.00000000e+00 0.00000000e+00 0.00000000e+00 0.00000000e+00 0.00000000e+00 0.00000000e+00 0.00000000e+00
0.00000000e+00 0.00000000e+00 0.00000000e+00 0.00000000e+00 0.00000000e+00 0.00000000e+00 0.00000000e+00 0.00000000e+00 0.00000000e+00
0.00000000e+00 0.00000000e+00 0.00000000e+00 0.00000000e+00 0.00000000e+00 0.00000000e+00 0.00000000e+00 0.00000000e+00 0.00000000e+00
0.00000000e+00 0.00000000e+00 0.00000000e+00 0.00000000e+00 0.00000000e+00 0.00000000e+00 0.00000000e+00 0.00000000e+00 0.00000000e+00
0.00000000e+00 0.00000000e+00 0.00000000e+00 0.00000000e+00 0.00000000e+00 0.00000000e+00 0.00000000e+00 0.00000000e+00 0.00000000e+00
0.00000000e+00 0.00000000e+00 0.00000000e+00 0.00000000e+00 0.00000000e+00 0.00000000e+00 0.00000000e+00 0.00000000e+00 0.00000000e+00
0.00000000e+00 0.00000000e+00 0.00000000e+00 0.00000000e+00 0.00000000e+00 0.00000000e+00 0.00000000e+00 0.00000000e+00 0.00000000e+00
0.00000000e+00 0.00000000e+00 0.00000000e+00 0.00000000e+00 0.00000000e+00 0.00000000e+00 0.00000000e+00 0.00000000e+00 0.00000000e+00
0.00000000e+00 0.00000000e+00 0.00000000e+00 0.00000000e+00 0.00000000e+00 0.00000000e+00 0.00000000e+00 0.00000000e+00 0.00000000e+00
0.00000000e+00 0.00000000e+00 0.00000000e+00 0.00000000e+00 0.00000000e+00 0.00000000e+00 0.00000000e+00 0.00000000e+00 0.00000000e+00
0.00000000e+00 0.00000000e+00 0.00000000e+00 0.00000000e+00 0.00000000e+00 0.00000000e+00 0.00000000e+00 0.00000000e+00 0.00000000e+00
0.00000000e+00 0.00000000e+00 0.00000000e+00 0.00000000e+00 0.00000000e+00 0.00000000e+00 0.00000000e+00 0.00000000e+00 0.00000000e+00
0.00000000e+00 0.00000000e+00 0.00000000e+00 0.00000000e+00 0.00000000e+00 0.00000000e+00 0.00000000e+00 0.00000000e+00 0.00000000e+00
0.00000000e+00 0.00000000e+00 0.00000000e+00 0.00000000e+00 0.00000000e+00 0.00000000e+00 0.00000000e+00 0.00000000e+00 0.00000000e+00
0.00000000e+00 0.00000000e+00 0.00000000e+00 0.00000000e+00 0.00000000e+00 0.00000000e+00 0.00000000e+00 0.00000000e+00 0.00000000e+00
0.00000000e+00 0.00000000e+00 0.00000000e+00 0.00000000e+00 0.00000000e+00 0.00000000e+00 0.00000000e+00 0.00000000e+00 0.00000000e+00
0.00000000e+00 0.00000000e+00 0.00000000e+00 0.00000000e+00 0.00000000e+00 0.00000000e+00 0.00000000e+00 0.00000000e+00 0.00000000e+00
0.00000000e+00 0.00000000e+00 0.00000000e+00 0.00000000e+00 0.00000000e+00 0.00000000e+00 0.00000000e+00 0.00000000e+00 0.00000000e+00
0.00000000e+00 0.00000000e+00 0.00000000e+00 0.00000000e+00 0.00000000e+00 0.00000000e+00 0.00000000e+00 0.00000000e+00 0.00000000e+00
0.00000000e+00 0.00000000e+00 0.00000000e+00 0.00000000e+00 0.00000000e+00 0.00000000e+00 0.00000000e+00 0.00000000e+00 0.00000000e+00
0.00000000e+00 0.00000000e+00 0.00000000e+00 0.00000000e+00 0.00000000e+00 0.00000000e+00 0.00000000e+00 0.00000000e+00 0.00000000e+00
0.00000000e+00 0.00000000e+00 0.00000000e+00 0.00000000e+00 0.00000000e+00 0.00000000e+00 0.00000000e+00 0.00000000e+00 0.00000000e+00
0.00000000e+00 0.00000000e+00 0.00000000e+00 0.00000000e+00 0.00000000e+00 0.00000000e+00 0.00000000e+00 0.00000000e+00 0.00000000e+00
0.00000000e+00 0.00000000e+00 0.00000000e+00 0.00000000e+00 0.00000000e+00 0.00000000e+00 0.00000000e+00 0.00000000e+00 0.00000000e+00
0.00000000e+00 0.00000000e+00 0.00000000e+00 0.00000000e+00 0.00000000e+00 0.00000000e+00 0.00000000e+00 0.00000000e+00 0.00000000e+00
0.00000000e+00 0.00000000e+00 0.00000000e+00 0.00000000e+00 0.00000000e+00 0.00000000e+00 0.00000000e+00 0.00000000e+00 0.00000000e+00
</DataArray>
<DataArray type="Float32" Name="Spatial_displacement" NumberOfComponents="3" format="ascii">
0.00000000e+00 0.00000000e+00 0.00000000e+00
2.16727512e-05 0.00000000e+00 0.00000000e+00
2.35113439e-05 2.87281091e-05 0.00000000e+00
0.00000000e+00 2.74168287e-05 0.00000000e+00
0.00000000e+00 0.00000000e+00 -1.16022093e-04
2.02584215e-05 0.00000000e+00 -1.16963813e-04
2.11602473e-05 2.66112929e-05 -1.15287905e-04
0.00000000e+00 2.61430123e-05 -1.14882358e-04
4.29000684e-05 0.00000000e+00 0.00000000e+00
4.55916561e-05 3.19419851e-05 0.00000000e+00
4.12535519e-05 0.00000000e+00 -1.19608303e-04
4.24907266e-05 2.76792907e-05 -1.14877927e-04
6.38859929e-05 0.00000000e+00 0.00000000e+00
6.56534830e-05 3.46150591e-05 0.00000000e+00
6.38620986e-05 0.00000000e+00 -1.20588884e-04
6.33060699e-05 2.71902645e-05 -1.16799922e-04
8.58522108e-05 0.00000000e+00 0.00000000e+00
8.54001119e-05 3.44455366e-05 0.00000000e+00
8.69465584e-05 0.00000000e+00 -1.19304546e-04
8.49439384e-05 2.56273051e-05 -1.19987002e-04
1.08583947e-04 0.00000000e+00 0.00000000e+00
1.06084022e-04 3.54211588e-05 0.00000000e+00
1.09980443e-04 0.00000000e+00 -1.19751450e-04
1.08251974e-04 2.55479590e-05 -1.20611170e-04
1.32563422e-04 0.00000000e+00 0.00000000e+00
1.25583450e-04 4.19130411e-05 0.00000000e+00
1.32451692e-04 0.00000000e+00 -1.21682249e-04
1.31040215e-04 3.04097339e-05 -1.24747559e-04
2.78396674e-05 5.24095231e-05 0.00000000e+00
0.00000000e+00 5.10082027e-05 0.00000000e+00
2.47512435e-05 5.08443809e-05 -1.07869644e-04
0.00000000e+00 4.99926282e-05 -1.11565605e-04
5.36500629e-05 5.59079417e-05 0.00000000e+00
4.74289809e-05 5.47955824e-05 -9.76461015e-05
7.44693825e-05 6.13064840e-05 0.00000000e+00
6.39772115e-05 5.40912406e-05 -7.90429549e-05
8.68150237e-05 6.79483928e-05 0.00000000e+00
8.45255126e-05 4.11996443e-05 -7.46631558e-05
9.77930176e-05 7.00847886e-05 0.00000000e+00
1.02038532e-04 4.41473094e-05 -7.70040715e-05
1.10381443e-04 8.02750510e-05 0.00000000e+00
1.17762065e-04 5.22826958e-05 -7.96748063e-05
3.24855682e-05 6.82283207e-05 0.00000000e+00
0.00000000e+00 6.82003083e-05 0.00000000e+00
2.83895624e-05 6.81111051e-05 -9.87692765e-05
0.00000000e+00 6.91897803e-05 -1.05883038e-04
6.15580720e-05 6.81588062e-05 0.00000000e+00
5.70258417e-05 6.66329943e-05 -7.59352042e-05
8.43481903e-05 6.85154519e-05 0.00000000e+00
7.45351936e-05 6.46550834e-05 -3.18534549e-05
9.19847153e-05 7.73060601e-05 0.00000000e+00
7.73026914e-05 4.50381776e-05 2.12054365e-05
9.11274110e-05 7.80118644e-05 0.00000000e+00
9.37029326e-05 4.61032541e-05 1.64651283e-05
9.27569927e-05 8.30596327e-05 0.00000000e+00
9.98280084e-05 6.54456744e-05 4.64655477e-06
3.38894388e-05 7.79703987e-05 0.00000000e+00
0.00000000e+00 8.10173369e-05 0.00000000e+00
3.02322260e-05 8.03056391e-05 -9.57380980e-05
0.00000000e+00 8.27427139e-05 -1.01944875e-04
6.48028144e-05 7.25869322e-05 0.00000000e+00
5.83683614e-05 7.04898339e-05 -7.36120710e-05
8.83173998e-05 6.69108485e-05 0.00000000e+00
7.18038937e-05 6.40292856e-05 -3.30850162e-05
8.96466881e-05 6.42634768e-05 0.00000000e+00
7.67895690e-05 7.02205725e-05 7.98946076e-06
8.22762595e-05 6.56912016e-05 0.00000000e+00
8.49766147e-05 6.40567014e-05 0.00000000e+00
8.53177044e-05 7.00293240e-05 2.28205309e-07
8.54544342e-05 6.71629314e-05 2.95551808e-06
3.29812901e-05 8.96433121e-05 0.00000000e+00
0.00000000e+00 9.44424683e-05 0.00000000e+00
2.99896528e-05 9.22672189e-05 -1.00806319e-04
0.00000000e+00 9.61878904e-05 -1.05152307e-04
6.53370225e-05 7.94412917e-05 0.00000000e+00
5.56271189e-05 8.08918630e-05 -9.08352304e-05
9.00040468e-05 7.12305118e-05 0.00000000e+00
7.10997556e-05 7.39262468e-05 -5.04365562e-05
9.21752289e-05 6.78731303e-05 0.00000000e+00
7.89455080e-05 6.92370522e-05 5.26677150e-06
8.28924749e-05 6.63453829e-05 0.00000000e+00
8.59204447e-05 6.65027255e-05 7.40748362e-07
8.53112651e-05 6.49592912e-05 0.00000000e+00
8.55985345e-05 6.47898414e-05 -1.32076127e-06
3.68712463e-05 1.06993502e-04 0.00000000e+00
0.00000000e+00 1.10827714e-04 0.00000000e+00
3.32232266e-05 1.08382585e-04 -1.09373541e-04
0.00000000e+00 1.14422815e-04 -1.11665468e-04
7.24963465e-05 9.40994723e-05 0.00000000e+00
5.95975034e-05 9.81730263e-05 -1.06238927e-04
9.89094769e-05 7.91814819e-05 0.00000000e+00
7.67994061e-05 8.63557871e-05 -6.41880688e-05
9.86933155e-05 7.15449642e-05 0.00000000e+00
8.29269338e-05 7.32166154e-05 6.53004417e-06
8.66439877e-05 6.49359645e-05 0.00000000e+00
8.91229211e-05 6.62778621e-05 8.91146385e-07
8.62652887e-05 6.49774593e-05 0.00000000e+00
8.78828068e-05 6.40705111e-05 -6.98286158e-07
0.00000000e+00 0.00000000e+00 -2.29455167e-04
1.84417731e-05 0.00000000e+00 -2.30601727e-04
1.66825430e-05 2.16090139e-05 -2.28096178e-04
0.00000000e+00 2.38032553e-05 -2.27246623e-04
3.98060693e-05 0.00000000e+00 -2.31706450e-04
3.58125362e-05 1.57360173e-05 -2.34927589e-04
6.25484900e-05 0.00000000e+00 -2.34477018e-04
6.23098604e-05 1.31406223e-05 -2.37011103e-04
8.81902379e-05 0.00000000e+00 -2.38572014e-04
8.74038597e-05 1.47281853e-05 -2.29078258e-04
1.13457943e-04 0.00000000e+00 -2.38395529e-04
1.11996203e-04 1.65613874e-05 -2.30299731e-04
1.35772934e-04 0.00000000e+00 -2.40846945e-04
1.38262025e-04 1.76216017e-05 -2.33058745e-04
1.19125252e-05 4.54878937e-05 -2.22659961e-04
0.00000000e+00 4.89800623e-05 -2.17629873e-04
3.17054328e-05 3.61422972e-05 -2.01050614e-04
5.43236383e-05 2.96138678e-05 -1.91388390e-04
8.46895418e-05 4.05538594e-05 -2.28695193e-04
1.10269830e-04 4.01330835e-05 -2.22040355e-04
1.35922863e-04 4.30968794e-05 -2.27558106e-04
1.48812851e-05 7.17097500e-05 -2.06001350e-04
0.00000000e+00 7.00386518e-05 -2.04001539e-04
2.26319771e-05 6.52315575e-05 -1.47417595e-04
1.40948514e-05 3.73311086e-05 -1.44276764e-05
2.25640688e-05 8.60029977e-05 -1.89414510e-04
0.00000000e+00 8.65030743e-05 -2.00865339e-04
3.98410339e-05 7.88999532e-05 -1.42640274e-04
5.22202026e-05 6.19056736e-05 -7.80389310e-05
2.12838786e-05 9.87457388e-05 -2.01125542e-04
0.00000000e+00 1.02886297e-04 -2.09071572e-04
3.86003449e-05 9.09208975e-05 -1.75602851e-04
5.82563807e-05 8.40441498e-05 -1.52173336e-04
1.91444506e-05 1.21659694e-04 -2.21583570e-04
0.00000000e+00 1.21436111e-04 -2.19735841e-04
3.74480514e-05 1.16789175e-04 -2.14765896e-04
5.59076216e-05 1.10459274e-04 -1.98280162e-04
8.76017875e-05 6.60962178e-05 6.67026768e-07
8.78168285e-05 6.35924007e-05 -1.11155396e-06
9.01709573e-05 6.39121572e-05 -5.89069089e-07
8.97677528e-05 6.62856983e-05 9.95226856e-07
0.00000000e+00 0.00000000e+00 -3.42134648e-04
1.89952261e-05 0.00000000e+00 -3.43207474e-04
1.70700678e-05 2.11701044e-05 -3.39950348e-04
0.00000000e+00 2.29931247e-05 -3.37884558e-04
4.09015738e-05 0.00000000e+00 -3.47153400e-04
3.62596038e-05 1.42133222e-05 -3.40822036e-04
6.40074286e-05 0.00000000e+00 -3.49029928e-04
6.31756702e-05 1.02848280e-05 -3.46816640e-04
8.97082064e-05 0.00000000e+00 -3.48220492e-04
8.95483681e-05 1.31684319e-05 -3.55721451e-04
1.15348019e-04 0.00000000e+00 -3.50532529e-04
1.15185961e-04 1.78059327e-05 -3.51458497e-04
1.40958597e-04 0.00000000e+00 -3.51451890e-04
1.39205062e-04 1.93687829e-05 -3.51348222e-04
8.12372764e-06 4.07812768e-05 -3.28161899e-04
0.00000000e+00 4.88152436e-05 -3.25656321e-04
2.46725012e-05 3.25619403e-05 -3.67630884e-04
4.99989619e-05 2.59179960e-05 -3.88411776e-04
8.87719725e-05 3.97509066e-05 -3.50654940e-04
1.14076334e-04 3.99695746e-05 -3.54850810e-04
1.37439041e-04 4.19906137e-05 -3.50607646e-04
8.04280262e-06 6.82471727e-05 -2.87806295e-04
0.00000000e+00 7.26554572e-05 -3.15878890e-04
1.26955692e-05 4.23452293e-05 -3.30870098e-04
1.01340975e-05 9.23432599e-05 -2.75229249e-04
0.00000000e+00 9.66812877e-05 -3.03861714e-04
2.39493966e-05 9.65975778e-05 -1.90891296e-04
1.27023804e-05 1.16588235e-04 -3.05418536e-04
0.00000000e+00 1.12520618e-04 -3.07433453e-04
1.97226327e-05 1.25623352e-04 -2.84515845e-04
2.05629458e-05 1.57351169e-04 -6.83416001e-05
2.77717081e-05 1.38889256e-04 -2.47656018e-04
8.10340953e-06 1.34871807e-04 -3.23781045e-04
0.00000000e+00 1.34356640e-04 -3.31801508e-04
</DataArray>
<DataArray type="Float32" Name="Spatial_acceleration" NumberOfComponents="3" format="ascii">
0.00000000e+00 0.00000000e+00 0.00000000e+00
4.65946890e-08 0.00000000e+00 0.00000000e+00
4.92582721e-08 6.36378914e-08 0.00000000e+00
0.00000000e+00 6.07073289e-08 0.00000000e+00
0.00000000e+00 0.00000000e+00 -2.57492076e-07
4.41173711e-08 0.00000000e+00 -2.61068351e-07
4.68951953e-08 5.79170880e-08 -2.55942354e-07
0.00000000e+00 5.84597366e-08 -2.55664190e-07
9.36202724e-08 0.00000000e+00 0.00000000e+00
1.00781520e-07 6.86844217e-08 0.00000000e+00
9.05419384e-08 0.00000000e+00 -2.66313549e-07
9.15092713e-08 6.07271957e-08 -2.56697348e-07
1.41030796e-07 0.00000000e+00 0.00000000e+00
1.43349169e-07 7.73966278e-08 0.00000000e+00
1.40706703e-07 0.00000000e+00 -2.67028810e-07
1.38426813e-07 6.02851316e-08 -2.60869655e-07
1.87671432e-07 0.00000000e+00 0.00000000e+00
1.87652802e-07 7.58767129e-08 0.00000000e+00
1.91398584e-07 0.00000000e+00 -2.65200924e-07
1.86555084e-07 5.76892241e-08 -2.67664575e-07
2.39615957e-07 0.00000000e+00 0.00000000e+00
2.32477362e-07 7.88569423e-08 0.00000000e+00
2.41872527e-07 0.00000000e+00 -2.67744070e-07
2.37482283e-07 5.67495206e-08 -2.69214297e-07
2.91064055e-07 0.00000000e+00 0.00000000e+00
2.74047267e-07 9.52879589e-08 0.00000000e+00
2.94867903e-07 0.00000000e+00 -2.71479280e-07
2.87488092e-07 6.95909037e-08 -2.78552363e-07
6.03695725e-08 1.14656984e-07 0.00000000e+00
0.00000000e+00 1.13680649e-07 0.00000000e+00
5.39695222e-08 1.11659368e-07 -2.39729872e-07
0.00000000e+00 1.10088536e-07 -2.47557949e-07
1.15603207e-07 1.22194493e-07 0.00000000e+00
1.03359419e-07 1.20580196e-07 -2.17437744e-07
1.62363051e-07 1.34954846e-07 0.00000000e+00
1.38575118e-07 1.19413642e-07 -1.77179061e-07
1.88733139e-07 1.49885807e-07 0.00000000e+00
1.84824074e-07 9.11421267e-08 -1.66575120e-07
2.12202465e-07 1.55339634e-07 0.00000000e+00
2.23375650e-07 9.88509896e-08 -1.72615060e-07
2.42998198e-07 1.78337089e-07 0.00000000e+00
2.56995349e-07 1.15990638e-07 -1.78443059e-07
6.99758544e-08 1.49105986e-07 0.00000000e+00
0.00000000e+00 1.51281554e-07 0.00000000e+00
6.15417974e-08 1.50033898e-07 -2.18749051e-07
0.00000000e+00 1.52532010e-07 -2.34921771e-07
1.33981302e-07 1.48008269e-07 0.00000000e+00
1.24747558e-07 1.46878264e-07 -1.69177852e-07
1.82633599e-07 1.49639945e-07 0.00000000e+00
1.62250473e-07 1.41137178e-07 -7.08897900e-08
2.00022427e-07 1.72164704e-07 0.00000000e+00
1.65998941e-07 9.75132011e-08 4.83194995e-08
1.97496675e-07 1.71065338e-07 0.00000000e+00
2.02718709e-07 1.01314654e-07 3.65575161e-08
2.01702122e-07 1.83910132e-07 0.00000000e+00
2.16543668e-07 1.41660365e-07 1.06294946e-08
7.34130552e-08 1.72128281e-07 0.00000000e+00
0.00000000e+00 1.80055693e-07 0.00000000e+00
6.69211175e-08 1.76305576e-07 -2.12351480e-07
0.00000000e+00 1.82052446e-07 -2.25702919e-07
1.40170258e-07 1.58752002e-07 0.00000000e+00
1.27116834e-07 1.53685605e-07 -1.61528590e-07
1.89711642e-07 1.45747009e-07 0.00000000e+00
1.56084695e-07 1.39104003e-07 -7.26381941e-08
1.93681984e-07 1.37259562e-07 0.00000000e+00
1.64038610e-07 1.52650188e-07 1.81860393e-08
1.78190561e-07 1.41705073e-07 0.00000000e+00
1.82744529e-07 1.35801315e-07 0.00000000e+00
1.82531153e-07 1.49940448e-07 3.41453887e-09
1.83065112e-07 1.43515564e-07 6.80983092e-09
7.38203525e-08 1.97857617e-07 0.00000000e+00
0.00000000e+00 2.08238760e-07 0.00000000e+00
6.48178755e-08 2.02919040e-07 -2.23199521e-07
0.00000000e+00 2.12987260e-07 -2.32060742e-07
1.43254795e-07 1.74192095e-07 0.00000000e+00
1.21927513e-07 1.76489351e-07 -2.00629231e-07
1.96732572e-07 1.53154133e-07 0.00000000e+00
1.54693922e-07 1.60968966e-07 -1.12374622e-07
2.02298168e-07 1.45748260e-07 0.00000000e+00
1.70499078e-07 1.48067869e-07 1.26709541e-08
1.76814694e-07 1.39578404e-07 0.00000000e+00
1.89548615e-07 1.41621911e-07 3.79678466e-09
1.82991229e-07 1.33721784e-07 0.00000000e+00
1.89475713e-07 1.37894105e-07 -8.50398418e-09
8.15192820e-08 2.34603874e-07 0.00000000e+00
0.00000000e+00 2.43554524e-07 0.00000000e+00
7.49031699e-08 2.38458313e-07 -2.43266413e-07
0.00000000e+00 2.54804888e-07 -2.46047961e-07
1.62740548e-07 2.05179049e-07 0.00000000e+00
1.33159261e-07 2.15483212e-07 -2.37464903e-07
2.19484164e-07 1.71879933e-07 0.00000000e+00
1.69972580e-07 1.86380419e-07 -1.41673624e-07
2.15152895e-07 1.52312211e-07 0.00000000e+00
1.83433286e-07 1.57182413e-07 1.53978661e-08
1.88050478e-07 1.36074917e-07 0.00000000e+00
1.97847683e-07 1.44038353e-07 -2.97448910e-09
1.85793880e-07 1.34909968e-07 0.00000000e+00
1.98678734e-07 1.35423775e-07 -1.76827104e-08
0.00000000e+00 0.00000000e+00 -5.08944197e-07
3.88622290e-08 0.00000000e+00 -5.13076770e-07
3.64383048e-08 4.76241091e-08 -5.06838148e-07
0.00000000e+00 5.17430401e-08 -5.02904243e-07
8.57810178e-08 0.00000000e+00 -5.13633097e-07
7.88072754e-08 3.48041453e-08 -5.21540642e-07
1.37826888e-07 0.00000000e+00 -5.25633482e-07
1.36935455e-07 2.93081008e-08 -5.27699797e-07
1.93612337e-07 0.00000000e+00 -5.31514502e-07
1.92511820e-07 3.32067707e-08 -5.11129713e-07
2.49479598e-07 0.00000000e+00 -5.31435035e-07
2.46818644e-07 3.64703574e-08 -5.12639701e-07
2.99302229e-07 0.00000000e+00 -5.34375488e-07
3.06169198e-07 3.84088672e-08 -5.20308788e-07
2.55902606e-08 1.00833674e-07 -4.93168841e-07
0.00000000e+00 1.07367832e-07 -4.82400253e-07
6.92095057e-08 7.94274442e-08 -4.45910871e-07
1.19211279e-07 6.50684058e-08 -4.25783810e-07
1.85931725e-07 9.17880456e-08 -5.08626272e-07
2.43358301e-07 9.01172541e-08 -4.93526443e-07
2.99089891e-07 9.57051896e-08 -5.07513676e-07
3.20995852e-08 1.56785049e-07 -4.56571570e-07
0.00000000e+00 1.54227010e-07 -4.52756865e-07
4.93658909e-08 1.42243181e-07 -3.26898373e-07
3.02592902e-08 8.07444280e-08 -3.19679572e-08
5.00331332e-08 1.89960005e-07 -4.19278933e-07
0.00000000e+00 1.90705066e-07 -4.45524847e-07
8.68013927e-08 1.73035119e-07 -3.14099452e-07
1.16745632e-07 1.33885280e-07 -1.72773994e-07
4.65859955e-08 2.17633939e-07 -4.46716939e-07
0.00000000e+00 2.26135057e-07 -4.64916212e-07
8.54978950e-08 1.99720262e-07 -3.89377277e-07
1.27628439e-07 1.82881948e-07 -3.37441747e-07
4.13060199e-08 2.68856695e-07 -4.90824391e-07
0.00000000e+00 2.69689906e-07 -4.84466568e-07
8.04463980e-08 2.56607933e-07 -4.76519261e-07
1.23130775e-07 2.44915469e-07 -4.40438583e-07
2.06853798e-07 1.53149131e-07 -1.66101377e-09
2.05855500e-07 1.45793265e-07 -1.14912009e-08
2.12918962e-07 1.48417740e-07 -1.69277197e-08
2.09624872e-07 1.51601157e-07 -1.09528582e-08
0.00000000e+00 0.00000000e+00 -7.58488966e-07
4.23590336e-08 0.00000000e+00 -7.62780473e-07
3.73423106e-08 4.60191316e-08 -7.55151120e-07
0.00000000e+00 5.00679000e-08 -7.53084805e-07
8.93461163e-08 0.00000000e+00 -7.72714600e-07
8.05407723e-08 3.15358228e-08 -7.56740576e-07
1.39176848e-07 0.00000000e+00 -7.74780915e-07
1.38563408e-07 2.33054163e-08 -7.70131749e-07
1.97118766e-07 0.00000000e+00 -7.75734577e-07
1.97285473e-07 2.89529556e-08 -7.90317870e-07
2.53105156e-07 0.00000000e+00 -7.80582411e-07
2.53144833e-07 4.04280911e-08 -7.83443454e-07
3.08244182e-07 0.00000000e+00 -7.81218205e-07
3.05506092e-07 4.07285974e-08 -7.81695064e-07
1.83383619e-08 8.83409115e-08 -7.28050850e-07
0.00000000e+00 1.07069809e-07 -7.23520884e-07
5.43253762e-08 7.32058538e-08 -8.14891962e-07
1.09132131e-07 5.90324412e-08 -8.62058016e-07
1.94832680e-07 8.84259705e-08 -7.79708216e-07
2.52597658e-07 8.68743868e-08 -7.90278136e-07
3.05003795e-07 8.99347157e-08 -7.78039293e-07
1.66893006e-08 1.49170560e-07 -6.37508549e-07
0.00000000e+00 1.58066555e-07 -6.99520115e-07
2.51928967e-08 9.52879589e-08 -7.31070827e-07
2.21133227e-08 2.02245559e-07 -6.10306131e-07
0.00000000e+00 2.12296840e-07 -6.74009300e-07
5.19355119e-08 2.12520362e-07 -4.22636674e-07
2.82811623e-08 2.56378200e-07 -6.77188211e-07
0.00000000e+00 2.48478102e-07 -6.81479776e-07
4.42777370e-08 2.76849391e-07 -6.29606689e-07
4.70429669e-08 3.47077844e-07 -1.46985059e-07
6.29292600e-08 3.09149414e-07 -5.51435676e-07
1.89443430e-08 2.97094374e-07 -7.19865170e-07
0.00000000e+00 2.94576097e-07 -7.37190248e-07
</DataArray>
<DataArray type="Float32" Name="Spatial_velocity" NumberOfComponents="3" format="ascii">
0.00000000e+00 0.00000000e+00 0.00000000e+00
1.26703378e-06 0.00000000e+00 0.00000000e+00
1.37422069e-06 1.67874691e-06 0.00000000e+00
0.00000000e+00 1.60265188e-06 0.00000000e+00
0.00000000e+00 0.00000000e+00 -6.78018569e-06
1.18403932e-06 0.00000000e+00 -6.83527423e-06
1.23701523e-06 1.55528414e-06 -6.73766635e-06
0.00000000e+00 1.52797611e-06 -6.71331463e-06
2.50820494e-06 0.00000000e+00 0.00000000e+00
2.66537972e-06 1.86689363e-06 0.00000000e+00
2.41193015e-06 0.00000000e+00 -6.99034945e-06
2.48385891e-06 1.61744299e-06 -6.71398493e-06
3.73509283e-06 0.00000000e+00 0.00000000e+00
3.83803899e-06 2.02335514e-06 0.00000000e+00
3.73397029e-06 0.00000000e+00 -7.04798276e-06
3.70107864e-06 1.58907847e-06 -6.82626296e-06
5.01897739e-06 0.00000000e+00 0.00000000e+00
4.99265343e-06 2.01352395e-06 0.00000000e+00
5.08334369e-06 0.00000000e+00 -6.97327960e-06
4.96598386e-06 1.49788843e-06 -7.01322051e-06
6.34801700e-06 0.00000000e+00 0.00000000e+00
6.20133414e-06 2.07062294e-06 0.00000000e+00
6.42941768e-06 0.00000000e+00 -6.99983048e-06
6.32840920e-06 1.49337041e-06 -7.04988679e-06
7.74928139e-06 0.00000000e+00 0.00000000e+00
7.34053037e-06 2.45065917e-06 0.00000000e+00
7.74265663e-06 0.00000000e+00 -7.11269649e-06
7.66026551e-06 1.77777360e-06 -7.29208205e-06
1.62709227e-06 3.06275615e-06 0.00000000e+00
0.00000000e+00 2.98126815e-06 0.00000000e+00
1.44679848e-06 2.97173597e-06 -6.30384466e-06
0.00000000e+00 2.92183790e-06 -6.51980145e-06
3.13571672e-06 3.26748795e-06 0.00000000e+00
2.77259142e-06 3.20265394e-06 -5.70686097e-06
4.35330412e-06 3.58355078e-06 0.00000000e+00
3.73960347e-06 3.16129581e-06 -4.62011758e-06
5.07498999e-06 3.97182066e-06 0.00000000e+00
4.94082633e-06 2.40759391e-06 -4.36377104e-06
5.71634564e-06 4.09712356e-06 0.00000000e+00
5.96481004e-06 2.58036539e-06 -4.50080006e-06
6.45176033e-06 4.69331735e-06 0.00000000e+00
6.88376531e-06 3.05646176e-06 -4.65715220e-06
1.89882394e-06 3.98770680e-06 0.00000000e+00
0.00000000e+00 3.98565362e-06 0.00000000e+00
1.65914651e-06 3.98060092e-06 -5.77241144e-06
0.00000000e+00 4.04390494e-06 -6.18812146e-06
3.59784235e-06 3.98347947e-06 0.00000000e+00
3.33316302e-06 3.89489696e-06 -4.43820818e-06
4.93034713e-06 4.00493718e-06 0.00000000e+00
4.35629136e-06 3.77906031e-06 -1.86133218e-06
5.37647338e-06 4.51881988e-06 0.00000000e+00
4.51825508e-06 2.63266065e-06 1.23970187e-06
5.32553713e-06 4.56009957e-06 0.00000000e+00
5.47659511e-06 2.69502175e-06 9.62717309e-07
5.42081079e-06 4.85616283e-06 0.00000000e+00
5.83424207e-06 3.82665303e-06 2.71083934e-07
1.98036992e-06 4.55704912e-06 0.00000000e+00
0.00000000e+00 4.73479759e-06 0.00000000e+00
1.76696028e-06 4.69347560e-06 -5.59573436e-06
0.00000000e+00 4.83583153e-06 -5.95808297e-06
3.78775462e-06 4.24268319e-06 0.00000000e+00
3.41104555e-06 4.11996507e-06 -4.30226464e-06
5.16207410e-06 3.91107915e-06 0.00000000e+00
4.19618800e-06 3.74302317e-06 -1.93384722e-06
5.23946437e-06 3.75747368e-06 0.00000000e+00
4.48769515e-06 4.10546863e-06 4.67176960e-07
4.80751487e-06 3.84104851e-06 0.00000000e+00
4.96549455e-06 3.74531487e-06 0.00000000e+00
4.98573081e-06 4.09346558e-06 1.34203022e-08
4.99370162e-06 3.92681204e-06 1.72940588e-07
1.92783000e-06 5.23924928e-06 0.00000000e+00
0.00000000e+00 5.51946960e-06 0.00000000e+00
1.75223295e-06 5.39253415e-06 -5.89240290e-06
0.00000000e+00 5.62190735e-06 -6.14658984e-06
3.81837708e-06 4.64335426e-06 0.00000000e+00
3.25063365e-06 4.72797456e-06 -5.30950047e-06
5.26026042e-06 4.16393004e-06 0.00000000e+00
4.15485647e-06 4.32120942e-06 -2.94837901e-06
5.38756103e-06 3.96864016e-06 0.00000000e+00
4.61369609e-06 4.04838102e-06 3.08057935e-07
4.84403699e-06 3.87897717e-06 0.00000000e+00
5.02263765e-06 3.88904346e-06 4.56433007e-08
4.98453755e-06 3.79603375e-06 0.00000000e+00
5.00557553e-06 3.78828736e-06 -7.99516755e-08
2.15471437e-06 6.25315806e-06 0.00000000e+00
0.00000000e+00 6.47733759e-06 0.00000000e+00
1.94129757e-06 6.33453419e-06 -6.39334667e-06
0.00000000e+00 6.68750363e-06 -6.52731387e-06
4.23638221e-06 5.49995457e-06 0.00000000e+00
3.48282902e-06 5.73779653e-06 -6.20999435e-06
5.78020035e-06 4.62859816e-06 0.00000000e+00
4.48769060e-06 5.04765376e-06 -3.75189120e-06
5.76863476e-06 4.18246191e-06 0.00000000e+00
4.84582279e-06 4.28084604e-06 3.81308013e-07
5.06316746e-06 3.79632866e-06 0.00000000e+00
5.21179982e-06 3.87744922e-06 5.26465946e-08
5.04122318e-06 3.79687026e-06 0.00000000e+00
5.14088015e-06 3.74615183e-06 -5.09016544e-08
0.00000000e+00 0.00000000e+00 -1.34090551e-05
1.07863798e-06 0.00000000e+00 -1.34759048e-05
9.75502644e-07 1.26306304e-06 -1.33296189e-05
0.00000000e+00 1.39146653e-06 -1.32799842e-05
2.32729349e-06 0.00000000e+00 -1.35415994e-05
2.09423911e-06 9.19749823e-07 -1.37291063e-05
3.65723804e-06 0.00000000e+00 -1.37034594e-05
3.64276048e-06 7.67686856e-07 -1.38517807e-05
5.15600004e-06 0.00000000e+00 -1.39438362e-05
5.11004237e-06 8.60513182e-07 -1.33887061e-05
6.63293531e-06 0.00000000e+00 -1.39339054e-05
6.54754422e-06 9.67190317e-07 -1.34607608e-05
7.93676645e-06 0.00000000e+00 -1.40775428e-05
8.08198456e-06 1.02928129e-06 -1.36224162e-05
6.96543452e-07 2.65866447e-06 -1.30120607e-05
0.00000000e+00 2.86284103e-06 -1.27176299e-05
1.85322824e-06 2.11201154e-06 -1.17499058e-05
3.17606509e-06 1.73005446e-06 -1.11849940e-05
4.95115864e-06 2.36865935e-06 -1.33655712e-05
6.44666807e-06 2.34434083e-06 -1.29774207e-05
7.94577409e-06 2.51673919e-06 -1.33000149e-05
8.69935263e-07 4.19157368e-06 -1.20386467e-05
0.00000000e+00 4.09353106e-06 -1.19221131e-05
1.32211369e-06 3.81287532e-06 -8.61541594e-06
8.22993741e-07 2.18247646e-06 -8.43635746e-07
1.31852471e-06 5.02711600e-06 -1.10702586e-05
0.00000000e+00 5.05600337e-06 -1.17395148e-05
2.32752768e-06 4.61248010e-06 -8.33627291e-06
3.05103003e-06 3.62007336e-06 -4.56055795e-06
1.24325084e-06 5.77188257e-06 -1.17554573e-05
0.00000000e+00 6.01349893e-06 -1.22197816e-05
2.25534131e-06 5.31512023e-06 -1.02638387e-05
3.40337760e-06 4.91341370e-06 -8.89359308e-06
1.11869042e-06 7.11061557e-06 -1.29519885e-05
0.00000000e+00 7.09727237e-06 -1.28439506e-05
2.18725040e-06 6.82593145e-06 -1.25531951e-05
3.26587860e-06 6.45674299e-06 -1.15890471e-05
5.13737359e-06 3.87389082e-06 4.97863546e-08
5.15012107e-06 3.72757745e-06 -7.23793576e-08
5.28860119e-06 3.74498040e-06 -5.15624663e-08
5.26581016e-06 3.88579519e-06 5.81722759e-08
0.00000000e+00 0.00000000e+00 -1.99930491e-05
1.11110353e-06 0.00000000e+00 -2.00556715e-05
9.98225460e-07 1.23736083e-06 -1.98653051e-05
0.00000000e+00 1.34400784e-06 -1.97443842e-05
2.39185670e-06 0.00000000e+00 -2.02864994e-05
2.12034206e-06 8.30664192e-07 -1.99167625e-05
3.74255364e-06 0.00000000e+00 -2.03976797e-05
3.69400573e-06 6.00668557e-07 -2.02673655e-05
5.24526286e-06 0.00000000e+00 -2.03505515e-05
5.23563767e-06 7.68956340e-07 -2.07886824e-05
6.74324428e-06 0.00000000e+00 -2.04859753e-05
6.73371460e-06 1.03971865e-06 -2.05399665e-05
8.23907703e-06 0.00000000e+00 -2.05400120e-05
8.13671977e-06 1.13029830e-06 -2.05330725e-05
4.75350134e-07 2.38383382e-06 -1.91762992e-05
0.00000000e+00 2.85351393e-06 -1.90298651e-05
1.44250487e-06 1.90286323e-06 -2.14824795e-05
2.92313985e-06 1.51289885e-06 -2.26968914e-05
5.19022842e-06 2.32100479e-06 -2.04918379e-05
6.66952656e-06 2.33393439e-06 -2.07379908e-05
8.03473995e-06 2.45100546e-06 -2.04897624e-05
4.69757055e-07 3.98921611e-06 -1.68189035e-05
0.00000000e+00 4.24745349e-06 -1.84587898e-05
7.41685824e-07 2.47435264e-06 -1.93341712e-05
5.91572928e-07 5.39897155e-06 -1.60842646e-05
0.00000000e+00 5.65179334e-06 -1.77573183e-05
1.39807571e-06 5.64914808e-06 -1.11564050e-05
7.42032512e-07 6.81622168e-06 -1.78495866e-05
0.00000000e+00 6.57748933e-06 -1.79668932e-05
1.15115665e-06 7.34491687e-06 -1.66269128e-05
1.19936101e-06 9.19927243e-06 -3.99466353e-06
1.62066897e-06 8.12049075e-06 -1.44725418e-05
4.72499238e-07 7.88417856e-06 -1.89239745e-05
0.00000000e+00 7.85345765e-06 -1.93933174e-05
</DataArray>
<DataArray type="Float32" Name="Reaction_force" NumberOfComponents="3" format="ascii">
6.78036129e-03 -5.64705059e-02 1.44619751e+00
0.00000000e+00 -1.31892830e-01 2.90077925e+00
0.00000000e+00 0.00000000e+00 5.64123535e+00
-2.67469585e-02 0.00000000e+00 2.84534383e+00
5.07059209e-02 -7.23002702e-02 0.00000000e+00
0.00000000e+00 -1.29065275e-01 0.00000000e+00
0.00000000e+00 0.00000000e+00 0.00000000e+00
7.03569725e-02 0.00000000e+00 0.00000000e+00
0.00000000e+00 -1.67087644e-01 2.92367959e+00
0.00000000e+00 0.00000000e+00 5.51707554e+00
0.00000000e+00 -8.68808180e-02 0.00000000e+00
0.00000000e+00 0.00000000e+00 0.00000000e+00
0.00000000e+00 -1.68965787e-01 2.96351337e+00
0.00000000e+00 0.00000000e+00 5.40107155e+00
0.00000000e+00 -7.70858377e-02 0.00000000e+00
0.00000000e+00 0.00000000e+00 0.00000000e+00
0.00000000e+00 -1.49332181e-01 2.99925995e+00
0.00000000e+00 0.00000000e+00 5.41237068e+00
0.00000000e+00 -1.26521796e-01 0.00000000e+00
0.00000000e+00 0.00000000e+00 0.00000000e+00
0.00000000e+00 -1.72469988e-01 3.03126240e+00
0.00000000e+00 0.00000000e+00 5.49330282e+00
0.00000000e+00 -2.16517240e-01 0.00000000e+00
0.00000000e+00 0.00000000e+00 0.00000000e+00
0.00000000e+00 -1.21989973e-01 1.54035521e+00
0.00000000e+00 0.00000000e+00 2.81998873e+00
0.00000000e+00 -1.49709553e-01 0.00000000e+00
0.00000000e+00 0.00000000e+00 0.00000000e+00
0.00000000e+00 0.00000000e+00 5.24194145e+00
-1.29352674e-01 0.00000000e+00 2.71480370e+00
0.00000000e+00 0.00000000e+00 0.00000000e+00
-2.41263825e-02 0.00000000e+00 0.00000000e+00
0.00000000e+00 0.00000000e+00 4.66819191e+00
0.00000000e+00 0.00000000e+00 0.00000000e+00
0.00000000e+00 0.00000000e+00 3.85412169e+00
0.00000000e+00 0.00000000e+00 0.00000000e+00
0.00000000e+00 0.00000000e+00 3.24709249e+00
0.00000000e+00 0.00000000e+00 0.00000000e+00
0.00000000e+00 0.00000000e+00 3.18916345e+00
0.00000000e+00 0.00000000e+00 0.00000000e+00
0.00000000e+00 0.00000000e+00 1.71678925e+00
0.00000000e+00 0.00000000e+00 0.00000000e+00
0.00000000e+00 0.00000000e+00 4.81824589e+00
-2.27890447e-01 0.00000000e+00 2.57073784e+00
0.00000000e+00 0.00000000e+00 0.00000000e+00
-2.01781556e-01 0.00000000e+00 0.00000000e+00
0.00000000e+00 0.00000000e+00 3.84060884e+00
0.00000000e+00 0.00000000e+00 0.00000000e+00
0.00000000e+00 0.00000000e+00 2.19989276e+00
0.00000000e+00 0.00000000e+00 0.00000000e+00
0.00000000e+00 0.00000000e+00 7.94839621e-01
0.00000000e+00 0.00000000e+00 0.00000000e+00
0.00000000e+00 0.00000000e+00 4.95234072e-01
0.00000000e+00 0.00000000e+00 0.00000000e+00
0.00000000e+00 0.00000000e+00 3.33002567e-01
0.00000000e+00 0.00000000e+00 0.00000000e+00
0.00000000e+00 0.00000000e+00 4.69995689e+00
-2.72195071e-01 0.00000000e+00 2.51088619e+00
0.00000000e+00 0.00000000e+00 0.00000000e+00
-3.68278116e-01 0.00000000e+00 0.00000000e+00
0.00000000e+00 0.00000000e+00 3.66460609e+00
0.00000000e+00 0.00000000e+00 0.00000000e+00
0.00000000e+00 0.00000000e+00 1.74037373e+00
0.00000000e+00 0.00000000e+00 0.00000000e+00
0.00000000e+00 0.00000000e+00 1.03440002e-01
0.00000000e+00 0.00000000e+00 0.00000000e+00
0.00000000e+00 0.00000000e+00 -1.41906112e-01
0.00000000e+00 0.00000000e+00 -2.87375569e-01
0.00000000e+00 0.00000000e+00 0.00000000e+00
0.00000000e+00 0.00000000e+00 0.00000000e+00
0.00000000e+00 0.00000000e+00 4.96759129e+00
-2.99577147e-01 0.00000000e+00 2.56667519e+00
0.00000000e+00 0.00000000e+00 0.00000000e+00
-4.24423248e-01 0.00000000e+00 0.00000000e+00
0.00000000e+00 0.00000000e+00 4.11912823e+00
0.00000000e+00 0.00000000e+00 0.00000000e+00
0.00000000e+00 0.00000000e+00 2.23304367e+00
0.00000000e+00 0.00000000e+00 0.00000000e+00
0.00000000e+00 0.00000000e+00 3.83715898e-01
0.00000000e+00 0.00000000e+00 0.00000000e+00
0.00000000e+00 0.00000000e+00 -1.77149788e-01
0.00000000e+00 0.00000000e+00 0.00000000e+00
0.00000000e+00 0.00000000e+00 2.39913948e-02
0.00000000e+00 0.00000000e+00 0.00000000e+00
0.00000000e+00 0.00000000e+00 2.60854244e+00
-1.81673259e-01 0.00000000e+00 1.32721674e+00
0.00000000e+00 0.00000000e+00 0.00000000e+00
-2.57814616e-01 0.00000000e+00 0.00000000e+00
0.00000000e+00 0.00000000e+00 2.26178670e+00
0.00000000e+00 0.00000000e+00 0.00000000e+00
0.00000000e+00 0.00000000e+00 1.30356050e+00
0.00000000e+00 0.00000000e+00 0.00000000e+00
0.00000000e+00 0.00000000e+00 2.72221178e-01
0.00000000e+00 0.00000000e+00 0.00000000e+00
0.00000000e+00 0.00000000e+00 -8.37568194e-02
0.00000000e+00 0.00000000e+00 0.00000000e+00
0.00000000e+00 0.00000000e+00 1.09277125e-02
0.00000000e+00 0.00000000e+00 0.00000000e+00
1.14032805e-01 2.04383582e-03 0.00000000e+00
0.00000000e+00 7.82652497e-02 0.00000000e+00
0.00000000e+00 0.00000000e+00 0.00000000e+00
2.85749435e-01 0.00000000e+00 0.00000000e+00
0.00000000e+00 1.98983967e-01 0.00000000e+00
0.00000000e+00 0.00000000e+00 0.00000000e+00
0.00000000e+00 3.05830061e-01 0.00000000e+00
0.00000000e+00 0.00000000e+00 0.00000000e+00
0.00000000e+00 3.20957422e-01 0.00000000e+00
0.00000000e+00 0.00000000e+00 0.00000000e+00
0.00000000e+00 1.83927476e-01 0.00000000e+00
0.00000000e+00 0.00000000e+00 0.00000000e+00
0.00000000e+00 6.01375923e-02 0.00000000e+00
0.00000000e+00 0.00000000e+00 0.00000000e+00
0.00000000e+00 0.00000000e+00 0.00000000e+00
2.68249899e-01 0.00000000e+00 0.00000000e+00
0.00000000e+00 0.00000000e+00 0.00000000e+00
0.00000000e+00 0.00000000e+00 0.00000000e+00
0.00000000e+00 0.00000000e+00 0.00000000e+00
0.00000000e+00 0.00000000e+00 0.00000000e+00
0.00000000e+00 0.00000000e+00 0.00000000e+00
0.00000000e+00 0.00000000e+00 0.00000000e+00
6.82944655e-02 0.00000000e+00 0.00000000e+00
0.00000000e+00 0.00000000e+00 0.00000000e+00
0.00000000e+00 0.00000000e+00 0.00000000e+00
0.00000000e+00 0.00000000e+00 0.00000000e+00
-3.99439372e-02 0.00000000e+00 0.00000000e+00
0.00000000e+00 0.00000000e+00 0.00000000e+00
0.00000000e+00 0.00000000e+00 0.00000000e+00
0.00000000e+00 0.00000000e+00 0.00000000e+00
-1.03463531e-02 0.00000000e+00 0.00000000e+00
0.00000000e+00 0.00000000e+00 0.00000000e+00
0.00000000e+00 0.00000000e+00 0.00000000e+00
0.00000000e+00 0.00000000e+00 0.00000000e+00
-1.30349025e-02 0.00000000e+00 0.00000000e+00
0.00000000e+00 0.00000000e+00 0.00000000e+00
0.00000000e+00 0.00000000e+00 0.00000000e+00
0.00000000e+00 0.00000000e+00 0.00000000e+00
0.00000000e+00 0.00000000e+00 0.00000000e+00
0.00000000e+00 0.00000000e+00 0.00000000e+00
0.00000000e+00 0.00000000e+00 0.00000000e+00
1.11729041e-01 4.66409363e-02 0.00000000e+00
0.00000000e+00 1.78402066e-01 0.00000000e+00
0.00000000e+00 0.00000000e+00 0.00000000e+00
3.05881441e-01 0.00000000e+00 0.00000000e+00
0.00000000e+00 3.09339166e-01 0.00000000e+00
0.00000000e+00 0.00000000e+00 0.00000000e+00
0.00000000e+00 4.20442998e-01 0.00000000e+00
0.00000000e+00 0.00000000e+00 0.00000000e+00
0.00000000e+00 4.77919966e-01 0.00000000e+00
0.00000000e+00 0.00000000e+00 0.00000000e+00
0.00000000e+00 4.16364074e-01 0.00000000e+00
0.00000000e+00 0.00000000e+00 0.00000000e+00
0.00000000e+00 1.78380132e-01 0.00000000e+00
0.00000000e+00 0.00000000e+00 0.00000000e+00
0.00000000e+00 0.00000000e+00 0.00000000e+00
4.12571847e-01 0.00000000e+00 0.00000000e+00
0.00000000e+00 0.00000000e+00 0.00000000e+00
0.00000000e+00 0.00000000e+00 0.00000000e+00
0.00000000e+00 0.00000000e+00 0.00000000e+00
0.00000000e+00 0.00000000e+00 0.00000000e+00
0.00000000e+00 0.00000000e+00 0.00000000e+00
0.00000000e+00 0.00000000e+00 0.00000000e+00
5.51699400e-01 0.00000000e+00 0.00000000e+00
0.00000000e+00 0.00000000e+00 0.00000000e+00
0.00000000e+00 0.00000000e+00 0.00000000e+00
3.89657974e-01 0.00000000e+00 0.00000000e+00
0.00000000e+00 0.00000000e+00 0.00000000e+00
0.00000000e+00 0.00000000e+00 0.00000000e+00
2.88953722e-01 0.00000000e+00 0.00000000e+00
0.00000000e+00 0.00000000e+00 0.00000000e+00
0.00000000e+00 0.00000000e+00 0.00000000e+00
0.00000000e+00 0.00000000e+00 0.00000000e+00
0.00000000e+00 0.00000000e+00 0.00000000e+00
1.97019190e-01 0.00000000e+00 0.00000000e+00
</DataArray>
<DataArray type="Float32" Name="Equivalent_plastic_strain" format="ascii">
0.00000000e+00
0.00000000e+00
0.00000000e+00
0.00000000e+00
0.00000000e+00
0.00000000e+00
0.00000000e+00
0.00000000e+00
0.00000000e+00
0.00000000e+00
0.00000000e+00
0.00000000e+00
0.00000000e+00
0.00000000e+00
0.00000000e+00
0.00000000e+00
0.00000000e+00
0.00000000e+00
0.00000000e+00
0.00000000e+00
0.00000000e+00
0.00000000e+00
0.00000000e+00
0.00000000e+00
0.00000000e+00
0.00000000e+00
0.00000000e+00
0.00000000e+00
0.00000000e+00
0.00000000e+00
0.00000000e+00
0.00000000e+00
0.00000000e+00
0.00000000e+00
0.00000000e+00
0.00000000e+00
0.00000000e+00
0.00000000e+00
0.00000000e+00
0.00000000e+00
0.00000000e+00
0.00000000e+00
0.00000000e+00
0.00000000e+00
0.00000000e+00
0.00000000e+00
0.00000000e+00
0.00000000e+00
0.00000000e+00
0.00000000e+00
0.00000000e+00
0.00000000e+00
0.00000000e+00
0.00000000e+00
0.00000000e+00
0.00000000e+00
0.00000000e+00
0.00000000e+00
0.00000000e+00
0.00000000e+00
0.00000000e+00
0.00000000e+00
0.00000000e+00
0.00000000e+00
0.00000000e+00
0.00000000e+00
0.00000000e+00
0.00000000e+00
0.00000000e+00
0.00000000e+00
0.00000000e+00
0.00000000e+00
0.00000000e+00
0.00000000e+00
0.00000000e+00
0.00000000e+00
0.00000000e+00
0.00000000e+00
0.00000000e+00
0.00000000e+00
0.00000000e+00
0.00000000e+00
0.00000000e+00
0.00000000e+00
0.00000000e+00
0.00000000e+00
0.00000000e+00
0.00000000e+00
0.00000000e+00
0.00000000e+00
0.00000000e+00
0.00000000e+00
0.00000000e+00
0.00000000e+00
0.00000000e+00
0.00000000e+00
0.00000000e+00
0.00000000e+00
0.00000000e+00
0.00000000e+00
0.00000000e+00
0.00000000e+00
0.00000000e+00
0.00000000e+00
0.00000000e+00
0.00000000e+00
0.00000000e+00
0.00000000e+00
0.00000000e+00
0.00000000e+00
0.00000000e+00
0.00000000e+00
0.00000000e+00
0.00000000e+00
0.00000000e+00
0.00000000e+00
0.00000000e+00
0.00000000e+00
0.00000000e+00
0.00000000e+00
0.00000000e+00
0.00000000e+00
0.00000000e+00
0.00000000e+00
0.00000000e+00
0.00000000e+00
0.00000000e+00
0.00000000e+00
0.00000000e+00
0.00000000e+00
0.00000000e+00
0.00000000e+00
0.00000000e+00
0.00000000e+00
0.00000000e+00
0.00000000e+00
0.00000000e+00
0.00000000e+00
0.00000000e+00
0.00000000e+00
0.00000000e+00
0.00000000e+00
0.00000000e+00
0.00000000e+00
0.00000000e+00
0.00000000e+00
0.00000000e+00
0.00000000e+00
0.00000000e+00
0.00000000e+00
0.00000000e+00
0.00000000e+00
0.00000000e+00
0.00000000e+00
0.00000000e+00
0.00000000e+00
0.00000000e+00
0.00000000e+00
0.00000000e+00
0.00000000e+00
0.00000000e+00
0.00000000e+00
0.00000000e+00
0.00000000e+00
0.00000000e+00
0.00000000e+00
0.00000000e+00
0.00000000e+00
0.00000000e+00
0.00000000e+00
0.00000000e+00
0.00000000e+00
0.00000000e+00
</DataArray>
<DataArray type="Float32" Name="Stress_Mises" format="ascii">
5.86088610e+00
5.92556310e+00
5.83142340e+00
5.80941057e+00
5.75144506e+00
5.79443753e+00
5.73066032e+00
5.69822037e+00
6.10274482e+00
5.82704759e+00
5.86624718e+00
5.92138726e+00
6.21186233e+00
5.94749534e+00
5.93155432e+00
5.99325621e+00
6.17014718e+00
6.15727055e+00
5.98639643e+00
5.75355858e+00
6.23057413e+00
6.21064079e+00
5.97473097e+00
5.81411666e+00
6.48044586e+00
6.50383282e+00
6.12785888e+00
5.95663643e+00
5.48041642e+00
5.66160417e+00
5.57983381e+00
5.50345135e+00
4.96656072e+00
5.05372274e+00
4.07514691e+00
4.83874873e+00
3.97146183e+00
5.22542234e+00
4.05583239e+00
5.10162445e+00
4.20788527e+00
5.23048798e+00
5.07018256e+00
5.43886042e+00
5.24227822e+00
5.21271241e+00
3.94396198e+00
3.89230612e+00
1.88343111e+00
2.07196097e+00
1.59882220e+00
2.62238773e+00
1.40011640e+00
2.15602493e+00
9.73348081e-01
1.63503551e+00
4.95494211e+00
5.28226328e+00
4.87385941e+00
5.14023399e+00
3.84402406e+00
3.72355995e+00
1.85649297e+00
2.15063399e+00
7.36188253e-01
1.06999902e+00
5.26103467e-01
4.12844459e-01
3.64541605e-01
5.08780678e-01
5.23389637e+00
5.42202854e+00
5.09859478e+00
5.34122670e+00
4.67075384e+00
4.47656280e+00
2.64930481e+00
3.53312445e+00
6.30028494e-01
1.12042738e+00
3.15996978e-01
1.69590517e-01
1.47723094e-01
1.12363680e-01
5.72133088e+00
5.81280279e+00
5.61127245e+00
5.68122625e+00
5.44055057e+00
5.36060309e+00
3.26723397e+00
4.40405250e+00
7.72309214e-01
1.40433699e+00
3.54287110e-01
1.61789087e-01
8.02450255e-02
4.11742246e-02
5.59510994e+00
5.58071065e+00
5.54442126e+00
5.51570499e+00
5.53671885e+00
5.63290030e+00
5.55414677e+00
5.75014931e+00
5.63094187e+00
5.86829513e+00
5.66348219e+00
5.76739019e+00
5.62993932e+00
5.73000383e+00
5.49480981e+00
5.22690248e+00
6.51133387e+00
7.60395489e+00
6.93752968e+00
6.82644665e+00
6.71967959e+00
4.83414847e+00
5.09598410e+00
5.89778070e+00
5.47553277e+00
4.58496237e+00
5.04889619e+00
3.48020097e+00
3.23198283e+00
5.07581961e+00
5.03481424e+00
4.88931906e+00
5.22214568e+00
5.36102223e+00
5.37329865e+00
5.78635740e+00
6.94673967e+00
1.86334029e-02
2.60854857e-02
2.54491307e-02
3.16763194e-02
5.60778117e+00
5.58343232e+00
5.59569222e+00
5.60483921e+00
5.49464643e+00
5.66125029e+00
5.47342026e+00
5.72641206e+00
5.51841700e+00
5.96738285e+00
5.57691956e+00
5.98162258e+00
5.52921820e+00
5.86077130e+00
5.53253543e+00
5.32230818e+00
6.31530823e+00
8.39754877e+00
7.22790229e+00
6.27020383e+00
6.17871380e+00
5.70881755e+00
4.84293997e+00
9.57045174e+00
5.30577305e+00
4.72182596e+00
6.79173672e+00
4.65691447e+00
5.10250080e+00
5.48952096e+00
5.19275665e+00
7.70112721e+00
5.38317478e+00
5.39763117e+00
</DataArray>
<DataArray type="Float32" Name="Stress_Max_Principal" format="ascii">
2.13158995e-01
2.75767878e-01
2.88923219e-01
1.70877479e-01
1.45234935e-01
1.53706870e-01
1.61045083e-01
1.10188634e-01
4.14456367e-01
4.44281548e-01
1.58831807e-01
2.79348532e-01
4.85076860e-01
5.71452767e-01
1.40013910e-01
2.74824634e-01
4.38115388e-01
6.55252442e-01
1.50256060e-01
1.12627740e-01
4.75131795e-01
7.06554294e-01
1.78457595e-01
1.18789367e-01
7.09763408e-01
9.29619730e-01
3.45111951e-01
2.73500618e-01
3.72494187e-01
3.13194111e-01
2.76644618e-01
1.08425671e-01
4.74838369e-01
3.72865922e-01
5.26672147e-01
4.14966581e-01
6.75264113e-01
5.10832742e-01
6.76680341e-01
3.61176094e-01
7.77362555e-01
4.81839924e-01
5.23431733e-01
5.31913698e-01
4.32583561e-01
2.84502946e-01
4.55391783e-01
4.23615546e-01
3.08144918e-01
2.63286101e-01
6.71593000e-01
1.18993451e+00
6.54135883e-01
1.03541551e+00
3.77958864e-01
7.87938654e-01
6.06662914e-01
5.99445701e-01
4.60673034e-01
4.23966609e-01
5.47286004e-01
4.04148205e-01
3.15516714e-01
2.69604316e-01
3.78407260e-01
5.39972087e-01
3.17892760e-01
3.11165345e-01
2.73099829e-01
4.25609020e-01
6.09777719e-01
6.13540113e-01
4.46670618e-01
4.54177372e-01
6.46957293e-01
3.04231887e-01
4.08552162e-01
3.18696792e-01
2.02385607e-01
5.90115480e-01
2.02397611e-01
1.46519859e-01
7.89112598e-02
4.32096937e-02
7.53229767e-01
7.86469102e-01
5.60193934e-01
5.85195646e-01
7.99284041e-01
4.07391173e-01
5.44248864e-01
4.60034999e-01
2.23861795e-01
6.73171192e-01
1.98000196e-01
1.18688721e-01
1.48083651e-02
1.33779168e-02
1.53289977e-02
-6.32086124e-02
2.84463956e-02
4.99728289e-02
-1.26613560e-02
-3.44364652e-02
3.56417876e-02
-3.96503341e-02
4.96267062e-02
-8.27439334e-02
4.26050220e-02
-7.65601270e-02
2.47294344e-02
-5.88247404e-02
7.42701048e-02
9.31327082e-02
4.12453303e-01
8.65293470e-01
1.76843670e-01
1.08255785e-01
5.38981650e-02
-2.66186912e-02
1.88156003e-02
7.35974768e-01
2.11003089e+00
9.35097593e-02
9.82831139e-02
1.50324792e-01
4.46924100e-01
1.76485442e-01
3.88407453e-02
2.30026246e-01
3.40321444e-01
8.24136958e-02
1.32875517e-03
2.03696445e-01
5.60604274e-01
8.93616420e-03
1.31856473e-02
9.71958926e-03
1.68860145e-02
-5.16234599e-02
-1.11666070e-01
3.42374428e-02
2.82919423e-02
-3.05939196e-02
3.21255559e-02
2.87604723e-02
-2.49309415e-02
-2.72789691e-03
-3.96847106e-02
-3.79471076e-02
1.49124349e-02
-4.81133386e-02
-3.13210124e-02
8.22818195e-02
1.90530948e-01
2.09656477e-01
1.11897847e+00
3.19635013e-01
1.01644825e-02
6.92421570e-03
3.25586979e-01
1.14715099e-03
2.07976243e+00
1.31767522e-01
-7.17783850e-02
1.30067495e+00
-1.07470212e-01
-1.52209178e-02
2.53799788e-01
1.18542492e+00
9.56024915e-01
1.31279966e-01
1.06078740e-01
</DataArray>
<DataArray type="Float32" Name="Stress_Mid_Principal" format="ascii">
-2.61720363e-02
-3.68664023e-02
-1.13602541e-03
5.76236809e-02
-9.99783184e-02
-9.76045602e-02
-6.56562045e-02
-5.10480236e-02
-5.05324341e-02
-5.09228036e-02
-9.17507517e-02
-2.96980664e-02
-6.73026834e-02
-3.96195799e-04
-4.33682315e-02
-5.76606952e-04
-6.61574472e-02
7.36019760e-02
1.46303091e-02
-7.95045660e-02
-3.81517450e-02
5.15928064e-02
4.14438895e-02
-5.20234080e-02
-9.20456648e-02
2.19859555e-02
8.76559131e-03
-7.70847201e-02
-6.10416324e-02
-3.65358870e-03
-3.89556861e-02
-3.50333881e-02
-1.42331252e-01
-1.41576815e-01
-2.58816879e-01
-7.63187851e-02
-3.64057422e-02
1.26791558e-01
6.45818710e-02
1.90390995e-01
-4.19041514e-02
1.15707283e-01
-2.43463576e-01
-1.96359880e-01
-1.51553975e-01
-2.18710820e-01
-3.33330618e-01
-3.21620009e-01
-5.22011252e-01
-4.57826741e-01
-6.03482522e-01
-4.17431295e-01
-4.36979800e-01
-3.03114757e-01
-1.84018120e-01
-2.11516969e-01
-3.16576026e-01
-2.74880543e-01
-3.09533642e-01
-2.81033028e-01
-3.70251006e-01
-3.52165796e-01
-2.38747127e-01
-2.48291199e-01
-7.27002223e-02
-8.81224858e-02
1.51129728e-01
1.50883391e-01
7.86064770e-02
1.26064406e-02
-1.97675701e-01
-1.65610116e-01
-2.09278884e-01
-1.58987277e-01
-1.39347663e-01
-2.01729104e-01
-1.02988042e-01
8.21004808e-03
-2.31031403e-02
-2.36560006e-01
9.53803775e-02
1.35056870e-02
-4.54393234e-02
8.49632236e-04
-7.87840262e-02
-8.08756351e-02
-6.23002248e-02
-8.82830519e-02
3.96535620e-02
-1.01680215e-03
-2.43203938e-02
1.02676134e-01
-7.35256523e-02
-2.26206128e-01
8.88345819e-02
-5.61588180e-03
7.33997207e-03
-1.38835465e-02
-2.08328977e-01
-1.76252868e-01
-3.45599672e-01
-2.90555544e-01
-3.23617496e-01
-4.72314940e-01
-4.25409943e-01
-5.21597235e-01
-3.91687702e-01
-3.27622787e-01
-2.59947417e-01
-2.98066468e-01
-1.93742968e-01
-2.83285357e-01
-4.62282469e-01
-4.06932659e-01
-2.22812299e-01
-3.21620017e-02
-1.05202698e-01
-1.76666817e-03
2.85640582e-02
-4.34689090e-01
-1.71054551e-01
4.65707630e-02
-5.86939231e-01
-3.07392235e-01
-1.63719863e-01
-5.04836065e-01
-3.82951766e-01
-2.26524460e-01
-2.02800190e-01
-2.50185543e-01
-6.98094144e-02
-1.68499083e-01
-2.47909725e-02
-2.05502944e-01
6.53878534e-02
-4.59265240e-03
-4.41662071e-03
1.07760308e-03
-5.49712239e-03
-2.19488502e-01
-2.15474475e-01
-3.97477055e-01
-2.92461202e-01
-4.24201354e-01
-6.26001656e-01
-5.61016537e-01
-6.91812072e-01
-5.19338839e-01
-3.80978700e-01
-3.63840155e-01
-2.17097634e-01
-3.19401324e-01
-1.57545149e-01
-7.53701214e-01
-5.94178893e-01
-6.27454280e-01
-1.56394547e-01
-1.06947604e-01
-8.98881331e-02
-2.78349323e-02
-7.45187118e-01
-6.11375723e-01
-1.60666421e-01
-2.92062072e-01
-4.55773219e-01
-2.72806168e-01
-6.33442754e-01
-3.38699216e-01
-6.96867513e-01
-3.98326516e-02
-1.34946927e-01
-5.25610767e-01
-4.66067538e-01
</DataArray>
<DataArray type="Float32" Name="Stress_Min_Principal" format="ascii">
-5.76372671e+00
-5.79991817e+00
-5.68197703e+00
-5.69411659e+00
-5.72489452e+00
-5.76228046e+00
-5.67959625e+00
-5.66679561e+00
-5.90748048e+00
-5.61452222e+00
-5.82861841e+00
-5.79046184e+00
-5.98450112e+00
-5.64107418e+00
-5.88109756e+00
-5.85135329e+00
-5.96867704e+00
-5.77216685e+00
-5.90280092e+00
-5.73449427e+00
-5.99616456e+00
-5.80557406e+00
-5.86359549e+00
-5.77859038e+00
-6.13427734e+00
-5.98031306e+00
-5.94399261e+00
-5.85066032e+00
-5.31076610e+00
-5.49898767e+00
-5.45382798e+00
-5.46477985e+00
-4.77058768e+00
-4.91722804e+00
-3.88288277e+00
-4.64965657e+00
-3.59718162e+00
-4.88975906e+00
-3.63694477e+00
-4.82343475e+00
-3.77324307e+00
-4.92138545e+00
-4.88510644e+00
-5.23374271e+00
-5.07636553e+00
-5.16044760e+00
-3.82054007e+00
-3.78327885e+00
-1.84524617e+00
-2.06094068e+00
-1.08257043e+00
-1.78696207e+00
-8.90872141e-01
-1.40601623e+00
-7.16178566e-01
-1.09865877e+00
-4.74471796e+00
-5.06541634e+00
-4.75236952e+00
-5.03237212e+00
-3.67062104e+00
-3.63418651e+00
-1.72679192e+00
-2.08266878e+00
-4.67582136e-01
-6.13723293e-01
-2.49714829e-01
-1.56857726e-01
-1.32399522e-01
-1.33023403e-01
-4.97926235e+00
-5.15563154e+00
-4.94724387e+00
-5.16644692e+00
-4.36180437e+00
-4.39887181e+00
-2.44621736e+00
-3.35628736e+00
-5.01042336e-01
-6.75315116e-01
-1.44367917e-01
-4.15889661e-02
-8.26791860e-02
-8.40163641e-02
-5.33852816e+00
-5.41126966e+00
-5.33577597e+00
-5.40274620e+00
-4.97971940e+00
-5.14548957e+00
-2.96265960e+00
-4.11037350e+00
-6.45983726e-01
-9.42611560e-01
-1.92667861e-01
-5.74471094e-02
-6.89097792e-02
-3.36035425e-02
-5.68825626e+00
-5.69948053e+00
-5.69306630e+00
-5.62804973e+00
-5.69826710e+00
-5.87318164e+00
-5.73443246e+00
-6.01500785e+00
-5.78896713e+00
-6.06742185e+00
-5.76585841e+00
-5.94999593e+00
-5.71126199e+00
-5.89600086e+00
-5.66826701e+00
-5.36544037e+00
-6.39037132e+00
-7.13269587e+00
-6.89619493e+00
-6.77253008e+00
-6.67841220e+00
-5.05048054e+00
-5.16882253e+00
-5.46696587e+00
-4.17131937e+00
-4.67814505e+00
-5.07650495e+00
-3.60281031e+00
-3.10824116e+00
-5.08828741e+00
-5.11237133e+00
-4.88123143e+00
-5.07295847e+00
-5.39902210e+00
-5.38498235e+00
-5.77629542e+00
-6.62043643e+00
-1.23125715e-02
-1.67383109e-02
-1.87662262e-02
-1.93579737e-02
-5.74145246e+00
-5.74625742e+00
-5.76321656e+00
-5.72979546e+00
-5.71142983e+00
-5.92877537e+00
-5.71548176e+00
-6.05486023e+00
-5.76127660e+00
-6.16716367e+00
-5.77066708e+00
-6.07859683e+00
-5.70798206e+00
-5.95388603e+00
-5.81980616e+00
-5.48047245e+00
-6.47902094e+00
-7.82604942e+00
-7.10500360e+00
-6.30938554e+00
-6.18909550e+00
-5.82890497e+00
-5.11849439e+00
-8.40910542e+00
-5.36848457e+00
-4.97223377e+00
-6.04464185e+00
-5.00140613e+00
-5.27098346e+00
-5.64724411e+00
-4.51038980e+00
-7.21884791e+00
-5.54688525e+00
-5.55482650e+00
</DataArray>
<DataArray type="Float32" Name="Stress_Pressure" format="ascii">
1.85891330e+00
1.85367227e+00
1.79806334e+00
1.82187182e+00
1.89321268e+00
1.90205938e+00
1.86140250e+00
1.86921835e+00
1.84785223e+00
1.74038777e+00
1.92051250e+00
1.84693713e+00
1.85557568e+00
1.69000587e+00
1.92815065e+00
1.85903504e+00
1.86557311e+00
1.68110412e+00
1.91263816e+00
1.90045701e+00
1.85306156e+00
1.68247569e+00
1.88123131e+00
1.90394148e+00
1.83885324e+00
1.67623580e+00
1.86337173e+00
1.88474810e+00
1.66643780e+00
1.72981566e+00
1.73871300e+00
1.79712921e+00
1.47936016e+00
1.56197964e+00
1.20500918e+00
1.43700293e+00
9.86107774e-01
1.41737826e+00
9.65227522e-01
1.42395587e+00
1.01259488e+00
1.44127941e+00
1.53504610e+00
1.63272965e+00
1.59844533e+00
1.69821846e+00
1.23282632e+00
1.22709444e+00
6.86370822e-01
7.51827122e-01
3.38153303e-01
3.38152948e-01
2.24572028e-01
2.24571844e-01
1.74079277e-01
1.74079046e-01
1.48487699e+00
1.58028364e+00
1.53374340e+00
1.62981278e+00
1.16452870e+00
1.19406805e+00
5.50007453e-01
6.87118545e-01
5.39583638e-02
5.39578969e-02
-7.31025543e-02
-1.01730336e-01
-7.31022675e-02
-1.01730686e-01
1.52238676e+00
1.56923383e+00
1.56995068e+00
1.62375230e+00
1.28473157e+00
1.43212302e+00
7.13551082e-01
1.00979349e+00
1.07253287e-01
1.07253209e-01
-5.11366928e-02
-3.94788614e-02
1.64024155e-02
1.33190126e-02
1.55469418e+00
1.56855869e+00
1.61262745e+00
1.63527781e+00
1.38026059e+00
1.57970509e+00
8.14243719e-01
1.18255414e+00
1.65215854e-01
1.65215503e-01
-3.13889738e-02
-1.85419077e-02
1.55871483e-02
1.13697241e-02
1.96041870e+00
1.97964740e+00
2.00340649e+00
1.95621085e+00
2.01151532e+00
2.12664433e+00
2.04140019e+00
2.19208518e+00
2.04367611e+00
2.15926288e+00
1.99440026e+00
2.10820754e+00
1.96009189e+00
2.07937026e+00
2.01875980e+00
1.89308006e+00
2.06691013e+00
2.09985478e+00
2.27485132e+00
2.22201359e+00
2.19865000e+00
1.83726273e+00
1.77368715e+00
1.56147338e+00
8.82742584e-01
1.63067587e+00
1.71398056e+00
1.31910720e+00
1.01475628e+00
1.71277548e+00
1.75877696e+00
1.63379693e+00
1.60081547e+00
1.82836917e+00
1.80281484e+00
1.92603400e+00
1.99814802e+00
2.65635323e-03
2.65642826e-03
2.65634450e-03
2.65636074e-03
2.00418818e+00
2.02446595e+00
2.04215205e+00
1.99798828e+00
2.05540836e+00
2.17421710e+00
2.08257926e+00
2.25720108e+00
2.09444773e+00
2.19594231e+00
2.05748475e+00
2.09359401e+00
2.02516544e+00
2.04758412e+00
2.16374183e+00
1.96137348e+00
2.29893953e+00
2.28782184e+00
2.29743874e+00
2.12970304e+00
2.07000208e+00
2.08283501e+00
1.90957430e+00
2.16333652e+00
1.84292637e+00
1.83326179e+00
1.67225772e+00
1.91410638e+00
1.87496790e+00
2.03010396e+00
1.12159920e+00
2.13258998e+00
1.98040536e+00
1.97160512e+00
</DataArray>
<DataArray type="Float32" Name="Stress_Tresca" format="ascii">
5.97688580e+00
6.07568622e+00
5.97090030e+00
5.86499405e+00
5.87012935e+00
5.91598737e+00
5.84064126e+00
5.77698421e+00
6.32193685e+00
6.05880368e+00
5.98745012e+00
6.06981039e+00
6.46957803e+00
6.21252680e+00
6.02111137e+00
6.12617791e+00
6.40679240e+00
6.42741930e+00
6.05305707e+00
5.84712189e+00
6.47129631e+00
6.51212823e+00
6.04205298e+00
5.89737976e+00
6.84404087e+00
6.90993285e+00
6.28910446e+00
6.12416101e+00
5.68326044e+00
5.81218171e+00
5.73047268e+00
5.57320559e+00
5.24542606e+00
5.29009396e+00
4.40955496e+00
5.06462322e+00
4.27244568e+00
5.40059189e+00
4.31362504e+00
5.18461076e+00
4.55060577e+00
5.40322542e+00
5.40853810e+00
5.76565647e+00
5.50894904e+00
5.44495070e+00
4.27593184e+00
4.20689434e+00
2.15339106e+00
2.32422680e+00
1.75416342e+00
2.97689660e+00
1.54500806e+00
2.44143180e+00
1.09413743e+00
1.88659742e+00
5.35138083e+00
5.66486216e+00
5.21304250e+00
5.45633876e+00
4.21790707e+00
4.03833473e+00
2.04230863e+00
2.35227311e+00
8.45989406e-01
1.15369536e+00
5.67607582e-01
4.68023072e-01
4.05499339e-01
5.58632433e-01
5.58904004e+00
5.76917171e+00
5.39391434e+00
5.62062418e+00
5.00876176e+00
4.70310366e+00
2.85476947e+00
3.67498418e+00
7.03427956e-01
1.26543061e+00
3.46765518e-01
1.88108826e-01
1.61590442e-01
1.27226058e-01
6.09175801e+00
6.19773865e+00
5.89596987e+00
5.98794198e+00
5.77900362e+00
5.55288088e+00
3.50690842e+00
4.57040842e+00
8.69845539e-01
1.61578274e+00
3.90668042e-01
1.76135836e-01
8.37181434e-02
4.69814586e-02
5.70358539e+00
5.63627195e+00
5.72151268e+00
5.67802262e+00
5.68560565e+00
5.83874518e+00
5.77007425e+00
5.97535753e+00
5.83859384e+00
5.98467797e+00
5.80846345e+00
5.87343580e+00
5.73599124e+00
5.83717608e+00
5.74253720e+00
5.45857322e+00
6.80282450e+00
7.99798927e+00
7.07303870e+00
6.88078582e+00
6.73231030e+00
5.02386183e+00
5.18763816e+00
6.20294066e+00
6.28135014e+00
4.77165484e+00
5.17478800e+00
3.75313514e+00
3.55516525e+00
5.26477283e+00
5.15121186e+00
5.11125761e+00
5.41327989e+00
5.48143566e+00
5.38631105e+00
5.97999191e+00
7.18104076e+00
2.12487355e-02
2.99239587e-02
2.84858160e-02
3.62439891e-02
5.68982911e+00
5.63459134e+00
5.79745406e+00
5.75808740e+00
5.68083584e+00
5.96090090e+00
5.74424219e+00
6.02992928e+00
5.75854874e+00
6.12747896e+00
5.73272002e+00
6.09350932e+00
5.65986872e+00
5.92256498e+00
5.90208793e+00
5.67100322e+00
6.68867745e+00
8.94502792e+00
7.42463851e+00
6.31955004e+00
6.19601965e+00
6.15449197e+00
5.11964154e+00
1.04888678e+01
5.50025211e+00
4.90045536e+00
7.34531677e+00
4.89393580e+00
5.25576258e+00
5.90104389e+00
5.69581461e+00
8.17487272e+00
5.67816520e+00
5.66090536e+00
</DataArray>
<DataArray type="Float32" Name="Stress_Third_Invariant" format="ascii">
-5.84987640e+00
-5.90694785e+00
-5.81473660e+00
-5.80627966e+00
-5.73966527e+00
-5.78210485e+00
-5.72054154e+00
-5.69265306e+00
-6.06269240e+00
-5.77928901e+00
-5.85396683e+00
-5.90305418e+00
-6.15616012e+00
-5.88442814e+00
-5.92514896e+00
-5.97889960e+00
-6.12347603e+00
-6.09488630e+00
-5.98293793e+00
-5.74604374e+00
-6.18260837e+00
-6.13210332e+00
-5.97117543e+00
-5.80768067e+00
-6.36741400e+00
-6.35886455e+00
-6.10703731e+00
-5.93327987e+00
-5.43841398e+00
-5.63798141e+00
-5.55829376e+00
-5.49751866e+00
-4.87638080e+00
-4.99061191e+00
-3.89532888e+00
-4.77894156e+00
-3.80114037e+00
-5.17415305e+00
-3.90552968e+00
-5.09439850e+00
-3.99922335e+00
-5.19937245e+00
-4.93254364e+00
-5.32541943e+00
-5.16536224e+00
-5.15415657e+00
-3.75037670e+00
-3.71195942e+00
-1.33931029e+00
-1.68481811e+00
1.18858004e+00
-5.87935944e-02
6.99390868e-01
2.62057722e-01
-7.22619295e-02
7.27914512e-01
-4.75476480e+00
-5.11561155e+00
-4.73382682e+00
-5.02971637e+00
-3.57787549e+00
-3.52533951e+00
-1.50802234e+00
-1.96180866e+00
1.82572713e-01
1.63576325e-01
-2.57545494e-01
-3.21883758e-01
5.52149862e-02
3.62873579e-01
-5.08545518e+00
-5.29296327e+00
-4.99943089e+00
-5.25888777e+00
-4.50054133e+00
-4.39586848e+00
-2.48862708e+00
-3.49245008e+00
-3.72150257e-01
8.39338236e-01
-1.45340811e-01
1.12213144e-01
1.31533172e-01
-9.04830247e-02
-5.58270454e+00
-5.66447067e+00
-5.53092492e+00
-5.59034157e+00
-5.31460428e+00
-5.32467997e+00
-3.12833238e+00
-4.36683647e+00
-5.46253830e-01
7.59989440e-01
-2.03213178e-01
1.05891859e-01
-7.94574767e-02
1.47366608e-02
-5.58503819e+00
-5.57782722e+00
-5.51452035e+00
-5.49180543e+00
-5.51690519e+00
-5.59344828e+00
-5.51014483e+00
-5.70260751e+00
-5.59177363e+00
-5.85006225e+00
-5.64455771e+00
-5.75323009e+00
-5.62037849e+00
-5.71478593e+00
-5.43272007e+00
-5.17146003e+00
-6.43212107e+00
-7.43454723e+00
-6.92094946e+00
-6.82443047e+00
-6.71957183e+00
-4.79089773e+00
-5.08612382e+00
-5.77585777e+00
-1.65723652e+00
-4.54344660e+00
-5.03354144e+00
-3.30881340e+00
-2.93251419e+00
-5.03798521e+00
-5.02152610e+00
-4.83443612e+00
-5.18010175e+00
-5.34585941e+00
-5.37315559e+00
-5.75335383e+00
-6.90668702e+00
1.42757688e-02
1.67607046e-02
-2.09191665e-02
2.32167598e-02
-5.60212421e+00
-5.58119631e+00
-5.55314451e+00
-5.58340275e+00
-5.46269906e+00
-5.57216114e+00
-5.40066421e+00
-5.63577342e+00
-5.46359158e+00
-5.93555325e+00
-5.55543530e+00
-5.96924508e+00
-5.51421452e+00
-5.85681403e+00
-5.38484156e+00
-5.18945229e+00
-6.17759262e+00
-8.11644039e+00
-7.17782879e+00
-6.26816297e+00
-6.17849398e+00
-5.42603213e+00
-4.75327671e+00
-8.93987381e+00
-5.25298412e+00
-4.68144727e+00
-5.88049614e+00
-4.57787383e+00
-5.07697284e+00
-5.29374238e+00
-4.85126209e+00
-7.47810523e+00
-5.28131974e+00
-5.32874298e+00
</DataArray>
<DataArray type="Float32" Name="Logarithmic_strain_Max_Principal" format="ascii">
2.75477960e-05
2.85856477e-05
2.85031356e-05
2.58316213e-05
2.63254406e-05
2.65237163e-05
2.61811058e-05
2.51772435e-05
3.22282540e-05
3.12897455e-05
2.67463638e-05
2.89530453e-05
3.39417420e-05
3.41769983e-05
2.63517081e-05
2.88289548e-05
3.27949583e-05
3.55733318e-05
2.65425651e-05
2.55985474e-05
3.31740539e-05
3.69218124e-05
2.67254891e-05
2.57995409e-05
3.87817818e-05
4.25414928e-05
3.07078099e-05
2.91205688e-05
2.91462702e-05
2.86156901e-05
2.74913837e-05
2.43266818e-05
2.92693198e-05
2.75471880e-05
2.72625998e-05
2.71796510e-05
2.77701629e-05
2.94988878e-05
2.78595235e-05
2.54534037e-05
3.07193231e-05
2.90783537e-05
3.10087789e-05
3.23757740e-05
2.95476259e-05
2.73674586e-05
2.57310080e-05
2.48687782e-05
1.56101919e-05
1.54297544e-05
2.00346294e-05
3.28181613e-05
1.87073520e-05
2.72697180e-05
1.09374878e-05
2.11314250e-05
3.26736726e-05
3.35412333e-05
2.94406100e-05
2.98262839e-05
2.70624500e-05
2.40615359e-05
1.41756225e-05
1.46780653e-05
9.49006380e-06
1.37041986e-05
6.68555413e-06
6.22102107e-06
5.72054444e-06
9.06484562e-06
3.26920945e-05
3.36338708e-05
2.96946109e-05
3.07593000e-05
3.11565777e-05
2.43428926e-05
1.83116758e-05
1.99933966e-05
6.17702705e-06
1.54419909e-05
4.20734330e-06
3.13018013e-06
2.49330685e-06
1.00215046e-06
3.67419507e-05
3.75352101e-05
3.28755013e-05
3.35724289e-05
3.58271318e-05
2.87627913e-05
2.25538161e-05
2.50985868e-05
7.61415004e-06
1.79109738e-05
4.54872429e-06
3.03017346e-06
7.94277526e-07
5.31852010e-07
2.37886406e-05
2.22976410e-05
2.44481319e-05
2.49703517e-05
2.38828998e-05
2.48231111e-05
2.53864814e-05
2.53811684e-05
2.55517202e-05
2.38391222e-05
2.47280536e-05
2.37535930e-05
2.43861587e-05
2.33394521e-05
2.59100370e-05
2.51353176e-05
3.45814905e-05
4.59450726e-05
3.16572009e-05
2.90792245e-05
2.79131818e-05
2.14708969e-05
2.16378871e-05
3.64318263e-05
6.15193330e-05
2.19145334e-05
2.26897910e-05
1.92540126e-05
2.30282471e-05
2.49029183e-05
2.19296003e-05
2.53211431e-05
2.71007739e-05
2.41502312e-05
2.19536350e-05
2.81306766e-05
3.75743530e-05
2.66157720e-07
4.55428051e-07
2.43108193e-07
3.60422050e-07
2.25594322e-05
2.15300693e-05
2.53077696e-05
2.46002478e-05
2.39130432e-05
2.70876592e-05
2.56269477e-05
2.64738537e-05
2.50257640e-05
2.57381378e-05
2.39239707e-05
2.53981118e-05
2.30527685e-05
2.40044519e-05
2.80185188e-05
2.80393506e-05
3.28760283e-05
5.45126553e-05
3.52722100e-05
2.62884719e-05
2.48112901e-05
3.28312812e-05
2.31053641e-05
7.57874277e-05
2.54662277e-05
2.01155190e-05
5.15339552e-05
2.04630140e-05
2.20663069e-05
3.04530918e-05
4.13956623e-05
4.86767640e-05
2.66243655e-05
2.64513446e-05
</DataArray>
<DataArray type="Float32" Name="Logarithmic_strain_Min_Principal" format="ascii">
-1.16543284e-04
-1.16472591e-04
-1.15029510e-04
-1.14738366e-04
-1.14005910e-04
-1.15877434e-04
-1.13520546e-04
-1.13693384e-04
-1.19818138e-04
-1.14001534e-04
-1.16780579e-04
-1.16847190e-04
-1.21003017e-04
-1.15294597e-04
-1.17908143e-04
-1.18186552e-04
-1.20850378e-04
-1.17957143e-04
-1.18425445e-04
-1.14854705e-04
-1.21501442e-04
-1.19306816e-04
-1.18248741e-04
-1.15642349e-04
-1.24111815e-04
-1.23506597e-04
-1.20115736e-04
-1.17858577e-04
-1.07551570e-04
-1.10906334e-04
-1.09969057e-04
-1.09877275e-04
-9.67388751e-05
-9.91592096e-05
-7.87333320e-05
-9.44051353e-05
-7.45068992e-05
-1.00444351e-04
-7.58071637e-05
-9.88235709e-05
-7.84751137e-05
-1.00510331e-04
-9.85585939e-05
-1.05803851e-04
-1.02774069e-04
-1.03376782e-04
-7.63990993e-05
-7.60024532e-05
-3.59987116e-05
-4.03911387e-05
-2.21779180e-05
-3.88102411e-05
-1.83225111e-05
-3.10964527e-05
-1.54096588e-05
-2.41922407e-05
-9.62097656e-05
-1.02408365e-04
-9.53993012e-05
-1.01182348e-04
-7.43645051e-05
-7.30243200e-05
-3.49856073e-05
-4.19300741e-05
-1.05532396e-05
-1.39859931e-05
-6.78524634e-06
-5.04480552e-06
-3.92081768e-06
-4.33860479e-06
-1.00991765e-04
-1.04815885e-04
-9.99513259e-05
-1.04272383e-04
-8.88021787e-05
-8.86152566e-05
-5.00689939e-05
-6.85017167e-05
-1.06541522e-05
-1.50107750e-05
-4.07641738e-06
-1.29391532e-06
-1.37982016e-06
-2.05951884e-06
-1.09571392e-04
-1.11107285e-04
-1.08482525e-04
-1.10352081e-04
-1.03156690e-04
-1.04703189e-04
-6.14219152e-05
-8.42243693e-05
-1.35339269e-05
-2.02980932e-05
-5.09436961e-06
-1.54588340e-06
-1.62609024e-06
-1.07457498e-06
-1.13070113e-04
-1.12597960e-04
-1.12528796e-04
-1.11567741e-04
-1.12454807e-04
-1.15236164e-04
-1.13190428e-04
-1.17723895e-04
-1.14264758e-04
-1.19684443e-04
-1.14474964e-04
-1.17446095e-04
-1.13260110e-04
-1.16666173e-04
-1.11812687e-04
-1.05657115e-04
-1.28556537e-04
-1.46075389e-04
-1.38154344e-04
-1.35834565e-04
-1.33543661e-04
-9.90519820e-05
-1.02836610e-04
-1.12581027e-04
-8.91205345e-05
-9.26956254e-05
-1.01252253e-04
-7.07042387e-05
-6.24853722e-05
-1.01513172e-04
-1.01762091e-04
-9.74117629e-05
-1.02453921e-04
-1.07684382e-04
-1.07192831e-04
-1.15560842e-04
-1.34978822e-04
-3.15793002e-07
-3.29543511e-07
-6.35032166e-07
-6.03688775e-07
-1.13705017e-04
-1.13580731e-04
-1.13685074e-04
-1.13764832e-04
-1.12382568e-04
-1.16130806e-04
-1.12016305e-04
-1.18328813e-04
-1.13096728e-04
-1.21510147e-04
-1.13742279e-04
-1.20705703e-04
-1.12717724e-04
-1.18251786e-04
-1.13748391e-04
-1.07905729e-04
-1.27823397e-04
-1.60220778e-04
-1.42999357e-04
-1.25576131e-04
-1.23835831e-04
-1.14888910e-04
-9.99997083e-05
-1.75884186e-04
-1.06567225e-04
-9.73116512e-05
-1.24888438e-04
-9.70378160e-05
-1.04116594e-04
-1.11134074e-04
-9.52350165e-05
-1.47661529e-04
-1.09254685e-04
-1.09794455e-04
</DataArray>
<DataArray type="Float32" Name="Plastic_strain_Max_Principal" format="ascii">
0.00000000e+00
0.00000000e+00
0.00000000e+00
0.00000000e+00
0.00000000e+00
0.00000000e+00
0.00000000e+00
0.00000000e+00
0.00000000e+00
0.00000000e+00
0.00000000e+00
0.00000000e+00
0.00000000e+00
0.00000000e+00
0.00000000e+00
0.00000000e+00
0.00000000e+00
0.00000000e+00
0.00000000e+00
0.00000000e+00
0.00000000e+00
0.00000000e+00
0.00000000e+00
0.00000000e+00
0.00000000e+00
0.00000000e+00
0.00000000e+00
0.00000000e+00
0.00000000e+00
0.00000000e+00
0.00000000e+00
0.00000000e+00
0.00000000e+00
0.00000000e+00
0.00000000e+00
0.00000000e+00
0.00000000e+00
0.00000000e+00
0.00000000e+00
0.00000000e+00
0.00000000e+00
0.00000000e+00
0.00000000e+00
0.00000000e+00
0.00000000e+00
0.00000000e+00
0.00000000e+00
0.00000000e+00
0.00000000e+00
0.00000000e+00
0.00000000e+00
0.00000000e+00
0.00000000e+00
0.00000000e+00
0.00000000e+00
0.00000000e+00
0.00000000e+00
0.00000000e+00
0.00000000e+00
0.00000000e+00
0.00000000e+00
0.00000000e+00
0.00000000e+00
0.00000000e+00
0.00000000e+00
0.00000000e+00
0.00000000e+00
0.00000000e+00
0.00000000e+00
0.00000000e+00
0.00000000e+00
0.00000000e+00
0.00000000e+00
0.00000000e+00
0.00000000e+00
0.00000000e+00
0.00000000e+00
0.00000000e+00
0.00000000e+00
0.00000000e+00
0.00000000e+00
0.00000000e+00
0.00000000e+00
0.00000000e+00
0.00000000e+00
0.00000000e+00
0.00000000e+00
0.00000000e+00
0.00000000e+00
0.00000000e+00
0.00000000e+00
0.00000000e+00
0.00000000e+00
0.00000000e+00
0.00000000e+00
0.00000000e+00
0.00000000e+00
0.00000000e+00
0.00000000e+00
0.00000000e+00
0.00000000e+00
0.00000000e+00
0.00000000e+00
0.00000000e+00
0.00000000e+00
0.00000000e+00
0.00000000e+00
0.00000000e+00
0.00000000e+00
0.00000000e+00
0.00000000e+00
0.00000000e+00
0.00000000e+00
0.00000000e+00
0.00000000e+00
0.00000000e+00
0.00000000e+00
0.00000000e+00
0.00000000e+00
0.00000000e+00
0.00000000e+00
0.00000000e+00
0.00000000e+00
0.00000000e+00
0.00000000e+00
0.00000000e+00
0.00000000e+00
0.00000000e+00
0.00000000e+00
0.00000000e+00
0.00000000e+00
0.00000000e+00
0.00000000e+00
0.00000000e+00
0.00000000e+00
0.00000000e+00
0.00000000e+00
0.00000000e+00
0.00000000e+00
0.00000000e+00
0.00000000e+00
0.00000000e+00
0.00000000e+00
0.00000000e+00
0.00000000e+00
0.00000000e+00
0.00000000e+00
0.00000000e+00
0.00000000e+00
0.00000000e+00
0.00000000e+00
0.00000000e+00
0.00000000e+00
0.00000000e+00
0.00000000e+00
0.00000000e+00
0.00000000e+00
0.00000000e+00
0.00000000e+00
0.00000000e+00
0.00000000e+00
0.00000000e+00
0.00000000e+00
0.00000000e+00
0.00000000e+00
0.00000000e+00
0.00000000e+00
0.00000000e+00
0.00000000e+00
0.00000000e+00
0.00000000e+00
0.00000000e+00
0.00000000e+00
</DataArray>
<DataArray type="Float32" Name="Plastic_strain_Min_Principal" format="ascii">
0.00000000e+00
0.00000000e+00
0.00000000e+00
0.00000000e+00
0.00000000e+00
0.00000000e+00
0.00000000e+00
0.00000000e+00
0.00000000e+00
0.00000000e+00
0.00000000e+00
0.00000000e+00
0.00000000e+00
0.00000000e+00
0.00000000e+00
0.00000000e+00
0.00000000e+00
0.00000000e+00
0.00000000e+00
0.00000000e+00
0.00000000e+00
0.00000000e+00
0.00000000e+00
0.00000000e+00
0.00000000e+00
0.00000000e+00
0.00000000e+00
0.00000000e+00
0.00000000e+00
0.00000000e+00
0.00000000e+00
0.00000000e+00
0.00000000e+00
0.00000000e+00
0.00000000e+00
0.00000000e+00
0.00000000e+00
0.00000000e+00
0.00000000e+00
0.00000000e+00
0.00000000e+00
0.00000000e+00
0.00000000e+00
0.00000000e+00
0.00000000e+00
0.00000000e+00
0.00000000e+00
0.00000000e+00
0.00000000e+00
0.00000000e+00
0.00000000e+00
0.00000000e+00
0.00000000e+00
0.00000000e+00
0.00000000e+00
0.00000000e+00
0.00000000e+00
0.00000000e+00
0.00000000e+00
0.00000000e+00
0.00000000e+00
0.00000000e+00
0.00000000e+00
0.00000000e+00
0.00000000e+00
0.00000000e+00
0.00000000e+00
0.00000000e+00
0.00000000e+00
0.00000000e+00
0.00000000e+00
0.00000000e+00
0.00000000e+00
0.00000000e+00
0.00000000e+00
0.00000000e+00
0.00000000e+00
0.00000000e+00
0.00000000e+00
0.00000000e+00
0.00000000e+00
0.00000000e+00
0.00000000e+00
0.00000000e+00
0.00000000e+00
0.00000000e+00
0.00000000e+00
0.00000000e+00
0.00000000e+00
0.00000000e+00
0.00000000e+00
0.00000000e+00
0.00000000e+00
0.00000000e+00
0.00000000e+00
0.00000000e+00
0.00000000e+00
0.00000000e+00
0.00000000e+00
0.00000000e+00
0.00000000e+00
0.00000000e+00
0.00000000e+00
0.00000000e+00
0.00000000e+00
0.00000000e+00
0.00000000e+00
0.00000000e+00
0.00000000e+00
0.00000000e+00
0.00000000e+00
0.00000000e+00
0.00000000e+00
0.00000000e+00
0.00000000e+00
0.00000000e+00
0.00000000e+00
0.00000000e+00
0.00000000e+00
0.00000000e+00
0.00000000e+00
0.00000000e+00
0.00000000e+00
0.00000000e+00
0.00000000e+00
0.00000000e+00
0.00000000e+00
0.00000000e+00
0.00000000e+00
0.00000000e+00
0.00000000e+00
0.00000000e+00
0.00000000e+00
0.00000000e+00
0.00000000e+00
0.00000000e+00
0.00000000e+00
0.00000000e+00
0.00000000e+00
0.00000000e+00
0.00000000e+00
0.00000000e+00
0.00000000e+00
0.00000000e+00
0.00000000e+00
0.00000000e+00
0.00000000e+00
0.00000000e+00
0.00000000e+00
0.00000000e+00
0.00000000e+00
0.00000000e+00
0.00000000e+00
0.00000000e+00
0.00000000e+00
0.00000000e+00
0.00000000e+00
0.00000000e+00
0.00000000e+00
0.00000000e+00
0.00000000e+00
0.00000000e+00
0.00000000e+00
0.00000000e+00
0.00000000e+00
0.00000000e+00
0.00000000e+00
0.00000000e+00
0.00000000e+00
0.00000000e+00
0.00000000e+00
0.00000000e+00
0.00000000e+00
</DataArray>
</PointData>
<Cells>
<DataArray type="Int32" Name="connectivity" format="ascii">
0 1 2 3 4 5 6 7
1 8 9 2 5 10 11 6
8 12 13 9 10 14 15 11
12 16 17 13 14 18 19 15
16 20 21 17 18 22 23 19
20 24 25 21 22 26 27 23
3 2 28 29 7 6 30 31
2 9 32 28 6 11 33 30
9 13 34 32 11 15 35 33
13 17 36 34 15 19 37 35
17 21 38 36 19 23 39 37
21 25 40 38 23 27 41 39
29 28 42 43 31 30 44 45
28 32 46 42 30 33 47 44
32 34 48 46 33 35 49 47
34 36 50 48 35 37 51 49
36 38 52 50 37 39 53 51
38 40 54 52 39 41 55 53
43 42 56 57 45 44 58 59
42 46 60 56 44 47 61 58
46 48 62 60 47 49 63 61
48 50 64 62 49 51 65 63
52 54 66 67 53 55 68 69
57 56 70 71 59 58 72 73
56 60 74 70 58 61 75 72
60 62 76 74 61 63 77 75
62 64 78 76 63 65 79 77
64 67 80 78 65 69 81 79
67 66 82 80 69 68 83 81
71 70 84 85 73 72 86 87
70 74 88 84 72 75 89 86
74 76 90 88 75 77 91 89
76 78 92 90 77 79 93 91
78 80 94 92 79 81 95 93
80 82 96 94 81 83 97 95
4 5 6 7 98 99 100 101
5 10 11 6 99 102 103 100
10 14 15 11 102 104 105 103
14 18 19 15 104 106 107 105
18 22 23 19 106 108 109 107
22 26 27 23 108 110 111 109
7 6 30 31 101 100 112 113
6 11 33 30 100 103 114 112
11 15 35 33 103 105 115 114
15 19 37 35 105 107 116 115
19 23 39 37 107 109 117 116
23 27 41 39 109 111 118 117
31 30 44 45 113 112 119 120
30 33 47 44 112 114 121 119
33 35 49 47 114 115 122 121
45 44 58 59 120 119 123 124
44 47 61 58 119 121 125 123
47 49 63 61 121 122 126 125
59 58 72 73 124 123 127 128
58 61 75 72 123 125 129 127
61 63 77 75 125 126 130 129
73 72 86 87 128 127 131 132
72 75 89 86 127 129 133 131
75 77 91 89 129 130 134 133
81 83 97 95 135 136 137 138
98 99 100 101 139 140 141 142
99 102 103 100 140 143 144 141
102 104 105 103 143 145 146 144
104 106 107 105 145 147 148 146
106 108 109 107 147 149 150 148
108 110 111 109 149 151 152 150
101 100 112 113 142 141 153 154
100 103 114 112 141 144 155 153
103 105 115 114 144 146 156 155
105 107 116 115 146 148 157 156
107 109 117 116 148 150 158 157
109 111 118 117 150 152 159 158
113 112 119 120 154 153 160 161
112 114 121 119 153 155 162 160
120 119 123 124 161 160 163 164
119 121 125 123 160 162 165 163
124 123 127 128 164 163 166 167
123 125 129 127 163 165 168 166
125 126 130 129 165 169 170 168
128 127 131 132 167 166 171 172
</DataArray>
<DataArray type="Int32" Name="offsets" format="ascii">
8
16
24
32
40
48
56
64
72
80
88
96
104
112
120
128
136
144
152
160
168
176
184
192
200
208
216
224
232
240
248
256
264
272
280
288
296
304
312
320
328
336
344
352
360
368
376
384
392
400
408
416
424
432
440
448
456
464
472
480
488
496
504
512
520
528
536
544
552
560
568
576
584
592
600
608
616
624
632
640
</DataArray>
<DataArray type="UInt8" Name="types" format="ascii">
12
12
12
12
12
12
12
12
12
12
12
12
12
12
12
12
12
12
12
12
12
12
12
12
12
12
12
12
12
12
12
12
12
12
12
12
12
12
12
12
12
12
12
12
12
12
12
12
12
12
12
12
12
12
12
12
12
12
12
12
12
12
12
12
12
12
12
12
12
12
12
12
12
12
12
12
12
12
12
12
</DataArray>
</Cells>
</Piece>
</UnstructuredGrid>
</VTKFile>
