<VTKFile type="UnstructuredGrid" version="0.1" byte_order="LittleEndian">
<UnstructuredGrid>
<Piece NumberOfPoints="173" NumberOfCells="80">
<Points>
<DataArray type="Float64" NumberOfComponents="3" format="ascii">
 0.00000000e+00  0.00000000e+00  0.00000000e+00
 1.00734341e+00  0.00000000e+00  0.00000000e+00
 1.00836635e+00  1.01977527e+00  0.00000000e+00
 0.00000000e+00  1.01858664e+00  0.00000000e+00
 0.00000000e+00  0.00000000e+00  9.77825582e-01
 1.00768280e+00  0.00000000e+00  9.76679802e-01
 1.00778508e+00  1.01788223e+00  9.77980435e-01
 0.00000000e+00  1.01759791e+00  9.79659200e-01
 2.01669168e+00  0.00000000e+00  0.00000000e+00
 2.01723981e+00  1.02256334e+00  0.00000000e+00
 2.01674294e+00  0.00000000e+00  9.72781003e-01
 2.01740003e+00  1.01933849e+00  9.75339651e-01
 3.02734637e+00  0.00000000e+00  0.00000000e+00
 3.02797627e+00  1.02626753e+00  0.00000000e+00
 3.02928019e+00  0.00000000e+00  9.68799114e-01
 3.02814293e+00  1.02123082e+00  9.71578717e-01
 4.04233122e+00  0.00000000e+00  0.00000000e+00
 4.03922081e+00  1.02916265e+00  0.00000000e+00
 4.04427719e+00  0.00000000e+00  9.65496242e-01
 4.04113340e+00  1.02196145e+00  9.67354596e-01
 5.06085539e+00  0.00000000e+00  0.00000000e+00
 5.05473089e+00  1.03180254e+00  0.00000000e+00
 5.06172037e+00  0.00000000e+00  9.59698141e-01
 5.05786228e+00  1.02316618e+00  9.63539422e-01
 6.08245420e+00  0.00000000e+00  0.00000000e+00
 6.06866693e+00  1.04237413e+00  0.00000000e+00
 6.07879686e+00  0.00000000e+00  9.56736445e-01
 6.07603073e+00  1.03021443e+00  9.57754314e-01
 1.00982165e+00  2.03361297e+00  0.00000000e+00
 0.00000000e+00  2.03256249e+00  0.00000000e+00
 1.00857866e+00  2.03252935e+00  9.82706428e-01
 0.00000000e+00  2.03154182e+00  9.82938588e-01
 2.01941657e+00  2.03739405e+00  0.00000000e+00
 2.01762509e+00  2.03507471e+00  9.83191907e-01
 3.02709174e+00  2.04145432e+00  0.00000000e+00
 3.02585220e+00  2.03787398e+00  9.86205935e-01
 4.03383160e+00  2.04706383e+00  0.00000000e+00
 4.03531933e+00  2.03993607e+00  9.84713435e-01
 5.03897667e+00  2.05006528e+00  0.00000000e+00
 5.04324961e+00  2.04260492e+00  9.85603333e-01
 6.04651117e+00  2.06049705e+00  0.00000000e+00
 6.05463982e+00  2.05319691e+00  9.85004604e-01
 1.01068676e+00  3.04104471e+00  0.00000000e+00
 0.00000000e+00  3.04017258e+00  0.00000000e+00
 1.00917721e+00  3.04108620e+00  9.87598181e-01
 0.00000000e+00  3.04065299e+00  9.86404955e-01
 2.01974440e+00  3.04243660e+00  0.00000000e+00
 2.01790357e+00  3.04242420e+00  9.91460741e-01
 3.02507758e+00  3.04549909e+00  0.00000000e+00
 3.02341652e+00  3.04433465e+00  9.97120142e-01
 4.02596903e+00  3.04901004e+00  0.00000000e+00
 4.02485085e+00  3.04577065e+00  1.00083792e+00
 5.03065157e+00  3.04920840e+00  0.00000000e+00
 5.03004122e+00  3.04620457e+00  1.00240612e+00
 6.03125143e+00  3.06023836e+00  0.00000000e+00
 6.03186941e+00  3.05872726e+00  1.00150311e+00
 1.01060867e+00  4.04432583e+00  0.00000000e+00
 0.00000000e+00  4.04482269e+00  0.00000000e+00
 1.00910056e+00  4.04515600e+00  9.89522219e-01
 0.00000000e+00  4.04558897e+00  9.88303721e-01
 2.01872444e+00  4.04461288e+00  0.00000000e+00
 2.01673055e+00  4.04408121e+00  9.93495286e-01
 3.02210355e+00  4.04567337e+00  0.00000000e+00
 3.02038717e+00  4.04504824e+00  9.98500884e-01
 4.02162123e+00  4.04835606e+00  0.00000000e+00
 4.02147293e+00  4.04829311e+00  9.99945462e-01
 6.02209187e+00  4.05388594e+00  0.00000000e+00
 5.02193069e+00  4.05068064e+00  0.00000000e+00
 6.02215147e+00  4.05405712e+00  9.99979913e-01
 5.02194786e+00  4.05080414e+00  1.00011623e+00
 1.00987697e+00  5.04812860e+00  0.00000000e+00
 0.00000000e+00  5.04945946e+00  0.00000000e+00
 1.00863945e+00  5.04895020e+00  9.88979161e-01
 0.00000000e+00  5.04965591e+00  9.86633539e-01
 2.01724076e+00  5.04593229e+00  0.00000000e+00
 2.01461411e+00  5.04646730e+00  9.93396342e-01
 3.01922846e+00  5.04628611e+00  0.00000000e+00
 3.01832533e+00  5.04617405e+00  9.99018848e-01
 4.01934862e+00  5.04829645e+00  0.00000000e+00
 4.01916409e+00  5.04827404e+00  1.00012839e+00
 5.01921320e+00  5.05084133e+00  0.00000000e+00
 5.01926947e+00  5.05085421e+00  1.00000131e+00
 6.01921558e+00  5.05358791e+00  0.00000000e+00
 6.01925182e+00  5.05353785e+00  9.99950230e-01
 1.01105690e+00  6.05403185e+00  0.00000000e+00
 0.00000000e+00  6.05537558e+00  0.00000000e+00
 1.00908065e+00  6.05392313e+00  9.87157285e-01
 0.00000000e+00  6.05597162e+00  9.84606922e-01
 2.01809216e+00  6.04939604e+00  0.00000000e+00
 2.01460481e+00  6.05180311e+00  9.90977645e-01
 3.01819968e+00  6.04686213e+00  0.00000000e+00
 3.01774049e+00  6.04846668e+00  9.97893155e-01
 4.01720715e+00  6.04839420e+00  0.00000000e+00
 4.01695919e+00  6.04840851e+00  1.00013256e+00
 5.01673126e+00  6.05084562e+00  0.00000000e+00
 5.01674652e+00  6.05086851e+00  1.00003278e+00
 6.01666164e+00  6.05349922e+00  0.00000000e+00
 6.01668358e+00  6.05346394e+00  1.00002003e+00
 0.00000000e+00  0.00000000e+00  1.95774710e+00
 1.00903058e+00  0.00000000e+00  1.95512378e+00
 1.00834286e+00  1.01441908e+00  1.95807040e+00
 0.00000000e+00  1.01497793e+00  1.95913935e+00
 2.02038789e+00  0.00000000e+00  1.95145011e+00
 2.01764584e+00  1.01205516e+00  1.95151401e+00
 3.03234053e+00  0.00000000e+00  1.94462514e+00
 3.03252387e+00  1.01132238e+00  1.94502676e+00
 4.04905605e+00  0.00000000e+00  1.93515944e+00
 4.04758310e+00  1.01211333e+00  1.94250941e+00
 5.06535530e+00  0.00000000e+00  1.92796624e+00
 5.06419945e+00  1.01277339e+00  1.93596101e+00
 6.07817745e+00  0.00000000e+00  1.92319024e+00
 6.08196640e+00  1.01282501e+00  1.93032944e+00
 1.00594652e+00  2.02853894e+00  1.96434951e+00
 0.00000000e+00  2.02983403e+00  1.96740973e+00
 2.01556754e+00  2.02791953e+00  1.96271014e+00
 3.02860808e+00  2.03026080e+00  1.96120441e+00
 4.04506397e+00  2.03392172e+00  1.95223713e+00
 5.06367970e+00  2.03471661e+00  1.95209861e+00
 6.08286953e+00  2.03502512e+00  1.94502628e+00
 1.00493455e+00  3.04065037e+00  1.97330630e+00
 0.00000000e+00  3.04064655e+00  1.97580838e+00
 2.01246548e+00  3.04098439e+00  1.98029983e+00
 3.01110458e+00  3.04050350e+00  2.00205135e+00
 1.00595152e+00  4.04793167e+00  1.98032331e+00
 0.00000000e+00  4.04736614e+00  1.97790742e+00
 2.01199269e+00  4.04579449e+00  1.98757303e+00
 3.01468468e+00  4.04115772e+00  1.99550116e+00
 1.00580382e+00  5.05097914e+00  1.97932696e+00
 0.00000000e+00  5.05203438e+00  1.97715616e+00
 2.01107144e+00  5.04914618e+00  1.98588049e+00
 3.01957250e+00  5.04627800e+00  1.98891878e+00
 1.00392675e+00  6.05790663e+00  1.97346878e+00
 0.00000000e+00  6.05614948e+00  1.97439325e+00
 2.01041460e+00  6.05988455e+00  1.97782099e+00
 3.02147651e+00  6.05854893e+00  1.97870457e+00
 5.01932240e+00  5.05084038e+00  2.00001049e+00
 6.01933050e+00  5.05341625e+00  1.99995542e+00
 6.01673126e+00  6.05343342e+00  2.00001335e+00
 5.01671553e+00  6.05084324e+00  2.00004244e+00
 0.00000000e+00  0.00000000e+00  2.93592668e+00
 1.01202893e+00  0.00000000e+00  2.93473315e+00
 1.01201820e+00  1.01263416e+00  2.93825006e+00
 0.00000000e+00  1.01248384e+00  2.94040823e+00
 2.02643442e+00  0.00000000e+00  2.92888308e+00
 2.02310967e+00  1.00960898e+00  2.93410277e+00
 3.03946185e+00  0.00000000e+00  2.92317009e+00
 3.03961992e+00  1.00719142e+00  2.92507362e+00
 4.05520535e+00  0.00000000e+00  2.91761255e+00
 4.05553007e+00  1.00774765e+00  2.91530442e+00
 5.06945705e+00  0.00000000e+00  2.90982342e+00
 5.07054138e+00  1.00876629e+00  2.91131544e+00
 6.08116055e+00  0.00000000e+00  2.90641212e+00
 6.08306885e+00  1.00733876e+00  2.90836954e+00
 1.00745881e+00  2.02318668e+00  2.94726896e+00
 0.00000000e+00  2.02726436e+00  2.94855857e+00
 2.02085423e+00  2.02230573e+00  2.93536448e+00
 3.03590584e+00  2.02519417e+00  2.91944242e+00
 4.05637264e+00  2.02855015e+00  2.91768003e+00
 5.07320595e+00  2.02445841e+00  2.91540170e+00
 6.08694077e+00  2.02106452e+00  2.91377234e+00
 1.00459349e+00  3.04019070e+00  2.96322608e+00
 0.00000000e+00  3.03957367e+00  2.95918036e+00
 2.01851273e+00  3.03617239e+00  2.94928145e+00
 1.00398803e+00  4.04872274e+00  2.97055578e+00
 0.00000000e+00  4.05074358e+00  2.96945405e+00
 2.01123857e+00  4.04860258e+00  2.98128557e+00
 1.00467253e+00  5.05719090e+00  2.96936226e+00
 0.00000000e+00  5.05499744e+00  2.97025800e+00
 2.01184797e+00  5.05815029e+00  2.96967936e+00
 3.01223969e+00  4.05268717e+00  3.00407934e+00
 3.02316523e+00  5.05372810e+00  2.96749330e+00
 1.00445986e+00  6.06303072e+00  2.96529913e+00
 0.00000000e+00  6.06336260e+00  2.96105838e+00
</DataArray>
</Points>
<PointData Tensors="Stress_Components,Plastic_strain_components" Vevtors="Spatial_displacement,Reaction_force" Scalars="Equivalent_plastic_strain,Stress_Mises,Stress_Max_Principal,Stress_Mid_Principal,Stress_Min_Principal,Stress_Pressure,Stress_Tresca,Stress_Third_Invariant,Plastic_strain_Max_Principal,Plastic_strain_Min_Principal">
<DataArray type="Float32" Name="Stress_Components" NumberOfComponents="9" format="ascii">
-4.01070881e+00 6.02241606e-04 -3.34908068e-03 6.02241606e-04 3.25734615e+00 -2.87796371e-03 -3.34908068e-03 -2.87796371e-03 -2.99050941e+01
-4.95127127e+00 3.23279068e-01 -8.24752497e-04 3.23279068e-01 2.38357204e+00 6.59922138e-03 -8.24752497e-04 6.59922138e-03 -3.18788195e+01
-3.72184908e+00 1.02000117e+00 -6.47115037e-01 1.02000117e+00 1.68414389e+00 -2.60411784e-01 -6.47115037e-01 -2.60411784e-01 -3.15870509e+01
-1.83124656e+00 3.80015954e-01 -3.59318063e-01 3.80015954e-01 3.31566298e+00 3.53256054e-03 -3.59318063e-01 3.53256054e-03 -2.78857050e+01
-3.08781338e+00 4.59135044e-04 5.64056635e-01 4.59135044e-04 3.64685488e+00 -4.09772888e-01 5.64056635e-01 -4.09772888e-01 -2.85723200e+01
-3.93401259e+00 8.09553703e-02 4.78959300e-01 8.09553703e-02 2.55797244e+00 -5.29842319e-01 4.78959300e-01 -5.29842319e-01 -3.07545862e+01
-2.48397392e+00 5.03535662e-01 6.10974161e-02 5.03535662e-01 2.63489614e+00 -7.83125564e-01 6.10974161e-02 -7.83125564e-01 -2.93001993e+01
-2.76586622e+00 1.30284972e-01 1.88870888e-01 1.30284972e-01 2.64360356e+00 -4.94878359e-01 1.88870888e-01 -4.94878359e-01 -2.95826731e+01
-8.58293080e+00 9.38451067e-02 -1.09625035e-02 9.38451067e-02 -6.42581463e-01 -2.14936621e-01 -1.09625035e-02 -2.14936621e-01 -3.90843401e+01
-6.60015357e+00 1.61762729e+00 -9.26471427e-01 1.61762729e+00 -6.42182827e-01 9.45773569e-03 -9.26471427e-01 9.45773569e-03 -3.70907652e+01
-3.51682930e+00 2.60960292e-01 6.02722771e-01 2.60960292e-01 1.82991657e+00 -5.72535140e-01 6.02722771e-01 -5.72535140e-01 -3.13465686e+01
-5.56626832e+00 7.74947278e-01 -2.06358850e-01 7.74947278e-01 -3.85094982e-01 -1.25422426e+00 -2.06358850e-01 -1.25422426e+00 -3.58990617e+01
-1.21992183e+01 5.05131513e-01 -3.35913133e-02 5.05131513e-01 -3.87253225e+00 6.68203086e-01 -3.35913133e-02 6.68203086e-01 -4.64855213e+01
-9.49081975e+00 1.18247303e+00 -1.58517851e+00 1.18247303e+00 -3.01392424e+00 -4.23159130e-01 -1.58517851e+00 -4.23159130e-01 -4.29004164e+01
-4.78752735e+00 -4.83444482e-01 4.12605457e-01 -4.83444482e-01 -5.54304749e-01 -5.51981702e-01 4.12605457e-01 -5.51981702e-01 -3.55992260e+01
-7.03470522e+00 -2.01723508e-01 4.63594660e-01 -2.01723508e-01 -2.08654304e+00 -6.91508491e-01 4.63594660e-01 -6.91508491e-01 -3.92425582e+01
-1.15389061e+01 -9.38319564e-01 -2.21763039e-02 -9.38319564e-01 -4.45147264e+00 4.40522701e-01 -2.21763039e-02 4.40522701e-01 -4.66734924e+01
-1.39531609e+01 -7.56848288e-01 -2.65697268e+00 -7.56848288e-01 -6.20742184e+00 3.78955260e-01 -2.65697268e+00 3.78955260e-01 -5.09756165e+01
-6.60017169e+00 -1.11723322e+00 5.45107543e-01 -1.11723322e+00 -3.18997854e+00 -3.20160792e-01 5.45107543e-01 -3.20160792e-01 -4.04805143e+01
-3.01137221e+00 -1.27056956e+00 6.42885454e-01 -1.27056956e+00 -1.84490595e-01 1.43568745e-01 6.42885454e-01 1.43568745e-01 -3.30613278e+01
-1.25096407e+01 -1.33086661e+00 -3.97829618e-02 -1.33086661e+00 -5.54866338e+00 4.29027975e-01 -3.97829618e-02 4.29027975e-01 -4.89483299e+01
-1.26347365e+01 -2.95330207e+00 -2.84728901e+00 -2.95330207e+00 -5.51732945e+00 1.09004603e+00 -2.84728901e+00 1.09004603e+00 -4.81906247e+01
-4.27498233e+00 -9.61858273e-01 1.08137063e+00 -9.61858273e-01 -1.17953056e+00 8.01994372e-03 1.08137063e+00 8.01994372e-03 -3.57456014e+01
-3.44447704e+00 -2.08419337e+00 1.38531664e+00 -2.08419337e+00 -1.42813008e+00 2.76031595e-01 1.38531664e+00 2.76031595e-01 -3.47333061e+01
-2.95683136e+01 -4.26143646e+00 -2.31797043e-02 -4.26143646e+00 -1.57246180e+01 -3.95948023e-01 -2.31797043e-02 -3.95948023e-01 -7.68369751e+01
-3.08601370e+01 -3.57933626e+00 -4.07021725e+00 -3.57933626e+00 -1.62712879e+01 3.59071195e+00 -4.07021725e+00 3.59071195e+00 -7.77536812e+01
-1.38023292e+01 -9.25448328e-01 3.32590833e-01 -9.25448328e-01 -5.60383236e+00 -3.10706299e-01 3.32590833e-01 -3.10706299e-01 -5.04316387e+01
-1.39823948e+01 -2.09090930e+00 6.31225437e-01 -2.09090930e+00 -8.33753908e+00 1.17732859e+00 6.31225437e-01 1.17732859e+00 -5.27788091e+01
8.95619869e-01 1.60684973e+00 -4.37175162e-01 1.60684973e+00 4.38068390e-01 -5.60396224e-01 -4.37175162e-01 -5.60396224e-01 -2.82564468e+01
1.08824086e+00 3.27537850e-01 -6.10240877e-01 3.27537850e-01 8.42380762e-01 3.39332968e-04 -6.10240877e-01 3.39332968e-04 -2.77842035e+01
-5.37426241e-01 1.07510979e+00 8.11161733e-01 1.07510979e+00 1.04683682e+00 -1.01730761e+00 8.11161733e-01 -1.01730761e+00 -2.91848655e+01
1.93683753e+00 4.69545968e-01 9.79661807e-01 4.69545968e-01 3.58003721e+00 -2.02381399e-01 9.79661807e-01 -2.02381399e-01 -2.39344268e+01
2.35908876e+00 2.41392452e+00 -1.30769758e+00 2.41392452e+00 1.30482137e+00 -1.01728924e+00 -1.30769758e+00 -1.01728924e+00 -2.52719388e+01
1.06114388e-01 1.37212056e+00 1.61360288e+00 1.37212056e+00 1.35423750e+00 -3.36302830e-01 1.61360288e+00 -3.36302830e-01 -2.79967147e+01
1.04977623e+01 1.23350721e+00 -1.56505898e+00 1.23350721e+00 9.50299555e+00 -6.78498735e-01 -1.56505898e+00 -6.78498735e-01 -8.39642334e+00
1.81417043e+00 3.06182016e-01 3.61591915e+00 3.06182016e-01 3.23380814e+00 3.68655266e-01 3.61591915e+00 3.68655266e-01 -2.38971664e+01
1.06496205e+01 -2.11615284e+00 -3.24337528e+00 -2.11615284e+00 1.00294924e+01 2.20452818e-01 -3.24337528e+00 2.20452818e-01 -6.90386772e+00
-5.65617800e-01 -3.16635118e+00 4.65202049e+00 -3.16635118e+00 1.29232268e+00 1.31934724e+00 4.65202049e+00 1.31934724e+00 -2.74795136e+01
1.71920142e+01 -7.83700038e-01 -3.34710276e+00 -7.83700038e-01 1.02190363e+01 1.88332888e+00 -3.34710276e+00 1.88332888e+00 2.06035614e+00
1.04914474e+00 -3.52737129e+00 5.21098719e+00 -3.52737129e+00 2.20942458e-01 3.92811337e+00 5.21098719e+00 3.92811337e+00 -2.53069032e+01
1.26857219e+01 -3.00986493e+00 -4.07092131e+00 -3.00986493e+00 4.44267082e+00 3.36196092e+00 -4.07092131e+00 3.36196092e+00 -8.36178017e+00
-1.30398858e+01 -6.69487456e+00 5.50781850e+00 -6.69487456e+00 -1.11685441e+01 6.65323063e+00 5.50781850e+00 6.65323063e+00 -5.13174299e+01
5.15793657e+00 9.10497144e-01 1.53817870e-01 9.10497144e-01 -1.45006859e+00 -8.93788770e-01 1.53817870e-01 -8.93788770e-01 -2.50403259e+01
3.30713034e+00 5.27981311e-01 3.87209699e-01 5.27981311e-01 -2.88232124e+00 -1.36179198e-02 3.87209699e-01 -1.36179198e-02 -2.88778219e+01
3.29848560e+00 6.82147216e-01 1.62985572e+00 6.82147216e-01 -1.25590222e+00 -3.84934141e-01 1.62985572e+00 -3.84934141e-01 -2.71489576e+01
5.32327092e+00 2.67673135e-01 1.53994042e+00 2.67673135e-01 2.29387925e+00 2.54890155e-01 1.53994042e+00 2.54890155e-01 -2.14378846e+01
9.90283383e+00 1.48774771e+00 1.99346591e-01 1.48774771e+00 4.19630447e+00 -1.66413167e+00 1.99346591e-01 -1.66413167e+00 -1.38617509e+01
9.53172050e+00 6.66919074e-01 2.40765207e+00 6.66919074e-01 3.84271033e+00 9.26533584e-01 2.40765207e+00 9.26533584e-01 -1.46939783e+01
1.99191763e+01 8.12837878e-01 -1.50945461e+00 8.12837878e-01 1.61558924e+01 -1.47506700e+00 -1.50945461e+00 -1.47506700e+00 8.45982659e+00
2.32640088e+01 -6.45308328e-01 -2.72280594e-01 -6.45308328e-01 1.90128153e+01 8.04484089e-01 -2.72280594e-01 8.04484089e-01 1.64637713e+01
2.59587250e+01 -5.64977261e-01 -4.73877243e+00 -5.64977261e-01 2.31138323e+01 -1.41922849e+00 -4.73877243e+00 -1.41922849e+00 3.03283822e+01
3.89372507e+00 -6.41439470e+00 1.97453070e+00 -6.41439470e+00 1.01496998e+01 3.08300968e+00 1.97453070e+00 3.08300968e+00 2.33353576e+00
2.73761959e+01 3.00092293e+00 -5.39753278e+00 3.00092293e+00 2.85999781e+01 -7.21620739e-01 -5.39753278e+00 -7.21620739e-01 3.66082198e+01
3.03895545e+00 2.16141035e-01 2.67722225e+00 2.16141035e-01 8.28127193e+00 -1.19531560e+00 2.67722225e+00 -1.19531560e+00 4.10160565e+00
1.88766286e+01 2.15005875e-03 -1.86347443e+00 2.15005875e-03 3.20425892e+00 7.29025351e-01 -1.86347443e+00 7.29025351e-01 2.08901248e+01
-6.36850357e-01 -2.47915077e+00 5.32276344e+00 -2.47915077e+00 -1.09618556e+01 -1.15867841e+00 5.32276344e+00 -1.15867841e+00 -2.73061275e+00
5.57176551e+00 -4.97703593e-01 5.56262985e-01 -4.97703593e-01 -3.67285699e+00 -1.18159217e+00 5.56262985e-01 -1.18159217e+00 -2.63749032e+01
4.10972607e+00 -5.27463853e-01 6.34987116e-01 -5.27463853e-01 -4.51762617e+00 -1.08741350e-02 6.34987116e-01 -1.08741350e-02 -2.91478958e+01
5.80529568e+00 -9.66955129e-01 1.98952418e+00 -9.66955129e-01 -1.37759720e+00 7.85397142e-02 1.98952418e+00 7.85397142e-02 -2.38471130e+01
4.52477729e+00 -6.23096004e-01 7.64122726e-01 -6.23096004e-01 -2.37087849e+00 5.55483505e-01 7.64122726e-01 5.55483505e-01 -2.67490225e+01
8.84766066e+00 -5.69295470e-01 -5.61458007e-01 -5.69295470e-01 7.31449500e-01 -2.23861960e+00 -5.61458007e-01 -2.23861960e+00 -1.82120456e+01
9.54494521e+00 -1.54299000e+00 1.22090337e+00 -1.54299000e+00 2.24244324e+00 1.50025233e+00 1.22090337e+00 1.50025233e+00 -1.54795362e+01
1.17777513e+01 -2.30664072e+00 -1.73511390e+00 -2.30664072e+00 9.33303106e+00 -5.12096095e+00 -1.73511390e+00 -5.12096095e+00 -2.52861243e+00
1.44824816e+01 -7.46539449e-01 -5.13026297e-01 -7.46539449e-01 7.92243707e+00 1.47672473e+00 -5.13026297e-01 1.47672473e+00 -4.50806093e+00
1.20874736e+01 1.18687677e+00 -2.67415996e+00 1.18687677e+00 1.19772041e+01 -3.19832349e+00 -2.67415996e+00 -3.19832349e+00 6.78204880e+00
1.41662547e+01 3.28124928e+00 1.58485572e-01 3.28124928e+00 5.91189575e+00 5.80840149e+00 1.58485572e-01 5.80840149e+00 -4.08733785e-01
4.23879042e+00 -2.66589737e+00 1.68163481e+00 -2.66589737e+00 -1.71419845e+01 6.26349378e-01 1.68163481e+00 6.26349378e-01 3.62188386e-01
5.48001309e+00 -4.44690736e+00 1.91459113e+00 -4.44690736e+00 6.24589024e+00 2.80361104e-01 1.91459113e+00 2.80361104e-01 1.87178596e+00
8.23419619e+00 -3.61538625e+00 2.83914208e-01 -3.61538625e+00 -1.57596116e+01 -7.92975650e-01 2.83914208e-01 -7.92975650e-01 3.36289740e+00
6.58800272e+00 -8.64394665e-01 -1.46921785e+00 -8.64394665e-01 4.72696296e+00 5.01036515e-01 -1.46921785e+00 5.01036515e-01 4.00527318e-02
3.30055006e+00 -1.69469656e+00 9.06566873e-01 -1.69469656e+00 -3.07460028e+00 -7.93852791e-01 9.06566873e-01 -7.93852791e-01 -2.87891359e+01
2.12949520e+00 -1.18954885e+00 8.93203095e-02 -1.18954885e+00 -4.94009757e+00 -9.48406570e-03 8.93203095e-02 -9.48406570e-03 -3.21773939e+01
4.51068985e+00 -1.45325362e+00 2.07199088e-01 -1.45325362e+00 -3.82452548e-01 1.02895935e+00 2.07199088e-01 1.02895935e+00 -2.48054132e+01
3.07146043e+00 -4.66564350e-01 -3.16037543e-01 -4.66564350e-01 -2.73560473e+00 1.32161033e+00 -3.16037543e-01 1.32161033e+00 -2.88370500e+01
4.96959716e+00 -1.05762844e+00 8.37673262e-01 -1.05762844e+00 8.42046320e-01 -3.40651304e+00 8.37673262e-01 -3.40651304e+00 -2.23438897e+01
5.63257872e+00 -2.85529548e+00 -9.58934284e-02 -2.85529548e+00 3.55992677e+00 2.00010406e+00 -9.58934284e-02 2.00010406e+00 -1.88639613e+01
8.95137811e+00 -2.44229972e-01 -1.57771837e-01 -2.44229972e-01 9.38249099e+00 -3.89256153e+00 -1.57771837e-01 -3.89256153e+00 -8.03579605e+00
3.90164431e+00 -2.80970966e-01 -8.59599834e-01 -2.80970966e-01 3.19924016e+00 5.20577625e+00 -8.59599834e-01 5.20577625e+00 -1.80566241e+01
2.11704123e+00 8.18237640e-01 -5.18628731e-01 8.18237640e-01 5.37545449e+00 -4.82578319e+00 -5.18628731e-01 -4.82578319e+00 1.45978516e+00
8.24790439e+00 3.11339113e+00 5.63404284e-01 3.11339113e+00 9.18136865e-01 4.34818208e+00 5.63404284e-01 4.34818208e+00 -1.94104983e+00
-2.06155258e+00 9.54629168e-01 2.66331799e-01 9.54629168e-01 4.14668036e+00 1.17142686e+00 2.66331799e-01 1.17142686e+00 6.12454832e-01
1.10575311e+00 1.17815996e+00 -4.15958422e-01 1.17815996e+00 1.01999837e+00 -5.37110101e-01 -4.15958422e-01 -5.37110101e-01 -1.98225614e-01
1.97771548e+00 6.63557410e-01 -1.04595959e+00 6.63557410e-01 -6.17818213e+00 7.58035511e-01 -1.04595959e+00 7.58035511e-01 -3.46601188e-01
1.96009156e+00 1.08677308e-01 -7.81297117e-01 1.08677308e-01 -6.58253415e+00 -1.41172906e-02 -7.81297117e-01 -1.41172906e-02 1.22796949e+00
-1.14598918e+00 -1.82549475e+00 -2.07178362e-01 -1.82549475e+00 -6.62365997e+00 -1.06803131e+00 -2.07178362e-01 -1.06803131e+00 -3.76889467e+01
-1.49404538e+00 -6.85034037e-01 7.64189184e-01 -6.85034037e-01 -9.47795200e+00 -1.14345625e-02 7.64189184e-01 -1.14345625e-02 -4.09746246e+01
-4.63213362e-01 -1.01761121e+00 1.79806411e-01 -1.01761121e+00 -4.85707249e+00 -7.33075447e-01 1.79806411e-01 -7.33075447e-01 -3.52369442e+01
-3.26900035e-01 -1.64858305e+00 -6.59054548e-01 -1.64858305e+00 -4.84863234e+00 1.22579461e+00 -6.59054548e-01 1.22579461e+00 -3.52189503e+01
-4.07961321e+00 -2.84108162e+00 3.40630317e+00 -2.84108162e+00 -3.15161467e+00 -4.81570733e+00 3.40630317e+00 -4.81570733e+00 -3.55585594e+01
-3.85571262e+00 -3.07695875e+00 1.67082600e+00 -3.07695875e+00 -1.54401037e+00 1.44194376e+00 1.67082600e+00 1.44194376e+00 -3.53280654e+01
1.73478937e+00 -2.30166209e+00 7.85467625e+00 -2.30166209e+00 8.39836264e+00 -9.59589660e-01 7.85467625e+00 -9.59589660e-01 -1.75210023e+01
-1.01701169e+01 -4.83928680e+00 3.66938082e+00 -4.83928680e+00 -4.15426000e+00 1.00790456e+01 3.66938082e+00 1.00790456e+01 -3.78189570e+01
-2.19527502e+01 -2.36363959e+00 1.94120194e+00 -2.36363959e+00 1.03799665e+01 -2.25537962e+00 1.94120194e+00 -2.25537962e+00 5.67346334e+00
-1.22994075e+01 -5.29101205e+00 4.08464149e-01 -5.29101205e+00 -9.37167287e-01 3.53132749e+00 4.08464149e-01 3.53132749e+00 -1.12368011e+00
-9.48184180e+00 1.45335937e+00 4.68280420e-01 1.45335937e+00 2.08771139e+00 3.19577172e-01 4.68280420e-01 3.19577172e-01 3.12826941e+00
-4.71030696e+00 5.63713670e-01 7.90425430e-01 5.63713670e-01 5.93344092e-01 -8.74016484e-01 7.90425430e-01 -8.74016484e-01 9.09925481e-01
-2.75268126e+00 2.06530261e+00 -7.34780550e-01 2.06530261e+00 -3.53392315e+00 4.56703335e-01 -7.34780550e-01 4.56703335e-01 8.57212603e-01
-1.86461669e+00 5.60356826e-01 7.68554240e-01 5.60356826e-01 -2.30576801e+00 4.59209912e-01 7.68554240e-01 4.59209912e-01 9.10956204e-01
-2.29506338e+00 -2.26570223e-03 9.27908272e-02 -2.26570223e-03 2.02953699e+00 -1.06083733e+00 9.27908272e-02 -1.06083733e+00 -2.99657402e+01
-1.63038478e+00 -1.81031931e-01 9.16602299e-01 -1.81031931e-01 1.45300376e+00 -5.41057786e-01 9.16602299e-01 -5.41057786e-01 -3.00009828e+01
-5.93320839e-01 -9.66319162e-01 6.57518025e-01 -9.66319162e-01 3.35504382e+00 -3.27072549e-01 6.57518025e-01 -3.27072549e-01 -2.65809717e+01
-2.72774373e+00 -1.35952586e-01 7.56412566e-01 -1.35952586e-01 2.55442971e+00 -2.57975295e-01 7.56412566e-01 -2.57975295e-01 -2.95843635e+01
1.98401475e+00 -1.03808747e+00 3.39488730e-01 -1.03808747e+00 2.28274757e+00 5.68664870e-02 3.39488730e-01 5.68664870e-02 -2.54464068e+01
1.33865549e+00 -1.27569722e+00 -2.64959186e-02 -1.27569722e+00 2.77593728e+00 -1.43688259e+00 -2.64959186e-02 -1.43688259e+00 -2.50455053e+01
3.71461901e+00 7.83871002e-02 8.57054386e-02 7.83871002e-02 1.91893528e+00 -6.83302589e-01 8.57054386e-02 -6.83302589e-01 -2.39011016e+01
1.69140927e+00 -7.55202187e-01 -1.29201099e-01 -7.55202187e-01 1.37432806e+00 -4.42959720e-02 -1.29201099e-01 -4.42959720e-02 -2.63575447e+01
2.68727803e+00 -5.11977151e-01 1.60460964e+00 -5.11977151e-01 -6.49153516e-01 -8.46859403e-01 1.60460964e+00 -8.46859403e-01 -2.75680785e+01
7.78967321e-01 -4.95136131e-01 3.00124777e-01 -4.95136131e-01 1.00350678e+00 9.55424866e-01 3.00124777e-01 9.55424866e-01 -2.79329891e+01
4.02536458e+00 -5.39227381e-01 1.82272977e+00 -5.39227381e-01 2.58648598e+00 -3.26986935e-01 1.82272977e+00 -3.26986935e-01 -2.26332617e+01
2.36997878e+00 -1.86043345e-01 1.18889484e+00 -1.86043345e-01 1.63810498e+00 2.90997474e-01 1.18889484e+00 2.90997474e-01 -2.55489832e+01
5.93968010e+00 1.10505378e+00 1.50288945e+00 1.10505378e+00 6.08487988e+00 -1.67349868e-01 1.50288945e+00 -1.67349868e-01 -1.70205755e+01
5.97143888e+00 5.15287921e-01 -9.64993238e-03 5.15287921e-01 4.93956101e+00 -4.46075290e-01 -9.64993238e-03 -4.46075290e-01 -1.81450525e+01
7.85529114e-01 -1.18939769e+00 1.07476245e+00 -1.18939769e+00 4.75934803e+00 -1.41679795e+00 1.07476245e+00 -1.41679795e+00 -2.34443747e+01
-1.60081485e+00 -8.04641575e-01 2.60784391e+00 -8.04641575e-01 3.98306347e+00 -1.03240448e+00 2.60784391e+00 -1.03240448e+00 -2.62609484e+01
-1.03533023e+01 -9.52613155e-01 3.34923361e+00 -9.52613155e-01 -6.61009811e+00 -3.80554114e-01 3.34923361e+00 -3.80554114e-01 -4.80453461e+01
-2.57347200e+01 -3.09849582e+00 9.16314158e+00 -3.09849582e+00 -2.35442762e+01 6.41843775e-01 9.16314158e+00 6.41843775e-01 -7.84144409e+01
-1.76873531e+01 -1.69182971e-01 1.91998163e+00 -1.69182971e-01 -1.37813101e+01 2.60339430e+00 1.91998163e+00 2.60339430e+00 -6.35242014e+01
-2.11315939e+01 -6.23373985e-02 3.70991451e+00 -6.23373985e-02 -1.73474289e+01 4.97159570e+00 3.70991451e+00 4.97159570e+00 -6.99571915e+01
-2.21878786e+01 -7.63930142e-01 8.32419783e-01 -7.63930142e-01 -1.69166884e+01 4.74550450e+00 8.32419783e-01 4.74550450e+00 -7.08275757e+01
5.02500790e+00 8.54288340e-02 3.24192522e+00 8.54288340e-02 8.06416531e+00 -8.42713989e-01 3.24192522e+00 -8.42713989e-01 -1.46597571e+01
2.56756306e+00 -3.51931185e-01 2.14011177e+00 -3.51931185e-01 5.96847075e+00 -1.00080313e+00 2.14011177e+00 -1.00080313e+00 -2.01965544e+01
-1.28613655e+01 -1.03348152e+00 6.08716432e+00 -1.03348152e+00 -7.83459123e+00 7.83910436e+00 6.08716432e+00 7.83910436e+00 -4.77646449e+01
-1.88145635e+01 -3.76073289e+00 5.34581757e+00 -3.76073289e+00 -8.45714903e+00 1.03463829e+01 5.34581757e+00 1.03463829e+01 -8.13247347e+00
5.78454049e+00 -1.75354257e-02 2.78390909e+00 -1.75354257e-02 4.10583914e+00 1.45133828e+00 2.78390909e+00 1.45133828e+00 -1.76042639e+01
5.59606427e+00 6.61452010e-01 1.99886009e+00 6.61452010e-01 4.91454846e+00 1.93837380e+00 1.99886009e+00 1.93837380e+00 -1.83161433e+01
1.18912101e+01 -3.25307023e+00 2.67134255e+00 -3.25307023e+00 1.15040394e+01 2.94569388e+00 2.67134255e+00 2.94569388e+00 -1.90841770e+00
2.30218541e+01 -1.38595541e+00 -6.90388616e+00 -1.38595541e+00 2.42340682e+01 -7.12965012e-01 -6.90388616e+00 -7.12965012e-01 2.00862277e+01
4.07943615e+00 -1.35173609e+00 4.09095272e-01 -1.35173609e+00 2.79590143e+00 1.30775091e+00 4.09095272e-01 1.30775091e+00 -2.15680442e+01
7.52528715e+00 -8.44443083e-01 5.03979348e-01 -8.44443083e-01 5.20734042e+00 1.22320488e+00 5.03979348e-01 1.22320488e+00 -1.59361629e+01
1.35046227e+00 -2.23779043e+00 7.16297058e-01 -2.23779043e+00 6.94753557e-01 2.23709716e+00 7.16297058e-01 2.23709716e+00 -2.59701526e+01
-4.04160404e+00 8.91602397e-01 -3.29105330e+00 8.91602397e-01 -5.08028746e+00 4.25459084e+00 -3.29105330e+00 4.25459084e+00 -3.90042472e+01
8.87819946e-01 -8.84641409e-02 -6.79674855e-01 -8.84641409e-02 3.25468951e+00 -4.69810829e-01 -6.79674855e-01 -4.69810829e-01 -2.55344533e+01
1.23562264e+00 7.90878862e-01 4.54525232e-01 7.90878862e-01 1.52796078e+00 1.50467791e-02 4.54525232e-01 1.50467791e-02 -2.69303293e+01
-3.91021705e+00 4.50403914e-01 1.09103606e+00 4.50403914e-01 1.61603093e-02 -3.20026508e-01 1.09103606e+00 -3.20026508e-01 -3.42290144e+01
-3.24594154e+01 4.55110058e-01 1.72560662e-01 4.55110058e-01 -2.88066111e+01 4.50248325e+00 1.72560662e-01 4.50248325e+00 -9.72241173e+01
1.36511654e-01 -6.52473390e-01 5.05711734e-02 -6.52473390e-01 -8.96594971e-02 -1.30643355e-01 5.05711734e-02 -1.30643355e-01 -4.52040121e-01
-2.22811751e-01 -4.93825018e-01 -2.93655396e-01 -4.93825018e-01 1.61240380e-01 -7.71834701e-02 -2.93655396e-01 -7.71834701e-02 -3.43611848e-01
2.41999269e-01 -1.88685097e-01 3.19641229e-01 -1.88685097e-01 3.08595803e-01 2.30912331e-01 3.19641229e-01 2.30912331e-01 -9.55791116e-01
1.66047320e-01 -3.47413674e-01 -2.07004920e-01 -3.47413674e-01 -3.77514340e-01 -2.72570401e-01 -2.07004920e-01 -2.72570401e-01 -1.93773791e-01
-8.10484886e-02 2.75887945e-03 1.58825278e+00 2.75887945e-03 4.91705656e-01 -1.90459251e-01 1.58825278e+00 -1.90459251e-01 -2.94732018e+01
4.18778524e-01 1.17295258e-01 9.72488180e-01 1.17295258e-01 1.46235600e-01 3.52407640e-01 9.72488180e-01 3.52407640e-01 -2.93157830e+01
8.97573789e-01 -1.31665787e+00 1.50934400e+00 -1.31665787e+00 1.21048988e+00 4.40347737e-01 1.50934400e+00 4.40347737e-01 -2.74103103e+01
-7.04833120e-01 1.17039564e-01 1.51238915e+00 1.17039564e-01 7.07087606e-01 -8.58334854e-01 1.51238915e+00 -8.58334854e-01 -2.98912344e+01
2.94406849e+00 -1.34948562e+00 1.20520204e+00 -1.34948562e+00 1.71650112e-01 1.44543068e-01 1.20520204e+00 1.44543068e-01 -2.63887494e+01
3.02063233e+00 -1.86817935e+00 1.49703979e+00 -1.86817935e+00 1.40251787e+00 8.93596470e-01 1.49703979e+00 8.93596470e-01 -2.46206807e+01
5.13259500e+00 1.06834564e-01 4.09609511e-01 1.06834564e-01 3.82825851e-01 9.44068573e-01 4.09609511e-01 9.44068573e-01 -2.35863957e+01
4.77010887e+00 -7.55215652e-01 -2.27463316e-01 -7.55215652e-01 1.60030693e+00 -3.77833521e-01 -2.27463316e-01 -3.77833521e-01 -2.26811740e+01
7.19222385e+00 2.82593817e-01 -6.18737832e-01 2.82593817e-01 2.16851616e+00 -6.65731840e-02 -6.18737832e-01 -6.65731840e-02 -1.94008819e+01
2.21276164e-01 4.20087130e-01 -1.03081303e+00 4.20087130e-01 -2.24371773e+00 7.73062930e-02 -1.03081303e+00 7.73062930e-02 -3.17674628e+01
9.09778273e+00 2.45577864e-01 5.33948585e-01 2.45577864e-01 5.72425058e+00 -6.31609460e-01 5.33948585e-01 -6.31609460e-01 -1.37196196e+01
3.10535225e+00 3.39863612e-01 -1.07303970e-01 3.39863612e-01 8.68385255e-01 1.17635308e-01 -1.07303970e-01 1.17635308e-01 -2.55767682e+01
1.24946041e+01 2.71880783e-01 5.32050386e-01 2.71880783e-01 9.65046024e+00 -8.32513645e-01 5.32050386e-01 -8.32513645e-01 -5.71287584e+00
9.46410662e+00 1.10399943e-01 -2.81863885e-01 1.10399943e-01 7.43796562e+00 -6.49269819e-01 -2.81863885e-01 -6.49269819e-01 -1.15762997e+01
1.13307774e-01 -2.09991398e+00 3.49614397e+00 -2.09991398e+00 3.45439509e+00 8.89092979e-02 3.49614397e+00 8.89092979e-02 -2.41570889e+01
-2.80855656e-01 -1.48483664e+00 2.50460961e+00 -1.48483664e+00 4.78741598e+00 -3.63998204e-01 2.50460961e+00 -3.63998204e-01 -2.42027669e+01
2.78913287e+00 -2.48050217e-01 2.55067325e+00 -2.48050217e-01 1.44038957e+00 1.79947357e-01 2.55067325e+00 1.79947357e-01 -2.75862295e+01
-3.09505978e+01 -1.84341106e+00 -9.24366603e+00 -1.84341106e+00 -3.13536818e+01 -6.94090164e-01 -9.24366603e+00 -6.94090164e-01 -9.21077995e+01
-2.37137504e+01 1.64179802e-02 -3.07203987e+00 1.64179802e-02 -2.09000623e+01 1.99679706e+00 -3.07203987e+00 1.99679706e+00 -7.78849993e+01
-1.31058838e+01 -3.02982738e-01 -3.99680391e-01 -3.02982738e-01 -1.20481753e+01 1.49711721e+00 -3.99680391e-01 1.49711721e+00 -5.71287794e+01
-4.53885577e+00 2.15469271e-01 -4.78224337e-01 2.15469271e-01 -2.94874775e+00 3.64777520e-01 -4.78224337e-01 3.64777520e-01 -3.80381794e+01
-5.08626074e+00 -1.20331823e+00 5.23358999e+00 -1.20331823e+00 -1.55860105e-01 6.93700620e-01 5.23358999e+00 6.93700620e-01 -3.24530313e+01
5.88420522e+00 5.51947221e-01 3.24569807e+00 5.51947221e-01 1.07662649e+01 2.95767128e-01 3.24569807e+00 2.95767128e-01 -1.06153461e+01
-4.71283183e+01 -6.17662978e+00 1.16577774e+01 -6.17662978e+00 -4.29247746e+01 -1.19795074e+01 1.16577774e+01 -1.19795074e+01 -1.15299803e+02
6.36992499e+00 -3.70238017e-01 1.56505362e+00 -3.70238017e-01 9.09524236e+00 2.16182209e+00 1.56505362e+00 2.16182209e+00 -1.22931382e+01
5.47458386e+00 -1.03445496e+00 3.39227688e+00 -1.03445496e+00 9.12898725e+00 -1.85934687e-01 3.39227688e+00 -1.85934687e-01 -1.21963357e+01
-1.90876592e+01 2.13315504e-01 3.33025432e+00 2.13315504e-01 -1.49906649e+01 1.31289784e+01 3.33025432e+00 1.31289784e+01 -5.42914319e+01
1.37730809e+01 6.61620002e-01 1.86333707e+00 6.61620002e-01 1.54343835e+01 -4.86558201e-01 1.86333707e+00 -4.86558201e-01 1.74440312e+00
7.37830876e+00 9.01346497e-01 -6.08681738e-02 9.01346497e-01 9.39180994e+00 1.96542693e-01 -6.08681738e-02 1.96542693e-01 -1.14284196e+01
1.10778540e+01 -7.42417685e-01 1.92633365e-01 -7.42417685e-01 1.36172983e+01 1.57707592e+00 1.92633365e-01 1.57707592e+00 -4.79417583e+00
-2.89827766e+01 9.62306404e+00 -1.74554157e+01 9.62306404e+00 -3.00233669e+01 2.50285511e+01 -1.74554157e+01 2.50285511e+01 -2.16141243e+01
-3.81702881e+01 4.22135353e+00 -1.69471639e+01 4.22135353e+00 -3.81771371e+01 -1.77239100e-01 -1.69471639e+01 -1.77239100e-01 -1.07394016e+02
-4.40230787e-01 1.91258095e+00 2.53204366e+00 1.91258095e+00 1.49766588e+00 2.75368503e+00 2.53204366e+00 2.75368503e+00 -2.72977289e+01
-2.84053826e+00 -5.57590835e-02 9.23447192e-01 -5.57590835e-02 1.87995338e+00 2.06428534e+00 9.23447192e-01 2.06428534e+00 -3.03425174e+01
</DataArray>
<DataArray type="Float32" Name="Logarithmic_strain_components" NumberOfComponents="9" format="ascii">
7.49421213e-03 -3.69465852e-07 3.79163794e-07 -3.69465852e-07 1.85924824e-02 -3.64714651e-07 3.79163794e-07 -3.64714651e-07 -2.22409144e-02
8.22884985e-03 1.01392367e-03 3.19849278e-07 1.01392367e-03 1.95002062e-02 3.36295387e-04 3.19849278e-07 3.36295387e-04 -2.36815941e-02
8.81940522e-03 3.18288582e-03 -1.86076257e-03 3.18288582e-03 1.69019960e-02 -5.73539175e-04 -1.86076257e-03 -5.73539175e-04 -2.20211810e-02
8.20487319e-03 1.16956810e-03 -9.72580019e-04 1.16956810e-03 1.60245341e-02 2.97537554e-07 -9.72580019e-04 2.97537554e-07 -2.06806399e-02
7.63579248e-03 1.15819489e-06 1.87272322e-03 1.15819489e-06 1.74268382e-02 -1.17013440e-03 1.87272322e-03 -1.17013440e-03 -2.13696053e-02
8.48884403e-03 1.01984841e-04 1.33059188e-03 1.01984841e-04 1.78756719e-02 -1.74450567e-03 1.33059188e-03 -1.74450567e-03 -2.25318489e-02
8.65490653e-03 1.30029803e-03 4.39665710e-04 1.30029803e-03 1.61299470e-02 -2.21542199e-03 4.39665710e-04 -2.21542199e-03 -2.11881474e-02
7.98070664e-03 2.80471570e-04 8.32157195e-04 2.80471570e-04 1.58736226e-02 -1.71309654e-03 8.32157195e-04 -1.71309654e-03 -2.04052343e-02
9.91331181e-03 5.41487883e-04 7.31986802e-07 5.41487883e-04 2.22744746e-02 4.94134838e-05 7.31986802e-07 4.94134838e-05 -2.76367422e-02
9.99777461e-03 4.53218014e-03 -3.16517468e-03 4.53218014e-03 1.87673913e-02 1.65967547e-04 -3.16517468e-03 1.65967547e-04 -2.47189654e-02
1.03826036e-02 6.50674599e-04 2.62233056e-03 6.50674599e-04 1.87963652e-02 -2.20912034e-03 2.62233056e-03 -2.20912034e-03 -2.49382043e-02
1.04379519e-02 2.07994248e-03 1.63955709e-04 2.07994248e-03 1.77092531e-02 -3.07362108e-03 1.63955709e-04 -3.07362108e-03 -2.42008381e-02
1.21449851e-02 6.19841507e-04 3.32385753e-07 6.19841507e-04 2.53428509e-02 1.90726150e-03 3.32385753e-07 1.90726150e-03 -3.23186703e-02
1.15483208e-02 3.10173241e-03 -4.93223872e-03 3.10173241e-03 2.11346420e-02 1.73292607e-04 -4.93223872e-03 1.73292607e-04 -2.81948932e-02
1.30662047e-02 -1.12053056e-03 2.85733346e-03 -1.12053056e-03 2.04003993e-02 -1.28549644e-03 2.85733346e-03 -1.28549644e-03 -2.87044374e-02
1.23575393e-02 -4.23477170e-04 1.59980162e-03 -4.23477170e-04 1.93324615e-02 -1.86879785e-03 1.59980162e-03 -1.86879785e-03 -2.72405157e-02
1.51906852e-02 -3.06432799e-03 3.60281410e-06 -3.06432799e-03 2.73315702e-02 1.91236386e-03 3.60281410e-06 1.91236386e-03 -3.66154183e-02
1.38424616e-02 -1.49782129e-03 -7.02945481e-03 -1.49782129e-03 2.38112910e-02 1.87894364e-03 -7.02945481e-03 1.87894364e-03 -3.26339519e-02
1.62495940e-02 -3.09309998e-03 1.91988674e-03 -3.09309998e-03 2.18705754e-02 -1.39864479e-03 1.91988674e-03 -1.39864479e-03 -3.27836704e-02
1.46256258e-02 -3.50100185e-03 1.52477541e-03 -3.50100185e-03 1.96497189e-02 -5.95850579e-05 1.52477541e-03 -5.95850579e-05 -2.92461554e-02
1.88106010e-02 -6.00766437e-03 6.35241122e-06 -6.00766437e-03 3.02472003e-02 8.39008717e-04 6.35241122e-06 8.39008717e-04 -4.22603823e-02
1.58205477e-02 -4.33923275e-03 -8.41040863e-03 -4.33923275e-03 2.58875261e-02 3.05455306e-03 -8.41040863e-03 3.05455306e-03 -3.59568410e-02
1.79983797e-02 -3.78449692e-03 3.98059736e-03 -3.78449692e-03 2.37696469e-02 -2.33958101e-03 3.98059736e-03 -2.33958101e-03 -3.57363317e-02
1.72184784e-02 -5.07835523e-03 4.03266709e-03 -5.07835523e-03 2.09696882e-02 -4.37503717e-04 4.03266709e-03 -4.37503717e-04 -3.25596079e-02
1.75902005e-02 -1.35278199e-02 -1.86933175e-05 -1.35278199e-02 3.77141796e-02 -3.61457886e-03 -1.86933175e-05 -3.61457886e-03 -4.82958332e-02
1.57361925e-02 -7.46917620e-03 -1.17611689e-02 -7.46917620e-03 3.15657156e-02 7.18512153e-03 -1.17611689e-02 7.18512153e-03 -4.13694065e-02
1.64918560e-02 -2.70416506e-03 1.06565474e-03 -2.70416506e-03 2.93402076e-02 -5.19408437e-03 1.06565474e-03 -5.19408437e-03 -3.96084227e-02
1.70350149e-02 -5.07287856e-03 1.87201193e-04 -5.07287856e-03 2.52589248e-02 3.04603611e-04 1.87201193e-04 3.04603611e-04 -3.64093925e-02
9.68442182e-03 3.54029587e-03 -1.06986304e-03 3.54029587e-03 1.06033408e-02 -1.22895243e-03 -1.06986304e-03 -1.22895243e-03 -1.74196344e-02
9.62581346e-03 1.03935722e-03 -1.00998720e-03 1.03935722e-03 1.05868792e-02 6.42220584e-07 -1.00998720e-03 6.42220584e-07 -1.73604954e-02
8.96611548e-03 2.44316067e-03 2.38937634e-03 2.44316067e-03 1.17278358e-02 -1.78925883e-03 2.38937634e-03 -1.78925883e-03 -1.77807852e-02
8.29912152e-03 9.75710922e-04 2.07925844e-03 9.75710922e-04 1.12190358e-02 -2.36983786e-04 2.07925844e-03 -2.36983786e-04 -1.66739726e-02
9.01984260e-03 5.12617186e-03 -2.29180284e-03 5.12617186e-03 1.03129138e-02 -1.76938911e-03 -2.29180284e-03 -1.76938911e-03 -1.65155092e-02
9.17644560e-03 2.90002688e-03 3.53094664e-03 2.90002688e-03 1.20607585e-02 -1.23131031e-04 3.53094664e-03 -1.23131031e-04 -1.81991581e-02
7.16138200e-03 3.35385028e-03 -3.54823662e-03 3.35385028e-03 9.55948024e-03 -1.22417818e-03 -3.54823662e-03 -1.22417818e-03 -1.39146445e-02
9.05837638e-03 1.10686347e-04 8.03995216e-03 1.10686347e-04 1.25442196e-02 1.55440312e-03 8.03995216e-03 1.55440312e-03 -1.83610969e-02
6.80949516e-03 -2.32322147e-03 -7.05612346e-03 -2.32322147e-03 1.07497429e-02 1.47110809e-03 -7.05612346e-03 1.47110809e-03 -1.45372113e-02
9.45349728e-03 -5.00833037e-03 1.06377662e-02 -5.00833037e-03 1.45717039e-02 3.79381922e-03 1.06377662e-02 3.79381922e-03 -2.03598035e-02
7.26966769e-03 -5.32195217e-03 -7.38682260e-03 -5.32195217e-03 9.56583110e-03 4.22585360e-03 -7.38682260e-03 4.22585360e-03 -1.36214427e-02
1.00952646e-02 -7.59502896e-03 1.32736610e-02 -7.59502896e-03 1.44055335e-02 9.46215501e-03 1.32736610e-02 9.46215501e-03 -2.04886650e-02
8.25750595e-03 -8.25923425e-03 -7.21390755e-03 -8.25923425e-03 9.51411540e-03 8.04200768e-03 -7.21390755e-03 8.04200768e-03 -1.45477904e-02
1.12514691e-02 -1.14588082e-02 1.36070236e-02 -1.14588082e-02 1.66968866e-02 1.35982940e-02 1.36070236e-02 1.35982940e-02 -2.37986899e-02
9.62342974e-03 1.51709106e-03 4.24315085e-05 1.51709106e-03 5.14056743e-03 -1.49494706e-03 4.24315085e-05 -1.49494706e-03 -1.26850076e-02
1.03495908e-02 8.67186376e-04 4.77436479e-04 8.67186376e-04 5.82968188e-03 -5.86989245e-07 4.77436479e-04 -5.86989245e-07 -1.39760417e-02
9.03136481e-03 1.14033420e-03 3.26132342e-03 1.14033420e-03 6.40584528e-03 -2.88755706e-04 3.26132342e-03 -2.88755706e-04 -1.33119813e-02
8.54494958e-03 4.28463165e-04 2.95275656e-03 4.28463165e-04 6.40483224e-03 1.20693317e-03 2.95275656e-03 1.20693317e-03 -1.27710705e-02
6.98679069e-03 1.87821000e-03 -1.10809938e-05 1.87821000e-03 3.42170827e-03 -1.82851369e-03 -1.10809938e-05 -1.82851369e-03 -8.76314612e-03
7.14082440e-03 1.17881043e-03 4.49092437e-03 1.17881043e-03 4.52416012e-03 1.19369334e-03 4.49092437e-03 1.19369334e-03 -9.84008331e-03
2.72025810e-03 7.97785009e-04 -1.16194153e-03 7.97785009e-04 1.72242838e-03 -1.65695068e-03 -1.16194153e-03 -1.65695068e-03 -3.27864027e-03
2.14304009e-03 -9.52924786e-04 4.12329487e-03 -9.52924786e-04 1.55374687e-03 -1.76301808e-04 4.12329487e-03 -1.76301808e-04 -2.28716550e-03
1.22844589e-03 -4.27012741e-03 -3.24465800e-03 -4.27012741e-03 1.42501786e-04 -1.12093046e-03 -3.24465800e-03 -1.12093046e-03 -1.09511525e-04
3.72141769e-04 -6.99809392e-03 7.24711952e-03 -6.99809392e-03 2.35764026e-03 1.82432866e-03 7.24711952e-03 1.82432866e-03 -1.44081780e-03
9.16836599e-04 -1.02303519e-03 -3.01308239e-03 -1.02303519e-03 -1.10980113e-03 -6.02414793e-04 -3.01308239e-03 -6.02414793e-04 1.33148959e-03
2.64513306e-04 -3.01467538e-03 7.43069733e-03 -3.01467538e-03 1.20830274e-03 -7.86415651e-04 7.43069733e-03 -7.86415651e-04 -2.70145033e-04
1.31688117e-03 -1.13657559e-03 -1.51989306e-03 -1.13657559e-03 -2.60554961e-03 6.28619920e-04 -1.51989306e-03 6.28619920e-04 2.14304193e-03
9.54496791e-04 -3.70836083e-03 5.96819702e-03 -3.70836083e-03 -5.46978205e-04 -4.11703833e-04 5.96819702e-03 -4.11703833e-04 5.31515223e-04
9.11412714e-03 -5.06406384e-04 8.27279699e-04 -5.06406384e-04 3.32958210e-03 -1.49389569e-03 8.27279699e-04 -1.49389569e-03 -1.07428939e-02
1.00520379e-02 -4.94860957e-04 7.63178890e-04 -4.94860957e-04 4.12947545e-03 6.34968274e-08 7.63178890e-04 6.34968274e-08 -1.22767589e-02
8.09119828e-03 -1.02246449e-03 2.49226559e-03 -1.02246449e-03 3.68196628e-03 3.13131433e-04 2.49226559e-03 3.13131433e-04 -1.01303258e-02
8.84123985e-03 -4.31575667e-04 1.38197879e-03 -4.31575667e-04 4.27259982e-03 1.23267577e-03 1.38197879e-03 1.23267577e-03 -1.13289729e-02
5.78389526e-03 -5.71108079e-04 -5.30650141e-04 -5.71108079e-04 1.79855473e-03 -1.98264793e-03 -5.30650141e-04 -1.98264793e-03 -6.47450495e-03
5.54527342e-03 -1.69399206e-03 1.56565476e-03 -1.69399206e-03 1.92952114e-03 1.16913176e-03 1.56565476e-03 1.16913176e-03 -6.31213671e-03
1.51833994e-03 -1.04876254e-03 -6.26363471e-04 -1.04876254e-03 4.61949830e-04 -1.71444385e-03 -6.26363471e-04 -1.71444385e-03 -1.43448522e-03
2.45004242e-03 -8.08891185e-04 -7.53937088e-04 -8.08891185e-04 5.69806222e-04 7.91257868e-04 -7.53937088e-04 7.91257868e-04 -2.34678170e-03
7.36686731e-05 -4.01065299e-04 -6.32122368e-05 -4.01065299e-04 3.30089618e-05 -1.48799464e-04 -6.32122368e-05 -1.48799464e-04 2.33129172e-04
4.44477679e-04 3.34508465e-04 -2.35962475e-04 3.34508465e-04 3.90995750e-04 8.72734077e-04 -2.35962475e-04 8.72734077e-04 -4.95620671e-04
1.31006516e-03 -2.79469592e-03 1.72006985e-04 -2.79469592e-03 -2.19914326e-03 5.91009320e-05 1.72006985e-04 5.91009320e-05 1.10914616e-03
-8.92460753e-06 -1.80906617e-03 1.23200550e-04 -1.80906617e-03 3.66632625e-04 1.70438016e-05 1.23200550e-04 1.70438016e-05 -1.16827100e-04
1.09733474e-03 -3.04138279e-03 -6.03206849e-04 -3.04138279e-03 -1.72516493e-03 -7.23006233e-05 -6.03206849e-04 -7.23006233e-05 8.52071433e-04
-2.76430937e-04 -1.48451565e-03 -7.17439957e-04 -1.48451565e-03 9.83979536e-04 -1.24634341e-05 -7.17439957e-04 -1.24634341e-05 -4.66651213e-04
8.37145164e-03 -1.53390222e-03 8.16662156e-04 -1.53390222e-03 4.62934497e-03 -1.22605107e-03 8.16662156e-04 -1.22605107e-03 -1.12988150e-02
9.94438352e-03 -1.32459466e-03 1.95285087e-04 -1.32459466e-03 5.38002769e-03 3.22443213e-07 1.95285087e-04 3.22443213e-07 -1.33379935e-02
7.39632896e-03 -1.60011115e-03 2.19407908e-04 -1.60011115e-03 4.49188036e-03 1.39388257e-03 2.19407908e-04 1.39388257e-03 -1.02666342e-02
8.42831039e-03 -7.02156016e-04 -5.89350326e-04 -7.02156016e-04 5.00569522e-03 2.37301062e-03 -5.89350326e-04 2.37301062e-03 -1.16609822e-02
4.85073740e-03 -1.23538956e-03 5.32163191e-04 -1.23538956e-03 2.57469915e-03 -2.61445576e-03 5.32163191e-04 -2.61445576e-03 -6.43994450e-03
4.70217309e-03 -2.44563803e-03 3.29392473e-04 -2.44563803e-03 3.72176067e-03 1.98661588e-03 3.29392473e-04 1.98661588e-03 -7.20527093e-03
9.33189516e-04 -7.68819053e-04 -1.11120720e-04 -7.68819053e-04 4.72085376e-04 -9.03202585e-04 -1.11120720e-04 -9.03202585e-04 -1.10491534e-03
2.81536110e-03 -8.14549245e-04 -3.39452192e-04 -8.14549245e-04 1.78000811e-03 3.95182352e-03 -3.39452192e-04 3.95182352e-03 -3.95292967e-03
-2.73535566e-05 7.05853308e-05 -2.26306665e-05 7.05853308e-05 -3.26324880e-07 -1.84672670e-04 -2.26306665e-05 -1.84672670e-04 1.06158386e-04
2.79967202e-04 8.38018277e-05 7.20995167e-05 8.38018277e-05 -1.34176948e-04 3.06529226e-04 7.20995167e-05 3.06529226e-04 -6.63662868e-05
-5.99701289e-05 4.58248860e-05 1.26849761e-05 4.58248860e-05 8.91960717e-05 5.62199903e-05 1.26849761e-05 5.62199903e-05 4.30335012e-06
1.91886131e-05 5.67450218e-05 -1.99616432e-05 5.67450218e-05 1.63339891e-05 -2.58188458e-05 -1.99616432e-05 -2.58188458e-05 -1.26789466e-05
6.58218769e-05 3.18609891e-05 -5.01785380e-05 3.18609891e-05 -1.30369794e-04 3.63850741e-05 -5.01785380e-05 3.63850741e-05 9.73951137e-06
6.05780372e-05 4.99411787e-06 -3.73000154e-05 4.99411787e-06 -1.44319212e-04 -5.26663219e-07 -3.73000154e-05 -5.26663219e-07 4.29220587e-05
8.93784012e-03 -1.80292231e-03 -1.10947793e-04 -1.80292231e-03 5.82275772e-03 -1.95831107e-03 -1.10947793e-04 -1.95831107e-03 -1.29953041e-02
1.12283891e-02 -1.33646454e-03 5.91764518e-04 -1.33646454e-03 6.13303343e-03 1.45589365e-06 5.91764518e-04 1.45589365e-06 -1.52735775e-02
8.21249688e-03 -1.64101139e-03 7.40292016e-05 -1.64101139e-03 5.89709193e-03 -3.13188022e-04 7.40292016e-05 -3.13188022e-04 -1.23979147e-02
8.83665634e-03 -2.03309744e-03 -1.67124427e-03 -2.03309744e-03 6.09397725e-03 2.58109497e-03 -1.67124427e-03 2.58109497e-03 -1.30878771e-02
4.55626426e-03 -2.72743637e-03 2.39165779e-03 -2.72743637e-03 4.45540331e-03 -3.47012992e-03 2.39165779e-03 -3.47012992e-03 -8.06353334e-03
5.25936583e-03 -2.74192402e-03 2.75612455e-03 -2.74192402e-03 6.27035240e-03 1.60752485e-03 2.75612455e-03 1.60752485e-03 -1.01880301e-02
2.71473837e-04 -1.52969689e-03 1.60282932e-03 -1.52969689e-03 1.29110989e-03 -4.59019240e-04 1.60282932e-03 -4.59019240e-04 -1.39379123e-03
3.26652718e-03 -2.81983930e-03 3.27193878e-03 -2.81983930e-03 3.75581921e-03 6.33532888e-03 3.27193878e-03 6.33532888e-03 -6.37470939e-03
-5.93792254e-04 -1.51002736e-04 1.49023926e-05 -1.51002736e-04 2.37853463e-04 -2.48350232e-04 1.49023926e-05 -2.48350232e-04 2.70799086e-04
-4.48437648e-04 -1.00549610e-03 2.03699983e-05 -1.00549610e-03 1.82353182e-04 8.21374386e-04 2.03699983e-05 8.21374386e-04 1.80974439e-04
-2.10430393e-04 6.96881725e-05 2.18755558e-05 6.96881725e-05 6.71679863e-05 1.52432272e-05 2.18755558e-05 1.52432272e-05 9.22036370e-05
-1.00361364e-04 2.68213771e-05 3.77615956e-05 2.68213771e-05 2.67860247e-05 -4.17153772e-05 3.77615956e-05 -4.17153772e-05 3.41297858e-05
-4.46370832e-05 9.88039828e-05 -3.53583673e-05 9.88039828e-05 -6.30841678e-05 2.20804322e-05 -3.53583673e-05 2.20804322e-05 4.25022336e-05
-3.16616442e-05 2.78517018e-05 3.67260473e-05 2.78517018e-05 -4.23168722e-05 2.20232064e-05 3.67260473e-05 2.20232064e-05 3.53338473e-05
9.25106835e-03 2.23185930e-06 1.42140343e-03 2.23185930e-06 1.51270078e-02 -2.67792819e-03 1.42140343e-03 -2.67792819e-03 -2.08991170e-02
1.02210634e-02 -6.79696343e-04 3.00809974e-03 -6.79696343e-04 1.43901687e-02 -1.06492390e-03 3.00809974e-03 -1.06492390e-03 -2.11109635e-02
8.95429438e-03 -2.97236790e-03 2.12157118e-03 -2.97236790e-03 1.43390191e-02 -1.79609093e-03 2.12157118e-03 -1.79609093e-03 -1.98712207e-02
8.31175852e-03 -5.49771867e-04 2.40811918e-03 -5.49771867e-04 1.48099212e-02 -1.08942817e-03 2.40811918e-03 -1.08942817e-03 -1.98029373e-02
1.23477872e-02 -2.71019270e-03 6.42396026e-05 -2.71019270e-03 1.27286387e-02 -5.77399005e-04 6.42396026e-05 -5.77399005e-04 -2.14050729e-02
1.15824712e-02 -3.91720075e-03 9.56603646e-04 -3.91720075e-03 1.34315620e-02 -3.84829090e-03 9.56603646e-04 -3.84829090e-03 -2.12475546e-02
1.47359471e-02 1.80964798e-04 4.09242617e-04 1.80964798e-04 1.17531687e-02 -3.31579922e-03 4.09242617e-04 -3.31579922e-03 -2.25348393e-02
1.41738503e-02 -1.84762181e-03 1.58419806e-03 -1.84762181e-03 1.43246787e-02 1.02618727e-03 1.58419806e-03 1.02618727e-03 -2.42010113e-02
1.63830284e-02 -1.43948349e-03 7.52532878e-03 -1.43948349e-03 1.20257004e-02 -3.16260618e-03 7.52532878e-03 -3.16260618e-03 -2.41937912e-02
1.52196391e-02 -1.30283720e-03 1.77905162e-03 -1.30283720e-03 1.63228017e-02 2.41732731e-03 1.77905162e-03 2.41732731e-03 -2.68670623e-02
1.52750411e-02 -1.12731880e-03 8.19016155e-03 -1.12731880e-03 1.34923928e-02 -2.32648033e-03 8.19016155e-03 -2.32648033e-03 -2.43745996e-02
1.60560480e-02 -5.18802805e-04 5.31955968e-03 -5.18802805e-04 1.62182547e-02 -2.47343014e-05 5.31955968e-03 -2.47343014e-05 -2.74138993e-02
1.42010464e-02 3.75450344e-03 7.32350582e-03 3.75450344e-03 1.41893802e-02 -3.70908319e-03 7.32350582e-03 -3.70908319e-03 -2.39444636e-02
1.59016952e-02 2.31839663e-03 -3.09492170e-05 2.31839663e-03 1.57225626e-02 -2.28647455e-03 -3.09492170e-05 -2.28647455e-03 -2.66962973e-02
7.81359471e-03 -2.62969013e-03 3.13751912e-03 -2.62969013e-03 1.30974425e-02 -2.95116660e-03 3.13751912e-03 -2.95116660e-03 -1.77904631e-02
6.44465780e-03 -1.26899400e-03 6.36610133e-03 -1.26899400e-03 1.32596605e-02 -3.10876517e-03 6.36610133e-03 -3.10876517e-03 -1.67809273e-02
1.15012428e-02 -1.84448563e-03 7.84959205e-03 -1.84448563e-03 1.50307583e-02 -5.60108406e-04 7.84959205e-03 -5.60108406e-04 -2.31461139e-02
1.58800960e-02 -3.74297795e-03 1.52285973e-02 -3.74297795e-03 1.85441293e-02 -2.36527214e-04 1.52285973e-02 -2.36527214e-04 -3.04156102e-02
1.73897049e-02 -3.63334315e-04 4.48366860e-03 -3.63334315e-04 2.15500784e-02 5.61435364e-03 4.48366860e-03 5.61435364e-03 -3.40803657e-02
1.88388680e-02 -1.30256107e-04 7.83330086e-03 -1.30256107e-04 2.17684647e-02 1.09629357e-02 7.83330086e-03 1.09629357e-02 -3.55896624e-02
1.91505086e-02 9.46479617e-04 -4.90623584e-04 9.46479617e-04 2.21087877e-02 8.53711658e-03 -4.90623584e-04 8.53711658e-03 -3.61399595e-02
5.84133336e-03 1.70224645e-04 7.63964531e-03 1.70224645e-04 9.25984565e-03 3.98166594e-06 7.63964531e-03 3.98166594e-06 -1.26214051e-02
5.69959311e-03 1.07945262e-05 4.78337498e-03 1.07945262e-05 9.49438394e-03 -2.53412320e-03 4.78337498e-03 -2.53412320e-03 -1.29039332e-02
6.76487458e-03 -1.76855710e-03 1.01042627e-02 -1.76855710e-03 1.10911582e-02 1.04513577e-02 1.01042627e-02 1.04513577e-02 -1.55790512e-02
-3.68896686e-03 -7.46997690e-03 1.33443470e-02 -7.46997690e-03 2.84395769e-03 9.26352898e-03 1.33443470e-02 9.26352898e-03 2.93019845e-03
6.03340863e-03 -3.59977319e-04 4.81052188e-03 -3.59977319e-04 5.19750174e-03 2.34012216e-03 4.81052188e-03 2.34012216e-03 -9.45712905e-03
5.77788916e-03 5.57864361e-04 3.24346402e-03 5.57864361e-04 5.52391738e-03 2.43871240e-03 3.24346402e-03 2.43871240e-03 -9.62850405e-03
4.30128540e-03 -3.93794450e-03 4.31910681e-03 -3.93794450e-03 3.67614667e-03 4.58006448e-03 4.31910681e-03 4.58006448e-03 -6.36768554e-03
7.19564424e-04 -1.89026401e-04 -5.37097206e-03 -1.89026401e-04 1.67106148e-03 3.32390866e-03 -5.37097206e-03 3.32390866e-03 -1.11356090e-03
5.83309430e-03 -2.45128214e-03 6.34632128e-04 -2.45128214e-03 5.29541043e-03 2.43703771e-03 6.34632128e-04 2.43703771e-03 -9.52272455e-03
5.63036033e-03 -1.05004813e-03 8.88382874e-04 -1.05004813e-03 4.22975601e-03 2.18942139e-03 8.88382874e-04 2.18942139e-03 -8.37672222e-03
6.84518984e-03 -3.12277293e-03 8.57370120e-04 -3.12277293e-03 7.02372289e-03 3.48362575e-03 8.57370120e-04 3.48362575e-03 -1.19211983e-02
8.74864124e-03 5.51373247e-04 -4.79729092e-03 5.51373247e-04 8.96369922e-03 5.48621197e-03 -4.79729092e-03 5.48621197e-03 -1.55710282e-02
5.37861849e-03 -1.94928743e-05 -1.39009689e-03 -1.94928743e-05 7.09156133e-03 -5.52320846e-04 -1.39009689e-03 -5.52320846e-04 -1.07909644e-02
5.67574752e-03 1.74777949e-03 8.84037581e-04 1.74777949e-03 5.87308686e-03 -9.34488198e-04 8.84037581e-04 -9.34488198e-04 -1.00590554e-02
8.35482799e-03 -3.61473416e-04 2.04481889e-03 -3.61473416e-04 1.03415148e-02 -2.95671067e-04 2.04481889e-03 -2.95671067e-04 -1.62569322e-02
1.46284788e-02 7.01268757e-04 2.92732674e-03 7.01268757e-04 1.58896754e-02 9.82317771e-03 2.92732674e-03 9.82317771e-03 -2.78101005e-02
4.87643575e-06 -3.10779360e-05 2.30880596e-06 -3.10779360e-05 -4.18167474e-07 -6.25228029e-06 2.30880596e-06 -6.25228029e-06 -8.94075447e-06
-3.57740311e-06 -2.37455915e-05 -1.36397557e-05 -2.37455915e-05 5.37535527e-06 -3.87123055e-06 -1.36397557e-05 -3.87123055e-06 -6.72583553e-06
7.37870016e-06 -9.27105111e-06 1.52579838e-05 -9.27105111e-06 8.91652053e-06 1.12366788e-05 1.52579838e-05 1.12366788e-05 -2.09948039e-05
6.30090517e-06 -1.66521413e-05 -1.01592059e-05 -1.66521413e-05 -7.28416171e-06 -1.28332358e-05 -1.01592059e-05 -1.28332358e-05 -3.12996192e-06
1.23900734e-02 3.02233275e-06 4.57873871e-03 3.02233275e-06 1.28345829e-02 -1.21972873e-03 4.57873871e-03 -1.21972873e-03 -2.16187499e-02
1.27266638e-02 -1.18701701e-05 3.59198812e-03 -1.18701701e-05 1.21414009e-02 3.93979353e-04 3.59198812e-03 3.93979353e-04 -2.13123010e-02
1.23313183e-02 -3.68688135e-03 4.98291673e-03 -3.68688135e-03 1.23506037e-02 1.20280650e-03 4.98291673e-03 1.20280650e-03 -2.10795430e-02
1.16785595e-02 1.51733333e-04 4.57967707e-03 1.51733333e-04 1.32700827e-02 -2.20373552e-03 4.57967707e-03 -2.20373552e-03 -2.13912781e-02
1.39403143e-02 -3.28044529e-03 5.32782869e-03 -3.28044529e-03 9.85237234e-03 2.96464494e-04 5.32782869e-03 2.96464494e-04 -2.02913345e-02
1.37991698e-02 -5.44137519e-03 3.31711020e-03 -5.44137519e-03 1.11530091e-02 1.25723959e-03 3.31711020e-03 1.25723959e-03 -2.12189404e-02
1.50904302e-02 1.54344711e-04 1.94113716e-03 1.54344711e-04 7.94658740e-03 2.23459446e-03 1.94113716e-03 2.23459446e-03 -1.95730212e-02
1.48768703e-02 -2.67421216e-03 -2.18939918e-03 -2.67421216e-03 1.12801886e-02 -2.17459748e-03 -2.18939918e-03 -2.17459748e-03 -2.21528064e-02
1.45749555e-02 3.18940198e-04 -2.35350995e-03 3.18940198e-04 7.38574693e-03 -7.19992626e-04 -2.35350995e-03 -7.19992626e-04 -1.85609725e-02
1.47049110e-02 1.33770095e-03 -1.74978930e-03 1.33770095e-03 1.35088385e-02 -3.05562862e-04 -1.74978930e-03 -3.05562862e-04 -2.41468402e-02
1.20449311e-02 1.07135365e-03 1.51570607e-03 1.07135365e-03 7.87147402e-03 -2.16238780e-03 1.51570607e-03 -2.16238780e-03 -1.67332978e-02
1.39205465e-02 1.63209869e-03 9.10137337e-05 1.63209869e-03 1.23928146e-02 6.90536508e-04 9.10137337e-05 6.90536508e-04 -2.24221041e-02
1.09865386e-02 1.88755617e-03 1.98584225e-03 1.88755617e-03 6.65732054e-03 -2.24028781e-03 1.98584225e-03 -2.24028781e-03 -1.46148708e-02
1.26453098e-02 1.43654510e-03 2.04514756e-04 1.43654510e-03 1.06756761e-02 -2.07376303e-03 2.04514756e-04 -2.07376303e-03 -1.95431155e-02
1.00863851e-02 -6.11660833e-03 1.10356649e-02 -6.11660833e-03 1.33557946e-02 -1.23570988e-03 1.10356649e-02 -1.23570988e-03 -1.97153913e-02
8.37116735e-03 -4.01604804e-03 7.37470947e-03 -4.01604804e-03 1.43848776e-02 -1.29595652e-03 7.37470947e-03 -1.29595652e-03 -1.93280992e-02
1.46685249e-02 -1.52209536e-03 6.38709836e-03 -1.52209536e-03 1.37110499e-02 -3.08263134e-03 6.38709836e-03 -3.08263134e-03 -2.44182785e-02
1.91235131e-02 -3.77754964e-03 -2.01399941e-02 -3.77754964e-03 1.73230398e-02 4.15516552e-04 -2.01399941e-02 4.15516552e-04 -3.25288575e-02
1.84299042e-02 4.25698585e-04 -4.76276356e-03 4.25698585e-04 2.05445332e-02 4.87169377e-03 -4.76276356e-03 4.87169377e-03 -3.45233129e-02
1.73847736e-02 -1.09740667e-03 -1.96379801e-03 -1.09740667e-03 1.77975665e-02 2.88583210e-03 -1.96379801e-03 2.88583210e-03 -3.07339933e-02
1.57773276e-02 4.43522149e-04 -2.18585809e-03 4.43522149e-04 1.58022204e-02 9.33362782e-04 -2.18585809e-03 9.33362782e-04 -2.71731298e-02
8.17780464e-03 -3.23765515e-03 1.20752524e-02 -3.23765515e-03 1.28703339e-02 -1.19132655e-04 1.20752524e-02 -1.19132655e-04 -1.78835888e-02
5.08899277e-03 5.88876166e-04 9.13964468e-03 5.88876166e-04 1.21541424e-02 4.10953409e-03 9.13964468e-03 4.10953409e-03 -1.42704912e-02
1.53863095e-02 -7.48971745e-03 1.94899663e-02 -7.48971745e-03 1.90361382e-02 -2.05698260e-02 1.94899663e-02 -2.05698260e-02 -3.06913722e-02
5.17882536e-03 -1.07456787e-03 4.71666859e-03 -1.07456787e-03 8.27146667e-03 5.87111858e-03 4.71666859e-03 5.87111858e-03 -1.11745310e-02
4.27892554e-03 -2.01062462e-03 8.21356341e-03 -2.01062462e-03 7.96073151e-03 1.11907776e-03 8.21356341e-03 1.11907776e-03 -1.00817166e-02
5.50694737e-03 -4.17913601e-04 3.19894392e-03 -4.17913601e-04 1.00350323e-02 1.66092846e-02 3.19894392e-03 1.66092846e-02 -1.33885373e-02
5.69542445e-03 1.80716073e-03 4.40923398e-03 1.80716073e-03 6.94012234e-03 1.26334700e-03 4.40923398e-03 1.26334700e-03 -1.02387237e-02
5.37674571e-03 2.18049862e-03 2.30569625e-04 2.18049862e-03 7.00781471e-03 -9.10896095e-04 2.30569625e-04 -9.10896095e-04 -1.03633598e-02
8.46640273e-03 -2.85401051e-03 -3.61785737e-03 -2.85401051e-03 1.17506917e-02 5.47302684e-03 -3.61785737e-03 5.47302684e-03 -1.68988391e-02
-1.98706682e-03 1.52254859e-02 -2.49777474e-02 1.52254859e-02 -1.97996595e-03 2.01375242e-02 -2.49777474e-02 2.01375242e-02 6.23186352e-03
1.61538040e-02 7.63286790e-03 -2.86991460e-02 7.63286790e-03 1.94932787e-02 6.25321226e-03 -2.86991460e-02 6.25321226e-03 -3.20704697e-02
8.16751330e-03 4.35775172e-03 7.67170452e-03 4.35775172e-03 9.77473485e-03 4.32613853e-03 7.67170452e-03 4.32613853e-03 -1.53588543e-02
6.17420604e-03 -3.33360629e-04 4.46473237e-03 -3.33360629e-04 1.01486146e-02 4.30802698e-03 4.46473237e-03 4.30802698e-03 -1.40178730e-02
</DataArray>
<DataArray type="Float32" Name="Plastic_strain_components" NumberOfComponents="9" format="ascii">
7.47010577e-03 -2.01265721e-07 2.02648152e-07 -2.01265721e-07 1.83951482e-02 4.39686119e-08 2.02648152e-07 4.39686119e-08 -2.16491371e-02
8.21292726e-03 9.98535659e-04 -7.45822035e-08 9.98535659e-04 1.93080110e-02 3.36040481e-04 -7.45822035e-08 3.36040481e-04 -2.30479697e-02
8.78114777e-03 3.13507294e-03 -1.82982837e-03 3.13507294e-03 1.67333717e-02 -5.61151930e-04 -1.82982837e-03 -5.61151930e-04 -2.13974076e-02
8.14140192e-03 1.15109485e-03 -9.55600990e-04 1.15109485e-03 1.58344735e-02 6.48042260e-08 -9.55600990e-04 6.48042260e-08 -2.01148922e-02
7.59799057e-03 1.04139940e-06 1.84584898e-03 1.04139940e-06 1.72273563e-02 -1.15073967e-03 1.84584898e-03 -1.15073967e-03 -2.07955875e-02
8.45837174e-03 9.81230314e-05 1.30715768e-03 9.81230314e-05 1.76909915e-02 -1.71782184e-03 1.30715768e-03 -1.71782184e-03 -2.19244794e-02
8.59851041e-03 1.27636304e-03 4.37646355e-04 1.27636304e-03 1.59505198e-02 -2.17793632e-03 4.37646355e-04 -2.17793632e-03 -2.06004891e-02
7.93138880e-03 2.74339269e-04 8.23858194e-04 2.74339269e-04 1.56953342e-02 -1.68972110e-03 8.23858194e-04 -1.68972110e-03 -1.98172126e-02
9.94399376e-03 5.37432177e-04 5.07990080e-07 5.37432177e-04 2.21136902e-02 6.03850276e-05 5.07990080e-07 6.03850276e-05 -2.68724440e-02
9.99643980e-03 4.45684936e-03 -3.12158617e-03 4.45684936e-03 1.86215932e-02 1.65308054e-04 -3.12158617e-03 1.65308054e-04 -2.39950502e-02
1.03327709e-02 6.38480749e-04 2.59308383e-03 6.38480749e-04 1.86174032e-02 -2.18201632e-03 2.59308383e-03 -2.18201632e-03 -2.43091714e-02
1.04164735e-02 2.04375338e-03 1.76014953e-04 2.04375338e-03 1.75653240e-02 -3.01374812e-03 1.76014953e-04 -3.01374812e-03 -2.35041701e-02
1.22167803e-02 5.95827820e-04 1.12493399e-06 5.95827820e-04 2.52088858e-02 1.87639723e-03 1.12493399e-06 1.87639723e-03 -3.13946828e-02
1.15917148e-02 3.04679884e-03 -4.85851872e-03 3.04679884e-03 2.10217843e-02 1.93290689e-04 -4.85851872e-03 1.93290689e-04 -2.73695826e-02
1.30213003e-02 -1.09653879e-03 2.83763086e-03 -1.09653879e-03 2.02525663e-02 -1.25792072e-03 2.83763086e-03 -1.25792072e-03 -2.79876227e-02
1.23431507e-02 -4.14191276e-04 1.58467857e-03 -4.14191276e-04 1.92037695e-02 -1.83682382e-03 1.58467857e-03 -1.83682382e-03 -2.65012381e-02
1.52401053e-02 -3.01483669e-03 4.13225280e-06 -3.01483669e-03 2.71963906e-02 1.89049827e-03 4.13225280e-06 1.89049827e-03 -3.56457513e-02
1.39537742e-02 -1.46238854e-03 -6.90510671e-03 -1.46238854e-03 2.37379940e-02 1.86224724e-03 -6.90510671e-03 1.86224724e-03 -3.16511435e-02
1.62316079e-02 -3.03984765e-03 1.89070631e-03 -3.03984765e-03 2.17764638e-02 -1.38202542e-03 1.89070631e-03 -1.38202542e-03 -3.19973002e-02
1.45409717e-02 -3.43973604e-03 1.49706873e-03 -3.43973604e-03 1.94981841e-02 -7.00143428e-05 1.49706873e-03 -7.00143428e-05 -2.86034925e-02
1.88932577e-02 -5.94078517e-03 6.34987919e-06 -5.94078517e-03 3.01556531e-02 8.19421490e-04 6.34987919e-06 8.19421490e-04 -4.12386768e-02
1.59265974e-02 -4.20908025e-03 -8.28134711e-03 -4.20908025e-03 2.58279676e-02 3.00621759e-03 -8.28134711e-03 3.00621759e-03 -3.50466315e-02
1.79763222e-02 -3.74165946e-03 3.92662268e-03 -3.74165946e-03 2.36835578e-02 -2.34272664e-03 3.92662268e-03 -2.34272664e-03 -3.50614265e-02
1.71301897e-02 -4.97821267e-03 3.96816659e-03 -4.97821267e-03 2.08347684e-02 -4.55488145e-04 3.96816659e-03 -4.55488145e-04 -3.18911972e-02
1.79311149e-02 -1.32872732e-02 -1.41812925e-05 -1.32872732e-02 3.76556925e-02 -3.58470622e-03 -1.41812925e-05 -3.58470622e-03 -4.65709679e-02
1.61337261e-02 -7.32760527e-03 -1.15765100e-02 -7.32760527e-03 3.16071780e-02 7.02329050e-03 -1.15765100e-02 7.02329050e-03 -3.99304219e-02
1.66235217e-02 -2.66501028e-03 1.03990553e-03 -2.66501028e-03 2.92813331e-02 -5.17807691e-03 1.03990553e-03 -5.17807691e-03 -3.85873616e-02
1.70670659e-02 -4.97500226e-03 1.75099820e-04 -4.97500226e-03 2.51501719e-02 2.43938593e-04 1.75099820e-04 2.43938593e-04 -3.53961317e-02
9.55670909e-03 3.46296374e-03 -1.04873994e-03 3.46296374e-03 1.04835995e-02 -1.20238491e-03 -1.04873994e-03 -1.20238491e-03 -1.68469492e-02
9.49561084e-03 1.02349161e-03 -9.80478129e-04 1.02349161e-03 1.04592796e-02 4.68147846e-07 -9.80478129e-04 4.68147846e-07 -1.67933563e-02
8.86867708e-03 2.39175884e-03 2.35109778e-03 2.39175884e-03 1.15905643e-02 -1.74088695e-03 2.35109778e-03 -1.74088695e-03 -1.71945379e-02
8.17320868e-03 9.52926057e-04 2.03180572e-03 9.52926057e-04 1.10507428e-02 -2.26856042e-04 2.03180572e-03 -2.26856042e-04 -1.61724756e-02
8.88008194e-03 5.01094700e-03 -2.22879159e-03 5.01094700e-03 1.01933716e-02 -1.72136171e-03 -2.22879159e-03 -1.72136171e-03 -1.59995093e-02
9.07425839e-03 2.83664439e-03 3.44836079e-03 2.83664439e-03 1.19252702e-02 -1.05733110e-04 3.44836079e-03 -1.05733110e-04 -1.76344758e-02
6.93534338e-03 3.29327426e-03 -3.46967060e-03 3.29327426e-03 9.35152476e-03 -1.19216758e-03 -3.46967060e-03 -1.19216758e-03 -1.36783116e-02
8.94028826e-03 8.78133225e-05 7.90353326e-03 8.78133225e-05 1.23958631e-02 1.53624138e-03 7.90353326e-03 1.53624138e-03 -1.78999523e-02
6.59474608e-03 -2.22802283e-03 -6.90079434e-03 -2.22802283e-03 1.05394738e-02 1.46038955e-03 -6.90079434e-03 1.46038955e-03 -1.43362372e-02
9.34581653e-03 -4.86031369e-03 1.04251124e-02 -4.86031369e-03 1.44225904e-02 3.73926382e-03 1.04251124e-02 3.73926382e-03 -1.98546544e-02
6.95442414e-03 -5.28253481e-03 -7.22455839e-03 -5.28253481e-03 9.40096658e-03 4.13794327e-03 -7.22455839e-03 4.13794327e-03 -1.35730866e-02
9.93658509e-03 -7.43006732e-03 1.30316201e-02 -7.43006732e-03 1.42666782e-02 9.28900550e-03 1.30316201e-02 9.28900550e-03 -2.00360171e-02
7.94798741e-03 -8.11270927e-03 -7.00754463e-03 -8.11270927e-03 9.38816450e-03 7.88277923e-03 -7.00754463e-03 7.88277923e-03 -1.43407383e-02
1.11990812e-02 -1.11334358e-02 1.33328671e-02 -1.11334358e-02 1.65989158e-02 1.32927870e-02 1.33328671e-02 1.32927870e-02 -2.29405239e-02
9.41257109e-03 1.47259807e-03 3.51680565e-05 1.47259807e-03 5.08777564e-03 -1.45196050e-03 3.51680565e-05 -1.45196050e-03 -1.21658507e-02
1.01552927e-02 8.41557659e-04 4.58870156e-04 8.41557659e-04 5.78467618e-03 3.03591150e-07 4.58870156e-04 3.03591150e-07 -1.33903236e-02
8.85450561e-03 1.10729251e-03 3.18300477e-03 1.10729251e-03 6.33641612e-03 -2.70186963e-04 3.18300477e-03 -2.70186963e-04 -1.27600052e-02
8.35363683e-03 4.15106239e-04 2.87669554e-03 4.15106239e-04 6.28579280e-03 1.19521652e-03 2.87669554e-03 1.19521652e-03 -1.23074320e-02
6.74093992e-03 1.80607244e-03 -1.98873677e-05 1.80607244e-03 3.31405539e-03 -1.74798432e-03 -1.98873677e-05 -1.74798432e-03 -8.43203254e-03
6.90931518e-03 1.13921512e-03 4.40453741e-03 1.13921512e-03 4.43299924e-03 1.14495859e-03 4.40453741e-03 1.14495859e-03 -9.51099885e-03
2.40827243e-03 7.57451794e-04 -1.08799557e-03 7.57451794e-04 1.50231295e-03 -1.58503803e-03 -1.08799557e-03 -1.58503803e-03 -3.30812472e-03
1.75764794e-03 -8.90781851e-04 3.97482708e-03 -8.90781851e-04 1.24646453e-03 -1.98888010e-04 3.97482708e-03 -1.98888010e-04 -2.35998891e-03
9.10214294e-04 -4.23918476e-03 -3.00995478e-03 -4.23918476e-03 -1.04036541e-04 -1.05225425e-03 -3.00995478e-03 -1.05225425e-03 -5.20701792e-04
3.23085793e-04 -6.67335469e-03 7.13363942e-03 -6.67335469e-03 2.15696204e-03 1.67406684e-03 7.13363942e-03 1.67406684e-03 -1.43824170e-03
6.26744974e-04 -1.16535245e-03 -2.74588641e-03 -1.16535245e-03 -1.42333694e-03 -5.69752398e-04 -2.74588641e-03 -5.69752398e-04 8.29144769e-04
2.29443035e-04 -3.01534475e-03 7.28610950e-03 -3.01534475e-03 1.04969179e-03 -7.28697632e-04 7.28610950e-03 -7.28697632e-04 -3.20639461e-04
1.02509445e-03 -1.13510643e-03 -1.42714666e-03 -1.13510643e-03 -2.52195905e-03 5.91566873e-04 -1.42714666e-03 5.91566873e-04 1.81025497e-03
8.74083460e-04 -3.57468054e-03 5.69551007e-03 -3.57468054e-03 -3.80436075e-04 -3.57289493e-04 5.69551007e-03 -3.57289493e-04 5.07338438e-04
8.88178358e-03 -4.82347350e-04 8.00500246e-04 -4.82347350e-04 3.32044979e-03 -1.43723670e-03 8.00500246e-04 -1.43723670e-03 -1.02037750e-02
9.83313471e-03 -4.69173712e-04 7.32297573e-04 -4.69173712e-04 4.12031286e-03 7.14875341e-07 7.32297573e-04 7.14875341e-07 -1.16866301e-02
7.87170237e-03 -9.75983556e-04 2.39612595e-03 -9.75983556e-04 3.63587879e-03 3.09464216e-04 2.39612595e-03 3.09464216e-04 -9.63332807e-03
8.63337633e-03 -4.01881975e-04 1.34483363e-03 -4.01881975e-04 4.23075410e-03 1.20563217e-03 1.34483363e-03 1.20563217e-03 -1.07821892e-02
5.53472782e-03 -5.43819977e-04 -5.03823467e-04 -5.43819977e-04 1.74538535e-03 -1.87522327e-03 -5.03823467e-04 -1.87522327e-03 -6.07275532e-03
5.29746633e-03 -1.61940671e-03 1.50717168e-03 -1.61940671e-03 1.85842444e-03 1.09765206e-03 1.50717168e-03 1.09765206e-03 -5.95662795e-03
1.30750986e-03 -9.37875247e-04 -5.42909263e-04 -9.37875247e-04 3.10677155e-04 -1.46844756e-03 -5.42909263e-04 -1.46844756e-03 -1.30038793e-03
2.17066116e-03 -7.72493564e-04 -7.29724100e-04 -7.72493564e-04 4.48484204e-04 7.19047765e-04 -7.29724100e-04 7.19047765e-04 -2.16714904e-03
-9.30958719e-05 -4.58155045e-04 6.50134229e-05 -4.58155045e-04 -1.31178285e-04 4.96482867e-06 6.50134229e-05 4.96482867e-06 1.93676214e-04
1.82845484e-04 1.77052773e-04 -2.43258269e-04 1.77052773e-04 3.27390357e-04 5.93858521e-04 -2.43258269e-04 5.93858521e-04 -4.06706870e-04
1.16729992e-03 -2.67261243e-03 9.14484190e-05 -2.67261243e-03 -1.83422479e-03 2.92501336e-05 9.14484190e-05 2.92501336e-05 1.05895393e-03
-8.23644421e-05 -1.59421993e-03 3.12310656e-05 -1.59421993e-03 2.75540965e-04 3.57574566e-06 3.12310656e-05 3.57574566e-06 -1.03432273e-04
8.89527844e-04 -2.87190196e-03 -6.18356338e-04 -2.87190196e-03 -1.35890767e-03 -3.39926446e-05 -6.18356338e-04 -3.39926446e-05 7.60862778e-04
-3.85227806e-04 -1.43995968e-03 -6.46334187e-04 -1.43995968e-03 9.19607126e-04 -3.66703060e-05 -6.46334187e-04 -3.66703060e-05 -4.17720845e-04
8.17797007e-03 -1.45234251e-03 7.73279593e-04 -1.45234251e-03 4.58949397e-03 -1.18814668e-03 7.73279593e-04 -1.18814668e-03 -1.07167978e-02
9.75991925e-03 -1.26736774e-03 1.90947198e-04 -1.26736774e-03 5.36421360e-03 5.18798174e-07 1.90947198e-04 5.18798174e-07 -1.27015417e-02
7.20467960e-03 -1.53085935e-03 2.09542121e-04 -1.53085935e-03 4.41755325e-03 1.34521895e-03 2.09542121e-04 1.34521895e-03 -9.75607370e-03
8.24210304e-03 -6.79468707e-04 -5.74662357e-04 -6.79468707e-04 4.95874649e-03 2.30887061e-03 -5.74662357e-04 2.30887061e-03 -1.10797419e-02
4.66356153e-03 -1.18418824e-03 4.91779749e-04 -1.18418824e-03 2.48729848e-03 -2.45070620e-03 4.91779749e-04 -2.45070620e-03 -5.97089331e-03
4.52095931e-03 -2.30865427e-03 3.33586466e-04 -2.30865427e-03 3.59001226e-03 1.89032935e-03 3.33586466e-04 1.89032935e-03 -6.79616071e-03
7.57199290e-04 -7.56847236e-04 -1.04225241e-04 -7.56847236e-04 2.85759073e-04 -7.15622693e-04 -1.04225241e-04 -7.15622693e-04 -8.71952834e-04
2.67891605e-03 -8.00852333e-04 -3.00933117e-04 -8.00852333e-04 1.66076555e-03 3.70317712e-03 -3.00933117e-04 3.70317712e-03 -3.56847843e-03
-4.22197164e-05 3.12997423e-05 2.32829355e-06 3.12997423e-05 -9.35353538e-05 4.68028765e-05 2.32829355e-06 4.68028765e-05 1.07139985e-04
1.10439968e-04 -6.55988712e-05 4.51132499e-05 -6.55988712e-05 -1.27424808e-04 9.75249433e-05 4.51132499e-05 9.75249433e-05 9.10117797e-06
-2.17638160e-07 -1.62715111e-07 -4.71429189e-08 -1.62715111e-07 9.61139435e-08 2.30198682e-09 -4.71429189e-08 2.30198682e-09 8.15425665e-08
6.49789354e-07 4.85808869e-07 1.40751820e-07 4.85808869e-07 -2.86961699e-07 -6.87290580e-09 1.40751820e-07 -6.87290580e-09 -2.43456816e-07
0.00000000e+00 0.00000000e+00 0.00000000e+00 0.00000000e+00 0.00000000e+00 0.00000000e+00 0.00000000e+00 0.00000000e+00 0.00000000e+00
0.00000000e+00 0.00000000e+00 0.00000000e+00 0.00000000e+00 0.00000000e+00 0.00000000e+00 0.00000000e+00 0.00000000e+00 0.00000000e+00
8.79080920e-03 -1.71550293e-03 -1.00648707e-04 -1.71550293e-03 5.80812036e-03 -1.90749986e-03 -1.00648707e-04 -1.90749986e-03 -1.22627271e-02
1.10753011e-02 -1.30363950e-03 5.55565930e-04 -1.30363950e-03 6.16983324e-03 9.95438313e-07 5.55565930e-04 9.95438313e-07 -1.44858612e-02
8.07396637e-03 -1.59379112e-03 6.57771307e-05 -1.59379112e-03 5.86307060e-03 -2.77732470e-04 6.57771307e-05 -2.77732470e-04 -1.17198639e-02
8.69091949e-03 -1.95420149e-03 -1.63923431e-03 -1.95420149e-03 6.05663564e-03 2.52278568e-03 -1.63923431e-03 2.52278568e-03 -1.23949475e-02
4.48676595e-03 -2.59248697e-03 2.22968985e-03 -2.59248697e-03 4.36635572e-03 -3.24106403e-03 2.22968985e-03 -3.24106403e-03 -7.38563505e-03
5.19025617e-03 -2.59623455e-03 2.67733615e-03 -2.59623455e-03 6.14686008e-03 1.53860543e-03 2.67733615e-03 1.53860543e-03 -9.51701507e-03
1.99114089e-04 -1.42046496e-03 1.22704974e-03 -1.42046496e-03 1.05858454e-03 -4.11926027e-04 1.22704974e-03 -4.11926027e-04 -1.00478009e-03
3.32136028e-03 -2.59108778e-03 3.10561483e-03 -2.59108778e-03 3.66613548e-03 5.86511140e-03 3.10561483e-03 5.86511140e-03 -5.69304657e-03
-9.06244095e-05 -3.77646174e-05 -7.86714809e-05 -3.77646174e-05 -3.50129339e-05 -1.40127493e-04 -7.86714809e-05 -1.40127493e-04 1.11135647e-04
-2.10624901e-04 -7.51382089e-04 6.93389438e-07 -7.51382089e-04 1.47575192e-04 6.51913113e-04 6.93389438e-07 6.51913113e-04 1.50084205e-04
0.00000000e+00 0.00000000e+00 0.00000000e+00 0.00000000e+00 0.00000000e+00 0.00000000e+00 0.00000000e+00 0.00000000e+00 0.00000000e+00
0.00000000e+00 0.00000000e+00 0.00000000e+00 0.00000000e+00 0.00000000e+00 0.00000000e+00 0.00000000e+00 0.00000000e+00 0.00000000e+00
0.00000000e+00 0.00000000e+00 0.00000000e+00 0.00000000e+00 0.00000000e+00 0.00000000e+00 0.00000000e+00 0.00000000e+00 0.00000000e+00
0.00000000e+00 0.00000000e+00 0.00000000e+00 0.00000000e+00 0.00000000e+00 0.00000000e+00 0.00000000e+00 0.00000000e+00 0.00000000e+00
9.19196242e-03 2.15258621e-06 1.41739135e-03 2.15258621e-06 1.49661121e-02 -2.62746157e-03 1.41739135e-03 -2.62746157e-03 -2.03025769e-02
1.01426225e-02 -6.70626032e-04 2.96451541e-03 -6.70626032e-04 1.42388360e-02 -1.03955645e-03 2.96451541e-03 -1.03955645e-03 -2.05100295e-02
8.87072959e-03 -2.92598648e-03 2.09063611e-03 -2.92598648e-03 1.41619713e-02 -1.78010615e-03 2.09063611e-03 -1.78010615e-03 -1.93362157e-02
8.25972483e-03 -5.43065165e-04 2.37178549e-03 -5.43065165e-04 1.46307745e-02 -1.07746531e-03 2.37178549e-03 -1.07746531e-03 -1.92109696e-02
1.22158153e-02 -2.66176811e-03 4.83468793e-05 -2.66176811e-03 1.25913413e-02 -5.80161490e-04 4.83468793e-05 -5.80161490e-04 -2.09037485e-02
1.14476766e-02 -3.85503730e-03 9.52774717e-04 -3.85503730e-03 1.32630295e-02 -3.78065255e-03 9.52774717e-04 -3.78065255e-03 -2.07339856e-02
1.45652723e-02 1.76808779e-04 4.05899285e-04 1.76808779e-04 1.16288308e-02 -3.28252388e-03 4.05899285e-04 -3.28252388e-03 -2.20611109e-02
1.40061892e-02 -1.80910211e-03 1.57695546e-03 -1.80910211e-03 1.41618494e-02 1.02622919e-03 1.57695546e-03 1.02622919e-03 -2.36648275e-02
1.62108762e-02 -1.41574407e-03 7.44849886e-03 -1.41574407e-03 1.19361298e-02 -3.12357541e-03 7.44849886e-03 -3.12357541e-03 -2.36520958e-02
1.50731646e-02 -1.27802759e-03 1.76150350e-03 -1.27802759e-03 1.61658126e-02 2.37026608e-03 1.76150350e-03 2.37026608e-03 -2.62988794e-02
1.51213554e-02 -1.10403917e-03 8.10815394e-03 -1.10403917e-03 1.33759789e-02 -2.31226601e-03 8.10815394e-03 -2.31226601e-03 -2.39385944e-02
1.58814933e-02 -5.09684204e-04 5.24984728e-03 -5.09684204e-04 1.60575638e-02 -4.08180967e-05 5.24984728e-03 -4.08180967e-05 -2.68721930e-02
1.40537652e-02 3.70382553e-03 7.25522079e-03 3.70382553e-03 1.40456255e-02 -3.70998739e-03 7.25522079e-03 -3.70998739e-03 -2.36277347e-02
1.56827751e-02 2.29229877e-03 -4.45552287e-05 2.29229877e-03 1.55267243e-02 -2.26182742e-03 -4.45552287e-05 -2.26182742e-03 -2.62639187e-02
7.71533535e-03 -2.57272445e-03 3.08684621e-03 -2.57272445e-03 1.29053787e-02 -2.88444755e-03 3.08684621e-03 -2.88444755e-03 -1.73061907e-02
6.38950628e-03 -1.23108918e-03 6.24433439e-03 -1.23108918e-03 1.30723247e-02 -3.06042453e-03 6.24433439e-03 -3.06042453e-03 -1.62573447e-02
1.15132739e-02 -1.80108041e-03 7.69575526e-03 -1.80108041e-03 1.49549926e-02 -5.40831459e-04 7.69575526e-03 -5.40831459e-04 -2.22481290e-02
1.60588093e-02 -3.59958875e-03 1.48034923e-02 -3.59958875e-03 1.86742192e-02 -2.60772603e-04 1.48034923e-02 -2.60772603e-04 -2.90355466e-02
1.75018813e-02 -3.53970594e-04 4.38691804e-03 -3.53970594e-04 2.15678052e-02 5.48625541e-03 4.38691804e-03 5.48625541e-03 -3.28654526e-02
1.89899094e-02 -1.23912723e-04 7.65717460e-03 -1.23912723e-04 2.18284209e-02 1.07162890e-02 7.65717460e-03 1.07162890e-02 -3.42675159e-02
1.93066541e-02 9.85599851e-04 -5.31248108e-04 9.85599851e-04 2.21385695e-02 8.31574807e-03 -5.31248108e-04 8.31574807e-03 -3.48200202e-02
5.69759661e-03 1.66561782e-04 7.48174265e-03 1.66561782e-04 9.04100545e-03 3.81984864e-05 7.48174265e-03 3.81984864e-05 -1.22796322e-02
5.59312699e-03 2.78783309e-05 4.68349550e-03 2.78783309e-05 9.30833491e-03 -2.48633971e-03 4.68349550e-03 -2.48633971e-03 -1.24796645e-02
6.83232486e-03 -1.72226908e-03 9.82023791e-03 -1.72226908e-03 1.10386984e-02 1.01003807e-02 9.82023791e-03 1.01003807e-02 -1.47260927e-02
-3.45277658e-03 -7.28622882e-03 1.31491642e-02 -7.28622882e-03 2.83362239e-03 8.73083016e-03 1.31491642e-02 8.73083016e-03 2.81734124e-03
5.85825898e-03 -3.59606634e-04 4.67456117e-03 -3.59606634e-04 5.06151709e-03 2.27148696e-03 4.67456117e-03 2.27148696e-03 -9.07261367e-03
5.60794713e-03 5.25870535e-04 3.14740009e-03 5.25870535e-04 5.36968454e-03 2.34590564e-03 3.14740009e-03 2.34590564e-03 -9.22170258e-03
4.08833155e-03 -3.78093825e-03 4.18958004e-03 -3.78093825e-03 3.47443863e-03 4.43697089e-03 4.18958004e-03 4.43697089e-03 -6.23853265e-03
4.16478763e-04 -1.22545433e-04 -5.03943767e-03 -1.22545433e-04 1.33779614e-03 3.34746235e-03 -5.03943767e-03 3.34746235e-03 -1.33360922e-03
5.67436102e-03 -2.38618972e-03 6.16646266e-04 -2.38618972e-03 5.16619629e-03 2.37521180e-03 6.16646266e-04 2.37521180e-03 -9.07047885e-03
5.43180865e-03 -1.00993185e-03 8.63248646e-04 -1.00993185e-03 4.08677990e-03 2.13072298e-03 8.63248646e-04 2.13072298e-03 -8.01047240e-03
6.72345399e-03 -3.01605597e-03 8.28933393e-04 -3.01605597e-03 6.91523092e-03 3.37977584e-03 8.28933393e-04 3.37977584e-03 -1.13933497e-02
8.67242645e-03 5.09784091e-04 -4.63892413e-03 5.09784091e-04 8.91448685e-03 5.28317643e-03 -4.63892413e-03 5.28317643e-03 -1.48107302e-02
5.27012517e-03 -1.62882916e-05 -1.35912061e-03 -1.62882916e-05 6.92663016e-03 -5.32149264e-04 -1.35912061e-03 -5.32149264e-04 -1.02691147e-02
5.56023838e-03 1.71075371e-03 8.63501802e-04 1.71075371e-03 5.75092039e-03 -9.34787735e-04 8.63501802e-04 -9.34787735e-04 -9.52685438e-03
8.28475179e-03 -3.82657978e-04 1.99122812e-03 -3.82657978e-04 1.01741129e-02 -2.89789074e-04 1.99122812e-03 -2.89789074e-04 -1.55870083e-02
1.49288285e-02 6.91972004e-04 2.91572140e-03 6.91972004e-04 1.61049226e-02 9.63100046e-03 2.91572140e-03 9.63100046e-03 -2.61505060e-02
0.00000000e+00 0.00000000e+00 0.00000000e+00 0.00000000e+00 0.00000000e+00 0.00000000e+00 0.00000000e+00 0.00000000e+00 0.00000000e+00
0.00000000e+00 0.00000000e+00 0.00000000e+00 0.00000000e+00 0.00000000e+00 0.00000000e+00 0.00000000e+00 0.00000000e+00 0.00000000e+00
0.00000000e+00 0.00000000e+00 0.00000000e+00 0.00000000e+00 0.00000000e+00 0.00000000e+00 0.00000000e+00 0.00000000e+00 0.00000000e+00
0.00000000e+00 0.00000000e+00 0.00000000e+00 0.00000000e+00 0.00000000e+00 0.00000000e+00 0.00000000e+00 0.00000000e+00 0.00000000e+00
1.22818900e-02 2.57853935e-06 4.50410089e-03 2.57853935e-06 1.27124428e-02 -1.21106778e-03 4.50410089e-03 -1.21106778e-03 -2.10366715e-02
1.25958580e-02 -1.68232068e-05 3.54373414e-03 -1.68232068e-05 1.20170764e-02 3.78191078e-04 3.54373414e-03 3.78191078e-04 -2.07153731e-02
1.22174129e-02 -3.62599557e-03 4.91584482e-03 -3.62599557e-03 1.22282843e-02 1.18178720e-03 4.91584482e-03 1.18178720e-03 -2.05450866e-02
1.15760539e-02 1.47341816e-04 4.50571731e-03 1.47341816e-04 1.31314571e-02 -2.16269266e-03 4.50571731e-03 -2.16269266e-03 -2.07872801e-02
1.37735836e-02 -3.21596413e-03 5.26997296e-03 -3.21596413e-03 9.75111732e-03 2.88069468e-04 5.26997296e-03 2.88069468e-04 -1.97646902e-02
1.36393035e-02 -5.35211508e-03 3.24839448e-03 -5.35211508e-03 1.10335554e-02 1.22016191e-03 3.24839448e-03 1.22016191e-03 -2.07192423e-02
1.48962429e-02 1.49019699e-04 1.92197663e-03 1.49019699e-04 7.86224520e-03 2.19031170e-03 1.92197663e-03 2.19031170e-03 -1.91058316e-02
1.46543997e-02 -2.63375582e-03 -2.16809867e-03 -2.63375582e-03 1.11310908e-02 -2.15395163e-03 -2.16809867e-03 -2.15395163e-03 -2.16625466e-02
1.43381592e-02 3.04937865e-04 -2.32050318e-03 3.04937865e-04 7.27307517e-03 -7.21355551e-04 -2.32050318e-03 -7.21355551e-04 -1.81452604e-02
1.45511396e-02 1.31707570e-03 -1.70211465e-03 1.31707570e-03 1.34054497e-02 -3.07543160e-04 -1.70211465e-03 -3.07543160e-04 -2.35091196e-02
1.17979741e-02 1.05879790e-03 1.49181348e-03 1.05879790e-03 7.71054509e-03 -2.13075925e-03 1.49181348e-03 -2.13075925e-03 -1.64073147e-02
1.37504026e-02 1.61566144e-03 9.83244568e-05 1.61566144e-03 1.22745037e-02 6.85474464e-04 9.83244568e-05 6.85474464e-04 -2.19113806e-02
1.07182269e-02 1.87358924e-03 1.96159433e-03 1.87358924e-03 6.46163151e-03 -2.19750602e-03 1.96159433e-03 -2.19750602e-03 -1.44315688e-02
1.24126684e-02 1.43125262e-03 2.19446971e-04 1.43125262e-03 1.04902624e-02 -2.04466211e-03 2.19446971e-04 -2.04466211e-03 -1.92776439e-02
9.98061127e-03 -6.01552788e-03 1.08660618e-02 -6.01552788e-03 1.31672934e-02 -1.23295131e-03 1.08660618e-02 -1.23295131e-03 -1.92297704e-02
8.30304949e-03 -3.94696870e-03 7.26442004e-03 -3.94696870e-03 1.41984543e-02 -1.27926416e-03 7.26442004e-03 -1.27926416e-03 -1.88519177e-02
1.45742606e-02 -1.51181009e-03 6.21973351e-03 -1.51181009e-03 1.36332476e-02 -3.09680136e-03 6.21973351e-03 -3.09680136e-03 -2.38600754e-02
1.93375306e-02 -3.67949176e-03 -1.94740023e-02 -3.67949176e-03 1.76080212e-02 5.08299191e-04 -1.94740023e-02 5.08299191e-04 -3.06530595e-02
1.86011503e-02 4.26122802e-04 -4.60300274e-03 4.26122802e-04 2.06520418e-02 4.77731068e-03 -4.60300274e-03 4.77731068e-03 -3.30441417e-02
1.74545567e-02 -1.08393170e-03 -1.94927354e-03 -1.08393170e-03 1.78448264e-02 2.82494174e-03 -1.94927354e-03 2.82494174e-03 -2.97175702e-02
1.57425553e-02 4.35494221e-04 -2.16768577e-03 4.35494221e-04 1.57316760e-02 9.15134224e-04 -2.16768577e-03 9.15134224e-04 -2.64960090e-02
8.15423116e-03 -3.17398573e-03 1.18159670e-02 -3.17398573e-03 1.27304051e-02 -1.32769014e-04 1.18159670e-02 -1.32769014e-04 -1.72468831e-02
4.95123467e-03 5.63529655e-04 8.99056369e-03 5.63529655e-04 1.19020722e-02 4.09045932e-03 8.99056369e-03 4.09045932e-03 -1.40176336e-02
1.56371251e-02 -7.20630353e-03 1.93152654e-02 -7.20630353e-03 1.92860786e-02 -2.00404591e-02 1.93152654e-02 -2.00404591e-02 -2.86611309e-02
5.02353182e-03 -1.05721434e-03 4.64661736e-03 -1.05721434e-03 8.05118208e-03 5.76018155e-03 4.64661736e-03 5.76018155e-03 -1.08763106e-02
4.15091036e-03 -1.96140993e-03 8.04789754e-03 -1.96140993e-03 7.74326082e-03 1.12855542e-03 8.04789754e-03 1.12855542e-03 -9.79195093e-03
5.65320825e-03 -4.19230026e-04 3.01301747e-03 -4.19230026e-04 1.00804196e-02 1.60003914e-02 3.01301747e-03 1.60003914e-02 -1.24278709e-02
4.77398037e-03 1.59369817e-03 4.28542035e-03 1.59369817e-03 5.84469667e-03 8.32546379e-04 4.28542035e-03 8.32546379e-04 -8.64655059e-03
5.22137980e-03 2.14003597e-03 2.36149353e-04 2.14003597e-03 6.80737378e-03 -9.18620994e-04 2.36149353e-04 -9.18620994e-04 -1.00859773e-02
8.46738734e-03 -2.76454440e-03 -3.60897894e-03 -2.76454440e-03 1.17270710e-02 5.52143937e-03 -3.60897894e-03 5.52143937e-03 -1.71692285e-02
-1.76223170e-03 1.47270877e-02 -2.40601134e-02 1.47270877e-02 -1.72132370e-03 1.88943520e-02 -2.40601134e-02 1.88943520e-02 6.30003260e-03
1.65868492e-02 7.46575743e-03 -2.80259506e-02 7.46575743e-03 1.99350927e-02 6.32212214e-03 -2.80259506e-02 6.32212214e-03 -3.02740050e-02
8.50733742e-03 4.38060555e-03 7.59993983e-03 4.38060555e-03 1.01468238e-02 4.46441898e-03 7.59993983e-03 4.46441898e-03 -1.56926555e-02
6.10947935e-03 -3.32044554e-04 4.42872522e-03 -3.32044554e-04 9.98225296e-03 4.20401338e-03 4.42872522e-03 4.20401338e-03 -1.34616508e-02
</DataArray>
<DataArray type="Float32" Name="Spatial_displacement" NumberOfComponents="3" format="ascii">
0.00000000e+00 0.00000000e+00 0.00000000e+00
7.34340027e-03 0.00000000e+00 0.00000000e+00
8.36635567e-03 1.97752956e-02 0.00000000e+00
0.00000000e+00 1.85865778e-02 0.00000000e+00
0.00000000e+00 0.00000000e+00 -2.21744366e-02
7.68280402e-03 0.00000000e+00 -2.33201962e-02
7.78503902e-03 1.78822335e-02 -2.20195688e-02
0.00000000e+00 1.75979696e-02 -2.03407742e-02
1.66916251e-02 0.00000000e+00 0.00000000e+00
1.72398072e-02 2.25633346e-02 0.00000000e+00
1.67430323e-02 0.00000000e+00 -2.72189956e-02
1.74000338e-02 1.93384513e-02 -2.46603359e-02
2.73462627e-02 0.00000000e+00 0.00000000e+00
2.79762261e-02 2.62675453e-02 0.00000000e+00
2.92802062e-02 0.00000000e+00 -3.12008802e-02
2.81429309e-02 2.12308429e-02 -2.84213126e-02
4.23313528e-02 0.00000000e+00 0.00000000e+00
3.92208621e-02 2.91626677e-02 0.00000000e+00
4.42773029e-02 0.00000000e+00 -3.45037729e-02
4.11333404e-02 2.19615102e-02 -3.26454118e-02
6.08553365e-02 0.00000000e+00 0.00000000e+00
5.47310486e-02 3.18024792e-02 0.00000000e+00
6.17204085e-02 0.00000000e+00 -4.03018519e-02
5.78621887e-02 2.31661480e-02 -3.64605710e-02
8.24543759e-02 0.00000000e+00 0.00000000e+00
6.86669797e-02 4.23740856e-02 0.00000000e+00
7.87967369e-02 0.00000000e+00 -4.32635695e-02
7.60307759e-02 3.02144494e-02 -4.22456637e-02
9.82168503e-03 3.36129218e-02 0.00000000e+00
0.00000000e+00 3.25624160e-02 0.00000000e+00
8.57861713e-03 3.25294547e-02 -1.72935612e-02
0.00000000e+00 3.15417275e-02 -1.70614310e-02
1.94166414e-02 3.73940170e-02 0.00000000e+00
1.76250059e-02 3.50747518e-02 -1.68080665e-02
2.70917751e-02 4.14544046e-02 0.00000000e+00
2.58522667e-02 3.78739573e-02 -1.37940608e-02
3.38318348e-02 4.70637456e-02 0.00000000e+00
3.53193171e-02 3.99360210e-02 -1.52865686e-02
3.89767364e-02 5.00651747e-02 0.00000000e+00
4.32495475e-02 4.26050313e-02 -1.43966600e-02
4.65113819e-02 6.04970679e-02 0.00000000e+00
5.46396896e-02 5.31970188e-02 -1.49954036e-02
1.06867775e-02 4.10447158e-02 0.00000000e+00
0.00000000e+00 4.01726514e-02 0.00000000e+00
9.17721726e-03 4.10863049e-02 -1.24017932e-02
0.00000000e+00 4.06530313e-02 -1.35950595e-02
1.97444670e-02 4.24366780e-02 0.00000000e+00
1.79036092e-02 4.24241610e-02 -8.53924453e-03
2.50776354e-02 4.54989746e-02 0.00000000e+00
2.34164782e-02 4.43345532e-02 -2.87982821e-03
2.59689763e-02 4.90100831e-02 0.00000000e+00
2.48509366e-02 4.57707569e-02 8.37922096e-04
3.06513812e-02 4.92084846e-02 0.00000000e+00
3.00413407e-02 4.62045446e-02 2.40613893e-03
3.12511995e-02 6.02384694e-02 0.00000000e+00
3.18696015e-02 5.87271452e-02 1.50313601e-03
1.06087178e-02 4.43258360e-02 0.00000000e+00
0.00000000e+00 4.48226407e-02 0.00000000e+00
9.10053216e-03 4.51559089e-02 -1.04777999e-02
0.00000000e+00 4.55889404e-02 -1.16962828e-02
1.87244788e-02 4.46128733e-02 0.00000000e+00
1.67304836e-02 4.40813899e-02 -6.50469959e-03
2.21035928e-02 4.56735492e-02 0.00000000e+00
2.03872509e-02 4.50480282e-02 -1.49910897e-03
2.16214210e-02 4.83561084e-02 0.00000000e+00
2.14730743e-02 4.82929647e-02 -5.45382500e-05
2.20919736e-02 5.38858771e-02 0.00000000e+00
2.19304860e-02 5.06805852e-02 0.00000000e+00
2.21516378e-02 5.40572479e-02 -2.01053917e-05
2.19480786e-02 5.08039594e-02 1.16206706e-04
9.87693481e-03 4.81284708e-02 0.00000000e+00
0.00000000e+00 4.94596437e-02 0.00000000e+00
8.63945484e-03 4.89502177e-02 -1.10208578e-02
0.00000000e+00 4.96561155e-02 -1.33664347e-02
1.72408000e-02 4.59325202e-02 0.00000000e+00
1.46141117e-02 4.64673266e-02 -6.60365820e-03
1.92285758e-02 4.62860093e-02 0.00000000e+00
1.83253549e-02 4.61742580e-02 -9.81170684e-04
1.93487704e-02 4.82966080e-02 0.00000000e+00
1.91639364e-02 4.82740812e-02 1.28388405e-04
1.92132741e-02 5.08413240e-02 0.00000000e+00
1.92695037e-02 5.08540645e-02 1.29640102e-06
1.92156509e-02 5.35878502e-02 0.00000000e+00
1.92520302e-02 5.35376631e-02 -4.97438014e-05
1.10568758e-02 5.40316924e-02 0.00000000e+00
0.00000000e+00 5.53755611e-02 0.00000000e+00
9.08067450e-03 5.39232939e-02 -1.28427334e-02
0.00000000e+00 5.59714250e-02 -1.53930746e-02
1.80921778e-02 4.93958890e-02 0.00000000e+00
1.46047901e-02 5.18031493e-02 -9.02235508e-03
1.81995742e-02 4.68619391e-02 0.00000000e+00
1.77406035e-02 4.84668091e-02 -2.10683793e-03
1.72073655e-02 4.83942628e-02 0.00000000e+00
1.69590674e-02 4.84086275e-02 1.32616609e-04
1.67313479e-02 5.08458391e-02 0.00000000e+00
1.67466737e-02 5.08683436e-02 3.27900052e-05
1.66615285e-02 5.34990393e-02 0.00000000e+00
1.66834444e-02 5.34637719e-02 2.00644135e-05
0.00000000e+00 0.00000000e+00 -4.22529466e-02
9.03059728e-03 0.00000000e+00 -4.48761731e-02
8.34283046e-03 1.44190919e-02 -4.19295579e-02
0.00000000e+00 1.49778966e-02 -4.08607088e-02
2.03879252e-02 0.00000000e+00 -4.85499017e-02
1.76458806e-02 1.20551148e-02 -4.84860539e-02
3.23405750e-02 0.00000000e+00 -5.53748086e-02
3.25239040e-02 1.13223363e-02 -5.49732633e-02
4.90558445e-02 0.00000000e+00 -6.48405850e-02
4.75828946e-02 1.21133085e-02 -5.74905314e-02
6.53555319e-02 0.00000000e+00 -7.20338076e-02
6.41994551e-02 1.27734318e-02 -6.40389472e-02
7.81772584e-02 0.00000000e+00 -7.68097341e-02
8.19665119e-02 1.28249926e-02 -6.96705580e-02
5.94651513e-03 2.85390578e-02 -3.56504843e-02
0.00000000e+00 2.98339780e-02 -3.25902253e-02
1.55676352e-02 2.79194340e-02 -3.72898281e-02
2.86079813e-02 3.02608293e-02 -3.87955382e-02
4.50638942e-02 3.39218155e-02 -4.77628298e-02
6.36797100e-02 3.47166769e-02 -4.79014181e-02
8.28695595e-02 3.50250304e-02 -5.49737439e-02
4.93453071e-03 4.06503007e-02 -2.66936626e-02
0.00000000e+00 4.06464674e-02 -2.41916608e-02
1.24654919e-02 4.09844145e-02 -1.97001770e-02
1.11046042e-02 4.05034721e-02 2.05143169e-03
5.95148467e-03 4.79315035e-02 -1.96766965e-02
0.00000000e+00 4.73662652e-02 -2.20925473e-02
1.19927619e-02 4.57946584e-02 -1.24269761e-02
1.46845588e-02 4.11574952e-02 -4.49885800e-03
5.80377318e-03 5.09791225e-02 -2.06730478e-02
0.00000000e+00 5.20342812e-02 -2.28437856e-02
1.10713374e-02 4.91463393e-02 -1.41194686e-02
1.95724145e-02 4.62779626e-02 -1.10811926e-02
3.92679311e-03 5.79065904e-02 -2.65311785e-02
0.00000000e+00 5.61493710e-02 -2.56067589e-02
1.04145203e-02 5.98847829e-02 -2.21789889e-02
2.14764252e-02 5.85489646e-02 -2.12954655e-02
1.93225034e-02 5.08404933e-02 1.05723739e-05
1.93305276e-02 5.34160323e-02 -4.45879996e-05
1.67312957e-02 5.34333140e-02 1.33737922e-05
1.67156197e-02 5.08431420e-02 4.24832106e-05
0.00000000e+00 0.00000000e+00 -6.40733615e-02
1.20288786e-02 0.00000000e+00 -6.52668774e-02
1.20181646e-02 1.26341013e-02 -6.17499314e-02
0.00000000e+00 1.24838492e-02 -5.95918894e-02
2.64343955e-02 0.00000000e+00 -7.11169839e-02
2.31097210e-02 9.60898399e-03 -6.58972859e-02
3.94617990e-02 0.00000000e+00 -7.68299028e-02
3.96198295e-02 7.19141401e-03 -7.49263763e-02
5.52053787e-02 0.00000000e+00 -8.23875442e-02
5.55300936e-02 7.74760544e-03 -8.46956447e-02
6.94568604e-02 0.00000000e+00 -9.01766717e-02
7.05415979e-02 8.76631029e-03 -8.86845589e-02
8.11606869e-02 0.00000000e+00 -9.35879499e-02
8.30688402e-02 7.33877905e-03 -9.16303843e-02
7.45876320e-03 2.31867805e-02 -5.27309254e-02
0.00000000e+00 2.72643287e-02 -5.14413938e-02
2.08542533e-02 2.23056860e-02 -6.46354854e-02
3.59059349e-02 2.51942631e-02 -8.05576742e-02
5.63724563e-02 2.85500754e-02 -8.23198855e-02
7.32058734e-02 2.44583301e-02 -8.45983475e-02
8.69407728e-02 2.10644603e-02 -8.62277672e-02
4.59351204e-03 4.01906930e-02 -3.67739722e-02
0.00000000e+00 3.95735763e-02 -4.08196151e-02
1.85126923e-02 3.61722857e-02 -5.07184379e-02
3.98797356e-03 4.87229526e-02 -2.94442084e-02
0.00000000e+00 5.07435203e-02 -3.05459686e-02
1.12386607e-02 4.86027040e-02 -1.87145434e-02
4.67257947e-03 5.71908243e-02 -3.06376442e-02
0.00000000e+00 5.49972877e-02 -2.97419559e-02
1.18478667e-02 5.81502914e-02 -3.03206090e-02
1.22396592e-02 5.26873693e-02 4.07925248e-03
2.31652372e-02 5.37278987e-02 -3.25067565e-02
4.45983559e-03 6.30307347e-02 -3.47008184e-02
0.00000000e+00 6.33625835e-02 -3.89416888e-02
</DataArray>
<DataArray type="Float32" Name="Spatial_acceleration" NumberOfComponents="3" format="ascii">
0.00000000e+00 0.00000000e+00 0.00000000e+00
4.00861097e-07 0.00000000e+00 0.00000000e+00
3.70681278e-07 2.54154202e-07 0.00000000e+00
0.00000000e+00 2.08775205e-07 0.00000000e+00
0.00000000e+00 0.00000000e+00 -3.66846706e-07
2.14020403e-07 0.00000000e+00 -4.48544824e-07
2.66591712e-07 2.79188157e-07 -4.22954543e-07
0.00000000e+00 3.47375874e-07 -4.34557592e-07
6.54220571e-07 0.00000000e+00 0.00000000e+00
5.77191486e-07 1.51316328e-07 0.00000000e+00
5.43117494e-07 0.00000000e+00 -5.47409059e-07
6.12815199e-07 3.51190550e-07 -4.74135078e-07
9.10758956e-07 0.00000000e+00 0.00000000e+00
8.75194871e-07 3.26712922e-07 0.00000000e+00
8.51790105e-07 0.00000000e+00 -5.96364316e-07
7.44938859e-07 3.93470117e-07 -4.93685377e-07
1.10864642e-06 0.00000000e+00 0.00000000e+00
1.19986134e-06 2.24923085e-07 0.00000000e+00
1.18267042e-06 0.00000000e+00 -4.85420230e-07
1.10407666e-06 4.15205960e-07 -4.56810000e-07
1.45773095e-06 0.00000000e+00 0.00000000e+00
1.32711727e-06 3.23027365e-07 0.00000000e+00
1.40821930e-06 0.00000000e+00 -1.90734866e-07
1.30287810e-06 2.29438143e-07 -3.37282813e-07
1.46210937e-06 0.00000000e+00 0.00000000e+00
1.47541357e-06 3.37600710e-07 0.00000000e+00
1.74605850e-06 0.00000000e+00 -4.25974527e-08
1.50640801e-06 4.07616284e-07 -2.20616656e-07
7.51018518e-08 7.41402289e-07 0.00000000e+00
0.00000000e+00 7.82171867e-07 0.00000000e+00
3.79547487e-07 6.88016428e-07 -4.07695779e-07
0.00000000e+00 7.58647900e-07 -4.21206153e-07
6.34829178e-07 7.01824831e-07 0.00000000e+00
5.10707480e-07 5.34057619e-07 -5.88417038e-07
7.68582026e-07 6.46114358e-07 0.00000000e+00
8.53765584e-07 7.26790631e-07 -4.39053480e-07
1.10085807e-06 9.23792527e-07 0.00000000e+00
9.96126118e-07 5.00202191e-07 -5.26428209e-07
1.05325375e-06 8.20716195e-07 0.00000000e+00
1.20123229e-06 4.95036431e-07 -3.15348302e-07
1.27315525e-06 7.07546860e-07 0.00000000e+00
1.33281287e-06 5.41687029e-07 -6.47650836e-07
3.08354686e-07 9.52745495e-07 0.00000000e+00
0.00000000e+00 1.01113324e-06 0.00000000e+00
2.49942133e-07 9.05990589e-07 -4.40597518e-07
0.00000000e+00 9.85423753e-07 -5.00996919e-07
5.08467338e-07 8.68221093e-07 0.00000000e+00
7.73827253e-07 9.03129546e-07 -3.73204557e-07
8.29537726e-07 9.37938694e-07 0.00000000e+00
7.32898741e-07 8.54121311e-07 -3.99165685e-07
9.77834020e-07 1.14801196e-06 0.00000000e+00
7.15467650e-07 7.69721169e-07 1.58733798e-07
1.09212931e-06 5.83648671e-07 0.00000000e+00
1.10938811e-06 6.95758388e-07 3.15560243e-07
5.86827582e-07 1.04999538e-06 0.00000000e+00
1.54622398e-06 5.66840185e-07 -4.42504870e-07
1.03473660e-07 1.08702977e-06 0.00000000e+00
0.00000000e+00 1.00477530e-06 0.00000000e+00
3.43243272e-07 9.35008131e-07 -4.21682984e-07
0.00000000e+00 1.16463502e-06 -3.97682186e-07
8.68479390e-07 9.21090418e-07 0.00000000e+00
5.78522702e-07 9.45568047e-07 -3.69548786e-07
8.64108415e-07 8.28425073e-07 0.00000000e+00
1.00689465e-06 8.36769743e-07 -2.29093772e-07
1.08612915e-06 8.41670555e-07 0.00000000e+00
6.57399482e-07 8.08768789e-07 -1.64243907e-08
1.54507154e-06 4.22795608e-07 0.00000000e+00
9.71158329e-07 9.09964228e-07 0.00000000e+00
4.63565186e-07 1.23151142e-06 7.52409278e-07
6.94274888e-07 3.66793756e-07 -5.73310615e-07
3.17762300e-07 1.02468334e-06 0.00000000e+00
0.00000000e+00 1.15521743e-06 0.00000000e+00
3.23931374e-07 1.27279259e-06 -3.26951351e-07
0.00000000e+00 1.18275477e-06 -3.11533597e-07
1.02579588e-06 9.79204970e-07 0.00000000e+00
5.85476528e-07 1.03688240e-06 -3.72250867e-07
8.79685047e-07 1.01184844e-06 0.00000000e+00
9.17222792e-07 8.55763744e-07 1.33090552e-07
9.51290133e-07 9.59634804e-07 0.00000000e+00
9.15805515e-07 9.20772550e-07 -2.24351879e-07
9.07838341e-07 8.71737768e-07 0.00000000e+00
8.77483672e-07 6.34320600e-07 2.30139491e-07
1.07399626e-06 7.25746133e-07 0.00000000e+00
2.05039981e-07 6.90566196e-07 -3.89940226e-07
5.21659842e-07 1.53779979e-06 0.00000000e+00
0.00000000e+00 1.29043553e-06 0.00000000e+00
5.12202575e-07 1.51983897e-06 -4.81287657e-07
0.00000000e+00 1.64461130e-06 -3.99271642e-07
1.09966595e-06 1.04840592e-06 0.00000000e+00
7.04010347e-07 1.17238358e-06 -5.46773265e-07
9.81648782e-07 6.50882725e-07 0.00000000e+00
8.89248327e-07 9.41594465e-07 -1.23765730e-07
1.15776061e-06 1.32443506e-06 0.00000000e+00
9.75290959e-07 6.17027297e-07 5.27381872e-07
1.18319190e-06 4.66823565e-07 0.00000000e+00
1.08136078e-06 1.37755603e-06 -2.86748019e-07
1.00729369e-06 8.67366793e-07 0.00000000e+00
1.75036359e-06 2.87741422e-08 3.97264955e-07
0.00000000e+00 0.00000000e+00 -8.62121567e-07
1.54972071e-07 0.00000000e+00 -1.01470948e-06
1.88787780e-07 2.21769014e-07 -9.97861207e-07
0.00000000e+00 1.77184745e-07 -9.94046559e-07
5.29189890e-07 0.00000000e+00 -8.03311650e-07
4.29550795e-07 2.76724506e-07 -8.08397942e-07
7.99493250e-07 0.00000000e+00 -6.36418633e-07
7.29560838e-07 3.16639728e-07 -8.94864399e-07
1.03657442e-06 0.00000000e+00 -7.45455395e-07
1.04520723e-06 1.96744992e-07 -8.06331627e-07
1.34397544e-06 0.00000000e+00 -7.42912277e-07
1.29253669e-06 3.05076441e-07 -7.03493754e-07
1.65529048e-06 0.00000000e+00 -6.34511309e-07
1.71943509e-06 4.48127594e-07 -4.56810000e-07
1.98046365e-07 5.65846733e-07 -9.54945904e-07
0.00000000e+00 5.57184194e-07 -9.75926696e-07
5.95092786e-07 6.26677547e-07 -9.58397209e-07
4.99526664e-07 5.14252974e-07 -1.07828782e-06
9.82165375e-07 7.46230285e-07 -8.76108800e-07
1.31917000e-06 5.62965852e-07 -7.01268505e-07
1.29936143e-06 8.16076977e-07 -4.99725331e-07
1.56700608e-07 7.42852706e-07 -9.07103185e-07
0.00000000e+00 8.08397942e-07 -8.39233394e-07
5.07036873e-07 9.59025556e-07 -9.61727551e-07
3.01678966e-07 6.91731771e-07 -1.65621444e-07
1.04784966e-07 1.16991998e-06 -6.56445820e-07
0.00000000e+00 1.10963981e-06 -6.37690221e-07
5.74906664e-07 1.06148491e-06 -5.86555132e-07
7.77986315e-07 8.56399538e-07 -2.21676302e-07
3.48051373e-07 1.30767626e-06 -7.34647131e-07
0.00000000e+00 1.26784050e-06 -7.28607176e-07
5.27938198e-07 1.29449370e-06 -7.28925045e-07
7.41322822e-07 1.15185969e-06 -5.18798799e-07
3.20196136e-07 1.55504540e-06 -1.06620791e-06
0.00000000e+00 1.85012811e-06 -1.11452732e-06
5.06679214e-07 1.54153508e-06 -1.19431809e-06
8.21073854e-07 1.32886566e-06 -9.71476197e-07
1.61252913e-07 9.34975844e-07 -2.82729673e-07
7.35342496e-07 -3.41633950e-07 -1.47526464e-07
2.01354425e-07 2.99878423e-07 4.64931134e-07
5.42024793e-07 1.66783735e-07 -5.43748342e-07
0.00000000e+00 0.00000000e+00 -1.49536129e-06
8.90096032e-08 0.00000000e+00 -1.33164724e-06
2.53637637e-07 1.83790917e-07 -1.27474470e-06
0.00000000e+00 1.00751720e-07 -1.31607055e-06
4.96457005e-07 0.00000000e+00 -1.20417280e-06
4.39047795e-07 1.57654284e-07 -1.28809609e-06
5.98867700e-07 0.00000000e+00 -1.30526223e-06
6.37491553e-07 2.20100077e-07 -1.28142040e-06
9.84688540e-07 0.00000000e+00 -1.21243795e-06
1.10582505e-06 3.00029910e-07 -1.37774146e-06
1.32016339e-06 0.00000000e+00 -1.09577172e-06
1.31473939e-06 3.47745925e-07 -1.18684773e-06
1.55053533e-06 0.00000000e+00 -1.05730692e-06
1.69173870e-06 3.62028686e-07 -1.20925904e-06
2.03847890e-07 5.90682021e-07 -1.33387243e-06
0.00000000e+00 6.83784492e-07 -1.19400022e-06
4.91732635e-07 6.17935541e-07 -1.14840554e-06
7.68025700e-07 5.55419945e-07 -1.15254727e-06
9.81671064e-07 5.12480710e-07 -1.31924946e-06
1.10887481e-06 6.85652083e-07 -1.19717913e-06
1.40498082e-06 9.96629410e-07 -1.15712487e-06
2.13168917e-07 8.11349764e-07 -1.32406319e-06
0.00000000e+00 7.32898684e-07 -1.12628936e-06
5.03222168e-07 6.75678223e-07 -1.14568070e-06
3.84285329e-07 1.17728825e-06 -1.20290122e-06
0.00000000e+00 1.20027858e-06 -1.14663442e-06
7.13984150e-07 1.15807848e-06 -1.13614396e-06
2.10126245e-07 1.53315068e-06 -1.19924539e-06
0.00000000e+00 1.43121179e-06 -1.23373661e-06
4.95184054e-07 1.43114721e-06 -1.23559857e-06
1.00954378e-06 1.44211447e-06 -1.99317924e-07
5.76655054e-07 1.74331672e-06 -1.48010258e-06
2.98659018e-07 1.82565054e-06 -1.50934852e-06
0.00000000e+00 1.72162049e-06 -1.69499708e-06
</DataArray>
<DataArray type="Float32" Name="Spatial_velocity" NumberOfComponents="3" format="ascii">
0.00000000e+00 0.00000000e+00 0.00000000e+00
6.02415530e-05 0.00000000e+00 0.00000000e+00
6.55498443e-05 1.27327497e-04 0.00000000e+00
0.00000000e+00 1.20997043e-04 0.00000000e+00
0.00000000e+00 0.00000000e+00 -1.48679072e-04
6.03973967e-05 0.00000000e+00 -1.54961483e-04
6.17737824e-05 1.17270472e-04 -1.47149753e-04
0.00000000e+00 1.15326373e-04 -1.39935757e-04
1.31299355e-04 0.00000000e+00 0.00000000e+00
1.32479705e-04 1.39658790e-04 0.00000000e+00
1.28386513e-04 0.00000000e+00 -1.71295003e-04
1.33178168e-04 1.25581792e-04 -1.61738077e-04
2.05844161e-04 0.00000000e+00 0.00000000e+00
2.14003536e-04 1.58532013e-04 0.00000000e+00
2.17879744e-04 0.00000000e+00 -1.89320475e-04
2.08392637e-04 1.34713773e-04 -1.82744596e-04
3.10082280e-04 0.00000000e+00 0.00000000e+00
2.91048957e-04 1.76068250e-04 0.00000000e+00
3.18806909e-04 0.00000000e+00 -2.09907957e-04
2.97493476e-04 1.38031290e-04 -1.98554379e-04
4.21017234e-04 0.00000000e+00 0.00000000e+00
3.89652123e-04 1.88254664e-04 0.00000000e+00
4.28780593e-04 0.00000000e+00 -2.33453233e-04
4.06841369e-04 1.45422018e-04 -2.11007762e-04
5.42523223e-04 0.00000000e+00 0.00000000e+00
4.64694167e-04 2.41578673e-04 0.00000000e+00
5.35098545e-04 0.00000000e+00 -2.41437578e-04
5.12640981e-04 1.91177081e-04 -2.36488690e-04
7.37981900e-05 2.22522693e-04 0.00000000e+00
0.00000000e+00 2.18069617e-04 0.00000000e+00
6.63694082e-05 2.16377637e-04 -1.24816390e-04
0.00000000e+00 2.09564227e-04 -1.21422789e-04
1.47905812e-04 2.47425894e-04 0.00000000e+00
1.34800313e-04 2.29289639e-04 -1.25611492e-04
2.06753262e-04 2.69389275e-04 0.00000000e+00
1.97144996e-04 2.45738192e-04 -1.08668406e-04
2.56596977e-04 2.99883250e-04 0.00000000e+00
2.61689333e-04 2.53413600e-04 -1.10896901e-04
2.87853531e-04 3.14488076e-04 0.00000000e+00
3.18312086e-04 2.64021335e-04 -1.08155917e-04
3.43321502e-04 3.76005773e-04 0.00000000e+00
3.89479450e-04 3.25986475e-04 -1.10257766e-04
8.11148348e-05 2.79671949e-04 0.00000000e+00
0.00000000e+00 2.73678685e-04 0.00000000e+00
7.12920737e-05 2.81322398e-04 -9.72470225e-05
0.00000000e+00 2.77831161e-04 -9.92258720e-05
1.56018563e-04 2.86022667e-04 0.00000000e+00
1.39773198e-04 2.88130192e-04 -6.85240302e-05
1.97777670e-04 3.06019851e-04 0.00000000e+00
1.88165635e-04 2.97449209e-04 -2.44737239e-05
2.04135387e-04 3.26233450e-04 0.00000000e+00
1.95936314e-04 2.99187668e-04 5.26606527e-06
2.30624340e-04 3.12585820e-04 0.00000000e+00
2.31759404e-04 2.87124742e-04 1.96166839e-05
2.39758432e-04 3.84159532e-04 0.00000000e+00
2.44848605e-04 3.73237533e-04 8.92636854e-06
8.39907880e-05 3.07410315e-04 0.00000000e+00
0.00000000e+00 3.12917866e-04 0.00000000e+00
7.23717967e-05 3.12914752e-04 -8.36786421e-05
0.00000000e+00 3.19476327e-04 -8.90345837e-05
1.53191591e-04 3.04957590e-04 0.00000000e+00
1.37187599e-04 3.01101245e-04 -5.33595448e-05
1.83691212e-04 3.06803908e-04 0.00000000e+00
1.71166379e-04 3.02362198e-04 -1.18118269e-05
1.79165334e-04 3.19359329e-04 0.00000000e+00
1.78411981e-04 3.18827195e-04 3.99967206e-08
1.77388429e-04 3.35558696e-04 0.00000000e+00
1.78008806e-04 3.27531074e-04 0.00000000e+00
1.77746042e-04 3.34857526e-04 -7.92050116e-07
1.78248170e-04 3.26858193e-04 -2.84146125e-07
7.92199353e-05 3.38063546e-04 0.00000000e+00
0.00000000e+00 3.50958435e-04 0.00000000e+00
7.17945586e-05 3.47187306e-04 -8.90192969e-05
0.00000000e+00 3.51851282e-04 -1.01832171e-04
1.47005660e-04 3.14987381e-04 0.00000000e+00
1.23559570e-04 3.20706720e-04 -5.92433062e-05
1.68467333e-04 3.09094525e-04 0.00000000e+00
1.60348864e-04 3.09624040e-04 -8.44438728e-06
1.69402352e-04 3.19070357e-04 0.00000000e+00
1.69350256e-04 3.18770617e-04 9.98137693e-07
1.69457140e-04 3.27488990e-04 0.00000000e+00
1.69601990e-04 3.27464862e-04 5.35743936e-07
1.69349383e-04 3.35342891e-04 0.00000000e+00
1.70046580e-04 3.35629273e-04 -1.41216674e-07
8.76020858e-05 3.88850487e-04 0.00000000e+00
0.00000000e+00 3.95933312e-04 0.00000000e+00
7.77761597e-05 3.86297936e-04 -1.05403487e-04
0.00000000e+00 4.04373277e-04 -1.17754142e-04
1.60153271e-04 3.47254856e-04 0.00000000e+00
1.24915896e-04 3.72720795e-04 -8.82156601e-05
1.67035469e-04 3.15474608e-04 0.00000000e+00
1.63663717e-04 3.34799872e-04 -2.36131564e-05
1.61723525e-04 3.19267594e-04 0.00000000e+00
1.60354757e-04 3.19775718e-04 9.47838771e-07
1.60620111e-04 3.26707086e-04 0.00000000e+00
1.61554170e-04 3.27697257e-04 -4.03801550e-07
1.61220756e-04 3.35662597e-04 0.00000000e+00
1.61191332e-04 3.35547666e-04 -8.28040243e-07
0.00000000e+00 0.00000000e+00 -2.81690795e-04
6.54927353e-05 0.00000000e+00 -2.97471241e-04
6.29306960e-05 9.69053581e-05 -2.83791625e-04
0.00000000e+00 9.87103558e-05 -2.80274951e-04
1.46207618e-04 0.00000000e+00 -3.18902225e-04
1.29350825e-04 8.48747513e-05 -3.13371245e-04
2.28552512e-04 0.00000000e+00 -3.50741495e-04
2.29625090e-04 8.19581182e-05 -3.49866896e-04
3.40391824e-04 0.00000000e+00 -3.94178205e-04
3.30695446e-04 8.38053165e-05 -3.65282554e-04
4.53142071e-04 0.00000000e+00 -4.27165534e-04
4.41706128e-04 8.97003847e-05 -3.91824375e-04
5.43641567e-04 0.00000000e+00 -4.49511805e-04
5.66677540e-04 9.72187481e-05 -4.17775649e-04
4.99300077e-05 1.91658735e-04 -2.50353361e-04
0.00000000e+00 2.03287185e-04 -2.36196996e-04
1.19097895e-04 1.88624705e-04 -2.62984948e-04
2.02834577e-04 1.99970891e-04 -2.69093580e-04
3.14187899e-04 2.26991106e-04 -3.09454481e-04
4.33797919e-04 2.30952879e-04 -2.99730396e-04
5.43392089e-04 2.45381321e-04 -3.30430863e-04
4.05786595e-05 2.75707833e-04 -1.99139031e-04
0.00000000e+00 2.80294858e-04 -1.86225108e-04
9.99795302e-05 2.77148152e-04 -1.65423466e-04
9.03045147e-05 2.62267276e-04 1.28982001e-05
4.79067312e-05 3.38792248e-04 -1.55335860e-04
0.00000000e+00 3.31953401e-04 -1.74419445e-04
1.00363104e-04 3.16545425e-04 -1.05303101e-04
1.25149425e-04 2.71140365e-04 -3.47160312e-05
5.50320146e-05 3.63003550e-04 -1.66524362e-04
0.00000000e+00 3.72020208e-04 -1.79598283e-04
9.54844509e-05 3.48718197e-04 -1.24138111e-04
1.74654793e-04 3.22123902e-04 -1.03618026e-04
4.31697226e-05 4.24146041e-04 -2.18186600e-04
0.00000000e+00 4.16454015e-04 -2.18110465e-04
9.59993704e-05 4.39481140e-04 -1.91910687e-04
1.90513209e-04 4.31290304e-04 -1.97566900e-04
1.70736370e-04 3.29235889e-04 8.88433476e-07
1.70642394e-04 3.37250502e-04 6.49097387e-07
1.63014309e-04 3.37307574e-04 -2.72149896e-06
1.63041637e-04 3.29088682e-04 2.25098830e-07
0.00000000e+00 0.00000000e+00 -4.28932690e-04
8.13381921e-05 0.00000000e+00 -4.31964669e-04
8.35062019e-05 8.78896026e-05 -4.17504780e-04
0.00000000e+00 8.55562466e-05 -4.04691644e-04
1.79101349e-04 0.00000000e+00 -4.60898387e-04
1.57576986e-04 7.00369419e-05 -4.41541109e-04
2.65762734e-04 0.00000000e+00 -4.93693515e-04
2.67158553e-04 5.69599215e-05 -4.86533536e-04
3.70318536e-04 0.00000000e+00 -5.23430528e-04
3.75351752e-04 6.05570058e-05 -5.34472230e-04
4.75391280e-04 0.00000000e+00 -5.63873851e-04
4.79737733e-04 6.67082713e-05 -5.54958649e-04
5.67972602e-04 0.00000000e+00 -5.81375498e-04
5.73437894e-04 6.26144756e-05 -5.71254815e-04
5.51987832e-05 1.61753953e-04 -3.72930459e-04
0.00000000e+00 1.86114179e-04 -3.67297878e-04
1.48870531e-04 1.60083524e-04 -4.22002660e-04
2.48332886e-04 1.74924746e-04 -5.11882536e-04
3.73225106e-04 1.96060209e-04 -5.32658189e-04
4.84933931e-04 1.78448900e-04 -5.29891811e-04
5.81435452e-04 1.73817098e-04 -5.41237649e-04
4.12141308e-05 2.82680237e-04 -2.87566800e-04
0.00000000e+00 2.74954451e-04 -2.97601277e-04
1.31329114e-04 2.45467760e-04 -3.57417157e-04
3.86973552e-05 3.42863437e-04 -2.40253838e-04
0.00000000e+00 3.56539764e-04 -2.38741530e-04
1.09050881e-04 3.42100917e-04 -1.71028412e-04
4.43941171e-05 4.19261865e-04 -2.53076258e-04
0.00000000e+00 4.06261155e-04 -2.56167579e-04
1.09214358e-04 4.20893921e-04 -2.48299883e-04
1.40408549e-04 3.94458184e-04 3.16709120e-05
1.86663237e-04 4.04922350e-04 -2.90066091e-04
4.94501874e-05 4.80813382e-04 -3.05264868e-04
0.00000000e+00 4.82818985e-04 -3.30672221e-04
</DataArray>
<DataArray type="Float32" Name="Reaction_force" NumberOfComponents="3" format="ascii">
8.40541840e-01 -8.85440528e-01 7.52545547e+00
0.00000000e+00 -1.64335132e+00 1.53549423e+01
0.00000000e+00 0.00000000e+00 2.97787724e+01
1.23299468e+00 0.00000000e+00 1.48856792e+01
1.46818948e+00 -1.63980508e+00 0.00000000e+00
0.00000000e+00 -2.88438249e+00 0.00000000e+00
0.00000000e+00 0.00000000e+00 0.00000000e+00
2.17678070e+00 0.00000000e+00 0.00000000e+00
0.00000000e+00 -1.49759054e+00 1.59737597e+01
0.00000000e+00 0.00000000e+00 3.03388462e+01
0.00000000e+00 -1.72796786e+00 0.00000000e+00
0.00000000e+00 0.00000000e+00 0.00000000e+00
0.00000000e+00 -1.09902537e+00 1.69589787e+01
0.00000000e+00 0.00000000e+00 3.00853367e+01
0.00000000e+00 -7.87964761e-01 0.00000000e+00
0.00000000e+00 0.00000000e+00 0.00000000e+00
0.00000000e+00 -9.06410217e-01 1.71359711e+01
0.00000000e+00 0.00000000e+00 3.03100033e+01
0.00000000e+00 -9.78732646e-01 0.00000000e+00
0.00000000e+00 0.00000000e+00 0.00000000e+00
0.00000000e+00 -1.73005652e+00 1.55390406e+01
0.00000000e+00 0.00000000e+00 2.91162109e+01
0.00000000e+00 -2.70771980e+00 0.00000000e+00
0.00000000e+00 0.00000000e+00 0.00000000e+00
0.00000000e+00 -2.17366672e+00 8.13744354e+00
0.00000000e+00 0.00000000e+00 1.61256351e+01
0.00000000e+00 -2.88700938e+00 0.00000000e+00
0.00000000e+00 0.00000000e+00 0.00000000e+00
0.00000000e+00 0.00000000e+00 2.77002106e+01
-1.31932378e-01 0.00000000e+00 1.42893724e+01
0.00000000e+00 0.00000000e+00 0.00000000e+00
7.30461240e-01 0.00000000e+00 0.00000000e+00
0.00000000e+00 0.00000000e+00 2.49786472e+01
0.00000000e+00 0.00000000e+00 0.00000000e+00
0.00000000e+00 0.00000000e+00 2.11645489e+01
0.00000000e+00 0.00000000e+00 0.00000000e+00
0.00000000e+00 0.00000000e+00 1.69928246e+01
0.00000000e+00 0.00000000e+00 0.00000000e+00
0.00000000e+00 0.00000000e+00 1.73871212e+01
0.00000000e+00 0.00000000e+00 0.00000000e+00
0.00000000e+00 0.00000000e+00 1.29617290e+01
0.00000000e+00 0.00000000e+00 0.00000000e+00
0.00000000e+00 0.00000000e+00 2.55278893e+01
-1.57236445e+00 0.00000000e+00 1.38362370e+01
0.00000000e+00 0.00000000e+00 0.00000000e+00
-1.64094508e+00 0.00000000e+00 0.00000000e+00
0.00000000e+00 0.00000000e+00 2.11978683e+01
0.00000000e+00 0.00000000e+00 0.00000000e+00
0.00000000e+00 0.00000000e+00 1.35920362e+01
0.00000000e+00 0.00000000e+00 0.00000000e+00
0.00000000e+00 0.00000000e+00 5.01003933e+00
0.00000000e+00 0.00000000e+00 0.00000000e+00
0.00000000e+00 0.00000000e+00 5.90202761e+00
0.00000000e+00 0.00000000e+00 0.00000000e+00
0.00000000e+00 0.00000000e+00 4.62250805e+00
0.00000000e+00 0.00000000e+00 0.00000000e+00
0.00000000e+00 0.00000000e+00 2.54132538e+01
-2.23670912e+00 0.00000000e+00 1.39066133e+01
0.00000000e+00 0.00000000e+00 0.00000000e+00
-4.18678045e+00 0.00000000e+00 0.00000000e+00
0.00000000e+00 0.00000000e+00 2.04515476e+01
0.00000000e+00 0.00000000e+00 0.00000000e+00
0.00000000e+00 0.00000000e+00 1.01343660e+01
0.00000000e+00 0.00000000e+00 0.00000000e+00
0.00000000e+00 0.00000000e+00 -2.48970366e+00
0.00000000e+00 0.00000000e+00 0.00000000e+00
0.00000000e+00 0.00000000e+00 -2.71413445e+00
0.00000000e+00 0.00000000e+00 -3.36467719e+00
0.00000000e+00 0.00000000e+00 0.00000000e+00
0.00000000e+00 0.00000000e+00 0.00000000e+00
0.00000000e+00 0.00000000e+00 2.74352989e+01
-2.43619466e+00 0.00000000e+00 1.37799511e+01
0.00000000e+00 0.00000000e+00 0.00000000e+00
-3.88118100e+00 0.00000000e+00 0.00000000e+00
0.00000000e+00 0.00000000e+00 2.41034851e+01
0.00000000e+00 0.00000000e+00 0.00000000e+00
0.00000000e+00 0.00000000e+00 1.70967293e+01
0.00000000e+00 0.00000000e+00 0.00000000e+00
0.00000000e+00 0.00000000e+00 3.40293837e+00
0.00000000e+00 0.00000000e+00 0.00000000e+00
0.00000000e+00 0.00000000e+00 -2.50666952e+00
0.00000000e+00 0.00000000e+00 0.00000000e+00
0.00000000e+00 0.00000000e+00 5.58655977e-01
0.00000000e+00 0.00000000e+00 0.00000000e+00
0.00000000e+00 0.00000000e+00 1.46808662e+01
-1.43404949e+00 0.00000000e+00 7.06084871e+00
0.00000000e+00 0.00000000e+00 0.00000000e+00
-2.00068712e+00 0.00000000e+00 0.00000000e+00
0.00000000e+00 0.00000000e+00 1.50229378e+01
0.00000000e+00 0.00000000e+00 0.00000000e+00
0.00000000e+00 0.00000000e+00 1.21082306e+01
0.00000000e+00 0.00000000e+00 0.00000000e+00
0.00000000e+00 0.00000000e+00 4.05347538e+00
0.00000000e+00 0.00000000e+00 0.00000000e+00
0.00000000e+00 0.00000000e+00 -1.29019678e+00
0.00000000e+00 0.00000000e+00 0.00000000e+00
0.00000000e+00 0.00000000e+00 1.80353850e-01
0.00000000e+00 0.00000000e+00 0.00000000e+00
5.08592725e-01 -1.47390842e+00 0.00000000e+00
0.00000000e+00 -1.81576574e+00 0.00000000e+00
0.00000000e+00 0.00000000e+00 0.00000000e+00
1.97445416e+00 0.00000000e+00 0.00000000e+00
0.00000000e+00 -5.95595598e-01 0.00000000e+00
0.00000000e+00 0.00000000e+00 0.00000000e+00
0.00000000e+00 1.20535696e+00 0.00000000e+00
0.00000000e+00 0.00000000e+00 0.00000000e+00
0.00000000e+00 2.22738695e+00 0.00000000e+00
0.00000000e+00 0.00000000e+00 0.00000000e+00
0.00000000e+00 2.65794694e-01 0.00000000e+00
0.00000000e+00 0.00000000e+00 0.00000000e+00
0.00000000e+00 -2.91442424e-01 0.00000000e+00
0.00000000e+00 0.00000000e+00 0.00000000e+00
0.00000000e+00 0.00000000e+00 0.00000000e+00
1.28671455e+00 0.00000000e+00 0.00000000e+00
0.00000000e+00 0.00000000e+00 0.00000000e+00
0.00000000e+00 0.00000000e+00 0.00000000e+00
0.00000000e+00 0.00000000e+00 0.00000000e+00
0.00000000e+00 0.00000000e+00 0.00000000e+00
0.00000000e+00 0.00000000e+00 0.00000000e+00
0.00000000e+00 0.00000000e+00 0.00000000e+00
-7.21027315e-01 0.00000000e+00 0.00000000e+00
0.00000000e+00 0.00000000e+00 0.00000000e+00
0.00000000e+00 0.00000000e+00 0.00000000e+00
0.00000000e+00 0.00000000e+00 0.00000000e+00
-2.12521791e+00 0.00000000e+00 0.00000000e+00
0.00000000e+00 0.00000000e+00 0.00000000e+00
0.00000000e+00 0.00000000e+00 0.00000000e+00
0.00000000e+00 0.00000000e+00 0.00000000e+00
-1.70934653e+00 0.00000000e+00 0.00000000e+00
0.00000000e+00 0.00000000e+00 0.00000000e+00
0.00000000e+00 0.00000000e+00 0.00000000e+00
0.00000000e+00 0.00000000e+00 0.00000000e+00
-6.11851215e-01 0.00000000e+00 0.00000000e+00
0.00000000e+00 0.00000000e+00 0.00000000e+00
0.00000000e+00 0.00000000e+00 0.00000000e+00
0.00000000e+00 0.00000000e+00 0.00000000e+00
0.00000000e+00 0.00000000e+00 0.00000000e+00
0.00000000e+00 0.00000000e+00 0.00000000e+00
0.00000000e+00 0.00000000e+00 0.00000000e+00
-1.62499249e-01 -3.86421084e-01 0.00000000e+00
0.00000000e+00 4.96145934e-01 0.00000000e+00
0.00000000e+00 0.00000000e+00 0.00000000e+00
9.65447783e-01 0.00000000e+00 0.00000000e+00
0.00000000e+00 1.32150030e+00 0.00000000e+00
0.00000000e+00 0.00000000e+00 0.00000000e+00
0.00000000e+00 2.49021530e+00 0.00000000e+00
0.00000000e+00 0.00000000e+00 0.00000000e+00
0.00000000e+00 4.09037209e+00 0.00000000e+00
0.00000000e+00 0.00000000e+00 0.00000000e+00
0.00000000e+00 3.48628330e+00 0.00000000e+00
0.00000000e+00 0.00000000e+00 0.00000000e+00
0.00000000e+00 1.80907273e+00 0.00000000e+00
0.00000000e+00 0.00000000e+00 0.00000000e+00
0.00000000e+00 0.00000000e+00 0.00000000e+00
1.39023149e+00 0.00000000e+00 0.00000000e+00
0.00000000e+00 0.00000000e+00 0.00000000e+00
0.00000000e+00 0.00000000e+00 0.00000000e+00
0.00000000e+00 0.00000000e+00 0.00000000e+00
0.00000000e+00 0.00000000e+00 0.00000000e+00
0.00000000e+00 0.00000000e+00 0.00000000e+00
0.00000000e+00 0.00000000e+00 0.00000000e+00
9.61364806e-01 0.00000000e+00 0.00000000e+00
0.00000000e+00 0.00000000e+00 0.00000000e+00
0.00000000e+00 0.00000000e+00 0.00000000e+00
-2.64665306e-01 0.00000000e+00 0.00000000e+00
0.00000000e+00 0.00000000e+00 0.00000000e+00
0.00000000e+00 0.00000000e+00 0.00000000e+00
4.59430069e-01 0.00000000e+00 0.00000000e+00
0.00000000e+00 0.00000000e+00 0.00000000e+00
0.00000000e+00 0.00000000e+00 0.00000000e+00
0.00000000e+00 0.00000000e+00 0.00000000e+00
0.00000000e+00 0.00000000e+00 0.00000000e+00
7.24676728e-01 0.00000000e+00 0.00000000e+00
</DataArray>
<DataArray type="Float32" Name="Equivalent_plastic_strain" format="ascii">
2.25036237e-02
2.38759257e-02
2.19776831e-02
2.06091618e-02
2.15111710e-02
2.25537349e-02
2.10776071e-02
2.03349739e-02
2.76794126e-02
2.46763676e-02
2.47734319e-02
2.39003836e-02
3.21904644e-02
2.79922830e-02
2.82165883e-02
2.69338300e-02
3.62440199e-02
3.22426665e-02
3.20866574e-02
2.90160133e-02
4.16825488e-02
3.58093837e-02
3.52238771e-02
3.24205311e-02
4.81402539e-02
4.16904446e-02
3.90578620e-02
3.64117161e-02
1.70449186e-02
1.68768363e-02
1.74253946e-02
1.62893082e-02
1.64081149e-02
1.79531461e-02
1.39241121e-02
1.83817537e-02
1.49349829e-02
2.08914992e-02
1.48517769e-02
2.22443519e-02
1.59894414e-02
2.59291402e-02
1.24618332e-02
1.36096166e-02
1.29759605e-02
1.24479465e-02
8.66318366e-03
9.81034222e-03
3.21578758e-03
3.26630306e-03
1.52389602e-03
5.56097001e-03
1.73769004e-04
5.11641785e-03
1.67284076e-03
5.34324825e-03
1.06672323e-02
1.20988032e-02
1.00044478e-02
1.11132315e-02
6.44479622e-03
6.40161074e-03
1.69644978e-03
2.41268995e-03
-1.63330424e-04
5.52647033e-04
2.09262013e-03
4.79052271e-04
1.55593618e-03
6.22714281e-04
1.09449967e-02
1.29325702e-02
9.96159785e-03
1.13220888e-02
6.29855972e-03
7.01841171e-03
9.12733376e-04
4.11673061e-03
-1.52740612e-04
-4.20979388e-05
-2.13417621e-07
6.37188350e-07
0.00000000e+00
0.00000000e+00
1.24719348e-02
1.47282258e-02
1.18348484e-02
1.25583792e-02
7.83330901e-03
9.71545640e-03
1.35006622e-03
6.90963232e-03
-7.74084765e-05
4.64586250e-04
0.00000000e+00
0.00000000e+00
0.00000000e+00
0.00000000e+00
2.05824310e-02
2.06652363e-02
1.97315239e-02
1.96408746e-02
2.08361382e-02
2.12270911e-02
2.20629335e-02
2.40375756e-02
2.39931229e-02
2.63707417e-02
2.43358896e-02
2.70458194e-02
2.38682833e-02
2.63993186e-02
1.76930178e-02
1.71055447e-02
2.25297431e-02
3.03972498e-02
3.31183588e-02
3.49684330e-02
3.53653133e-02
1.31257495e-02
1.29272544e-02
1.67749072e-02
1.18721707e-02
9.86027322e-03
9.37287416e-03
7.06870082e-03
2.24556820e-03
9.44854133e-03
8.05036072e-03
1.19853302e-02
1.48188360e-02
1.02896143e-02
9.52488696e-03
1.53302965e-02
2.60667969e-02
0.00000000e+00
0.00000000e+00
0.00000000e+00
0.00000000e+00
2.11274121e-02
2.08055489e-02
2.08210887e-02
2.09239656e-02
2.00711028e-02
2.11045584e-02
1.94997415e-02
2.20081992e-02
1.84994568e-02
2.37409321e-02
1.65549824e-02
2.19580419e-02
1.46719776e-02
1.93507853e-02
2.09149390e-02
1.94813889e-02
2.32661212e-02
3.32776196e-02
3.31434114e-02
2.97934692e-02
2.65753139e-02
1.94184040e-02
1.51367506e-02
3.30360411e-02
1.17353981e-02
1.12206975e-02
1.76456794e-02
9.06821161e-03
1.03699181e-02
1.65961348e-02
1.50341112e-02
3.33503832e-02
1.65899859e-02
1.40395090e-02
</DataArray>
<DataArray type="Float32" Name="Stress_Mises" format="ascii">
3.01918144e+01
3.12587996e+01
3.10409341e+01
2.90086641e+01
2.94608803e+01
3.06226397e+01
2.97946517e+01
2.99359827e+01
3.51542473e+01
3.40756540e+01
3.09297118e+01
3.34213188e+01
3.91784630e+01
3.72923312e+01
3.31696610e+01
3.52927790e+01
3.92052593e+01
4.17874699e+01
3.57866755e+01
3.19450201e+01
4.04498453e+01
4.05380123e+01
3.32395170e+01
3.30216304e+01
5.59937401e+01
5.70699368e+01
4.13884888e+01
4.31263914e+01
2.92006011e+01
2.88854694e+01
2.97245519e+01
2.68401699e+01
2.78705859e+01
2.92092953e+01
2.08819787e+01
2.75424080e+01
2.22385504e+01
3.11732215e+01
2.50894556e+01
3.27286664e+01
3.24330435e+01
4.47339490e+01
2.76836882e+01
2.96324158e+01
2.88845789e+01
2.56090388e+01
2.20703423e+01
2.32764274e+01
1.26564633e+01
2.12257339e+01
1.23417726e+01
2.12073148e+01
1.50330772e+01
2.53860493e+01
1.89916520e+01
3.43449059e+01
2.86025963e+01
2.99270582e+01
2.73162787e+01
2.86113138e+01
2.46980209e+01
2.33344638e+01
1.92514539e+01
1.94573503e+01
2.19488443e+01
2.26348203e+01
2.66145821e+01
2.09210631e+01
3.06955853e+01
2.33251775e+01
2.97537313e+01
3.14500637e+01
2.75929158e+01
2.96466446e+01
2.71296105e+01
2.50276263e+01
2.21457925e+01
2.77309771e+01
1.91720316e+01
2.53435149e+01
8.96576869e+00
5.80503492e+00
1.03287792e+01
1.06783546e+01
3.44779329e+01
3.61995811e+01
3.32172637e+01
3.30781288e+01
3.46988525e+01
3.39720240e+01
2.98445978e+01
4.00842234e+01
3.51618414e+01
2.95587111e+01
1.39538827e+01
6.62457657e+00
5.61281872e+00
3.59149706e+00
3.01240005e+01
3.01108856e+01
2.83462079e+01
2.99971924e+01
2.76599789e+01
2.75817792e+01
2.68645768e+01
2.83518163e+01
2.89322381e+01
2.90847428e+01
2.62104368e+01
2.78423183e+01
2.32806568e+01
2.39533417e+01
2.67920506e+01
2.83916078e+01
4.04407695e+01
5.87685177e+01
4.83410463e+01
5.22178383e+01
5.26007729e+01
2.28234036e+01
2.51732769e+01
4.40791734e+01
4.33420391e+01
2.41226622e+01
2.41810055e+01
1.80025722e+01
2.85376129e+01
2.60681708e+01
2.27299333e+01
3.03124791e+01
3.68897624e+01
2.80109510e+01
2.87119360e+01
3.35899716e+01
6.71832256e+01
1.47465742e+00
2.29386622e+00
1.53404266e+00
2.03159148e+00
2.98117867e+01
2.97174892e+01
2.88319740e+01
3.00916100e+01
2.82333722e+01
2.74280443e+01
2.67586799e+01
2.65113607e+01
2.45179636e+01
3.12150126e+01
2.14239392e+01
2.77668230e+01
1.71502171e+01
2.02550260e+01
2.76357298e+01
2.73587461e+01
3.25728463e+01
6.62198120e+01
5.61467962e+01
4.47938128e+01
3.44737349e+01
3.28039079e+01
2.11689668e+01
8.32971087e+01
2.16893121e+01
2.12189538e+01
4.97643461e+01
2.04502698e+01
2.04373257e+01
3.05172582e+01
5.59840813e+01
7.83839124e+01
2.95432787e+01
3.07044964e+01
</DataArray>
<DataArray type="Float32" Name="Stress_Max_Principal" format="ascii">
3.25734663e+00
2.39805703e+00
1.92875415e+00
3.34975132e+00
3.65674365e+00
2.56570110e+00
2.71771751e+00
2.65560994e+00
-6.41463757e-01
-7.52522200e-02
1.85439049e+00
-2.17207553e-01
-3.83908069e+00
-2.73684877e+00
-4.91995901e-01
-1.88940366e+00
-4.32882595e+00
-5.90471458e+00
-2.83896536e+00
5.52465513e-01
-5.30180895e+00
-3.58326954e+00
-8.72892678e-01
4.81953427e-01
-1.45178909e+01
-1.45113332e+01
-5.49752945e+00
-6.16453731e+00
2.81820410e+00
2.46420687e+00
1.95107888e+00
3.84027022e+00
5.23289132e+00
2.80419290e+00
1.28778718e+01
4.31173086e+00
1.51551789e+01
5.29926107e+00
2.34035828e+01
7.15711185e+00
2.05797703e+01
-4.12311967e+00
5.35283038e+00
3.35514045e+00
3.63564627e+00
5.39751071e+00
1.07441047e+01
1.04209992e+01
2.18488240e+01
3.20546343e+01
3.32604739e+01
1.85426490e+01
4.03333588e+01
2.05850232e+01
2.22563293e+01
1.30615206e+01
5.66041410e+00
4.14195001e+00
6.02484386e+00
4.58921170e+00
9.07371986e+00
1.01680978e+01
1.62237911e+01
1.62691348e+01
2.36784223e+01
2.06094233e+01
8.19517231e+00
1.76016722e+01
1.33226447e+01
1.86171958e+01
3.82465847e+00
2.32579902e+00
5.32379240e+00
3.17040414e+00
7.10114905e+00
8.44026810e+00
1.60401621e+01
1.04721597e+01
1.31526500e+01
1.68795929e+01
5.97346216e+00
3.98841789e+00
3.67273688e+00
3.27166883e+00
-1.05691910e-01
-1.43554735e+00
-7.11254030e-02
2.63486207e-01
2.13489199e+00
7.57472277e-01
1.42315450e+01
2.16133054e+00
1.36678767e+01
9.68376112e+00
3.97460157e+00
2.01195784e+00
9.81986165e-01
1.24087793e+00
2.02981591e+00
1.49433038e+00
3.66132834e+00
2.64471886e+00
3.19488966e+00
3.92117981e+00
3.77126956e+00
3.08600121e+00
2.80720162e+00
2.54411775e+00
4.35706975e+00
3.40399447e+00
7.21698165e+00
7.07407820e+00
5.18407241e+00
4.36776102e+00
-5.92463069e+00
-1.91538164e+01
-1.35853865e+01
-1.70189406e+01
-1.67915416e+01
8.89993796e+00
6.28288537e+00
-5.23582621e+00
1.34113749e+01
7.76054043e+00
6.48812306e+00
1.60031966e+01
3.82584991e+01
6.11778872e+00
7.85841084e+00
5.82911807e+00
-6.24157310e-01
3.33999515e+00
2.32950902e+00
9.88027394e-01
-2.87101345e+01
7.41950765e-01
1.33294851e+00
5.08174658e-01
1.16452360e+00
5.75748920e-01
8.66754770e-01
2.67785136e+00
8.05373609e-01
3.51310848e+00
4.58116916e+00
5.18091726e+00
5.68911393e+00
7.21930309e+00
1.51028499e+00
9.15380478e+00
3.65481961e+00
1.26103954e+01
9.82662398e+00
5.38055535e+00
5.44035006e+00
4.68294014e+00
-2.73116995e+01
-2.01351705e+01
-1.16315711e+01
-2.85237104e+00
2.24525527e+00
1.17374541e+01
-3.37320976e+01
1.00451734e+01
1.02501540e+01
-1.02518033e+01
1.97322446e+01
1.00846009e+01
2.02730221e+01
1.89613020e+00
-2.95992219e+01
3.41229522e+00
2.10874033e+00
</DataArray>
<DataArray type="Float32" Name="Stress_Mid_Principal" format="ascii">
-4.01070833e+00
-4.96575442e+00
-3.95174497e+00
-1.86118007e+00
-3.08122277e+00
-3.91994095e+00
-2.52992924e+00
-2.75993121e+00
-8.58248520e+00
-7.14329016e+00
-3.50479361e+00
-5.63336837e+00
-1.22195864e+01
-9.69994995e+00
-4.83484760e+00
-7.02502720e+00
-1.16560078e+01
-1.40937635e+01
-6.93647516e+00
-3.56827092e+00
-1.27513056e+01
-1.43544881e+01
-4.53644788e+00
-5.14095680e+00
-3.07716675e+01
-3.21095829e+01
-1.38996395e+01
-1.56845116e+01
-1.46792889e+00
-5.20500422e-01
-1.35889277e+00
1.71498167e+00
-1.47451508e+00
-1.17246008e+00
8.31808668e+00
1.32970098e+00
7.91498148e+00
-2.96345655e+00
1.10604120e+01
-2.38774673e+00
4.29889297e+00
-1.75749041e+01
-1.61710399e+00
-2.92454755e+00
-1.39760628e+00
2.32653217e+00
3.47834164e+00
3.63869617e+00
1.50666171e+01
1.86766640e+01
2.63649572e+01
3.39175483e+00
2.86787605e+01
2.51579444e+00
1.86349850e+01
-2.59263825e+00
-3.70500451e+00
-4.53348887e+00
-1.25411075e+00
-2.34698426e+00
7.13648558e-01
2.08525361e+00
7.49284047e+00
7.35264218e+00
7.53382786e+00
3.30982478e+00
4.29252684e-01
2.19398061e+00
3.55831885e+00
-1.64390802e-01
-3.54978919e+00
-5.13610518e+00
-1.09812709e+00
-2.74344143e+00
-8.31310004e-01
1.17134716e+00
3.46006382e+00
-1.07159274e+00
3.98023245e+00
2.17382833e+00
9.05762926e-01
5.37014753e-01
-2.67936230e-01
1.40304323e+00
-7.63025773e+00
-9.51791954e+00
-5.06081070e+00
-5.38371658e+00
-8.34431946e+00
-5.61735982e+00
-1.71856213e+00
-1.20275774e+01
5.12751198e+00
-6.21211052e-01
2.42080908e+00
1.13012731e-01
-1.04798067e+00
-1.76657164e+00
-2.25433177e+00
-1.62930390e+00
-8.21859760e-01
-2.72915585e+00
1.08495128e+00
3.80068567e-01
1.90432755e+00
2.01848617e-01
-6.43403739e-01
-6.83202267e-01
2.39457339e+00
7.26491215e-01
4.91560769e+00
3.96046555e+00
5.15742719e-01
-1.70970163e+00
-1.06018018e+01
-2.72314029e+01
-1.76018074e+01
-2.05238297e+01
-2.15405855e+01
5.04056293e+00
2.54411870e+00
-1.12763336e+01
-1.21844217e+01
2.91286033e+00
4.38171826e+00
9.67923660e+00
2.25244371e+01
1.21889874e+00
5.07289189e+00
-2.32750015e+00
-7.16930318e+00
1.01140702e+00
6.75696135e-01
-4.34512401e+00
-3.22074003e+01
-1.91112279e-01
-5.17572865e-01
2.29224335e-01
-4.63332012e-01
-7.98897743e-02
-2.32690558e-01
-4.37339119e-01
-6.97046235e-01
-3.40829015e-01
3.63582820e-02
3.85856450e-01
8.68831679e-01
2.17023414e+00
-3.43851414e+00
5.72100566e+00
3.47182095e-01
9.64870548e+00
7.13458705e+00
-1.10973886e+00
-6.80334568e-01
1.10888529e+00
-3.16207970e+01
-2.41751316e+01
-1.33787940e+01
-4.53629207e+00
-6.14748625e+00
5.96397856e+00
-4.83069925e+01
6.32432600e+00
5.12838054e+00
-1.57553502e+01
1.34311606e+01
6.94866940e+00
1.14562775e+01
-2.06675758e+01
-4.11013400e+01
-1.60186017e+00
-2.69772363e+00
</DataArray>
<DataArray type="Float32" Name="Stress_Min_Principal" format="ascii">
-2.99050941e+01
-3.18788223e+01
-3.16017656e+01
-2.78898611e+01
-2.85887995e+01
-3.07763872e+01
-2.93370653e+01
-2.96006141e+01
-3.90859032e+01
-3.71145592e+01
-3.13830776e+01
-3.59998488e+01
-4.64986038e+01
-4.29683614e+01
-3.56142149e+01
-3.94493756e+01
-4.66790371e+01
-5.11377211e+01
-4.04952238e+01
-3.32413846e+01
-4.89535208e+01
-4.84049334e+01
-3.57907742e+01
-3.49469094e+01
-7.68403473e+01
-7.82641888e+01
-5.04406290e+01
-5.32496939e+01
-2.82730334e+01
-2.77972879e+01
-2.92676409e+01
-2.39728043e+01
-2.53664054e+01
-2.81680956e+01
-9.59162426e+00
-2.44906199e+01
-9.29491472e+00
-2.90886127e+01
-4.99258804e+00
-2.88061810e+01
-1.61120510e+01
-5.38278351e+01
-2.50681839e+01
-2.88836060e+01
-2.73444140e+01
-2.15447768e+01
-1.39850587e+01
-1.53792421e+01
7.61945367e+00
8.00929809e+00
1.97755078e+01
-5.55744259e+00
2.35722755e+01
-7.67898448e+00
2.07969666e+00
-2.47982006e+01
-2.64314041e+01
-2.91642561e+01
-2.41901474e+01
-2.68373508e+01
-1.84203038e+01
-1.59454991e+01
-5.13446155e+00
-5.72491949e+00
-3.65523418e-01
-4.24983168e+00
-2.11654305e+01
-6.19796332e+00
-2.10434818e+01
-7.09778646e+00
-2.88380556e+01
-3.21776896e+01
-2.49028414e+01
-2.89281569e+01
-2.28020856e+01
-1.92830708e+01
-9.20215267e+00
-2.03563067e+01
-8.18060163e+00
-1.18284296e+01
-4.18164262e+00
-2.59790668e+00
-7.95186830e+00
-8.06918510e+00
-3.77226448e+01
-4.09931564e+01
-3.54252939e+01
-3.52742519e+01
-3.65803585e+01
-3.58679018e+01
-1.99008336e+01
-4.22770856e+01
-2.46947088e+01
-2.34228048e+01
-1.06612716e+01
-5.33200788e+00
-5.36339712e+00
-2.73373479e+00
-3.00067501e+01
-3.00433903e+01
-2.66587169e+01
-2.96732407e+01
-2.54594857e+01
-2.52321618e+01
-2.39431446e+01
-2.65796573e+01
-2.76937518e+01
-2.80114303e+01
-2.27730548e+01
-2.56713855e+01
-1.71286049e+01
-1.82685967e+01
-2.35993128e+01
-2.65367587e+01
-4.84823137e+01
-8.13082184e+01
-6.38056707e+01
-7.08934450e+01
-7.16000137e+01
-1.55110849e+01
-2.04875247e+01
-5.19484428e+01
-3.66311378e+01
-1.83872851e+01
-1.86753715e+01
-4.19560126e+00
6.55921364e+00
-2.20293946e+01
-1.61348379e+01
-2.74265544e+01
-4.03326774e+01
-2.57433457e+01
-2.71719518e+01
-3.47659740e+01
-9.75726089e+01
-9.56026465e-01
-1.22055882e+00
-1.14259499e+00
-1.10643241e+00
-2.95584040e+01
-2.93848324e+01
-2.75427592e+01
-2.99973078e+01
-2.64453099e+01
-2.48150585e+01
-2.36377485e+01
-2.28687038e+01
-1.94296792e+01
-3.18616755e+01
-1.37723964e+01
-2.56050324e+01
-5.82691262e+00
-1.16354383e+01
-2.48602024e+01
-2.44562221e+01
-2.91485315e+01
-9.54795837e+01
-7.81885109e+01
-5.72724733e+01
-3.81371202e+01
-3.37929205e+01
-1.16663083e+01
-1.23313808e+02
-1.31974708e+01
-1.29712989e+01
-6.23626022e+01
-2.21153820e+00
-1.16915715e+01
-1.18283236e+01
-6.18488235e+01
-1.13040876e+02
-2.80507295e+01
-3.07141199e+01
</DataArray>
<DataArray type="Float32" Name="Stress_Pressure" format="ascii">
1.02194853e+01
1.14821730e+01
1.12082517e+01
8.80042958e+00
9.33775949e+00
1.07102087e+01
9.71642576e+00
9.90164518e+00
1.61032839e+01
1.47777002e+01
1.10111605e+01
1.39501416e+01
2.08524241e+01
1.84683869e+01
1.36470196e+01
1.61212692e+01
2.08879571e+01
2.37120668e+01
1.67568882e+01
1.20857300e+01
2.23355455e+01
2.21142306e+01
1.37333715e+01
1.32019711e+01
4.07099686e+01
4.16283684e+01
2.32792673e+01
2.50329136e+01
8.97425297e+00
8.61786067e+00
9.55848515e+00
6.13918391e+00
7.20267630e+00
8.84545414e+00
-3.86811161e+00
6.28306283e+00
-4.59174848e+00
8.91760254e+00
-9.82380211e+00
8.01227140e+00
-2.92220497e+00
2.51752866e+01
7.11081924e+00
9.48433781e+00
8.36879157e+00
4.60691142e+00
-7.91293383e-02
4.39849123e-01
-1.48449651e+01
-1.95801990e+01
-2.64669793e+01
-5.45898684e+00
-3.08614642e+01
-5.14061101e+00
-1.43236709e+01
4.77643952e+00
8.15866494e+00
9.85193205e+00
6.47313811e+00
8.19837451e+00
2.87764499e+00
1.23071594e+00
-6.19405645e+00
-5.96561919e+00
-1.02822421e+01
-6.55647222e+00
4.18033534e+00
-4.53256305e+00
1.38750601e+00
-3.78500617e+00
9.52106205e+00
1.16626654e+01
6.89239198e+00
9.50039816e+00
5.51074870e+00
3.22381845e+00
-3.43269104e+00
3.65191315e+00
-2.98409358e+00
-2.40833056e+00
-8.99194121e-01
-6.42508614e-01
1.51568925e+00
1.13149107e+00
1.51528659e+01
1.73155403e+01
1.35190768e+01
1.34648275e+01
1.42632625e+01
1.35759298e+01
2.46261692e+00
1.73811111e+01
1.96644014e+00
4.78675157e+00
1.42195362e+00
1.06901247e+00
1.80979729e+00
1.08647619e+00
1.00770886e+01
1.00594544e+01
7.93974943e+00
9.91922581e+00
7.05988139e+00
6.97697087e+00
6.08918232e+00
7.76393604e+00
8.50998455e+00
8.71683843e+00
5.34047031e+00
7.18029985e+00
1.66533858e+00
2.41135097e+00
5.96649919e+00
7.95956671e+00
2.16695823e+01
4.25644787e+01
3.16642880e+01
3.61454053e+01
3.66440487e+01
5.23528058e-01
3.88684013e+00
2.28202006e+01
1.18013951e+01
2.57129483e+00
2.60184342e+00
-7.16227720e+00
-2.24473842e+01
4.89756895e+00
1.06784508e+00
7.97497907e+00
1.60420465e+01
7.13064814e+00
8.05558197e+00
1.27076902e+01
5.28300476e+01
1.35062654e-01
1.35061067e-01
1.35065351e-01
1.35080270e-01
9.68751502e+00
9.58358979e+00
8.43408217e+00
9.96299332e+00
7.75767680e+00
6.73251025e+00
6.02365847e+00
5.43691933e+00
3.34671420e+00
1.12633013e+01
-3.67471218e-01
7.20101038e+00
-5.47739619e+00
-1.77525759e+00
6.86312865e+00
6.56540234e+00
7.78556882e+00
5.14706932e+01
4.08329368e+01
2.74276128e+01
1.51752610e+01
1.25650508e+01
-2.01170814e+00
6.84509649e+01
-1.05734307e+00
-8.02411854e-01
2.94565865e+01
-1.03172893e+01
-1.78056645e+00
-6.63365882e+00
2.68734226e+01
6.12471485e+01
8.74676454e+00
1.04343671e+01
</DataArray>
<DataArray type="Float32" Name="Stress_Tresca" format="ascii">
3.31624413e+01
3.42768793e+01
3.35305200e+01
3.12396135e+01
3.22455425e+01
3.33420887e+01
3.20547829e+01
3.22562242e+01
3.84444399e+01
3.70393071e+01
3.32374682e+01
3.57826419e+01
4.26595230e+01
4.02315121e+01
3.51222191e+01
3.75599716e+01
4.23502121e+01
4.52330074e+01
3.76562576e+01
3.37938501e+01
4.36517115e+01
4.48216636e+01
3.49178815e+01
3.54288626e+01
6.23224564e+01
6.37528553e+01
4.49431000e+01
4.70851564e+01
3.10912385e+01
3.02614946e+01
3.12187197e+01
2.78130746e+01
3.05992961e+01
3.09722886e+01
2.24694953e+01
2.88023506e+01
2.44500933e+01
3.43878741e+01
2.83961711e+01
3.59632928e+01
3.66918221e+01
4.97047170e+01
3.04210148e+01
3.22387466e+01
3.09800601e+01
2.69422879e+01
2.47291636e+01
2.58002411e+01
1.42293706e+01
2.40453364e+01
1.34849663e+01
2.41000913e+01
1.67610836e+01
2.82640076e+01
2.01766319e+01
3.78597221e+01
3.20918188e+01
3.33062057e+01
3.02149916e+01
3.14265623e+01
2.74940228e+01
2.61135969e+01
2.13582530e+01
2.19940542e+01
2.40439459e+01
2.48592548e+01
2.93606033e+01
2.37996356e+01
3.43661270e+01
2.57149824e+01
3.26627145e+01
3.45034885e+01
3.02266338e+01
3.20985603e+01
2.99032340e+01
2.77233386e+01
2.52423153e+01
3.08284664e+01
2.13332515e+01
2.87080216e+01
1.01551046e+01
6.58632460e+00
1.16246052e+01
1.13408542e+01
3.76169510e+01
3.95576096e+01
3.53541684e+01
3.55377369e+01
3.87152500e+01
3.66253734e+01
3.41323776e+01
4.44384168e+01
3.83625851e+01
3.31065655e+01
1.46358731e+01
7.34396569e+00
6.34538317e+00
3.97461271e+00
3.20365658e+01
3.15377207e+01
3.03200455e+01
3.23179598e+01
2.86543751e+01
2.91533418e+01
2.77144146e+01
2.96656580e+01
3.05009537e+01
3.05555483e+01
2.71301246e+01
2.90753801e+01
2.43455858e+01
2.53426745e+01
2.87833855e+01
3.09045196e+01
4.25576837e+01
6.21544022e+01
5.02202845e+01
5.38745041e+01
5.48084717e+01
2.44110233e+01
2.67704105e+01
4.67126166e+01
5.00425110e+01
2.61478257e+01
2.51634951e+01
2.01987975e+01
3.16992855e+01
2.81471834e+01
2.39932485e+01
3.32556729e+01
3.97085204e+01
2.90833402e+01
2.95014610e+01
3.57540016e+01
6.88624725e+01
1.69797724e+00
2.55350733e+00
1.65076965e+00
2.27095604e+00
3.01341534e+01
3.02515869e+01
3.02206109e+01
3.08026819e+01
2.99584188e+01
2.93962276e+01
2.88186660e+01
2.85578177e+01
2.66489825e+01
3.33719609e+01
2.29262013e+01
2.92598519e+01
1.84373083e+01
2.14620624e+01
3.02407579e+01
2.98965721e+01
3.38314719e+01
6.81678841e+01
5.80533419e+01
4.56409016e+01
3.52847481e+01
3.60381756e+01
2.34037623e+01
8.95817089e+01
2.32426439e+01
2.32214532e+01
5.21107988e+01
2.19437829e+01
2.17761726e+01
3.21013453e+01
6.37449532e+01
8.34416542e+01
3.14630241e+01
3.28228607e+01
</DataArray>
<DataArray type="Float32" Name="Stress_Third_Invariant" format="ascii">
-2.81206570e+01
-2.91858873e+01
-2.96436286e+01
-2.78529882e+01
-2.76439219e+01
-2.90024405e+01
-2.86756997e+01
-2.87413664e+01
-3.30406179e+01
-3.23054509e+01
-2.97851691e+01
-3.23583832e+01
-3.69683285e+01
-3.56048641e+01
-3.25049472e+01
-3.43739138e+01
-3.76123381e+01
-3.97674747e+01
-3.52442880e+01
-3.13016658e+01
-3.88438702e+01
-3.70500958e+01
-3.27755280e+01
-3.17700742e+01
-5.02608070e+01
-5.01916161e+01
-3.93941851e+01
-4.06387272e+01
-2.84291477e+01
-2.85340681e+01
-2.92352836e+01
-2.65677881e+01
-2.59091802e+01
-2.85197527e+01
-1.79805844e+01
-2.67917974e+01
-1.51931340e+01
-2.76914748e+01
-1.03365394e+01
-2.57660651e+01
-1.44290581e+01
-3.85334892e+01
-2.52752833e+01
-2.79676485e+01
-2.75679471e+01
-2.49878721e+01
-1.87504206e+01
-2.03379077e+01
4.60912347e-01
7.19698413e+00
-1.37768984e+00
1.50418228e+01
1.19972658e+01
1.04453150e+01
-1.34655595e+01
-1.88855362e+00
-2.46836958e+01
-2.68713484e+01
-2.49766486e+01
-2.65606918e+01
-1.86198384e+01
-1.85008246e+01
-2.95824075e+00
-5.92576162e+00
9.83101654e+00
1.07776861e+01
-2.23938355e+01
1.63223378e+01
-2.67356806e+01
1.86855653e+01
-2.72486186e+01
-2.93330154e+01
-2.57889824e+01
-2.80618315e+01
-1.89017125e+01
-2.17366279e+01
4.27870274e-01
-8.55749925e+00
-5.68045950e+00
-3.05254388e+00
2.48492253e+00
4.00922298e-01
-7.30083728e+00
-8.27497832e+00
-3.25459776e+01
-3.40796204e+01
-3.21080179e+01
-3.19649725e+01
-3.07534275e+01
-3.22980232e+01
-5.98915577e+00
-2.58664548e+01
-3.16151495e+01
-2.37977047e+01
-1.36598790e+01
-5.85009869e+00
-4.67281055e+00
3.27287412e+00
-2.94263973e+01
-2.97016969e+01
-2.75296018e+01
-2.88742127e+01
-2.74775834e+01
-2.69736109e+01
-2.66110296e+01
-2.79591897e+01
-2.84579206e+01
-2.86517233e+01
-2.60247560e+01
-2.75224323e+01
-2.30217581e+01
-2.34424210e+01
-2.57306569e+01
-2.67450223e+01
-3.97677362e+01
-5.67070061e+01
-4.79521971e+01
-5.19293594e+01
-5.20972424e+01
-2.14788966e+01
-2.43259969e+01
-4.28751917e+01
1.47323041e+01
-2.28795823e+01
-2.39677129e+01
-1.44289607e+01
-6.29908244e+00
-2.49203331e+01
-2.23376946e+01
-2.60414053e+01
-3.54915267e+01
-2.77325509e+01
-2.85994978e+01
-3.15469653e+01
-6.69746933e+01
6.80164680e-01
1.98493558e+00
-1.46280277e+00
1.75910527e+00
-2.97954235e+01
-2.96705742e+01
-2.83147407e+01
-2.99707255e+01
-2.76194963e+01
-2.64926573e+01
-2.57198272e+01
-2.53860190e+01
-2.33031840e+01
-3.02414103e+01
-2.07687335e+01
-2.72782282e+01
-1.65572028e+01
-1.98326592e+01
-2.55951338e+01
-2.57345486e+01
-2.80072682e+01
-6.55888565e+01
-5.58051558e+01
-4.47141571e+01
-3.43807573e+01
-2.96152058e+01
-1.85370844e+01
-8.02145557e+01
-2.07320708e+01
-1.93968031e+01
-4.84972601e+01
-1.28526896e+01
-1.97226766e+01
-1.78887979e+01
-4.38473663e+01
-7.62545217e+01
-2.73570611e+01
-2.98357897e+01
</DataArray>
<DataArray type="Float32" Name="Logarithmic_strain_Max_Principal" format="ascii">
1.85924824e-02
1.95231363e-02
1.72990987e-02
1.60783697e-02
1.74494591e-02
1.78867811e-02
1.62401074e-02
1.58892265e-02
2.22804174e-02
1.95552050e-02
1.88465416e-02
1.79268455e-02
2.53503257e-02
2.15310310e-02
2.04883208e-02
1.96338370e-02
2.75257835e-02
2.42521055e-02
2.23056492e-02
2.07333190e-02
3.09976479e-02
2.79102279e-02
2.44200029e-02
2.36410419e-02
3.97793539e-02
3.42394253e-02
2.94902613e-02
2.86134141e-02
1.25957183e-02
1.17764501e-02
1.25627931e-02
1.14182492e-02
1.32773335e-02
1.34186014e-02
1.17377851e-02
1.39374660e-02
1.34244375e-02
1.72031218e-02
1.46465842e-02
1.86261895e-02
1.59082357e-02
2.20697687e-02
9.86755523e-03
1.03954202e-02
9.42518841e-03
8.72296211e-03
7.54008524e-03
8.15722597e-03
3.74773319e-03
5.37420204e-03
3.50457302e-03
7.17321325e-03
3.57806069e-03
7.37723848e-03
2.86607433e-03
6.73814642e-03
9.16328654e-03
1.00623681e-02
8.19760491e-03
8.86843563e-03
5.88771189e-03
5.84253878e-03
2.16591518e-03
2.84204091e-03
5.08921095e-04
1.10842195e-03
1.91183526e-03
1.27847374e-03
1.93394881e-03
1.68170827e-03
8.60822899e-03
1.00402092e-02
7.80116086e-03
8.54144734e-03
5.61534864e-03
5.86107624e-03
1.55618149e-03
3.92165462e-03
2.01209023e-04
5.03562067e-04
1.33061910e-04
8.78933213e-05
1.06491345e-04
9.20025802e-05
9.59635153e-03
1.13146193e-02
8.65690107e-03
9.27336421e-03
6.95959339e-03
7.41342688e-03
2.25604401e-03
5.69443381e-03
3.25860819e-04
7.85218515e-04
1.12161901e-04
6.05408325e-05
4.55131194e-05
4.32480283e-05
1.51411402e-02
1.44876288e-02
1.48671613e-02
1.49531779e-02
1.39286856e-02
1.53423450e-02
1.48482425e-02
1.68123086e-02
1.66284158e-02
1.83132165e-02
1.58171521e-02
1.86768870e-02
1.61391562e-02
1.86335770e-02
1.35573015e-02
1.36954843e-02
1.58344587e-02
2.14372732e-02
2.17477256e-02
2.21412168e-02
2.21865932e-02
1.02117039e-02
9.84493596e-03
1.33590895e-02
1.58016323e-02
7.44850608e-03
6.51048205e-03
6.48570586e-03
5.78144534e-03
7.33407168e-03
5.86672185e-03
9.54491273e-03
1.12440900e-02
7.12357939e-03
6.76102168e-03
1.10484948e-02
1.63247096e-02
1.93079636e-05
3.35246568e-05
1.37539064e-05
2.97950346e-05
1.29885962e-02
1.30921828e-02
1.44349170e-02
1.34436369e-02
1.45431126e-02
1.58530981e-02
1.51361681e-02
1.66882556e-02
1.45932718e-02
1.74555351e-02
1.21974421e-02
1.53383855e-02
1.12500316e-02
1.36478017e-02
1.66052870e-02
1.54184077e-02
1.60242090e-02
2.31545035e-02
2.19001360e-02
1.87376305e-02
1.61354020e-02
1.60724361e-02
1.29744611e-02
2.61335354e-02
9.10776661e-03
9.39374999e-03
1.36704149e-02
7.99841376e-03
8.06646910e-03
1.32391663e-02
1.63225811e-02
2.60257137e-02
1.24774012e-02
1.07463161e-02
</DataArray>
<DataArray type="Float32" Name="Logarithmic_strain_Min_Principal" format="ascii">
-2.22409144e-02
-2.36824807e-02
-2.20455504e-02
-2.06871107e-02
-2.14040028e-02
-2.25840094e-02
-2.12594112e-02
-2.04445324e-02
-2.76367590e-02
-2.47777882e-02
-2.50308192e-02
-2.43381893e-02
-3.23391668e-02
-2.83201905e-02
-2.87576960e-02
-2.75317517e-02
-3.66330966e-02
-3.28711900e-02
-3.28271352e-02
-2.96222635e-02
-4.22632750e-02
-3.62817291e-02
-3.58426422e-02
-3.30792051e-02
-4.83458154e-02
-4.20386624e-02
-3.97364050e-02
-3.71890571e-02
-1.74424658e-02
-1.73697453e-02
-1.78861297e-02
-1.67147887e-02
-1.65897764e-02
-1.83772168e-02
-1.40669439e-02
-1.90574023e-02
-1.50835081e-02
-2.14219492e-02
-1.44425910e-02
-2.28136727e-02
-1.56543129e-02
-2.68440464e-02
-1.27101839e-02
-1.39789367e-02
-1.35037741e-02
-1.29030326e-02
-8.81711533e-03
-1.03552382e-02
-3.46833281e-03
-4.75299424e-03
-2.71426017e-03
-5.96114683e-03
-2.94872358e-03
-5.96740640e-03
-3.58707143e-03
-6.37683715e-03
-1.07826679e-02
-1.22856312e-02
-1.03251963e-02
-1.14329443e-02
-6.56699028e-03
-6.53739244e-03
-1.82868156e-03
-2.72592679e-03
-3.99793168e-04
-7.48137652e-04
-2.80313140e-03
-9.28800078e-04
-2.57731676e-03
-9.90309721e-04
-1.13272476e-02
-1.33385039e-02
-1.03356405e-02
-1.17523419e-02
-6.60313235e-03
-7.37473194e-03
-1.24040840e-03
-4.61841994e-03
-1.84358942e-04
-3.41148792e-04
-1.10914847e-04
-7.00698791e-05
-1.72910230e-04
-1.79971847e-04
-1.30399247e-02
-1.52776698e-02
-1.24865086e-02
-1.31978118e-02
-8.39529443e-03
-1.04959868e-02
-1.66613579e-03
-7.83917735e-03
-6.70189576e-04
-1.06228297e-03
-2.38632470e-04
-1.15282899e-04
-1.06971631e-04
-5.29542413e-05
-2.09724857e-02
-2.11901986e-02
-2.00410662e-02
-1.99432774e-02
-2.14372245e-02
-2.16779506e-02
-2.26425142e-02
-2.47301960e-02
-2.46552718e-02
-2.69981774e-02
-2.48639369e-02
-2.77136164e-02
-2.44209887e-02
-2.70546842e-02
-1.80120547e-02
-1.72138470e-02
-2.37133612e-02
-3.23694117e-02
-3.44215417e-02
-3.65978871e-02
-3.70262880e-02
-1.36077682e-02
-1.33357351e-02
-1.86441699e-02
-1.39604039e-02
-1.02155906e-02
-9.92767001e-03
-7.74580639e-03
-5.67011884e-03
-9.89634288e-03
-8.50318524e-03
-1.24401975e-02
-1.63368522e-02
-1.10486918e-02
-1.02667962e-02
-1.63782884e-02
-2.84897564e-02
-2.11286269e-05
-2.76667506e-05
-2.55555206e-05
-2.47689295e-05
-2.17810497e-02
-2.14591376e-02
-2.13563317e-02
-2.16004583e-02
-2.05293139e-02
-2.14850877e-02
-1.96509943e-02
-2.24324390e-02
-1.86280101e-02
-2.43171228e-02
-1.68420970e-02
-2.24781088e-02
-1.47535647e-02
-1.96333192e-02
-2.11022375e-02
-1.97494212e-02
-2.53336722e-02
-3.70076388e-02
-3.48342527e-02
-3.09572848e-02
-2.74163540e-02
-2.00139493e-02
-1.52332739e-02
-3.80917387e-02
-1.24381046e-02
-1.11482136e-02
-2.02245680e-02
-1.06697016e-02
-1.07883847e-02
-1.77154147e-02
-1.95204634e-02
-3.69528967e-02
-1.66702492e-02
-1.48222577e-02
</DataArray>
<DataArray type="Float32" Name="Plastic_strain_Max_Principal" format="ascii">
1.83951482e-02
1.93306012e-02
1.71249195e-02
1.58874961e-02
1.72497798e-02
1.77019183e-02
1.60588418e-02
1.57106912e-02
2.21196366e-02
1.93967298e-02
1.86671675e-02
1.77791496e-02
2.52159014e-02
2.14124741e-02
2.03393688e-02
1.95012060e-02
2.73873527e-02
2.41730525e-02
2.22029709e-02
2.05651796e-02
3.09006618e-02
2.78095822e-02
2.43265955e-02
2.34633540e-02
3.96877900e-02
3.42572909e-02
2.94292336e-02
2.84532546e-02
1.24200843e-02
1.16115641e-02
1.24043939e-02
1.12440535e-02
1.30666322e-02
1.32514215e-02
1.14729139e-02
1.37600715e-02
1.31446642e-02
1.69689587e-02
1.43099921e-02
1.83562314e-02
1.55622386e-02
2.18032748e-02
9.65247676e-03
1.01999701e-02
9.24064277e-03
8.53052747e-03
7.27409055e-03
7.91418552e-03
3.39971090e-03
4.86161129e-03
3.11077988e-03
6.76236123e-03
3.03857979e-03
6.91178891e-03
2.53240112e-03
6.32395595e-03
8.92893202e-03
9.84276179e-03
7.97293981e-03
8.65952577e-03
5.63320232e-03
5.57989400e-03
1.85986800e-03
2.52263151e-03
2.64155479e-04
6.94002316e-04
1.67602662e-03
9.15103539e-04
1.60651479e-03
1.28801929e-03
8.40233814e-03
9.85109340e-03
7.59059901e-03
8.35312577e-03
5.37789345e-03
5.61384461e-03
1.21473083e-03
3.62917216e-03
1.13723607e-04
1.43317865e-04
1.27622741e-07
7.09216965e-07
0.00000000e+00
0.00000000e+00
9.42654489e-03
1.11604836e-02
8.51103384e-03
9.11436044e-03
6.74541807e-03
7.23903789e-03
1.88611372e-03
5.45727842e-03
1.39044510e-04
4.97617119e-04
0.00000000e+00
0.00000000e+00
0.00000000e+00
0.00000000e+00
1.49804656e-02
1.43354270e-02
1.46829999e-02
1.47721884e-02
1.37696227e-02
1.51461726e-02
1.46764829e-02
1.66080754e-02
1.64541423e-02
1.81195170e-02
1.56589274e-02
1.84730957e-02
1.59669155e-02
1.83865251e-02
1.33556428e-02
1.34998083e-02
1.57451684e-02
2.14656651e-02
2.17606723e-02
2.21959096e-02
2.22256752e-02
9.97826195e-03
9.65262798e-03
1.32496485e-02
1.52600631e-02
7.22853409e-03
6.32104988e-03
6.17836975e-03
5.21639890e-03
7.12830765e-03
5.66101517e-03
9.33356053e-03
1.10935827e-02
6.95870130e-03
6.62025204e-03
1.08685889e-02
1.65594560e-02
0.00000000e+00
0.00000000e+00
0.00000000e+00
0.00000000e+00
1.28646959e-02
1.29507785e-02
1.42797180e-02
1.33032287e-02
1.43631457e-02
1.56570819e-02
1.49408879e-02
1.64408933e-02
1.43561191e-02
1.72673502e-02
1.19495182e-02
1.51555118e-02
1.09798876e-02
1.34080495e-02
1.63726937e-02
1.52182167e-02
1.58892887e-02
2.33028866e-02
2.19933325e-02
1.87782124e-02
1.60717424e-02
1.58730253e-02
1.27105641e-02
2.62757614e-02
8.87224045e-03
9.15157946e-03
1.36279094e-02
7.10395828e-03
7.85326562e-03
1.31829112e-02
1.58660859e-02
2.62979002e-02
1.28294706e-02
1.05759189e-02
</DataArray>
<DataArray type="Float32" Name="Plastic_strain_Min_Principal" format="ascii">
-2.16491371e-02
-2.30488740e-02
-2.14214409e-02
-2.01212699e-02
-2.08296459e-02
-2.19762004e-02
-2.06710245e-02
-1.98562089e-02
-2.68724691e-02
-2.40534558e-02
-2.44011129e-02
-2.36393034e-02
-3.14149093e-02
-2.74936403e-02
-2.80408938e-02
-2.67880734e-02
-3.56633402e-02
-3.18847583e-02
-3.20404470e-02
-2.89757675e-02
-4.12414782e-02
-3.53667345e-02
-3.51669006e-02
-3.24070016e-02
-4.66211736e-02
-4.05886769e-02
-3.87160983e-02
-3.61665068e-02
-1.68694095e-02
-1.68022960e-02
-1.72981292e-02
-1.62124410e-02
-1.60715277e-02
-1.78089937e-02
-1.38270459e-02
-1.85854404e-02
-1.48694713e-02
-2.08949625e-02
-1.43699164e-02
-2.23158474e-02
-1.54189225e-02
-2.59289717e-02
-1.21903887e-02
-1.33930854e-02
-1.29473723e-02
-1.24370502e-02
-8.48317810e-03
-1.00166379e-02
-3.48891475e-03
-4.73222226e-03
-2.89319033e-03
-5.76705649e-03
-3.15321842e-03
-5.72946055e-03
-3.48288740e-03
-5.87011734e-03
-1.02422182e-02
-1.16951084e-02
-9.82010644e-03
-1.08842680e-02
-6.16027194e-03
-6.17099478e-03
-1.63443890e-03
-2.51796655e-03
-3.47020072e-04
-5.69252939e-04
-2.34361575e-03
-7.22064612e-04
-2.08701380e-03
-7.75003288e-04
-1.07441735e-02
-1.27020474e-02
-9.82286001e-03
-1.11691649e-02
-6.12307398e-03
-6.95619988e-03
-9.82096462e-04
-4.18059548e-03
-1.27444913e-04
-1.54195496e-04
-2.37542636e-07
-3.81035670e-07
0.00000000e+00
0.00000000e+00
-1.23068164e-02
-1.44895995e-02
-1.18042706e-02
-1.25045842e-02
-7.69312819e-03
-9.81391408e-03
-1.23009074e-03
-7.05398196e-03
-1.23107573e-04
-5.59930457e-04
0.00000000e+00
0.00000000e+00
0.00000000e+00
0.00000000e+00
-2.03752136e-02
-2.05884180e-02
-1.95045546e-02
-1.93495182e-02
-2.09357953e-02
-2.11607106e-02
-2.21679150e-02
-2.41889481e-02
-2.41119605e-02
-2.64285442e-02
-2.44258712e-02
-2.71690602e-02
-2.41032140e-02
-2.66202143e-02
-1.75245730e-02
-1.66845655e-02
-2.28065697e-02
-3.09227910e-02
-3.31996270e-02
-3.52525357e-02
-3.56896967e-02
-1.32496334e-02
-1.29050328e-02
-1.76997543e-02
-1.33399421e-02
-9.81281442e-03
-9.51254345e-03
-7.56791540e-03
-5.66979203e-03
-9.43380827e-03
-8.13324901e-03
-1.18961330e-02
-1.55462720e-02
-1.05233400e-02
-9.73007688e-03
-1.57035294e-02
-2.68259244e-02
0.00000000e+00
0.00000000e+00
0.00000000e+00
0.00000000e+00
-2.11971933e-02
-2.08609169e-02
-2.08193350e-02
-2.09942358e-02
-2.00023693e-02
-2.09817255e-02
-1.91828045e-02
-2.19394518e-02
-1.82117904e-02
-2.36776893e-02
-1.65150063e-02
-2.19667247e-02
-1.45678176e-02
-1.93668474e-02
-2.06014067e-02
-1.92684177e-02
-2.47489592e-02
-3.50039661e-02
-3.33479801e-02
-2.99382983e-02
-2.67373826e-02
-1.93478722e-02
-1.49719869e-02
-3.59954778e-02
-1.21199454e-02
-1.08434735e-02
-1.90744791e-02
-9.45173063e-03
-1.05083719e-02
-1.79655479e-02
-1.84677169e-02
-3.50600258e-02
-1.69641629e-02
-1.42586888e-02
</DataArray>
</PointData>
<Cells>
<DataArray type="Int32" Name="connectivity" format="ascii">
0 1 2 3 4 5 6 7
1 8 9 2 5 10 11 6
8 12 13 9 10 14 15 11
12 16 17 13 14 18 19 15
16 20 21 17 18 22 23 19
20 24 25 21 22 26 27 23
3 2 28 29 7 6 30 31
2 9 32 28 6 11 33 30
9 13 34 32 11 15 35 33
13 17 36 34 15 19 37 35
17 21 38 36 19 23 39 37
21 25 40 38 23 27 41 39
29 28 42 43 31 30 44 45
28 32 46 42 30 33 47 44
32 34 48 46 33 35 49 47
34 36 50 48 35 37 51 49
36 38 52 50 37 39 53 51
38 40 54 52 39 41 55 53
43 42 56 57 45 44 58 59
42 46 60 56 44 47 61 58
46 48 62 60 47 49 63 61
48 50 64 62 49 51 65 63
52 54 66 67 53 55 68 69
57 56 70 71 59 58 72 73
56 60 74 70 58 61 75 72
60 62 76 74 61 63 77 75
62 64 78 76 63 65 79 77
64 67 80 78 65 69 81 79
67 66 82 80 69 68 83 81
71 70 84 85 73 72 86 87
70 74 88 84 72 75 89 86
74 76 90 88 75 77 91 89
76 78 92 90 77 79 93 91
78 80 94 92 79 81 95 93
80 82 96 94 81 83 97 95
4 5 6 7 98 99 100 101
5 10 11 6 99 102 103 100
10 14 15 11 102 104 105 103
14 18 19 15 104 106 107 105
18 22 23 19 106 108 109 107
22 26 27 23 108 110 111 109
7 6 30 31 101 100 112 113
6 11 33 30 100 103 114 112
11 15 35 33 103 105 115 114
15 19 37 35 105 107 116 115
19 23 39 37 107 109 117 116
23 27 41 39 109 111 118 117
31 30 44 45 113 112 119 120
30 33 47 44 112 114 121 119
33 35 49 47 114 115 122 121
45 44 58 59 120 119 123 124
44 47 61 58 119 121 125 123
47 49 63 61 121 122 126 125
59 58 72 73 124 123 127 128
58 61 75 72 123 125 129 127
61 63 77 75 125 126 130 129
73 72 86 87 128 127 131 132
72 75 89 86 127 129 133 131
75 77 91 89 129 130 134 133
81 83 97 95 135 136 137 138
98 99 100 101 139 140 141 142
99 102 103 100 140 143 144 141
102 104 105 103 143 145 146 144
104 106 107 105 145 147 148 146
106 108 109 107 147 149 150 148
108 110 111 109 149 151 152 150
101 100 112 113 142 141 153 154
100 103 114 112 141 144 155 153
103 105 115 114 144 146 156 155
105 107 116 115 146 148 157 156
107 109 117 116 148 150 158 157
109 111 118 117 150 152 159 158
113 112 119 120 154 153 160 161
112 114 121 119 153 155 162 160
120 119 123 124 161 160 163 164
119 121 125 123 160 162 165 163
124 123 127 128 164 163 166 167
123 125 129 127 163 165 168 166
125 126 130 129 165 169 170 168
128 127 131 132 167 166 171 172
</DataArray>
<DataArray type="Int32" Name="offsets" format="ascii">
8
16
24
32
40
48
56
64
72
80
88
96
104
112
120
128
136
144
152
160
168
176
184
192
200
208
216
224
232
240
248
256
264
272
280
288
296
304
312
320
328
336
344
352
360
368
376
384
392
400
408
416
424
432
440
448
456
464
472
480
488
496
504
512
520
528
536
544
552
560
568
576
584
592
600
608
616
624
632
640
</DataArray>
<DataArray type="UInt8" Name="types" format="ascii">
12
12
12
12
12
12
12
12
12
12
12
12
12
12
12
12
12
12
12
12
12
12
12
12
12
12
12
12
12
12
12
12
12
12
12
12
12
12
12
12
12
12
12
12
12
12
12
12
12
12
12
12
12
12
12
12
12
12
12
12
12
12
12
12
12
12
12
12
12
12
12
12
12
12
12
12
12
12
12
12
</DataArray>
</Cells>
</Piece>
</UnstructuredGrid>
</VTKFile>
