<VTKFile type="UnstructuredGrid" version="0.1" byte_order="LittleEndian">
<UnstructuredGrid>
<Piece NumberOfPoints="191" NumberOfCells="79">
<Points>
<DataArray type="Float64" NumberOfComponents="3" format="ascii">
 1.00187230e+00  5.02113914e+00  1.99208915e+00
 2.00388169e+00  5.02045488e+00  1.99490643e+00
 2.00338650e+00  6.02413368e+00  1.99205220e+00
 1.00109994e+00  6.02346134e+00  1.99011517e+00
 1.00149465e+00  5.02323437e+00  2.98857737e+00
 2.00376940e+00  5.02377129e+00  2.98872972e+00
 2.00218678e+00  6.02877378e+00  2.98516226e+00
 1.00106740e+00  6.02469492e+00  2.98779058e+00
 3.00650525e+00  5.01955986e+00  1.99621153e+00
 3.00705838e+00  6.02345085e+00  1.99312913e+00
 3.00827360e+00  5.02135944e+00  2.98929191e+00
 3.01422763e+00  6.03236866e+00  2.97278237e+00
 5.00671768e+00  5.02249098e+00  2.00000715e+00
 6.00672483e+00  5.02404213e+00  1.99995935e+00
 6.00515032e+00  6.02406073e+00  2.00002098e+00
 5.00513411e+00  6.02249336e+00  2.00004220e+00
 5.00675297e+00  5.02243996e+00  2.99999189e+00
 6.00674438e+00  5.02401447e+00  2.99997091e+00
 6.00517702e+00  6.02400255e+00  3.00000906e+00
 5.00518799e+00  6.02243280e+00  3.00005364e+00
 0.00000000e+00  0.00000000e+00  2.97209883e+00
 1.00515628e+00  0.00000000e+00  2.97128391e+00
 1.00504339e+00  1.00526941e+00  2.97321606e+00
 0.00000000e+00  1.00528109e+00  2.97415614e+00
 0.00000000e+00  0.00000000e+00  3.96252799e+00
 1.00750327e+00  0.00000000e+00  3.96241879e+00
 1.00757110e+00  1.00463128e+00  3.96257806e+00
 0.00000000e+00  1.00456536e+00  3.96402740e+00
 2.01129580e+00  0.00000000e+00  2.96833181e+00
 2.00986767e+00  1.00389111e+00  2.97125149e+00
 2.01444340e+00  0.00000000e+00  3.96091700e+00
 2.01481032e+00  1.00484776e+00  3.95982790e+00
 3.01699328e+00  0.00000000e+00  2.96564102e+00
 3.01704478e+00  1.00276399e+00  2.96669102e+00
 3.02112007e+00  0.00000000e+00  3.95761895e+00
 3.02087092e+00  1.00438797e+00  3.95710635e+00
 4.02384186e+00  0.00000000e+00  2.96291018e+00
 4.02385521e+00  1.00301981e+00  2.96175408e+00
 4.02658939e+00  0.00000000e+00  3.95492530e+00
 4.02662182e+00  1.00345063e+00  3.95355034e+00
 5.02960873e+00  0.00000000e+00  2.95916629e+00
 5.03018332e+00  1.00347471e+00  2.95976067e+00
 5.03106451e+00  0.00000000e+00  3.95380116e+00
 5.03125811e+00  1.00280643e+00  3.95134783e+00
 6.03408623e+00  0.00000000e+00  2.95751333e+00
 6.03518867e+00  1.00263155e+00  2.95838737e+00
 6.03424740e+00  0.00000000e+00  3.95329475e+00
 6.03554821e+00  1.00198948e+00  3.95139027e+00
 1.00299489e+00  2.00975180e+00  2.97778344e+00
 0.00000000e+00  2.01163673e+00  2.97853899e+00
 1.00749898e+00  2.01046705e+00  3.96833801e+00
 0.00000000e+00  2.01062107e+00  3.96909070e+00
 2.00862288e+00  2.00917411e+00  2.97119188e+00
 2.01592779e+00  2.01066732e+00  3.96174479e+00
 3.01514006e+00  2.01056099e+00  2.96370625e+00
 3.02169824e+00  2.00965500e+00  3.95071530e+00
 4.02454281e+00  2.01211405e+00  2.96348166e+00
 4.02579069e+00  2.00756264e+00  3.94820547e+00
 5.03179455e+00  2.00993419e+00  2.96158671e+00
 5.03185034e+00  2.00883913e+00  3.94977975e+00
 6.03749132e+00  2.00780487e+00  2.96093535e+00
 6.03798580e+00  2.00719762e+00  3.94976091e+00
 1.00157511e+00  3.01677346e+00  2.98563957e+00
 0.00000000e+00  3.01673412e+00  2.98312664e+00
 1.00530601e+00  3.01695347e+00  3.97292066e+00
 0.00000000e+00  3.01547265e+00  3.97955322e+00
 2.00772452e+00  3.01551723e+00  2.97861457e+00
 2.01715136e+00  3.01797915e+00  3.95831013e+00
 3.00655627e+00  3.01214242e+00  2.93578196e+00
 3.02663898e+00  3.01400900e+00  3.94462276e+00
 1.00126624e+00  4.02040195e+00  2.98898125e+00
 0.00000000e+00  4.02125072e+00  2.98795366e+00
 1.00253963e+00  4.02162790e+00  3.98355842e+00
 0.00000000e+00  4.02104473e+00  3.98433328e+00
 0.00000000e+00  5.02226400e+00  2.98920488e+00
 1.00307667e+00  5.02576160e+00  3.98608017e+00
 0.00000000e+00  5.02408457e+00  3.98389387e+00
 2.00346541e+00  4.02043915e+00  2.99362016e+00
 2.00893545e+00  4.02323866e+00  3.97936702e+00
 2.00987196e+00  5.02544022e+00  3.98297167e+00
 0.00000000e+00  6.02486753e+00  2.98595190e+00
 1.00541651e+00  6.03331995e+00  3.97429132e+00
 0.00000000e+00  6.03345919e+00  3.97882652e+00
 2.01184392e+00  6.03731060e+00  3.97081542e+00
 3.01997185e+00  5.02193832e+00  3.95441318e+00
 3.02802444e+00  6.03060961e+00  3.95876408e+00
 0.00000000e+00  0.00000000e+00  4.95111322e+00
 1.00969398e+00  0.00000000e+00  4.95031214e+00
 1.01031601e+00  1.00487733e+00  4.95176077e+00
 0.00000000e+00  1.00453508e+00  4.95184422e+00
 2.01767302e+00  0.00000000e+00  4.94938087e+00
 2.01890635e+00  1.00601840e+00  4.94994164e+00
 3.02373838e+00  0.00000000e+00  4.94841003e+00
 3.02449679e+00  1.00666893e+00  4.94725895e+00
 4.02813053e+00  0.00000000e+00  4.94676208e+00
 4.02811432e+00  1.00593758e+00  4.94598866e+00
 5.03178358e+00  0.00000000e+00  4.94646311e+00
 5.03135681e+00  1.00479126e+00  4.94545412e+00
 6.03497124e+00  0.00000000e+00  4.94659615e+00
 6.03524113e+00  1.00473368e+00  4.94584322e+00
 1.01266527e+00  2.01157737e+00  4.95194864e+00
 0.00000000e+00  2.00967383e+00  4.95517921e+00
 2.02188587e+00  2.01279950e+00  4.94787836e+00
 3.02702618e+00  2.01210117e+00  4.94436598e+00
 4.02924442e+00  2.01047421e+00  4.94113016e+00
 5.03105402e+00  2.00871658e+00  4.93957520e+00
 6.03303480e+00  2.00838590e+00  4.93996286e+00
 1.01350844e+00  3.01475310e+00  4.96349573e+00
 0.00000000e+00  3.01749492e+00  4.96744204e+00
 2.02517462e+00  3.01591468e+00  4.94664001e+00
 3.03080487e+00  3.01458931e+00  4.93929434e+00
 4.02825594e+00  3.00507331e+00  3.93265557e+00
 4.03217030e+00  3.01232171e+00  4.93794632e+00
 1.01177752e+00  4.01844072e+00  4.97735310e+00
 0.00000000e+00  4.01599598e+00  4.97365379e+00
 2.02828288e+00  4.02248764e+00  4.94968128e+00
 1.01220942e+00  5.03119755e+00  4.96442080e+00
 0.00000000e+00  5.03195715e+00  4.96727991e+00
 1.01361489e+00  6.04683161e+00  4.96121073e+00
 0.00000000e+00  6.04598379e+00  4.96111584e+00
 2.02259064e+00  5.02738667e+00  4.95688295e+00
 2.03179193e+00  6.03922224e+00  4.95614052e+00
 3.03140998e+00  5.02003479e+00  4.94150448e+00
 3.04090738e+00  6.02245808e+00  4.94435358e+00
 4.01880121e+00  5.01610184e+00  3.92927766e+00
 4.02931356e+00  6.01662064e+00  3.93390393e+00
 4.03683853e+00  5.01272535e+00  4.93751717e+00
 4.04058981e+00  6.01384258e+00  4.93790960e+00
 5.03718615e+00  5.01018047e+00  3.93783712e+00
 6.03718901e+00  5.00747919e+00  3.93782520e+00
 6.03987265e+00  6.00749683e+00  3.93781781e+00
 5.03982973e+00  6.01021624e+00  3.93790221e+00
 5.03718519e+00  5.01018000e+00  4.93784618e+00
 6.03720999e+00  5.00751114e+00  4.93783474e+00
 6.03988028e+00  6.00748968e+00  4.93782043e+00
 5.03998280e+00  6.01010036e+00  4.93789387e+00
 0.00000000e+00  0.00000000e+00  5.93784523e+00
 1.01044405e+00  0.00000000e+00  5.93784523e+00
 1.01176298e+00  1.00584877e+00  5.93784523e+00
 0.00000000e+00  1.00469697e+00  5.93784523e+00
 2.01916575e+00  0.00000000e+00  5.93784523e+00
 2.02022934e+00  1.00714993e+00  5.93784523e+00
 3.02470994e+00  0.00000000e+00  5.93784523e+00
 3.02581716e+00  1.00753772e+00  5.93784523e+00
 4.02835321e+00  0.00000000e+00  5.93784523e+00
 4.02900219e+00  1.00756395e+00  5.93784523e+00
 5.03205729e+00  0.00000000e+00  5.93784523e+00
 5.03137016e+00  1.00683618e+00  5.93784523e+00
 6.03624964e+00  0.00000000e+00  5.93784523e+00
 6.03418446e+00  1.00757635e+00  5.93784523e+00
 1.01473510e+00  2.00953531e+00  5.93784523e+00
 0.00000000e+00  2.00902629e+00  5.93784523e+00
 2.02447820e+00  2.01251411e+00  5.93784523e+00
 3.02865076e+00  2.01338863e+00  5.93784523e+00
 4.03078556e+00  2.01198602e+00  5.93784523e+00
 5.03107834e+00  2.01006198e+00  5.93784523e+00
 6.03170204e+00  2.00921965e+00  5.93784523e+00
 1.01885045e+00  3.02406859e+00  5.93784523e+00
 0.00000000e+00  3.02616382e+00  5.93784523e+00
 2.02994347e+00  3.01864195e+00  5.93784523e+00
 3.03223491e+00  3.01543665e+00  5.93784523e+00
 4.03227282e+00  3.01245308e+00  5.93784523e+00
 5.03237963e+00  3.00987720e+00  4.93763781e+00
 5.03251410e+00  3.01006937e+00  5.93784523e+00
 6.03259325e+00  3.00818181e+00  4.93769741e+00
 6.03254271e+00  3.00848365e+00  5.93784523e+00
 3.03494120e+00  4.01512671e+00  4.93610001e+00
 3.03548670e+00  4.01570511e+00  5.93784523e+00
 2.03619552e+00  4.02011919e+00  5.93784523e+00
 4.03474283e+00  4.01235104e+00  4.93802309e+00
 4.03468895e+00  4.01245975e+00  5.93784523e+00
 5.03453445e+00  4.01021290e+00  4.93784571e+00
 5.03457403e+00  4.01016426e+00  5.93784523e+00
 6.03456545e+00  4.00783730e+00  4.93782234e+00
 6.03455019e+00  4.00775051e+00  5.93784523e+00
 0.00000000e+00  4.00681019e+00  5.93784523e+00
 1.02857637e+00  4.01126909e+00  5.93784523e+00
 1.01898396e+00  5.03743458e+00  5.93784523e+00
 0.00000000e+00  5.03770638e+00  5.93784523e+00
 5.03711510e+00  5.01015902e+00  5.93784523e+00
 4.03702593e+00  5.01291227e+00  5.93784523e+00
 6.03723574e+00  5.00754404e+00  5.93784523e+00
 1.02068293e+00  6.04911470e+00  5.93784523e+00
 0.00000000e+00  6.05333900e+00  5.93784523e+00
 2.02700686e+00  5.02799082e+00  5.93784523e+00
 2.03948832e+00  6.03688717e+00  5.93784523e+00
 3.03497267e+00  5.01848078e+00  5.93784523e+00
 3.04347897e+00  6.02059841e+00  5.93784523e+00
 4.04092693e+00  6.01323509e+00  5.93784523e+00
 5.03997278e+00  6.01003647e+00  5.93784523e+00
 6.03988028e+00  6.00751114e+00  5.93784523e+00
</DataArray>
</Points>
<PointData Tensors="Stress_Components,Plastic_strain_components" Vevtors="Spatial_displacement,Reaction_force" Scalars="Equivalent_plastic_strain,Stress_Mises,Stress_Max_Principal,Stress_Mid_Principal,Stress_Min_Principal,Stress_Pressure,Stress_Tresca,Stress_Third_Invariant,Plastic_strain_Max_Principal,Plastic_strain_Min_Principal">
<DataArray type="Float32" Name="Stress_Components" NumberOfComponents="9" format="ascii">
1.77325366e+00 -2.48659976e+00 6.38592644e-01 -2.48659976e+00 9.35557429e-01 2.24731638e+00 6.38592644e-01 2.24731638e+00 -2.55663710e+01
6.75216414e-01 -2.46900337e+00 4.93911469e-01 -2.46900337e+00 2.12752726e-01 2.52265432e+00 4.93911469e-01 2.52265432e+00 -2.68495880e+01
-2.07550335e+00 -1.06511548e-01 1.27066611e+00 -1.06511548e-01 9.57263649e-01 -8.35664310e-02 1.27066611e+00 -8.35664310e-02 -3.18272336e+01
-9.36073452e-01 9.13503403e-02 -1.26736195e+00 9.13503403e-02 2.59571761e+00 -6.47333622e-01 -1.26736195e+00 -6.47333622e-01 -2.80574703e+01
8.37018396e+00 1.25081266e+00 3.03222737e+00 1.25081266e+00 9.98874006e+00 -1.24729684e-01 3.03222737e+00 -1.24729684e-01 -1.03097115e+01
6.16190422e+00 -1.01289247e+00 -1.13347634e+00 -1.01289247e+00 8.58512998e+00 2.13479475e+00 -1.13347634e+00 2.13479475e+00 -1.52666356e+01
-4.67921761e+00 1.63723822e+00 1.81637833e+00 1.63723822e+00 -3.03550116e+00 -2.88517854e+00 1.81637833e+00 -2.88517854e+00 -3.56380129e+01
-2.29558235e+00 2.58194704e+00 4.29490483e+00 2.58194704e+00 -2.18188405e-01 2.57561296e+00 4.29490483e+00 2.57561296e+00 -2.92511353e+01
1.51695149e+00 4.59277980e-01 -3.52528203e+00 4.59277980e-01 4.77104276e-01 3.38248426e+00 -3.52528203e+00 3.38248426e+00 -2.79982819e+01
-1.49390607e+01 4.08305176e-01 1.64331263e+00 4.08305176e-01 -1.35647049e+01 5.60073733e+00 1.64331263e+00 5.60073733e+00 -6.13146400e+01
-2.20491527e+01 3.51908159e+00 -1.43741217e+01 3.51908159e+00 -2.05887875e+01 3.60284197e+00 -1.43741217e+01 3.60284197e+00 -7.03679174e+01
-1.99521921e+01 6.71495175e+00 -9.72495008e+00 6.71495175e+00 -2.46510596e+01 -2.53243465e+00 -9.72495008e+00 -2.53243465e+00 -7.45442467e+01
1.03376910e-01 -6.69635206e-01 7.20434934e-02 -6.69635206e-01 -9.07533467e-02 -1.07124899e-01 7.20434934e-02 -1.07124899e-01 -3.63688655e-01
-2.47551411e-01 -4.86796528e-01 -3.06947708e-01 -4.86796528e-01 2.42485322e-01 -1.24464273e-01 -3.06947708e-01 -1.24464273e-01 -3.46012163e-01
1.92047929e-01 -1.44702055e-01 3.51920284e-01 -1.44702055e-01 3.16236824e-01 2.05753714e-01 3.51920284e-01 2.05753714e-01 -8.59349251e-01
1.62116542e-01 -3.27600747e-01 -2.36336991e-01 -3.27600747e-01 -3.97752330e-01 -2.48678565e-01 -2.36336991e-01 -2.48678565e-01 -1.15453884e-01
1.66204408e-01 2.07463339e-01 2.22129345e-01 2.07463339e-01 2.32178330e-01 2.93792009e-01 2.22129345e-01 2.93792009e-01 -1.58130556e-01
-1.33702487e-01 1.56958655e-01 2.26397336e-01 1.56958655e-01 -2.79341638e-01 -3.25460806e-02 2.26397336e-01 -3.25460806e-02 6.53302073e-01
1.22504205e-01 5.11552691e-02 -4.20276254e-01 5.11552691e-02 7.79724196e-02 -3.76020640e-01 -4.20276254e-01 -3.76020640e-01 3.97997759e-02
-2.72144616e-01 1.01629071e-01 2.28673052e-02 1.01629071e-01 -1.05135694e-01 1.84469029e-01 2.28673052e-02 1.84469029e-01 6.17520392e-01
4.14886862e-01 -5.92861325e-05 2.00429440e+00 -5.92861325e-05 8.16155605e-01 -4.94261011e-01 2.00429440e+00 -4.94261011e-01 -2.85049067e+01
7.40349397e-01 7.61514320e-03 1.59516448e+00 7.61514320e-03 2.20774218e-01 1.66705512e-01 1.59516448e+00 1.66705512e-01 -2.88060694e+01
3.71137102e-01 -1.63397802e+00 2.15750254e+00 -1.63397802e+00 4.10739598e-01 6.11845084e-01 2.15750254e+00 6.11845084e-01 -2.86482875e+01
-6.00145832e-01 9.03031789e-02 2.03370936e+00 9.03031789e-02 8.72598529e-01 -9.83193040e-01 2.03370936e+00 -9.83193040e-01 -2.94693050e+01
2.30230415e+00 -5.12187602e-04 1.39486849e+00 -5.12187602e-04 -2.45259589e+00 -5.25577292e-02 1.39486849e+00 -5.25577292e-02 -2.97634706e+01
1.47335836e+00 6.26020040e-02 3.47966500e-01 6.26020040e-02 -2.59139991e+00 1.36320463e+00 3.47966500e-01 1.36320463e+00 -3.08439727e+01
1.32399549e+00 1.12740496e-01 2.09230949e+00 1.12740496e-01 -2.13033725e+00 5.79687349e-01 2.09230949e+00 5.79687349e-01 -3.02096796e+01
7.32696287e-01 1.08537165e-01 2.26202033e+00 1.08537165e-01 -2.84718832e+00 -1.06806491e+00 2.26202033e+00 -1.06806491e+00 -3.16434627e+01
2.49804698e+00 -1.56144160e+00 2.52522725e+00 -1.56144160e+00 -1.18013880e+00 1.92216229e-01 2.52522725e+00 1.92216229e-01 -2.79812684e+01
1.55467059e+00 -2.49595670e+00 1.59303662e+00 -2.49595670e+00 -8.81755089e-01 7.35453442e-01 1.59303662e+00 7.35453442e-01 -2.84990027e+01
1.59555060e+00 4.10638534e-01 -5.97046047e-01 4.10638534e-01 -1.63755356e+00 7.80159321e-01 -5.97046047e-01 7.80159321e-01 -2.98915763e+01
-5.90929314e-02 4.82209668e-01 1.36323523e+00 4.82209668e-01 -2.01353247e+00 1.87244618e+00 1.36323523e+00 1.87244618e+00 -3.20497780e+01
4.33723581e+00 1.00884063e-01 9.45965216e-01 1.00884063e-01 -2.36798334e+00 1.21304417e+00 9.45965216e-01 1.21304417e+00 -2.70560455e+01
1.86274017e+00 -1.12903599e+00 -6.05671525e-01 -1.12903599e+00 -1.60553319e+00 -8.62175196e-01 -6.05671525e-01 -8.62175196e-01 -2.90248940e+01
2.11312018e+00 -4.09090206e-01 -2.57511213e-01 -4.09090206e-01 -1.02324117e+00 7.01784912e-01 -2.57511213e-01 7.01784912e-01 -2.87195272e+01
-2.36233689e-01 -4.96822931e-01 -1.00381285e+00 -4.96822931e-01 -2.15882159e+00 6.08173836e-01 -1.00381285e+00 6.08173836e-01 -3.23037288e+01
5.50820175e+00 1.17460253e-01 -1.09764077e+00 1.17460253e-01 -1.28286071e+00 -3.43046889e-01 -1.09764077e+00 -3.43046889e-01 -2.47029831e+01
-8.55805930e-01 5.68481207e-01 -8.69616710e-01 5.68481207e-01 -2.75524524e+00 -1.01654701e-01 -8.69616710e-01 -1.01654701e-01 -3.33880713e+01
2.44156718e+00 -9.06015350e-03 -1.55450836e+00 -9.06015350e-03 -9.53314140e-01 5.19357353e-01 -1.55450836e+00 5.19357353e-01 -2.81769686e+01
3.11803249e+00 -1.31936312e+00 -1.69133201e+00 -1.31936312e+00 2.20973872e-01 -9.21484588e-01 -1.69133201e+00 -9.21484588e-01 -2.59242193e+01
5.71925926e+00 6.00576729e-01 8.76276299e-01 6.00576729e-01 1.68867600e+00 -1.09785461e+00 8.76276299e-01 -1.09785461e+00 -2.16783495e+01
1.30860717e+00 7.05279000e-01 -1.22181280e-03 7.05279000e-01 -6.14517599e-01 1.84525806e-01 -1.22181280e-03 1.84525806e-01 -2.91294577e+01
3.82743336e+00 1.76389214e-01 -3.23989743e+00 1.76389214e-01 1.11095314e+00 3.73530731e-01 -3.23989743e+00 3.73530731e-01 -2.40085602e+01
1.28612538e+00 -4.78068253e-01 -1.65926476e+00 -4.78068253e-01 7.94319317e-01 -6.75463576e-01 -1.65926476e+00 -6.75463576e-01 -2.72916024e+01
7.52870917e+00 1.11486441e+00 1.18776500e+00 1.11486441e+00 2.79225588e+00 -1.39296678e+00 1.18776500e+00 -1.39296678e+00 -1.82009816e+01
5.09565582e+00 6.18530639e-01 3.30958236e-02 6.18530639e-01 2.45863849e+00 -9.91964266e-01 3.30958236e-02 -9.91964266e-01 -2.16264911e+01
5.79191232e+00 1.96916407e+00 -2.80921829e+00 1.96916407e+00 2.35282439e+00 -4.24519245e-01 -2.80921829e+00 -4.24519245e-01 -2.04652176e+01
3.87602845e+00 1.19123626e+00 -9.32699442e-01 1.19123626e+00 1.73842545e+00 -1.09335430e-01 -9.32699442e-01 -1.09335430e-01 -2.34920180e+01
-1.43390437e+00 -2.83464110e+00 4.71986994e+00 -2.83464110e+00 1.62554660e+00 -5.44651598e-01 4.71986994e+00 -5.44651598e-01 -2.67020197e+01
-1.18483549e+00 -1.87906063e+00 3.26261622e+00 -1.87906063e+00 4.21100378e+00 -5.32186605e-01 3.26261622e+00 -5.32186605e-01 -2.55489750e+01
-2.19703516e+00 -6.81529440e-01 5.02697331e+00 -6.81529440e-01 -5.23494965e+00 1.27809791e+00 5.02697331e+00 1.27809791e+00 -3.63742089e+01
1.25818331e-01 -1.43647596e-01 4.90530908e+00 -1.43647596e-01 -2.68956703e+00 -5.27286030e-01 4.90530908e+00 -5.27286030e-01 -3.11861415e+01
-1.84179579e-01 -5.80646157e-01 2.34054383e+00 -5.80646157e-01 -1.09509722e+00 -1.16097196e+00 2.34054383e+00 -1.16097196e+00 -3.25004033e+01
-3.09968859e-01 7.25344810e-01 1.34780052e+00 7.25344810e-01 -1.21829447e+00 -1.49796369e+00 1.34780052e+00 -1.49796369e+00 -3.14517901e+01
-1.66120405e+01 -1.39381593e+00 -8.10461817e+00 -1.39381593e+00 -1.74029877e+01 1.07553148e-01 -8.10461817e+00 1.07553148e-01 -6.27935394e+01
-2.01743733e-01 1.29942068e+00 -5.30451546e+00 1.29942068e+00 -5.21640028e-01 -5.51691498e-01 -5.30451546e+00 -5.51691498e-01 -2.89357297e+01
-1.30087490e+01 2.08654851e-01 -2.18494055e+00 2.08654851e-01 -1.11546384e+01 1.80254764e+00 -2.18494055e+00 1.80254764e+00 -5.59962301e+01
-4.89361295e+00 -7.49735087e-01 -9.13327894e+00 -7.49735087e-01 -1.02579080e+01 2.01606162e+00 -9.13327894e+00 2.01606162e+00 -4.10938606e+01
-6.23907864e+00 -3.78295265e-01 -7.35078543e-01 -3.78295265e-01 -5.96601331e+00 9.75837454e-01 -7.35078543e-01 9.75837454e-01 -4.30891981e+01
-8.19223166e+00 4.44952101e-01 -2.60556102e+00 4.44952101e-01 -7.80139142e+00 3.63724306e-02 -2.60556102e+00 3.63724306e-02 -4.74900970e+01
-8.18660259e-01 1.88491412e-01 -5.84995806e-01 1.88491412e-01 -1.19057816e+00 2.07245737e-01 -5.84995806e-01 2.07245737e-01 -3.20418558e+01
-6.69847143e+00 8.90607446e-01 -1.80044085e+00 8.90607446e-01 -7.95907307e+00 -3.03334528e+00 -1.80044085e+00 -3.03334528e+00 -4.51556053e+01
-5.60575804e+00 -1.55232816e+00 6.11324181e+00 -1.55232816e+00 -8.90631169e-01 9.89131757e-02 6.11324181e+00 9.89131757e-02 -3.22277331e+01
1.76582569e+00 4.36666429e-01 4.33270198e+00 4.36666429e-01 8.81229892e+00 2.13028991e+00 4.33270198e+00 2.13028991e+00 -1.62716908e+01
1.72804976e+00 -8.29174748e-01 4.73123911e+00 -8.29174748e-01 -9.49846540e-01 -1.81661819e+00 4.73123911e+00 -1.81661819e+00 -2.70901398e+01
2.83345081e+00 8.46088558e-01 5.91624141e+00 8.46088558e-01 3.24819273e+00 -3.81970680e+00 5.91624141e+00 -3.81970680e+00 -2.04651806e+01
-2.64983945e+01 -4.26859605e+00 1.02241932e+01 -4.26859605e+00 -2.38124762e+01 -9.65115720e+00 1.02241932e+01 -9.65115720e+00 -7.59228039e+01
-7.73647708e+00 -7.23072267e-01 3.27899432e-01 -7.23072267e-01 -1.44521747e+01 -4.53871746e+00 3.27899432e-01 -4.53871746e+00 -5.20645035e+01
-2.82752495e+01 -9.20913792e+00 -2.61693096e+01 -9.20913792e+00 -2.54880199e+01 -1.72441368e+01 -2.61693096e+01 -1.72441368e+01 -1.87278576e+01
1.83933611e+01 -1.08171602e+00 -3.18841648e+00 -1.08171602e+00 1.78636211e+01 -4.64677000e+00 -3.18841648e+00 -4.64677000e+00 7.70998319e+00
6.06136650e-01 -8.34265632e-01 3.04820275e+00 -8.34265632e-01 5.22301778e+00 3.80835697e+00 3.04820275e+00 3.80835697e+00 -2.13460872e+01
1.57836586e+00 -1.54668942e+00 5.90762025e+00 -1.54668942e+00 6.01203448e+00 8.38998728e-01 5.90762025e+00 8.38998728e-01 -1.76356630e+01
8.53616881e+00 -9.42892091e-02 4.53743841e+00 -9.42892091e-02 1.00261582e+01 1.01442054e+00 4.53743841e+00 1.01442054e+00 -6.75786853e+00
1.10308355e+01 5.54822218e-02 9.44337085e-01 5.54822218e-02 1.39327859e+01 8.66374336e-02 9.44337085e-01 8.66374336e-02 -3.20147181e+00
3.96988153e+00 1.96647292e+00 3.38335633e-02 1.96647292e+00 6.14674574e+00 -1.20904139e+00 3.38335633e-02 -1.20904139e+00 -1.76478300e+01
-1.26519429e+00 2.35531310e+00 -2.46942690e-01 2.35531310e+00 4.46818905e-01 3.43921460e+00 -2.46942690e-01 3.43921460e+00 -2.71721578e+01
1.84882739e+00 1.55917650e+00 8.44945043e-01 1.55917650e+00 6.52152049e+00 1.75154860e+00 8.44945043e-01 1.75154860e+00 -1.99116204e+01
-1.35744256e+01 -2.06765279e-01 1.09737968e+00 -2.06765279e-01 -6.50879943e+00 1.11726469e+01 1.09737968e+00 1.11726469e+01 -3.65268564e+01
-2.65857897e+01 -1.50446248e+00 1.24135380e+01 -1.50446248e+00 -3.48742971e+01 6.32977062e+00 1.24135380e+01 6.32977062e+00 -9.14731636e+01
-1.07162167e+01 -5.06931138e-01 -3.82785959e+00 -5.06931138e-01 -9.26149485e+00 -1.83565674e+00 -3.82785959e+00 -1.83565674e+00 -4.72998425e+01
-3.39622056e+00 -3.15362208e-01 1.98173213e+00 -3.15362208e-01 2.50669574e+00 3.27258396e+00 1.98173213e+00 3.27258396e+00 -2.93649187e+01
3.34529090e+00 2.23611201e+00 -1.11716116e+00 2.23611201e+00 5.11780858e+00 1.00566657e+00 -1.11716116e+00 1.00566657e+00 -2.17649595e+01
-6.20670009e+00 -8.87766361e-01 3.88756216e+00 -8.87766361e-01 8.09460521e-01 -2.87097687e+00 3.88756216e+00 -2.87097687e+00 -3.48391075e+01
-7.07723705e+00 -3.49112332e-01 -3.61097652e+00 -3.49112332e-01 -6.52545679e+00 5.05223322e+00 -3.61097652e+00 5.05223322e+00 -4.17582016e+01
-2.20507846e+01 3.46911852e+00 1.33122018e+00 3.46911852e+00 -1.62070607e+01 -1.46053290e+01 1.33122018e+00 -1.46053290e+01 -6.58616657e+01
-6.28858423e+00 -1.36635102e+00 -2.23101979e+00 -1.36635102e+00 -7.37115510e+00 -3.97250422e+00 -2.23101979e+00 -3.97250422e+00 -4.27881699e+01
2.03150517e+00 -9.97354742e-04 4.32277143e-01 -9.97354742e-04 -5.61026764e+00 -6.16657227e-01 4.32277143e-01 -6.16657227e-01 -3.29146223e+01
9.44605269e-01 4.60573986e-01 1.02049263e+00 4.60573986e-01 -4.92815012e+00 5.75876398e-01 1.02049263e+00 5.75876398e-01 -3.36530747e+01
1.01656466e+00 1.63025190e+00 1.18268418e+00 1.63025190e+00 -4.22268842e+00 8.90871469e-01 1.18268418e+00 8.90871469e-01 -3.27046423e+01
2.05348996e+00 2.44374257e-01 1.34441099e+00 2.44374257e-01 -5.50894636e+00 -2.35609434e-02 1.34441099e+00 -2.35609434e-02 -3.27392855e+01
-1.69103593e+00 1.14777112e+00 2.99716368e-01 1.14777112e+00 -2.94430505e+00 1.39182904e+00 2.99716368e-01 1.39182904e+00 -3.47914786e+01
-1.15450230e+00 2.48631525e+00 5.15007492e-01 2.48631525e+00 -1.80905011e+00 5.39458979e-01 5.15007492e-01 5.39458979e-01 -3.25758982e+01
-3.01481353e+00 7.81316325e-01 -9.20530349e-01 7.81316325e-01 -8.58728476e-02 4.10482636e-01 -9.20530349e-01 4.10482636e-01 -3.31867275e+01
-2.99493438e+00 1.58412887e+00 -3.40833589e-01 1.58412887e+00 3.46400412e-01 8.96359126e-01 -3.40833589e-01 8.96359126e-01 -3.23147192e+01
-2.29245793e+00 -1.04898401e-01 -5.02718821e-01 -1.04898401e-01 1.82122055e+00 1.60974930e-02 -5.02718821e-01 1.60974930e-02 -3.03389935e+01
-2.04405442e+00 -3.64897038e-01 -7.78137594e-01 -3.64897038e-01 2.32168805e+00 3.00638044e-01 -7.78137594e-01 3.00638044e-01 -2.91732895e+01
-8.15662041e-01 -6.18983418e-01 -1.11261043e+00 -6.18983418e-01 2.56226103e+00 5.72515562e-01 -1.11261043e+00 5.72515562e-01 -2.79539618e+01
-1.28182475e-01 -1.34918451e+00 -2.06465252e+00 -1.34918451e+00 1.96582770e+00 -1.86779048e-01 -2.06465252e+00 -1.86779048e-01 -2.73348639e+01
-7.64874041e-01 3.74893934e-01 -9.79521930e-01 3.74893934e-01 3.44901431e+00 1.19675568e+00 -9.79521930e-01 1.19675568e+00 -2.69460621e+01
-6.24358058e-02 -1.62502874e+00 -1.09008813e+00 -1.62502874e+00 7.29082763e-01 -7.34433532e-01 -1.09008813e+00 -7.34433532e-01 -2.89001012e+01
6.11137398e-01 2.12263114e+00 2.60370168e+00 2.12263114e+00 -6.43344823e+00 5.24582952e-01 2.60370168e+00 5.24582952e-01 -3.46027274e+01
-2.24305570e-01 1.26836270e+00 3.72137687e+00 1.26836270e+00 -8.11573350e+00 -1.66272041e+00 3.72137687e+00 -1.66272041e+00 -3.69478121e+01
1.55065575e+00 2.59048977e+00 -4.18509888e-01 2.59048977e+00 -9.58491645e-01 5.42841312e-01 -4.18509888e-01 5.42841312e-01 -2.88172795e+01
3.19241767e+00 2.38848941e+00 -2.55941764e+00 2.38848941e+00 4.14695048e+00 -6.87640309e-02 -2.55941764e+00 -6.87640309e-02 -2.04693472e+01
1.98968365e+00 1.00881511e+00 -3.12813810e+00 1.00881511e+00 5.82799793e+00 -4.57681896e-01 -3.12813810e+00 -4.57681896e-01 -2.14967128e+01
-5.01882215e-01 -7.22192367e-01 -5.68062586e+00 -7.22192367e-01 2.25786392e+00 -1.98616762e+00 -5.68062586e+00 -1.98616762e+00 -2.60202326e+01
-5.36941965e-01 -4.06677437e+00 -7.57560205e+00 -4.06677437e+00 -4.07714494e+00 -4.61640775e+00 -7.57560205e+00 -4.61640775e+00 -2.88489011e+01
-1.94129650e+00 -4.63024147e-01 8.43030632e+00 -4.63024147e-01 -1.32124029e+01 -1.81270458e+00 8.43030632e+00 -1.81270458e+00 -4.03832734e+01
-8.88373649e+00 -1.90260510e+00 9.56926394e+00 -1.90260510e+00 -2.19872293e+01 -3.18373052e+00 9.56926394e+00 -3.18373052e+00 -5.63399442e+01
4.22523657e+00 2.33206566e+00 8.80984147e-01 2.33206566e+00 -1.43776021e+00 -3.21329967e+00 8.80984147e-01 -3.21329967e+00 -2.58077027e+01
7.78108585e+00 4.06055482e+00 -6.26331210e+00 4.06055482e+00 3.71414057e+00 -2.14636990e+00 -6.26331210e+00 -2.14636990e+00 -1.21988373e+01
-1.36956310e+01 -1.12134228e+01 -1.54638758e+01 -1.12134228e+01 -2.81920471e+01 -1.54313669e+01 -1.54638758e+01 -1.54313669e+01 1.01283419e+00
1.53090321e+01 2.70303554e+00 -3.41734929e+00 2.70303554e+00 1.13226600e+01 -2.48065921e+00 -3.41734929e+00 -2.48065921e+00 5.06409938e+00
-3.57076353e+00 1.05904301e+00 3.13399553e-01 1.05904301e+00 -9.33371711e+00 4.51345122e+00 3.13399553e-01 4.51345122e+00 -3.51505508e+01
3.70304585e-02 1.49391454e+00 -3.65771294e+00 1.49391454e+00 -3.67203010e+00 2.66831446e+00 -3.65771294e+00 2.66831446e+00 -3.20286566e+01
-2.09915318e+01 -5.83221674e-01 2.62368917e+00 -5.83221674e-01 -3.11030397e+01 -7.44415975e+00 2.62368917e+00 -7.44415975e+00 -8.94500694e+01
-6.90738495e+00 -5.27721065e-01 -3.51481844e-01 -5.27721065e-01 -3.49671412e+00 2.52099134e+00 -3.51481844e-01 2.52099134e+00 -4.11789598e+01
-2.36752760e+00 -3.20955567e-01 1.24108262e+00 -3.20955567e-01 4.14339721e-01 -5.68666279e-01 1.24108262e+00 -5.68666279e-01 -3.23814586e+01
-2.36613537e+00 -9.73170027e-01 1.81220321e+00 -9.73170027e-01 -3.51688731e+00 2.16820839e+00 1.81220321e+00 2.16820839e+00 -3.56218758e+01
-2.82488823e-01 2.95063928e-01 2.26303362e+00 2.95063928e-01 -2.11848259e-01 -6.12322628e-01 2.26303362e+00 -6.12322628e-01 -3.02180347e+01
-1.19091735e+01 2.01814875e+00 -7.66530275e-01 2.01814875e+00 -1.07755036e+01 -2.83462333e+00 -7.66530275e-01 -2.83462333e+00 -5.39405172e+01
-2.62477288e+00 -1.87191725e+00 -1.16418875e+00 -1.87191725e+00 -5.20797524e+00 3.36051521e+00 -1.16418875e+00 3.36051521e+00 -3.69305358e+01
1.31244507e+01 2.25794197e+00 1.06812306e+00 2.25794197e+00 4.29172820e+00 7.65559256e-01 1.06812306e+00 7.65559256e-01 -1.48806107e+01
2.08712316e+00 -1.47472221e+00 -6.07038677e-01 -1.47472221e+00 5.00638855e+00 -1.21558952e+00 -6.07038677e-01 -1.21558952e+00 -2.22421263e+01
2.07624683e+01 4.12881947e+00 3.09460282e+00 4.12881947e+00 2.40940628e+01 -5.04941082e+00 3.09460282e+00 -5.04941082e+00 4.58474655e+01
-5.11944406e-02 -3.33726549e+00 3.59538913e+00 -3.33726549e+00 3.25703931e+00 -1.58772688e+01 3.59538913e+00 -1.58772688e+01 1.05494976e+01
4.09767187e+00 -3.29356003e+00 -1.34791653e+00 -3.29356003e+00 2.81067133e-01 4.76492691e+00 -1.34791653e+00 4.76492691e+00 -7.76412487e-01
3.36805534e+00 -6.18656774e+00 -1.87368256e+00 -6.18656774e+00 1.44426667e+01 -3.12391297e+00 -1.87368256e+00 -3.12391297e+00 8.69161638e+00
-7.71954834e-01 -1.19339919e+00 1.34868753e+00 -1.19339919e+00 6.18209660e-01 -2.61429548e-01 1.34868753e+00 -2.61429548e-01 -6.55156910e-01
-5.26672006e-01 -3.55228633e-01 5.16587496e-01 -3.55228633e-01 1.00019127e-01 1.91510171e-01 5.16587496e-01 1.91510171e-01 -3.82233024e-01
6.92754447e-01 -7.36869514e-01 -2.97084063e-01 -7.36869514e-01 -3.57021064e-01 -1.59595263e+00 -2.97084063e-01 -1.59595263e+00 -1.14462411e+00
5.87034822e-01 -1.57545638e+00 -1.05107665e+00 -1.57545638e+00 3.00515234e-01 1.43222713e+00 -1.05107665e+00 1.43222713e+00 -1.69645870e+00
5.88525028e+00 3.00038837e+00 6.27605301e-01 3.00038837e+00 -1.85647690e+00 1.91908666e+00 6.27605301e-01 1.91908666e+00 -3.63042629e-01
7.03209619e-01 -1.51182274e-01 5.63083808e-01 -1.51182274e-01 -5.44991314e+00 2.77506088e-01 5.63083808e-01 2.77506088e-01 -3.91408751e-02
-3.82465923e+00 1.24991822e+00 -1.53087944e-01 1.24991822e+00 -4.71597314e-01 -1.45114154e+00 -1.53087944e-01 -1.45114154e+00 8.62053543e-01
-5.72693908e+00 -2.50375279e+00 -8.76292348e-01 -2.50375279e+00 2.68203982e+00 -1.98851804e-01 -8.76292348e-01 -1.98851804e-01 3.10845250e+00
1.76629245e+00 -5.32546267e-03 5.55448234e-04 -5.32546267e-03 -6.17943668e+00 -5.44208102e-04 5.55448234e-04 -5.44208102e-04 -3.37828140e+01
8.15577991e-01 1.00720814e+00 -3.99389211e-03 1.00720814e+00 -4.48938155e+00 5.06290779e-01 -3.99389211e-03 5.06290779e-01 -3.34674511e+01
2.87985682e-01 2.45473579e+00 7.08370164e-01 2.45473579e+00 -6.83880949e+00 1.07472780e+00 7.08370164e-01 1.07472780e+00 -3.57914577e+01
2.07161438e+00 7.89259315e-01 1.27495751e-01 7.89259315e-01 -7.60467100e+00 -1.10380794e-03 1.27495751e-01 -1.10380794e-03 -3.45257072e+01
-2.28894570e+00 7.64567614e-01 -3.18520283e-03 7.64567614e-01 -1.90912765e+00 1.31519717e+00 -3.18520283e-03 1.31519717e+00 -3.43184834e+01
-2.44759679e+00 2.96206132e+00 8.99780273e-01 2.96206132e+00 -3.19056664e+00 1.01106358e+00 8.99780273e-01 1.01106358e+00 -3.52767024e+01
-5.30612063e+00 1.10556585e+00 5.22165932e-03 1.10556585e+00 4.64135960e-01 9.19041574e-01 5.22165932e-03 9.19041574e-01 -3.45939531e+01
-3.56659337e+00 2.22901350e+00 9.08859879e-01 2.22901350e+00 1.12375042e+00 1.32761618e+00 9.08859879e-01 1.32761618e+00 -3.16950536e+01
-5.84178400e+00 6.26453221e-01 8.67767865e-03 6.26453221e-01 2.24763075e+00 2.48805009e-01 8.67767865e-03 2.48805009e-01 -3.29198799e+01
-4.51347601e+00 1.05372439e+00 1.89450809e+00 1.05372439e+00 2.82926419e+00 1.08148935e+00 1.89450809e+00 1.08148935e+00 -3.07499733e+01
-4.36921370e+00 -8.19991708e-01 4.55923378e-03 -8.19991708e-01 2.08098978e+00 2.89936110e-01 4.55923378e-03 2.89936110e-01 -3.18819218e+01
-3.33692601e+00 -6.49523746e-01 2.58665055e+00 -6.49523746e-01 2.58257768e+00 5.31961136e-02 2.58665055e+00 5.31961136e-02 -3.03063579e+01
-6.35386848e+00 -2.22462869e+00 1.42189860e-03 -2.22462869e+00 1.53935790e+00 1.23948348e+00 1.42189860e-03 1.23948348e+00 -3.41041527e+01
-3.99362814e+00 -2.01681542e+00 3.88831460e+00 -2.01681542e+00 -5.92432022e-01 -1.68271434e+00 3.88831460e+00 -1.68271434e+00 -3.36463079e+01
1.73194094e+00 3.34323651e+00 -1.30456319e+00 3.34323651e+00 -3.02299172e+00 1.18481188e+00 -1.30456319e+00 1.18481188e+00 -3.00004566e+01
-1.28716016e+00 5.36122769e-01 -5.34684807e-01 5.36122769e-01 -8.15170860e+00 1.62955145e-02 -5.34684807e-01 1.62955145e-02 -3.91652212e+01
1.22676581e+00 5.04024577e+00 -1.37443211e-01 5.04024577e+00 4.26301863e-01 2.17560488e+00 -1.37443211e-01 2.17560488e+00 -2.60731571e+01
1.46488565e+00 3.80857998e+00 1.55219558e+00 3.80857998e+00 2.81928200e+00 1.99556547e+00 1.55219558e+00 1.99556547e+00 -2.39608147e+01
5.52449332e+00 3.11270591e-01 3.18055007e+00 3.11270591e-01 8.00483996e+00 3.19990835e+00 3.18055007e+00 3.19990835e+00 -1.35353473e+01
6.66113079e+00 -6.29034758e-01 4.76478326e+00 -6.29034758e-01 9.97515488e+00 2.02127229e-02 4.76478326e+00 2.02127229e-02 -1.05014936e+01
7.58141947e+00 -3.09027475e+00 2.69486171e+00 -3.09027475e+00 3.09330940e+00 -5.53525376e+00 2.69486171e+00 -5.53525376e+00 -1.66419270e+01
-2.62342453e+01 3.77951175e-01 6.06757641e+00 3.77951175e-01 -2.75745535e+01 4.19099045e+00 6.06757641e+00 4.19099045e+00 -8.78753242e+01
-3.04470654e+01 -1.21333373e+00 5.15533495e+00 -1.21333373e+00 -3.31983223e+01 2.78660618e-02 5.15533495e+00 2.78660618e-02 -9.87110062e+01
2.13181766e+00 2.74138925e+00 2.50820035e+00 2.74138925e+00 1.21454661e+00 4.51032948e+00 2.50820035e+00 4.51032948e+00 -2.48528850e+01
1.41063165e+01 2.50863896e+00 1.70024833e+00 2.50863896e+00 1.45420580e+01 4.53205279e+00 1.70024833e+00 4.53205279e+00 -5.89337468e-01
1.30506387e+01 -4.75448532e+00 1.63439776e+00 -4.75448532e+00 1.29203746e+01 2.36944130e+00 1.63439776e+00 2.36944130e+00 -1.52124174e+00
-1.81069732e+00 -8.68073881e-01 -3.41984725e+00 -8.68073881e-01 8.54442686e+00 1.72715813e-01 -3.41984725e+00 1.72715813e-01 -3.59125577e+00
6.45937788e+00 -2.82189173e+00 3.28422052e+00 -2.82189173e+00 2.50218070e+00 2.47556494e+00 3.28422052e+00 2.47556494e+00 3.20418239e-01
2.70231104e+00 -4.39964485e+00 -2.48742676e+00 -4.39964485e+00 -1.23849506e+01 7.94246122e-02 -2.48742676e+00 7.94246122e-02 -3.11022043e-01
8.50643539e+00 -4.31111622e+00 2.79729092e+00 -4.31111622e+00 -1.80966425e+01 -2.66403419e+00 2.79729092e+00 -2.66403419e+00 5.63037157e+00
-2.92608654e+00 1.18624210e+00 -7.74658179e+00 1.18624210e+00 -1.15411687e+01 -6.99354887e+00 -7.74658179e+00 -6.99354887e+00 -6.49831271e+00
1.15402231e+01 -1.28256601e+00 1.65735209e+00 -1.28256601e+00 1.83574989e+01 3.10398877e+00 1.65735209e+00 3.10398877e+00 2.60397491e+01
-1.42489653e+01 2.89390588e+00 -2.48437023e+00 2.89390588e+00 -6.97406769e+00 1.20267687e+01 -2.48437023e+00 1.20267687e+01 -4.90753708e+01
2.15026921e+00 2.40309145e+00 -1.63683029e+00 2.40309145e+00 1.32891051e+01 2.85576232e+00 -1.63683029e+00 2.85576232e+00 3.84922945e+00
-3.82531404e-01 -1.58134003e+00 1.78134334e+00 -1.58134003e+00 1.44956220e+01 -5.93289365e-01 1.78134334e+00 -5.93289365e-01 4.88192917e+00
-2.41173953e+00 3.08900181e+00 1.08093610e+00 3.08900181e+00 7.84356117e+00 -1.29525445e+00 1.08093610e+00 -1.29525445e+00 1.18858245e+00
-3.86438072e-01 -1.19377625e+00 -1.02357183e+00 -1.19377625e+00 4.58894569e+00 8.18468571e-01 -1.02357183e+00 8.18468571e-01 2.37416205e+00
3.96142042e+00 -1.56311417e+00 -4.44793463e-01 -1.56311417e+00 -1.12442079e+01 -8.01787227e-01 -4.44793463e-01 -8.01787227e-01 3.48742461e+00
4.40042588e+00 -8.59959364e-01 -1.54545021e+00 -8.59959364e-01 -1.44286585e+01 -3.16650569e-01 -1.54545021e+00 -3.16650569e-01 6.34926939e+00
-3.45749779e+01 1.86323333e+00 -3.47570515e+00 1.86323333e+00 -2.94931564e+01 1.70841366e-01 -3.47570515e+00 1.70841366e-01 -9.92684708e+01
-3.87436066e+01 -1.96887708e+00 -3.10310578e+00 -1.96887708e+00 -3.79026299e+01 6.69579840e+00 -3.10310578e+00 6.69579840e+00 -1.12064163e+02
-3.08621153e+00 -1.80079544e+00 2.25739861e+00 -1.80079544e+00 -1.90680822e+00 2.21835486e+00 2.25739861e+00 2.21835486e+00 -3.46530094e+01
-1.21099567e+01 -3.94997269e-01 2.57878566e+00 -3.94997269e-01 -9.88791299e+00 7.04274662e-02 2.57878566e+00 7.04274662e-02 -5.32419910e+01
4.64105560e+00 9.15834874e-01 -4.30481322e-01 9.15834874e-01 -1.43758346e+00 -1.37791726e+00 -4.30481322e-01 -1.37791726e+00 1.34710073e+00
6.29667286e+00 -3.13067277e-01 2.04964650e+00 -3.13067277e-01 8.01994753e+00 2.50434031e+00 2.04964650e+00 2.50434031e+00 1.96155095e+00
2.66503221e+00 1.03877348e+00 6.84440732e-01 1.03877348e+00 -7.36325169e+00 5.43731123e-01 6.84440732e-01 5.43731123e-01 -2.07593364e+00
-1.58899128e+00 -2.77899733e+00 1.24304238e+00 -2.77899733e+00 -8.65690589e+00 2.41632777e+00 1.24304238e+00 2.41632777e+00 -3.97219486e+01
-4.51835357e-02 -8.00410926e-01 2.15477633e+00 -8.00410926e-01 -4.15751839e+00 -2.59158853e-03 2.15477633e+00 -2.59158853e-03 -3.40657501e+01
1.29997969e+00 1.02884212e+00 1.57080129e-01 1.02884212e+00 1.35294580e+00 2.20460582e+00 1.57080129e-01 2.20460582e+00 -2.80016911e+01
-4.25509048e+00 -1.80591470e+00 -5.09845659e-01 -1.80591470e+00 -4.55985959e+00 4.39899898e+00 -5.09845659e-01 4.39899898e+00 -3.79658680e+01
1.22558302e+01 3.95056403e+00 -2.74556631e+00 3.95056403e+00 1.14473584e+01 4.72674757e+00 -2.74556631e+00 4.72674757e+00 -2.70738602e+00
4.18460417e+00 4.77194667e-01 -2.68723947e+00 4.77194667e-01 1.41767402e+01 3.19676358e+00 -2.68723947e+00 3.19676358e+00 -9.51352310e+00
-1.11858521e+01 -5.12021232e+00 -3.72266012e+00 -5.12021232e+00 1.32567101e+01 1.39396964e+00 -3.72266012e+00 1.39396964e+00 3.08107895e+00
-9.41930127e+00 1.26895237e+00 -1.52083987e+00 1.26895237e+00 3.74740183e+00 8.96345824e-02 -1.52083987e+00 8.96345824e-02 5.72041374e+00
-4.42505884e+00 2.47380590e+00 4.42784876e-01 2.47380590e+00 -1.96716821e+00 -1.13550667e-03 4.42784876e-01 -1.13550667e-03 3.32675904e-01
</DataArray>
<DataArray type="Float32" Name="Logarithmic_strain_components" NumberOfComponents="9" format="ascii">
2.02435620e-03 -1.09680528e-03 3.05804205e-04 -1.09680528e-03 1.82069914e-03 1.08330110e-03 3.05804205e-04 1.08330110e-03 -3.52748160e-03
2.38077150e-03 -1.24240670e-03 3.60948445e-04 -1.24240670e-03 2.43841620e-03 1.33765105e-03 3.60948445e-04 1.33765105e-03 -4.37247174e-03
2.93081353e-03 -5.04791686e-04 8.51792831e-04 -5.04791686e-04 3.63191217e-03 1.81046998e-05 8.51792831e-04 1.81046998e-05 -5.98002947e-03
1.68311309e-03 -2.58856971e-05 -7.49224317e-04 -2.58856971e-05 2.31011436e-03 -3.70470683e-04 -7.49224317e-04 -3.70470683e-04 -3.71683401e-03
1.74903276e-03 6.53522057e-04 1.71258315e-03 6.53522057e-04 2.01353004e-03 3.63477551e-04 1.71258315e-03 3.63477551e-04 -3.14482496e-03
3.08497396e-03 -1.48699373e-03 -1.54889049e-03 -1.48699373e-03 4.13625474e-03 2.88845923e-03 -1.54889049e-03 2.88845923e-03 -6.16467757e-03
6.74160843e-03 2.27471802e-03 2.93858603e-03 2.27471802e-03 5.19753341e-03 -3.37922893e-03 2.93858603e-03 -3.37922893e-03 -1.04671033e-02
3.12104906e-03 1.53300400e-03 4.11550402e-03 1.53300400e-03 3.50262827e-03 1.75042424e-03 4.11550402e-03 1.75042424e-03 -5.90859458e-03
2.73154562e-03 5.28915771e-05 -1.81417609e-03 5.28915771e-05 2.83786599e-03 2.26880956e-03 -1.81417609e-03 2.26880956e-03 -5.03931870e-03
5.84186672e-03 -9.95446535e-05 2.76621243e-03 -9.95446535e-05 6.07340585e-03 5.25189610e-03 2.76621243e-03 5.25189610e-03 -1.11463754e-02
6.47991771e-03 3.33459737e-03 -1.37810906e-02 3.33459737e-03 9.20528610e-03 5.55208768e-03 -1.37810906e-02 5.55208768e-03 -1.43755497e-02
1.07693756e-02 9.46401479e-03 -1.32825561e-02 9.46401479e-03 9.66817047e-03 -2.26717105e-03 -1.32825561e-02 -2.26717105e-03 -1.84673397e-02
4.25080623e-06 -3.19076207e-05 3.42215390e-06 -3.19076207e-05 -5.57036628e-07 -5.02983232e-06 3.42215390e-06 -5.02983232e-06 -7.08875700e-06
-4.71964722e-06 -2.34159752e-05 -1.42211120e-05 -2.34159752e-05 7.32188323e-06 -5.84161444e-06 -1.42211120e-05 -5.84161444e-06 -6.97120043e-06
6.16088460e-06 -7.14060366e-06 1.71968501e-05 -7.14060366e-06 8.84495580e-06 9.86362693e-06 1.71968501e-05 9.86362693e-06 -1.91783483e-05
4.66060351e-06 -1.58588246e-05 -1.15304174e-05 -1.58588246e-05 -8.24428685e-06 -1.17645268e-05 -1.15304174e-05 -1.17645268e-05 -1.39750449e-06
2.95501331e-06 1.00842999e-05 1.06600573e-05 1.00842999e-05 4.62700245e-06 1.42188865e-05 1.06600573e-05 1.42188865e-05 -5.04584295e-06
-4.67855443e-06 7.03189971e-06 1.12903654e-05 7.03189971e-06 -8.05513082e-06 -1.08653944e-06 1.12903654e-05 -1.08653944e-06 1.43443785e-05
2.26153929e-06 1.78344999e-06 -1.99278256e-05 1.78344999e-06 1.53938208e-06 -1.77823749e-05 -1.99278256e-05 -1.77823749e-05 9.01307473e-08
-7.70444422e-06 5.05496291e-06 8.30159763e-07 5.05496291e-06 -3.49027164e-06 8.46382500e-06 8.30159763e-07 8.46382500e-06 1.42534382e-05
5.27098472e-03 8.33762897e-07 2.07646086e-03 8.33762897e-07 5.39426738e-03 -8.22634203e-04 2.07646086e-03 -8.22634203e-04 -9.34160408e-03
5.42098109e-03 -1.12349480e-04 1.94980559e-03 -1.12349480e-04 5.04180370e-03 -4.13595990e-06 1.94980559e-03 -4.13595990e-06 -9.17561771e-03
5.31389652e-03 -1.76888153e-03 2.49818979e-03 -1.76888153e-03 5.25228219e-03 6.56555163e-04 2.49818979e-03 6.56555163e-04 -9.24898242e-03
4.94194962e-03 -1.06889311e-05 2.26545456e-03 -1.06889311e-05 5.71172289e-03 -9.48311834e-04 2.26545456e-03 -9.48311834e-04 -9.34910704e-03
7.49124587e-03 -2.18292485e-07 1.51499914e-03 -2.18292485e-07 4.57046065e-03 -1.10191613e-04 1.51499914e-03 -1.10191613e-04 -1.05318073e-02
7.26657955e-03 6.70905356e-05 1.60740066e-04 6.70905356e-05 4.68967110e-03 1.43849314e-03 1.60740066e-04 1.43849314e-03 -1.04717857e-02
7.30834680e-03 1.36691012e-04 2.79715451e-03 1.36691012e-04 5.14354231e-03 4.94958034e-04 2.79715451e-03 4.94958034e-04 -1.08533739e-02
7.54274242e-03 6.73368559e-05 2.94748078e-03 6.73368559e-05 5.29401028e-03 -1.46566727e-03 2.94748078e-03 -1.46566727e-03 -1.12131159e-02
6.01025810e-03 -1.42003066e-03 2.94558163e-03 -1.42003066e-03 3.98602273e-03 1.59040468e-04 2.94558163e-03 1.59040468e-04 -8.74536159e-03
6.01221836e-03 -2.57542782e-03 1.36231013e-03 -2.57542782e-03 4.59910926e-03 5.06811266e-04 1.36231013e-03 5.06811266e-04 -9.27640079e-03
6.54585334e-03 3.64889805e-04 -1.09967659e-03 3.64889805e-04 4.59188531e-03 7.43823271e-04 -1.09967659e-03 7.43823271e-04 -9.76580009e-03
6.71014073e-03 6.19356610e-04 1.47613409e-03 6.19356610e-04 5.39249548e-03 1.72468388e-03 1.47613409e-03 1.72468388e-03 -1.06376534e-02
6.57317054e-03 5.08202975e-05 1.05878586e-03 5.08202975e-05 3.07379407e-03 1.05141125e-03 1.05878586e-03 1.05141125e-03 -8.42691178e-03
6.41521119e-03 -1.35500072e-03 -1.10082403e-03 -1.35500072e-03 4.70386649e-03 -1.16563601e-03 -1.10082403e-03 -1.16563601e-03 -9.70474898e-03
5.87361539e-03 -2.47671313e-04 -5.17016146e-04 -2.47671313e-04 4.19111270e-03 3.32335248e-04 -5.17016146e-04 3.32335248e-04 -8.83780047e-03
6.00473891e-03 -3.99756342e-04 -1.54066554e-03 -3.99756342e-04 4.92573582e-03 5.32139768e-04 -1.54066554e-03 5.32139768e-04 -9.64114850e-03
6.12225477e-03 1.27775456e-05 -1.16583492e-03 1.27775456e-05 2.84474331e-03 -3.41657059e-04 -1.16583492e-03 -3.41657059e-04 -7.80398888e-03
6.30127703e-03 6.98506767e-04 -5.49836113e-04 6.98506767e-04 5.78590794e-03 -2.49772340e-04 -5.49836113e-04 -2.49772340e-04 -1.06368773e-02
5.21194655e-03 3.23778395e-05 -1.38630901e-03 3.23778395e-05 3.69429664e-03 2.09038636e-04 -1.38630901e-03 2.09038636e-04 -7.85128493e-03
5.21388708e-03 -1.18390066e-03 -1.93220781e-03 -1.18390066e-03 3.80585686e-03 -7.83382478e-04 -1.93220781e-03 -7.83382478e-04 -7.87204475e-03
4.69572260e-03 5.72271616e-04 5.98041093e-04 5.72271616e-04 3.05335619e-03 -9.97632676e-04 5.98041093e-04 -9.97632676e-04 -6.72285480e-03
5.79796644e-03 8.90565356e-04 -3.33284584e-05 8.90565356e-04 5.10030665e-03 2.78936724e-04 -3.33284584e-05 2.78936724e-04 -9.54867201e-03
4.02475544e-03 1.92865551e-04 -2.46865692e-03 1.92865551e-04 3.00382654e-03 2.62804584e-04 -2.46865692e-03 2.62804584e-04 -6.16574381e-03
4.22637045e-03 -3.36903083e-04 -1.36924971e-03 -3.36903083e-04 4.18260720e-03 -5.05859871e-04 -1.36924971e-03 -5.05859871e-04 -7.40738219e-03
4.19852091e-03 1.09770836e-03 8.78772786e-04 1.09770836e-03 2.35748128e-03 -1.01040682e-03 8.78772786e-04 -1.01040682e-03 -5.63345500e-03
5.18760295e-03 8.52502410e-04 2.01255472e-04 8.52502410e-04 4.08985943e-03 -9.23696658e-04 2.01255472e-04 -9.23696658e-04 -8.00631673e-03
3.53381445e-03 1.29611406e-03 -1.91455224e-03 1.29611406e-03 2.34135496e-03 -6.98363147e-05 -1.91455224e-03 -6.98363147e-05 -5.11496677e-03
4.06754384e-03 1.04713377e-03 -7.30800894e-04 1.04713377e-03 3.37910146e-03 6.45228065e-05 -7.30800894e-04 6.45228065e-05 -6.50748587e-03
4.17613197e-03 -2.94974673e-03 5.34428493e-03 -2.94974673e-03 5.60067565e-03 -1.03767721e-03 5.34428493e-03 -1.03767721e-03 -8.43568420e-03
3.41642287e-03 -1.87246411e-03 3.46854998e-03 -1.87246411e-03 6.13459607e-03 -7.57540460e-04 3.46854998e-03 -7.57540460e-04 -8.30644474e-03
8.17524322e-03 -1.09981055e-03 6.14536944e-03 -1.09981055e-03 6.36778376e-03 1.07246362e-03 6.14536944e-03 1.07246362e-03 -1.27548979e-02
7.66615069e-03 -1.53001740e-04 6.87652337e-03 -1.53001740e-04 5.62086143e-03 -7.61929521e-04 6.87652337e-03 -7.61929521e-04 -1.15305341e-02
6.27407092e-03 -8.24004570e-04 2.82822631e-03 -8.24004570e-04 5.98876172e-03 -1.83869166e-03 2.82822631e-03 -1.83869166e-03 -1.08235560e-02
7.00836990e-03 7.71924048e-04 1.03722086e-03 7.71924048e-04 6.45994616e-03 -2.32448483e-03 1.03722086e-03 -2.32448483e-03 -1.17748268e-02
8.70089820e-03 -1.78227501e-03 -9.65371178e-03 -1.78227501e-03 7.54386615e-03 5.34919184e-04 -9.65371178e-03 5.34919184e-04 -1.47518706e-02
5.24794816e-03 1.10881338e-03 -5.30610350e-03 1.10881338e-03 5.05807108e-03 -1.64160422e-03 -5.30610350e-03 -1.64160422e-03 -8.99897043e-03
8.18720658e-03 3.61802260e-04 -1.72698939e-03 3.61802260e-04 8.94885999e-03 2.30045411e-03 -1.72698939e-03 2.30045411e-03 -1.54525135e-02
6.13155644e-03 -9.07974638e-04 -7.51216696e-03 -9.07974638e-04 4.03969971e-03 1.66267158e-03 -7.51216696e-03 1.66267158e-03 -9.11635347e-03
7.44999456e-03 -5.48810858e-04 -1.20728932e-03 -5.48810858e-04 7.43860239e-03 1.02533161e-03 -1.20728932e-03 1.02533161e-03 -1.32406317e-02
6.10371307e-03 4.07196290e-04 -2.19253896e-03 4.07196290e-04 6.03921711e-03 4.15569392e-04 -2.19253896e-03 4.15569392e-04 -1.10411281e-02
6.70562708e-03 1.66279628e-04 -1.07927353e-03 1.66279628e-04 6.19398314e-03 1.74047724e-04 -1.07927353e-03 1.74047724e-04 -1.12974751e-02
6.22170675e-03 7.86738819e-04 -1.35752381e-03 7.86738819e-04 5.29685779e-03 -2.23909754e-03 -1.35752381e-03 -2.23909754e-03 -1.04409442e-02
3.36251513e-03 -1.45392932e-03 5.64828495e-03 -1.45392932e-03 5.37774793e-03 -1.50695077e-04 5.64828495e-03 -1.50695077e-04 -7.68622995e-03
1.59561631e-03 3.31363126e-05 3.85948346e-03 3.31363126e-05 4.81352967e-03 2.52885744e-03 3.85948346e-03 2.52885744e-03 -5.42119343e-03
7.73077219e-03 -1.13835314e-03 6.06977817e-03 -1.13835314e-03 5.32380874e-03 -3.94313543e-03 6.06977817e-03 -3.94313543e-03 -1.11982465e-02
4.93519200e-03 1.50004466e-03 8.05485598e-03 1.50004466e-03 4.83421172e-03 -6.69257296e-03 8.05485598e-03 -6.69257296e-03 -8.20352021e-03
7.02971069e-03 -3.45154054e-03 9.60823754e-03 -3.45154054e-03 8.70849623e-03 -9.98130353e-03 9.60823754e-03 -9.98130353e-03 -1.44428394e-02
1.06444478e-02 -1.62037848e-03 1.22910948e-03 -1.62037848e-03 6.62758136e-03 -5.98993115e-03 1.22910948e-03 -5.98993115e-03 -1.53619649e-02
-3.62142269e-03 -1.22111719e-02 -2.59849206e-02 -1.22111719e-02 -1.08860945e-03 -2.25047935e-02 -2.59849206e-02 -2.25047935e-02 7.15347053e-03
3.79347017e-03 -6.66814391e-04 -5.05002728e-03 -6.66814391e-04 1.23380303e-03 -3.77369082e-03 -5.05002728e-03 -3.77369082e-03 -3.67252071e-03
1.67637802e-03 -4.72214040e-04 1.96521075e-03 -4.72214040e-04 3.18057792e-03 2.57423954e-03 1.96521075e-03 2.57423954e-03 -4.25795728e-03
1.31869865e-03 -8.48715848e-04 3.63650359e-03 -8.48715848e-04 2.81062815e-03 1.03266625e-03 3.63650359e-03 1.03266625e-03 -3.52445024e-03
3.52995788e-03 -2.10849141e-04 5.64254254e-03 -2.10849141e-04 4.08138102e-03 3.30332258e-03 5.64254254e-03 3.30332258e-03 -6.12715259e-03
3.13123959e-03 5.81326807e-04 -4.22411031e-04 5.81326807e-04 4.89362306e-03 -7.81569513e-04 -4.22411031e-04 -7.81569513e-04 -6.57014339e-03
1.76005421e-03 9.68621855e-04 2.82575347e-04 9.68621855e-04 2.07288198e-03 -6.30995521e-04 2.82575347e-04 -6.30995521e-04 -3.34357785e-03
5.23870987e-03 2.39705517e-03 -1.98450006e-03 2.39705517e-03 6.63848421e-03 4.69230385e-03 -1.98450006e-03 4.69230385e-03 -1.01763844e-02
4.21351945e-03 1.66230332e-03 2.02598248e-03 1.66230332e-03 7.33725319e-03 2.21046014e-03 2.02598248e-03 2.21046014e-03 -9.85978020e-03
1.58222047e-03 -5.70492564e-04 1.55658537e-03 -5.70492564e-04 3.77085508e-03 6.11441844e-03 1.55658537e-03 6.11441844e-03 -4.83274518e-03
1.08761010e-02 -2.04721012e-03 1.36177016e-02 -2.04721012e-03 8.09023948e-03 7.94939161e-03 1.36177016e-02 7.94939161e-03 -1.76532636e-02
7.42864301e-03 1.71604124e-04 -7.36681325e-03 1.71604124e-04 9.20069157e-03 -4.85333656e-03 -7.36681325e-03 -4.85333656e-03 -1.45329803e-02
1.98828307e-03 -1.72881802e-04 2.12165859e-03 -1.72881802e-04 3.53590236e-03 1.85005728e-03 2.12165859e-03 1.85005728e-03 -4.99628182e-03
6.58516469e-03 4.30632272e-03 -9.77568241e-04 4.30632272e-03 8.25305493e-03 2.15269780e-03 -9.77568241e-04 2.15269780e-03 -1.26217820e-02
5.25075221e-03 -1.31654619e-04 5.32641995e-03 -1.31654619e-04 9.23272618e-03 -4.58982727e-03 5.32641995e-03 -4.58982727e-03 -1.26379486e-02
9.31730750e-03 6.98836287e-04 -7.16029992e-03 6.98836287e-04 9.78970458e-03 6.72767113e-03 -7.16029992e-03 6.72767113e-03 -1.66123686e-02
8.75541502e-03 3.75219256e-03 3.50604183e-03 3.75219256e-03 1.10390391e-02 -1.64548373e-02 3.50604183e-03 -1.64548373e-02 -1.76986409e-02
1.00729445e-02 -1.16848674e-03 -1.39545952e-03 -1.16848674e-03 7.50791685e-03 -3.47741755e-03 -1.39545952e-03 -3.47741755e-03 -1.54655231e-02
9.67167923e-03 5.74376827e-07 7.39943120e-04 5.74376827e-07 4.54910588e-03 -8.11194972e-04 7.39943120e-04 -8.11194972e-04 -1.23924315e-02
8.94909282e-03 6.16052988e-04 1.46611186e-03 6.16052988e-04 5.01566485e-03 5.81325332e-04 1.46611186e-03 5.81325332e-04 -1.22084098e-02
9.12792754e-03 2.21004403e-03 1.43229369e-03 2.21004403e-03 5.48736018e-03 1.11459181e-03 1.43229369e-03 1.11459181e-03 -1.27328405e-02
1.02875186e-02 3.40353792e-04 2.12593903e-03 3.40353792e-04 4.84814588e-03 -8.45337800e-05 2.12593903e-03 -8.45337800e-05 -1.31515528e-02
7.05704093e-03 1.22437027e-03 5.66169983e-04 1.22437027e-03 6.05661143e-03 1.38271879e-03 5.66169983e-04 1.38271879e-03 -1.15455287e-02
6.80695166e-03 2.98562710e-03 3.81577542e-04 2.98562710e-03 6.11545751e-03 4.12728477e-04 3.81577542e-04 4.12728477e-04 -1.13166111e-02
5.02281077e-03 7.54579232e-04 -1.16303866e-03 7.54579232e-04 6.45197695e-03 4.62202643e-04 -1.16303866e-03 4.62202643e-04 -1.01323540e-02
4.70138871e-03 1.60060963e-03 -4.77024238e-04 1.60060963e-03 6.13680627e-03 4.61943925e-04 -4.77024238e-04 4.61943925e-04 -9.56786633e-03
3.94320779e-03 -1.61554331e-05 -7.79796508e-04 -1.61554331e-05 5.84803056e-03 -1.03794830e-04 -7.79796508e-04 -1.03794830e-04 -8.64863233e-03
3.50940574e-03 -3.76111211e-04 -7.90764534e-04 -3.76111211e-04 5.30877884e-03 2.73864745e-04 -7.90764534e-04 2.73864745e-04 -7.79307471e-03
3.69593356e-03 -4.24552971e-04 -1.01734215e-03 -4.24552971e-04 5.06039662e-03 4.11268587e-04 -1.01734215e-03 4.11268587e-04 -7.72513193e-03
3.47836970e-03 -9.62858972e-04 -1.46107092e-03 -9.62858972e-04 4.27119754e-03 -1.71451866e-05 -1.46107092e-03 -1.71451866e-05 -6.84602855e-03
3.46657762e-03 2.69947879e-04 -7.59129820e-04 2.69947879e-04 5.00699505e-03 1.13111234e-03 -7.59129820e-04 1.13111234e-03 -7.46644801e-03
3.74247535e-03 -1.02342744e-03 -5.57173917e-04 -1.02342744e-03 4.05206630e-03 -2.83308120e-04 -5.57173917e-04 -2.83308120e-04 -6.92391803e-03
1.15026186e-02 3.12934539e-03 5.48365193e-03 3.12934539e-03 5.52887272e-03 -1.25685081e-04 5.48365193e-03 -1.25685081e-04 -1.47144857e-02
1.23228761e-02 1.90023577e-03 7.13388610e-03 1.90023577e-03 6.18149096e-03 -3.28809983e-03 7.13388610e-03 -3.28809983e-03 -1.59864831e-02
7.70844793e-03 3.37612716e-03 -7.56686827e-04 3.37612716e-03 5.47813880e-03 4.02877704e-04 -7.56686827e-04 4.02877704e-04 -1.14674044e-02
3.63242248e-03 1.99241906e-03 -2.14510825e-03 1.99241906e-03 3.90123087e-03 5.64219954e-05 -2.14510825e-03 5.64219954e-05 -6.49600389e-03
2.10323596e-03 2.23652019e-04 -2.05340282e-03 2.23652019e-04 3.43874582e-03 -1.79418080e-04 -2.05340282e-03 -1.79418080e-04 -4.85337220e-03
1.96328514e-03 -8.02729555e-04 -3.73333270e-03 -8.02729555e-04 3.06473756e-03 -8.36469640e-04 -3.73333270e-03 -8.36469640e-04 -4.48992340e-03
2.24462963e-03 -1.95082203e-03 -3.75205108e-03 -1.95082203e-03 2.62101103e-03 -2.13834762e-03 -3.75205108e-03 -2.13834762e-03 -4.41956862e-03
1.30094783e-02 -7.77000746e-04 1.41157724e-02 -7.77000746e-04 3.79693865e-03 -3.38736757e-03 1.41157724e-02 -3.38736757e-03 -1.43735409e-02
1.42055477e-02 -2.69596387e-03 1.46444611e-02 -2.69596387e-03 5.44871330e-03 -3.99866592e-03 1.46444611e-02 -3.99866592e-03 -1.72979003e-02
8.31638199e-03 3.12153141e-03 5.27494994e-04 3.12153141e-03 3.95827345e-03 -5.88081127e-03 5.27494994e-04 -5.88081127e-03 -1.05298216e-02
2.87657696e-03 2.09282824e-03 -3.69733343e-03 2.09282824e-03 1.20948129e-03 -2.04054849e-03 -3.69733343e-03 -2.04054849e-03 -3.35683790e-03
3.09890602e-04 -6.49377424e-03 -8.16751551e-03 -6.49377424e-03 -3.75579088e-03 -8.08613747e-03 -8.16751551e-03 -8.08613747e-03 4.13158070e-03
1.26351079e-05 4.53889099e-04 -3.22591400e-04 4.53889099e-04 2.30541784e-04 -6.94884686e-05 -3.22591400e-04 -6.94884686e-05 8.13652630e-05
1.17732771e-02 2.20766217e-03 -3.77988117e-03 2.20766217e-03 7.01920031e-03 6.82394905e-03 -3.77988117e-03 6.82394905e-03 -1.57387804e-02
1.19477773e-02 2.42402637e-03 -8.60485574e-03 2.42402637e-03 1.02952926e-02 3.77812531e-03 -8.60485574e-03 3.77812531e-03 -1.90175688e-02
1.29469445e-02 1.42738898e-03 1.56244740e-03 1.42738898e-03 7.93587556e-03 -7.60843838e-03 1.56244740e-03 -7.60843838e-03 -1.93749480e-02
1.21859666e-02 -6.30493504e-04 -8.47502728e-04 -6.30493504e-04 1.52089360e-02 3.33221975e-03 -8.47502728e-04 3.33221975e-03 -2.37247264e-02
1.21537354e-02 -7.50910767e-04 2.94608457e-04 -7.50910767e-04 1.49251742e-02 -2.92527565e-03 2.94608457e-04 -2.92527565e-03 -2.32461537e-02
1.26649044e-02 -1.89669937e-03 4.54690089e-03 -1.89669937e-03 1.24309412e-02 4.98765218e-03 4.54690089e-03 4.98765218e-03 -2.16299575e-02
1.24716964e-02 8.39832384e-04 3.51465889e-03 8.39832384e-04 1.29245040e-02 9.07115100e-05 3.51465889e-03 9.07115100e-05 -2.17733597e-02
1.09898068e-02 3.61228926e-03 5.86631578e-04 3.61228926e-03 1.31420314e-02 -3.24529380e-03 5.86631578e-04 -3.24529380e-03 -2.13498939e-02
1.17024656e-02 -2.95366920e-03 -8.36568273e-04 -2.95366920e-03 9.86067089e-03 5.06724475e-03 -8.36568273e-04 5.06724475e-03 -1.86305330e-02
7.21449603e-03 2.10562680e-03 1.23024694e-03 2.10562680e-03 2.49165666e-03 -2.29669596e-03 1.23024694e-03 -2.29669596e-03 -8.22472572e-03
6.12810405e-03 -3.25258069e-03 -1.98747375e-03 -3.25258069e-03 4.18224791e-03 -1.49904088e-03 -1.98747375e-03 -1.49904088e-03 -8.78722826e-03
-3.24290013e-03 4.62986762e-03 1.37964310e-03 4.62986762e-03 -1.74061756e-03 -6.85692858e-03 1.37964310e-03 -6.85692858e-03 6.25287881e-03
-3.25102097e-04 -3.51237366e-03 2.13341438e-03 -3.51237366e-03 -1.07589457e-03 -1.34699019e-02 2.13341438e-03 -1.34699019e-02 2.58489186e-03
9.84433373e-04 -1.61282699e-03 -5.24266921e-04 -1.61282699e-03 -9.90964378e-04 2.81379151e-03 -5.24266921e-04 2.81379151e-03 3.56791894e-04
-9.47467439e-04 -3.24091055e-03 -9.13578871e-04 -3.24091055e-03 5.86119704e-04 -3.08077229e-04 -9.13578871e-04 -3.08077229e-04 7.43163463e-04
-1.52845023e-05 -5.74918122e-05 6.42510786e-05 -5.74918122e-05 1.85603003e-05 -1.26391533e-05 6.42510786e-05 -1.26391533e-05 -1.19534388e-05
-9.48270463e-06 -1.73926474e-05 2.53922299e-05 -1.73926474e-05 5.66786503e-06 9.06469722e-06 2.53922299e-05 9.06469722e-06 -5.80651431e-06
1.98552225e-05 -3.55566153e-05 -1.50393498e-05 -3.55566153e-05 -5.49046808e-06 -7.60252442e-05 -1.50393498e-05 -7.60252442e-05 -2.44331331e-05
1.77704060e-05 -7.56178415e-05 -5.04736963e-05 -7.56178415e-05 1.01948672e-05 6.87564825e-05 -5.04736963e-05 6.87564825e-05 -3.77743527e-05
1.36142053e-04 1.18417156e-04 1.13842372e-05 1.18417156e-04 -7.87447520e-05 6.91437792e-05 1.13842372e-05 6.91437792e-05 -1.96694136e-05
3.60249912e-05 -7.01249155e-06 2.72775360e-05 -7.01249155e-06 -1.11800168e-04 1.31826006e-05 2.72775360e-05 1.31826006e-05 1.78815010e-05
-7.80700939e-05 5.99905161e-05 -7.38800918e-06 5.99905161e-05 2.22692233e-06 -6.92327048e-05 -7.38800918e-06 -6.92327048e-05 3.45159569e-05
-1.40078000e-04 -1.89887864e-04 -3.30965455e-05 -1.89887864e-04 5.17173606e-05 -9.90964084e-06 -3.30965455e-05 -9.90964084e-06 9.19637716e-05
1.04753189e-02 -4.47198545e-07 2.59460649e-08 -4.47198545e-07 4.77166707e-03 -2.89173840e-07 2.59460649e-08 -2.89173840e-07 -1.32690519e-02
9.22607863e-03 1.30682008e-03 -1.86895704e-07 1.30682008e-03 5.51872700e-03 7.43514567e-04 -1.86895704e-07 7.43514567e-04 -1.28636570e-02
1.04567448e-02 3.34367179e-03 9.64475257e-04 3.34367179e-03 5.14956587e-03 1.43038164e-03 9.64475257e-04 1.43038164e-03 -1.36107479e-02
1.17061669e-02 1.14641263e-03 1.61572010e-04 1.14641263e-03 4.51595290e-03 -4.99380803e-08 1.61572010e-04 -4.99380803e-08 -1.40847010e-02
6.78602071e-03 1.05621334e-03 -7.15572241e-07 1.05621334e-03 6.80150161e-03 1.48254086e-03 -7.15572241e-07 1.48254086e-03 -1.19316168e-02
7.19912071e-03 3.47685997e-03 1.12247709e-03 3.47685997e-03 6.43016759e-03 1.31136033e-03 1.12247709e-03 1.31136033e-03 -1.19717252e-02
4.56370425e-03 1.10254082e-03 -4.32587512e-07 1.10254082e-03 7.48960348e-03 9.67098400e-04 -4.32587512e-07 9.67098400e-04 -1.06412056e-02
4.28017002e-03 2.16851028e-03 8.61588211e-04 2.16851028e-03 6.57333829e-03 1.31378765e-03 8.61588211e-04 1.31378765e-03 -9.55780619e-03
3.32482043e-03 6.46331464e-04 -3.51533345e-08 6.46331464e-04 7.19418656e-03 2.25157179e-04 -3.51533345e-08 2.25157179e-04 -9.30283964e-03
2.92729406e-03 8.64703854e-04 1.61609589e-03 8.64703854e-04 6.12836203e-03 8.83655710e-04 1.61609589e-03 8.83655710e-04 -8.02221452e-03
3.63016711e-03 -6.84676314e-04 -7.67158781e-10 -6.84676314e-04 6.50299015e-03 2.71872050e-04 -7.67158781e-10 2.71872050e-04 -8.96901358e-03
2.89960823e-03 -4.81317282e-04 2.03480001e-03 -4.81317282e-04 5.33029251e-03 1.37687125e-05 2.03480001e-03 1.37687125e-05 -7.32401328e-03
3.60117760e-03 -2.05735071e-03 7.49099854e-07 -2.05735071e-03 6.96456153e-03 1.27498677e-03 7.49099854e-07 1.27498677e-03 -9.37984325e-03
3.30778235e-03 -1.53027946e-03 2.82851409e-03 -1.53027946e-03 5.09396172e-03 -1.04990846e-03 2.82851409e-03 -1.04990846e-03 -7.53097585e-03
1.06872434e-02 5.22980193e-03 -2.02580407e-03 5.22980193e-03 7.57919822e-03 2.05191836e-03 -2.02580407e-03 2.05191836e-03 -1.57187844e-02
1.30111100e-02 5.01433358e-04 -6.33902062e-04 5.01433358e-04 9.04649822e-03 -1.28103238e-06 -6.33902062e-04 -1.28103238e-06 -1.91535763e-02
6.64161379e-03 6.74222596e-03 -2.94921541e-04 6.74222596e-03 5.42679592e-03 2.57471722e-03 -2.94921541e-04 2.57471722e-03 -1.03827105e-02
3.27834894e-03 2.93826658e-03 1.27931553e-03 2.93826658e-03 4.06575680e-03 1.61780149e-03 1.27931553e-03 1.61780149e-03 -6.41558494e-03
1.28789565e-03 -2.37094446e-05 1.50851678e-03 -2.37094446e-05 2.51614412e-03 1.53936943e-03 1.50851678e-03 1.53936943e-03 -3.21792671e-03
4.70107992e-04 -8.09663776e-04 1.34396076e-03 -8.09663776e-04 1.62828260e-03 2.53542162e-05 1.34396076e-03 2.53542162e-05 -1.71991321e-03
1.04917100e-03 -1.66298119e-03 8.32963211e-04 -1.66298119e-03 8.77784793e-04 -1.33117894e-03 8.32963211e-04 -1.33117894e-03 -1.69386540e-03
1.46749560e-02 3.52200004e-04 9.20629781e-03 3.52200004e-04 1.42588164e-02 5.25773689e-03 9.20629781e-03 5.25773689e-03 -2.62150913e-02
1.78735610e-02 -2.06658524e-03 8.54252651e-03 -2.06658524e-03 1.62131265e-02 2.35727020e-06 8.54252651e-03 2.35727020e-06 -3.08973156e-02
5.36187110e-03 1.77510246e-03 2.71857243e-03 1.77510246e-03 4.70389573e-03 4.74023400e-03 2.71857243e-03 4.74023400e-03 -8.70920345e-03
1.07078532e-03 3.25361010e-04 8.48534852e-04 3.25361010e-04 1.06278714e-03 1.42961231e-03 8.48534852e-04 1.42961231e-03 -1.55092920e-03
1.36720832e-04 -7.31709232e-04 1.31870263e-04 -7.31709232e-04 2.35788829e-04 1.02771502e-04 1.31870263e-04 1.02771502e-04 -1.05450779e-04
-1.50964935e-04 -3.28516624e-04 -6.72764014e-04 -3.28516624e-04 3.86249540e-04 8.40899884e-06 -6.72764014e-04 8.40899884e-06 -1.55518949e-04
3.06392158e-05 -2.37042732e-04 1.92090149e-04 -2.37042732e-04 -5.27381480e-05 1.34095517e-04 1.92090149e-04 1.34095517e-04 1.01571779e-04
1.66498627e-04 -9.30801834e-04 -7.68353289e-04 -9.30801834e-04 -3.20826919e-04 8.05019295e-06 -7.68353289e-04 8.05019295e-06 1.01870202e-04
1.97578614e-04 -1.62896788e-04 3.01894921e-04 -1.62896788e-04 -5.65546128e-04 -5.05939734e-05 3.01894921e-04 -5.05939734e-05 3.15368306e-04
1.53151178e-03 -9.47489752e-04 -2.58953939e-03 -9.47489752e-04 -1.13344787e-03 -5.30117285e-03 -2.58953939e-03 -5.30117285e-03 8.81638844e-05
-1.01161253e-03 -5.70340240e-04 5.77037892e-04 -5.70340240e-04 9.44809744e-06 5.51444915e-04 5.77037892e-04 5.51444915e-04 1.47804810e-03
3.21650412e-03 1.83101546e-03 -2.36671744e-03 1.83101546e-03 5.36431512e-03 7.90236797e-03 -2.36671744e-03 7.90236797e-03 -7.99114630e-03
-4.38839979e-05 6.33065501e-05 -1.06183725e-05 6.33065501e-05 3.05467091e-04 4.69146476e-04 -1.06183725e-05 4.69146476e-04 -1.93045968e-05
-1.38923114e-04 -2.21144173e-04 1.08734042e-04 -2.21144173e-04 3.59450181e-04 -5.37767179e-05 1.08734042e-04 -5.37767179e-05 2.31927988e-05
-8.22468289e-05 1.46413073e-04 5.58349693e-05 1.46413073e-04 1.57304688e-04 -6.09545909e-05 5.58349693e-05 -6.09545909e-05 3.40219719e-06
-3.40719598e-05 -5.36015687e-05 -4.84537522e-05 -5.36015687e-05 8.03676649e-05 3.92671327e-05 -4.84537522e-05 3.92671327e-05 3.27256421e-05
1.10378871e-04 -6.78739452e-05 -1.84121091e-05 -6.78739452e-05 -2.55424660e-04 -3.83968381e-05 -1.84121091e-05 -3.83968381e-05 1.00178084e-04
1.18989116e-04 -6.83230610e-05 -8.70060358e-05 -6.83230610e-05 -3.26765519e-04 -1.54650170e-05 -8.70060358e-05 -1.54650170e-05 1.63110055e-04
2.25889869e-02 4.34155902e-03 -8.97616241e-03 4.34155902e-03 2.48843227e-02 2.63772308e-05 -8.97616241e-03 2.63772308e-05 -4.24043834e-02
2.54389104e-02 -5.06319851e-03 -6.99343020e-03 -5.06319851e-03 2.30083764e-02 1.63828116e-02 -6.99343020e-03 1.63828116e-02 -4.33909930e-02
1.51912331e-02 -5.28593486e-03 6.14822051e-03 -5.28593486e-03 1.63503066e-02 6.69267355e-03 6.14822051e-03 6.69267355e-03 -2.69848928e-02
1.64836664e-02 -2.64434959e-04 5.62153896e-03 -2.64434959e-04 2.06829729e-02 -5.44160866e-06 5.62153896e-03 -5.44160866e-06 -3.23134102e-02
1.09088821e-04 1.50869691e-05 -2.10696494e-05 1.50869691e-05 -5.98838487e-05 -7.00093442e-05 -2.10696494e-05 -7.00093442e-05 3.81551217e-08
3.27644021e-04 -3.13996318e-04 1.86741920e-04 -3.13996318e-04 -4.83459856e-05 1.87510843e-04 1.86741920e-04 1.87510843e-04 -9.34180716e-05
9.12644136e-05 4.99418238e-05 3.28370097e-05 4.99418238e-05 -1.49325791e-04 2.58462696e-05 3.28370097e-05 2.58462696e-05 -2.23305294e-05
1.83876315e-02 -6.45681296e-03 2.28853337e-03 -6.45681296e-03 1.04692532e-02 6.94302958e-03 2.28853337e-03 6.94302958e-03 -2.48698173e-02
1.78226158e-02 -4.16419609e-03 7.25904666e-03 -4.16419609e-03 1.28712663e-02 1.26045779e-05 7.25904666e-03 1.26045779e-05 -2.63205953e-02
9.74079361e-03 2.98644882e-03 5.99906634e-04 2.98644882e-03 1.05947787e-02 4.37520095e-03 5.99906634e-04 4.37520095e-03 -1.74815543e-02
1.17350402e-02 -1.79321309e-03 -2.30199879e-03 -1.79321309e-03 9.28395544e-03 7.60721113e-03 -2.30199879e-03 7.60721113e-03 -1.81462681e-02
4.23449848e-03 9.34490818e-04 -1.55171944e-03 9.34490818e-04 1.34299617e-03 3.55031737e-03 -1.55171944e-03 3.55031737e-03 -4.47893841e-03
2.31980004e-03 -3.30347603e-03 -1.84992841e-03 -3.30347603e-03 3.75900115e-03 2.56567076e-03 -1.84992841e-03 2.56567076e-03 -4.94922278e-03
-1.20653730e-03 -1.36950988e-03 -6.07471709e-04 -1.36950988e-03 8.78447900e-04 3.37846664e-04 -6.07471709e-04 3.37846664e-04 4.76441150e-04
-2.87849629e-04 -3.49096081e-06 -6.33539275e-05 -3.49096081e-06 1.13572289e-04 -9.89877117e-06 -6.33539275e-05 -9.89877117e-06 1.83260178e-04
-8.22661605e-05 1.18825585e-04 2.10244925e-05 1.18825585e-04 -2.32907678e-05 4.65316589e-07 2.10244925e-05 4.65316589e-07 3.14094468e-05
</DataArray>
<DataArray type="Float32" Name="Plastic_strain_components" NumberOfComponents="9" format="ascii">
1.89020320e-03 -9.77638556e-04 2.75116874e-04 -9.77638556e-04 1.70636295e-03 9.75418723e-04 2.75116874e-04 9.75418723e-04 -3.00595441e-03
2.26172669e-03 -1.12414133e-03 3.38173630e-04 -1.12414133e-03 2.32993357e-03 1.21717136e-03 3.38173630e-04 1.21717136e-03 -3.83263265e-03
2.84654729e-03 -4.99482021e-04 7.90589756e-04 -4.99482021e-04 3.47349339e-03 1.92509360e-05 7.90589756e-04 1.92509360e-05 -5.34895889e-03
1.59940981e-03 -3.03564784e-05 -6.88283137e-04 -3.03564784e-05 2.14183074e-03 -3.39762930e-04 -6.88283137e-04 -3.39762930e-04 -3.14986490e-03
1.57646503e-03 5.93415291e-04 1.56458274e-03 5.93415291e-04 1.80195806e-03 3.68610677e-04 1.56458274e-03 3.68610677e-04 -2.86729459e-03
2.92725668e-03 -1.43864649e-03 -1.49320282e-03 -1.43864649e-03 3.91965799e-03 2.78084031e-03 -1.49320282e-03 2.78084031e-03 -5.80227222e-03
6.67704517e-03 2.19690602e-03 2.85151592e-03 2.19690602e-03 5.10115130e-03 -3.22831218e-03 2.85151592e-03 -3.22831218e-03 -9.79121518e-03
3.06352871e-03 1.41255796e-03 3.91942896e-03 1.41255796e-03 3.39627100e-03 1.63269031e-03 3.91942896e-03 1.63269031e-03 -5.34687703e-03
2.59130588e-03 3.13819255e-05 -1.64710658e-03 3.13819255e-05 2.72352700e-03 2.10643653e-03 -1.64710658e-03 2.10643653e-03 -4.47004667e-03
5.87605953e-03 -1.15608920e-04 2.69113482e-03 -1.15608920e-04 6.07535325e-03 4.99177177e-03 2.69113482e-03 4.99177177e-03 -1.00492423e-02
6.62737526e-03 3.17283052e-03 -1.31183621e-02 3.17283052e-03 9.32182601e-03 5.39923102e-03 -1.31183621e-02 5.39923102e-03 -1.31416344e-02
1.07652885e-02 9.13634337e-03 -1.28004292e-02 9.13634337e-03 9.77279898e-03 -2.15807313e-03 -1.28004292e-02 -2.15807313e-03 -1.71177243e-02
0.00000000e+00 0.00000000e+00 0.00000000e+00 0.00000000e+00 0.00000000e+00 0.00000000e+00 0.00000000e+00 0.00000000e+00 0.00000000e+00
0.00000000e+00 0.00000000e+00 0.00000000e+00 0.00000000e+00 0.00000000e+00 0.00000000e+00 0.00000000e+00 0.00000000e+00 0.00000000e+00
0.00000000e+00 0.00000000e+00 0.00000000e+00 0.00000000e+00 0.00000000e+00 0.00000000e+00 0.00000000e+00 0.00000000e+00 0.00000000e+00
0.00000000e+00 0.00000000e+00 0.00000000e+00 0.00000000e+00 0.00000000e+00 0.00000000e+00 0.00000000e+00 0.00000000e+00 0.00000000e+00
0.00000000e+00 0.00000000e+00 0.00000000e+00 0.00000000e+00 0.00000000e+00 0.00000000e+00 0.00000000e+00 0.00000000e+00 0.00000000e+00
0.00000000e+00 0.00000000e+00 0.00000000e+00 0.00000000e+00 0.00000000e+00 0.00000000e+00 0.00000000e+00 0.00000000e+00 0.00000000e+00
0.00000000e+00 0.00000000e+00 0.00000000e+00 0.00000000e+00 0.00000000e+00 0.00000000e+00 0.00000000e+00 0.00000000e+00 0.00000000e+00
0.00000000e+00 0.00000000e+00 0.00000000e+00 0.00000000e+00 0.00000000e+00 0.00000000e+00 0.00000000e+00 0.00000000e+00 0.00000000e+00
5.15278848e-03 8.35172273e-07 1.98038807e-03 8.35172273e-07 5.26625291e-03 -7.99016270e-04 1.98038807e-03 -7.99016270e-04 -8.76807887e-03
5.29022678e-03 -1.12569398e-04 1.87300958e-03 -1.12569398e-04 4.92385577e-03 -1.20122422e-05 1.87300958e-03 -1.20122422e-05 -8.59414251e-03
5.19589591e-03 -1.69103974e-03 2.39566890e-03 -1.69103974e-03 5.13289525e-03 6.27382316e-04 2.39566890e-03 6.27382316e-04 -8.67700507e-03
4.83970426e-03 -1.48162371e-05 2.16746284e-03 -1.48162371e-05 5.57396316e-03 -9.01352527e-04 2.16746284e-03 -9.01352527e-04 -8.75770999e-03
7.31523754e-03 -9.59167892e-08 1.44824391e-03 -9.59167892e-08 4.50839428e-03 -1.07629025e-04 1.44824391e-03 -1.07629025e-04 -9.93876671e-03
7.10415153e-03 6.41517090e-05 1.44142152e-04 6.41517090e-05 4.62466571e-03 1.37312758e-03 1.44142152e-04 1.37312758e-03 -9.86081455e-03
7.15020276e-03 1.31697774e-04 2.69580962e-03 1.31697774e-04 5.06828167e-03 4.67034269e-04 2.69580962e-03 4.67034269e-04 -1.02533135e-02
7.38986651e-03 6.22722464e-05 2.83849388e-03 6.22722464e-05 5.22679347e-03 -1.41427439e-03 2.83849388e-03 -1.41427439e-03 -1.05898161e-02
5.84276940e-03 -1.34515815e-03 2.82429700e-03 -1.34515815e-03 3.90662882e-03 1.49543541e-04 2.82429700e-03 1.49543541e-04 -8.18289618e-03
5.86239761e-03 -2.45572801e-03 1.28662059e-03 -2.45572801e-03 4.50811157e-03 4.72995343e-04 1.28662059e-03 4.72995343e-04 -8.70582851e-03
6.38575980e-03 3.45095039e-04 -1.07092207e-03 3.45095039e-04 4.50975890e-03 7.06706473e-04 -1.07092207e-03 7.06706473e-04 -9.16744280e-03
6.57771144e-03 5.96374338e-04 1.41034022e-03 5.96374338e-04 5.30688302e-03 1.63505992e-03 1.41034022e-03 1.63505992e-03 -1.00031659e-02
6.36891439e-03 4.58796694e-05 1.01348929e-03 4.58796694e-05 3.02972819e-03 9.95246650e-04 1.01348929e-03 9.95246650e-04 -7.88244547e-03
6.24597631e-03 -1.29980329e-03 -1.06931817e-03 -1.29980329e-03 4.61744014e-03 -1.12395163e-03 -1.06931817e-03 -1.12395163e-03 -9.12169984e-03
5.70911448e-03 -2.27938242e-04 -5.04691168e-04 -2.27938242e-04 4.10274684e-03 2.96531107e-04 -5.04691168e-04 2.96531107e-04 -8.25933611e-03
5.87171793e-03 -3.76296984e-04 -1.49217804e-03 -3.76296984e-04 4.83852735e-03 5.03104345e-04 -1.49217804e-03 5.03104345e-04 -9.00634192e-03
5.90268790e-03 7.14562111e-06 -1.11205358e-03 7.14562111e-06 2.78928701e-03 -3.25209508e-04 -1.11205358e-03 -3.25209508e-04 -7.29502225e-03
6.17190823e-03 6.71020809e-04 -5.09044858e-04 6.71020809e-04 5.70020149e-03 -2.44501687e-04 -5.09044858e-04 -2.44501687e-04 -9.98175808e-03
5.04748314e-03 3.27864955e-05 -1.31175338e-03 3.27864955e-05 3.61116545e-03 1.84347588e-04 -1.31175338e-03 1.84347588e-04 -7.28408748e-03
5.04267920e-03 -1.12018731e-03 -1.84993612e-03 -1.12018731e-03 3.70461526e-03 -7.39271985e-04 -1.84993612e-03 -7.39271985e-04 -7.34608754e-03
4.49432066e-03 5.42977650e-04 5.56399304e-04 5.42977650e-04 2.95006047e-03 -9.44885989e-04 5.56399304e-04 -9.44885989e-04 -6.26175967e-03
5.65134559e-03 8.56525945e-04 -3.28222454e-05 8.56525945e-04 4.99955978e-03 2.70249686e-04 -3.28222454e-05 2.70249686e-04 -8.96691153e-03
3.85491422e-03 1.84621207e-04 -2.31355644e-03 1.84621207e-04 2.89913005e-03 2.44599021e-04 -2.31355644e-03 2.44599021e-04 -5.66945213e-03
4.09154510e-03 -3.13726674e-04 -1.28969297e-03 -3.13726674e-04 4.05953784e-03 -4.73186254e-04 -1.28969297e-03 -4.73186254e-04 -6.85363432e-03
3.97947873e-03 1.04415370e-03 8.22235452e-04 1.04415370e-03 2.25322630e-03 -9.43126157e-04 8.22235452e-04 -9.43126157e-04 -5.23237674e-03
5.00408188e-03 8.23282819e-04 1.99794500e-04 8.23282819e-04 3.96939600e-03 -8.76673526e-04 1.99794500e-04 -8.76673526e-04 -7.55132351e-03
3.34296690e-03 1.20182632e-03 -1.77989993e-03 1.20182632e-03 2.23341392e-03 -4.91918108e-05 -1.77989993e-03 -4.91918108e-05 -4.67857323e-03
3.89772706e-03 9.89386645e-04 -6.86044805e-04 9.89386645e-04 3.25998833e-03 7.02778161e-05 -6.86044805e-04 7.02778161e-05 -6.01812894e-03
4.09902073e-03 -2.81359516e-03 5.11745986e-03 -2.81359516e-03 5.44962758e-03 -1.00963090e-03 5.11745986e-03 -1.00963090e-03 -7.90452212e-03
3.35599080e-03 -1.78260729e-03 3.31410352e-03 -1.78260729e-03 5.94521861e-03 -7.32060216e-04 3.31410352e-03 -7.32060216e-04 -7.78788712e-03
8.06542562e-03 -1.06679403e-03 5.90480305e-03 -1.06679403e-03 6.32972777e-03 1.01181469e-03 5.90480305e-03 1.01181469e-03 -1.20536208e-02
7.53022113e-03 -1.45628739e-04 6.64347829e-03 -1.45628739e-04 5.55121701e-03 -7.37850962e-04 6.64347829e-03 -7.37850962e-04 -1.09216885e-02
6.15151366e-03 -7.95443143e-04 2.71665950e-03 -7.95443143e-04 5.88702743e-03 -1.78058144e-03 2.71665950e-03 -1.78058144e-03 -1.01749434e-02
6.88848121e-03 7.37013362e-04 9.72060196e-04 7.37013362e-04 6.36245764e-03 -2.25438849e-03 9.72060196e-04 -2.25438849e-03 -1.11458737e-02
8.75752550e-03 -1.71889819e-03 -9.27589331e-03 -1.71889819e-03 7.61952763e-03 5.22708357e-04 -9.27589331e-03 5.22708357e-04 -1.36069205e-02
5.13837290e-03 1.04635739e-03 -5.05271873e-03 1.04635739e-03 4.95572771e-03 -1.61347422e-03 -5.05271873e-03 -1.61347422e-03 -8.42239601e-03
8.19659838e-03 3.51777853e-04 -1.61907855e-03 3.51777853e-04 8.91470327e-03 2.21382815e-03 -1.61907855e-03 2.21382815e-03 -1.44077463e-02
6.03895867e-03 -8.73384310e-04 -7.08490885e-03 -8.73384310e-04 4.07347904e-03 1.56526919e-03 -7.08490885e-03 1.56526919e-03 -8.36160276e-03
7.39456096e-03 -5.30859630e-04 -1.17342369e-03 -5.30859630e-04 7.37685687e-03 9.81066318e-04 -1.17342369e-03 9.81066318e-04 -1.24337592e-02
6.05741551e-03 3.86146334e-04 -2.06630418e-03 3.86146334e-04 5.98332495e-03 4.13924613e-04 -2.06630418e-03 4.13924613e-04 -1.01447918e-02
6.59502856e-03 1.58101597e-04 -1.05251221e-03 1.58101597e-04 6.09206385e-03 1.63052173e-04 -1.05251221e-03 1.63052173e-04 -1.06776920e-02
6.15141145e-03 7.44735007e-04 -1.27067344e-03 7.44735007e-04 5.25663653e-03 -2.09279296e-03 -1.27067344e-03 -2.09279296e-03 -9.59014148e-03
3.34452361e-03 -1.37841864e-03 5.35328656e-03 -1.37841864e-03 5.24733437e-03 -1.50662614e-04 5.35328656e-03 -1.50662614e-04 -7.06539676e-03
1.52487983e-03 1.24544513e-05 3.65169777e-03 1.24544513e-05 4.57385991e-03 2.42505019e-03 3.65169777e-03 2.42505019e-03 -5.05757943e-03
7.56960369e-03 -1.09835732e-03 5.84182975e-03 -1.09835732e-03 5.22911778e-03 -3.85163927e-03 5.84182975e-03 -3.85163927e-03 -1.06575090e-02
4.80673835e-03 1.45902482e-03 7.77096627e-03 1.45902482e-03 4.69413528e-03 -6.50821498e-03 7.77096627e-03 -6.50821498e-03 -7.77480472e-03
7.18189508e-03 -3.25720286e-03 9.12949664e-03 -3.25720286e-03 8.80149682e-03 -9.55399423e-03 9.12949664e-03 -9.55399423e-03 -1.31504501e-02
1.05467927e-02 -1.58394366e-03 1.20749880e-03 -1.58394366e-03 6.68958351e-03 -5.76993516e-03 1.20749880e-03 -5.76993516e-03 -1.43843966e-02
-3.47116962e-03 -1.17420228e-02 -2.46939175e-02 -1.17420228e-02 -1.01829530e-03 -2.16066036e-02 -2.46939175e-02 -2.16066036e-02 7.09082140e-03
3.48416332e-03 -6.14690400e-04 -4.87863909e-03 -6.14690400e-04 9.47985410e-04 -3.54317032e-03 -4.87863909e-03 -3.54317032e-03 -3.69488157e-03
1.59775935e-03 -4.32201092e-04 1.81972311e-03 -4.32201092e-04 2.99137259e-03 2.39044483e-03 1.81972311e-03 2.39044483e-03 -3.80942754e-03
1.23950573e-03 -7.74280328e-04 3.35209000e-03 -7.74280328e-04 2.62396777e-03 9.92149144e-04 3.35209000e-03 9.92149144e-04 -3.14286887e-03
3.35452686e-03 -2.04822029e-04 5.41671180e-03 -2.04822029e-04 3.86921340e-03 3.25343594e-03 5.41671180e-03 3.25343594e-03 -5.92684994e-03
2.94605191e-03 5.79672298e-04 -4.75073764e-04 5.79672298e-04 4.64007992e-03 -7.84414413e-04 -4.75073764e-04 -7.84414413e-04 -6.42706500e-03
1.63441940e-03 8.74810634e-04 2.81251210e-04 8.74810634e-04 1.89560434e-03 -5.72713529e-04 2.81251210e-04 -5.72713529e-04 -2.95281046e-03
5.17018343e-03 2.28566546e-03 -1.97128872e-03 2.28566546e-03 6.53264123e-03 4.54232157e-03 -1.97128872e-03 4.54232157e-03 -9.66187058e-03
4.13013817e-03 1.58804952e-03 1.99411073e-03 1.58804952e-03 7.14336673e-03 2.12521921e-03 1.99411073e-03 2.12521921e-03 -9.45392344e-03
1.68760972e-03 -5.58819971e-04 1.49863120e-03 -5.58819971e-04 3.70634825e-03 5.58320893e-03 1.49863120e-03 5.58320893e-03 -4.18274963e-03
1.10026160e-02 -1.98823004e-03 1.30855986e-02 -1.98823004e-03 8.40030075e-03 7.66854454e-03 1.30855986e-02 7.66854454e-03 -1.60925654e-02
7.41956518e-03 1.95408391e-04 -7.18472824e-03 1.95408391e-04 9.15615703e-03 -4.75023449e-03 -7.18472824e-03 -4.75023449e-03 -1.36655089e-02
1.94797094e-03 -1.57740185e-04 2.02843480e-03 -1.57740185e-04 3.35628306e-03 1.69156358e-03 2.02843480e-03 1.69156358e-03 -4.42050840e-03
6.41394570e-03 4.19884076e-03 -9.22533625e-04 4.19884076e-03 8.04014411e-03 2.10523274e-03 -9.22533625e-04 2.10523274e-03 -1.22037036e-02
5.24025026e-03 -8.92895878e-05 5.14306210e-03 -8.92895878e-05 9.05265589e-03 -4.45185998e-03 5.14306210e-03 -4.45185998e-03 -1.19733964e-02
9.24607553e-03 7.20554031e-04 -6.97602500e-03 7.20554031e-04 9.70931887e-03 6.48651808e-03 -6.97602500e-03 6.48651808e-03 -1.57928385e-02
8.89057763e-03 3.59123774e-03 3.44788694e-03 3.59123774e-03 1.10334413e-02 -1.57893527e-02 3.44788694e-03 -1.57893527e-02 -1.65775592e-02
9.97104441e-03 -1.10973321e-03 -1.28842091e-03 -1.10973321e-03 7.44442455e-03 -3.28649672e-03 -1.28842091e-03 -3.28649672e-03 -1.46410686e-02
9.47622629e-03 4.38036295e-07 7.19305681e-04 4.38036295e-07 4.53691860e-03 -7.81685521e-04 7.19305681e-04 -7.81685521e-04 -1.17508247e-02
8.77647195e-03 5.94062818e-04 1.41757695e-03 5.94062818e-04 4.98402934e-03 5.53654414e-04 1.41757695e-03 5.53654414e-04 -1.15533639e-02
8.95684562e-03 2.13127150e-03 1.37512205e-03 2.13127150e-03 5.44312934e-03 1.07113691e-03 1.37512205e-03 1.07113691e-03 -1.20887371e-02
1.00921427e-02 3.28701564e-04 2.06111111e-03 3.28701564e-04 4.83403634e-03 -8.29452129e-05 2.06111111e-03 -8.29452129e-05 -1.25132408e-02
6.94191596e-03 1.16928626e-03 5.51886566e-04 1.16928626e-03 5.97195583e-03 1.31603896e-03 5.51886566e-04 1.31603896e-03 -1.08668823e-02
6.69122837e-03 2.86543554e-03 3.56510202e-04 2.86543554e-03 6.01644150e-03 3.86085376e-04 3.56510202e-04 3.86085376e-04 -1.06727777e-02
4.95074771e-03 7.16920680e-04 -1.11862470e-03 7.16920680e-04 6.31022209e-03 4.42709509e-04 -1.11862470e-03 4.42709509e-04 -9.47706494e-03
4.63537421e-03 1.52464767e-03 -4.60766027e-04 1.52464767e-03 5.99096704e-03 4.18986229e-04 -4.60766027e-04 4.18986229e-04 -8.93119921e-03
3.87546688e-03 -1.10465639e-05 -7.55631001e-04 -1.10465639e-05 5.68188389e-03 -1.04244953e-04 -7.55631001e-04 -1.04244953e-04 -8.04228499e-03
3.44250200e-03 -3.58696916e-04 -7.54068365e-04 -3.58696916e-04 5.13733667e-03 2.59166289e-04 -7.54068365e-04 2.59166289e-04 -7.20942311e-03
3.61180387e-03 -3.95061892e-04 -9.63710656e-04 -3.95061892e-04 4.89595393e-03 3.83740633e-04 -9.63710656e-04 3.83740633e-04 -7.16099131e-03
3.37677810e-03 -8.97901853e-04 -1.36186618e-03 -8.97901853e-04 4.11935055e-03 -8.13810766e-06 -1.36186618e-03 -8.13810766e-06 -6.29370817e-03
3.38998507e-03 2.51775229e-04 -7.11960631e-04 2.51775229e-04 4.82930918e-03 1.07416758e-03 -7.11960631e-04 1.07416758e-03 -6.91893115e-03
3.62768036e-03 -9.45314259e-04 -5.05182805e-04 -9.45314259e-04 3.91841802e-03 -2.47720152e-04 -5.05182805e-04 -2.47720152e-04 -6.34488196e-03
1.13303062e-02 3.02965788e-03 5.36162689e-03 3.02965788e-03 5.52376805e-03 -1.50655862e-04 5.36162689e-03 -1.50655862e-04 -1.40546465e-02
1.21387006e-02 1.83957967e-03 6.94852130e-03 1.83957967e-03 6.18909812e-03 -3.20744468e-03 6.94852130e-03 -3.20744468e-03 -1.52817897e-02
7.56635168e-03 3.25325350e-03 -7.36955431e-04 3.25325350e-03 5.39495854e-03 3.77312441e-04 -7.36955431e-04 3.77312441e-04 -1.08904018e-02
3.49916390e-03 1.87765736e-03 -2.02307942e-03 1.87765736e-03 3.74482234e-03 5.95252786e-05 -2.02307942e-03 5.95252786e-05 -6.05912972e-03
1.99805283e-03 1.75356474e-04 -1.90238041e-03 1.75356474e-04 3.24129014e-03 -1.56807238e-04 -1.90238041e-03 -1.56807238e-04 -4.39482964e-03
1.87939781e-03 -7.68137916e-04 -3.46193536e-03 -7.68137916e-04 2.91514196e-03 -7.41476120e-04 -3.46193536e-03 -7.41476120e-04 -3.96593625e-03
2.12421895e-03 -1.75614015e-03 -3.38942061e-03 -1.75614015e-03 2.58571761e-03 -1.91862644e-03 -3.38942061e-03 -1.91862644e-03 -3.86568302e-03
1.28484469e-02 -7.52479439e-04 1.37242773e-02 -7.52479439e-04 3.90319026e-03 -3.30446144e-03 1.37242773e-02 -3.30446144e-03 -1.36436190e-02
1.41317068e-02 -2.60718353e-03 1.42009851e-02 -2.60718353e-03 5.68335686e-03 -3.84681276e-03 1.42009851e-02 -3.84681276e-03 -1.62783566e-02
8.10999509e-03 3.00759323e-03 4.79933864e-04 3.00759323e-03 3.89062931e-03 -5.72213974e-03 4.79933864e-04 -5.72213974e-03 -1.00032144e-02
2.68266185e-03 1.89598755e-03 -3.39505212e-03 1.89598755e-03 1.11493325e-03 -1.93569742e-03 -3.39505212e-03 -1.93569742e-03 -3.06512470e-03
4.28586995e-04 -5.95022924e-03 -7.41150323e-03 -5.95022924e-03 -3.28390673e-03 -7.33744400e-03 -7.41150323e-03 -7.33744400e-03 3.90059245e-03
-2.28741433e-04 3.23779085e-04 -1.58140960e-04 3.23779085e-04 8.47695046e-05 4.91491868e-05 -1.58140960e-04 4.91491868e-05 8.71255237e-05
1.16698709e-02 2.15187552e-03 -3.82091291e-03 2.15187552e-03 7.06725168e-03 6.63032476e-03 -3.82091291e-03 6.63032476e-03 -1.51215026e-02
1.18302560e-02 2.35424796e-03 -8.43188345e-03 2.35424796e-03 1.02645718e-02 3.65061041e-03 -8.43188345e-03 3.65061041e-03 -1.84248385e-02
1.29112501e-02 1.46545260e-03 1.43912210e-03 1.46545260e-03 8.12414405e-03 -7.28198048e-03 1.43912210e-03 -7.28198048e-03 -1.78166223e-02
1.21521082e-02 -6.09277413e-04 -8.27887057e-04 -6.09277413e-04 1.50940699e-02 3.20866733e-03 -8.27887057e-04 3.20866733e-03 -2.29612980e-02
1.20680856e-02 -7.36556613e-04 2.34557912e-04 -7.36556613e-04 1.47749525e-02 -2.90008367e-03 2.34557912e-04 -2.90008367e-03 -2.26350860e-02
1.25351858e-02 -1.84560625e-03 4.44311205e-03 -1.84560625e-03 1.23270522e-02 4.87117493e-03 4.44311205e-03 4.87117493e-03 -2.08654162e-02
1.23365689e-02 8.24579678e-04 3.40138251e-03 8.24579678e-04 1.27844103e-02 1.24559352e-04 3.40138251e-03 1.24559352e-04 -2.11605253e-02
1.10195929e-02 3.51698216e-03 6.24760284e-04 3.51698216e-03 1.31432246e-02 -3.10708018e-03 6.24760284e-04 -3.10708018e-03 -2.03564842e-02
1.15479284e-02 -2.86764847e-03 -7.78737594e-04 -2.86764847e-03 9.77292773e-03 4.89125156e-03 -7.78737594e-04 4.89125156e-03 -1.78969137e-02
6.91223994e-03 1.99649151e-03 1.17864480e-03 1.99649151e-03 2.39906288e-03 -2.32584331e-03 1.17864480e-03 -2.32584331e-03 -7.85590988e-03
6.01200285e-03 -3.18191884e-03 -1.96300013e-03 -3.18191884e-03 3.99767022e-03 -1.43563846e-03 -1.96300013e-03 -1.43563846e-03 -8.34205595e-03
-3.46584665e-03 4.42094170e-03 1.22572109e-03 4.42094170e-03 -2.05435324e-03 -6.58592675e-03 1.22572109e-03 -6.58592675e-03 5.41957933e-03
-3.35194665e-04 -3.34304222e-03 1.95989665e-03 -3.34304222e-03 -1.16839854e-03 -1.26859602e-02 1.95989665e-03 -1.26859602e-02 2.32635555e-03
9.11305199e-04 -1.45072085e-03 -4.57952426e-04 -1.45072085e-03 -9.67567226e-04 2.57559106e-03 -4.57952426e-04 2.57559106e-03 4.05091390e-04
-9.05339422e-04 -2.94337458e-03 -8.21321034e-04 -2.94337458e-03 3.59310749e-04 -1.59588051e-04 -8.21321034e-04 -1.59588051e-04 6.61152199e-04
0.00000000e+00 0.00000000e+00 0.00000000e+00 0.00000000e+00 0.00000000e+00 0.00000000e+00 0.00000000e+00 0.00000000e+00 0.00000000e+00
0.00000000e+00 0.00000000e+00 0.00000000e+00 0.00000000e+00 0.00000000e+00 0.00000000e+00 0.00000000e+00 0.00000000e+00 0.00000000e+00
0.00000000e+00 0.00000000e+00 0.00000000e+00 0.00000000e+00 0.00000000e+00 0.00000000e+00 0.00000000e+00 0.00000000e+00 0.00000000e+00
0.00000000e+00 0.00000000e+00 0.00000000e+00 0.00000000e+00 0.00000000e+00 0.00000000e+00 0.00000000e+00 0.00000000e+00 0.00000000e+00
9.53676886e-06 -2.52526324e-05 -1.85816801e-05 -2.52526324e-05 -1.93866733e-05 -2.34106901e-05 -1.85816801e-05 -2.34106901e-05 3.63483309e-06
0.00000000e+00 0.00000000e+00 0.00000000e+00 0.00000000e+00 0.00000000e+00 0.00000000e+00 0.00000000e+00 0.00000000e+00 0.00000000e+00
0.00000000e+00 0.00000000e+00 0.00000000e+00 0.00000000e+00 0.00000000e+00 0.00000000e+00 0.00000000e+00 0.00000000e+00 0.00000000e+00
-2.36284101e-06 -6.99340599e-05 8.85202220e-06 -6.99340599e-05 -1.24460627e-05 -1.86565709e-07 8.85202220e-06 -1.86565709e-07 1.73647786e-05
1.02791134e-02 2.18598871e-07 4.83196345e-08 2.18598871e-07 4.76613315e-03 3.55876182e-08 4.83196345e-08 3.55876182e-08 -1.26140714e-02
9.05314321e-03 1.25800207e-03 -1.45835656e-07 1.25800207e-03 5.47435135e-03 7.18848954e-04 -1.45835656e-07 7.18848954e-04 -1.22066131e-02
1.02860602e-02 3.22743825e-03 9.30572540e-04 3.22743825e-03 5.14845701e-03 1.37941475e-03 9.30572540e-04 1.37941475e-03 -1.29240439e-02
1.14955981e-02 1.10844994e-03 1.55359303e-04 1.10844994e-03 4.53710277e-03 3.14093995e-09 1.55359303e-04 3.14093995e-09 -1.34177343e-02
6.68489933e-03 1.01926940e-03 -6.69219617e-07 1.01926940e-03 6.69275830e-03 1.41920272e-03 -6.69219617e-07 1.41920272e-03 -1.12567991e-02
7.09851191e-03 3.33566146e-03 1.07913589e-03 3.33566146e-03 6.34769187e-03 1.26307845e-03 1.07913589e-03 1.26307845e-03 -1.12872932e-02
4.53642744e-03 1.04928587e-03 -7.32812623e-07 1.04928587e-03 7.32367579e-03 9.22960084e-04 -7.32812623e-07 9.22960084e-04 -9.96513199e-03
4.23073280e-03 2.06140877e-03 8.17963650e-04 2.06140877e-03 6.41127105e-03 1.25006930e-03 8.17963650e-04 1.25006930e-03 -8.93001352e-03
3.32033169e-03 6.16180041e-04 -4.43498379e-07 6.16180041e-04 6.99466188e-03 2.09847654e-04 -4.43498379e-07 2.09847654e-04 -8.65312945e-03
2.90871598e-03 8.14422183e-04 1.52527532e-03 8.14422183e-04 5.93410258e-03 8.32300997e-04 1.52527532e-03 8.32300997e-04 -7.41202373e-03
3.60008725e-03 -6.45148335e-04 -1.91729669e-07 -6.45148335e-04 6.31785649e-03 2.58880915e-04 -1.91729669e-07 2.58880915e-04 -8.33496358e-03
2.85831705e-03 -4.50578601e-04 1.91063821e-03 -4.50578601e-04 5.14713279e-03 1.11984596e-05 1.91063821e-03 1.11984596e-05 -6.72022253e-03
3.60146887e-03 -1.94964127e-03 1.01500700e-06 -1.94964127e-03 6.77458569e-03 1.21464382e-03 1.01500700e-06 1.21464382e-03 -8.70604999e-03
3.25609278e-03 -1.43484352e-03 2.64228799e-03 -1.43484352e-03 4.95946174e-03 -9.69752262e-04 2.64228799e-03 -9.69752262e-04 -6.87584025e-03
1.04990616e-02 5.06386004e-03 -1.96682580e-03 5.06386004e-03 7.50710251e-03 1.99267652e-03 -1.96682580e-03 1.99267652e-03 -1.51014179e-02
1.28294034e-02 4.75138178e-04 -6.13685115e-04 4.75138178e-04 9.02721053e-03 -1.04693572e-06 -6.13685115e-04 -1.04693572e-06 -1.83703033e-02
6.51003968e-03 6.49728277e-03 -2.87518342e-04 6.49728277e-03 5.31765586e-03 2.46992434e-03 -2.87518342e-04 2.46992434e-03 -9.85215697e-03
3.16421431e-03 2.75513317e-03 1.20496866e-03 2.75513317e-03 3.91862786e-03 1.52207739e-03 1.20496866e-03 1.52207739e-03 -5.91948035e-03
1.15327330e-03 -3.89611969e-05 1.35560360e-03 -3.89611969e-05 2.32130887e-03 1.38578500e-03 1.35560360e-03 1.38578500e-03 -2.89444622e-03
3.32453790e-04 -7.78899477e-04 1.11467986e-03 -7.78899477e-04 1.41044052e-03 2.42245715e-05 1.11467986e-03 2.42245715e-05 -1.44493322e-03
8.41735920e-04 -1.51475420e-03 7.03203637e-04 -1.51475420e-03 7.78167294e-04 -1.06570250e-03 7.03203637e-04 -1.06570250e-03 -1.32043002e-03
1.47981858e-02 3.36417754e-04 8.89817020e-03 3.36417754e-04 1.44231035e-02 5.06118778e-03 8.89817020e-03 5.06118778e-03 -2.45920056e-02
1.80448946e-02 -2.00486486e-03 8.27387720e-03 -2.00486486e-03 1.64575148e-02 5.18102024e-06 8.27387720e-03 5.18102024e-06 -2.90432926e-02
5.21252584e-03 1.64464526e-03 2.59894901e-03 1.64464526e-03 4.57817471e-03 4.52324376e-03 2.59894901e-03 4.52324376e-03 -8.20346347e-03
8.39847142e-04 2.04773300e-04 7.65858553e-04 2.04773300e-04 8.21011225e-04 1.21072360e-03 7.65858553e-04 1.21072360e-03 -1.42729637e-03
-7.92721607e-05 -5.03367693e-04 5.32310823e-05 -5.03367693e-04 2.30609230e-05 -1.11104250e-05 5.32310823e-05 -1.11104250e-05 2.84919915e-05
-9.48394086e-05 -2.86583294e-04 -5.08348798e-04 -2.86583294e-04 1.93412323e-04 3.65321817e-08 -5.08348798e-04 3.65321817e-08 -5.69074150e-05
-8.73509580e-05 -1.01671376e-04 3.43699478e-05 -1.01671376e-04 -7.56586514e-05 1.52734655e-05 3.43699478e-05 1.52734655e-05 1.31001564e-04
6.19070124e-05 -7.19546675e-04 -6.48945448e-04 -7.19546675e-04 -6.33570180e-05 4.48703623e-06 -6.48945448e-04 4.48703623e-06 6.93469046e-05
-2.22348062e-05 4.40110634e-05 1.67643953e-04 4.40110634e-05 -1.47235849e-04 7.73887846e-05 1.67643953e-04 7.73887846e-05 1.64961562e-04
1.50795659e-03 -1.00098207e-03 -2.21539382e-03 -1.00098207e-03 -9.45485928e-04 -4.95311269e-03 -2.21539382e-03 -4.95311269e-03 1.57759176e-04
-1.06772388e-03 -5.09661437e-04 4.97599569e-04 -5.09661437e-04 -2.11905572e-04 3.97356329e-04 4.97599569e-04 3.97356329e-04 1.07703527e-03
3.29632987e-03 1.69400265e-03 -2.25131889e-03 1.69400265e-03 5.27405553e-03 7.34059187e-03 -2.25131889e-03 7.34059187e-03 -7.11529655e-03
-1.78051262e-05 -5.19766406e-05 6.80053393e-05 -5.19766406e-05 6.40748331e-05 3.31721600e-04 6.80053393e-05 3.31721600e-04 -3.41758005e-05
-5.38515645e-05 -1.45283118e-04 2.32064364e-05 -1.45283118e-04 8.75117124e-05 -2.53745476e-05 2.32064364e-05 -2.53745476e-05 -1.80412947e-05
2.21233641e-06 -1.73848576e-06 3.82838329e-06 -1.73848576e-06 -4.43309816e-06 1.43409337e-06 3.82838329e-06 1.43409337e-06 1.35874636e-06
1.48242493e-06 3.54799994e-06 5.89350293e-07 3.54799994e-06 -3.67760339e-06 3.87822716e-08 5.89350293e-07 3.87822716e-08 1.85699167e-06
2.26756072e-07 7.05547973e-06 3.08951530e-06 7.05547973e-06 -9.37285961e-07 6.64364990e-08 3.08951530e-06 6.64364990e-08 9.50791218e-07
-1.54971895e-06 -2.71426252e-05 -1.28812426e-05 -2.71426252e-05 4.58625664e-06 -3.48974311e-07 -1.28812426e-05 -3.48974311e-07 -4.19560138e-06
2.28227619e-02 4.23574634e-03 -8.75201728e-03 4.23574634e-03 2.49810480e-02 4.53551911e-06 -8.75201728e-03 4.53551911e-06 -4.02743891e-02
2.57224794e-02 -4.96361544e-03 -6.79990789e-03 -4.96361544e-03 2.32787114e-02 1.60018206e-02 -6.79990789e-03 1.60018206e-02 -4.11677659e-02
1.51054769e-02 -5.19866232e-03 6.04398611e-03 -5.19866232e-03 1.62305357e-02 6.58631666e-03 6.04398611e-03 6.58631666e-03 -2.63016038e-02
1.64891668e-02 -2.44450450e-04 5.48937102e-03 -2.44450450e-04 2.06112782e-02 -6.08817209e-06 5.48937102e-03 -6.08817209e-06 -3.12115420e-02
1.61418432e-05 -2.90603307e-05 -4.37668540e-07 -2.90603307e-05 -7.00251462e-06 -4.01244230e-06 -4.37668540e-07 -4.01244230e-06 -1.41024339e-05
2.44109411e-04 -2.98540233e-04 8.87123172e-05 -2.98540233e-04 -1.73282401e-04 6.67814566e-05 8.87123172e-05 6.67814566e-05 -7.26936992e-05
0.00000000e+00 0.00000000e+00 0.00000000e+00 0.00000000e+00 0.00000000e+00 0.00000000e+00 0.00000000e+00 0.00000000e+00 0.00000000e+00
1.82304336e-02 -6.31734752e-03 2.22408120e-03 -6.31734752e-03 1.04861786e-02 6.81831571e-03 2.22408120e-03 6.81831571e-03 -2.40631718e-02
1.76373050e-02 -4.11922066e-03 7.14147463e-03 -4.11922066e-03 1.27953952e-02 1.15005605e-05 7.14147463e-03 1.15005605e-05 -2.55716462e-02
9.61493421e-03 2.94229283e-03 5.91144286e-04 2.94229283e-03 1.04637691e-02 4.27410635e-03 5.91144286e-04 4.27410635e-03 -1.69507433e-02
1.16293118e-02 -1.71177077e-03 -2.27867439e-03 -1.71177077e-03 9.19551495e-03 7.39578228e-03 -2.27867439e-03 7.39578228e-03 -1.74397123e-02
4.01421572e-03 7.46128615e-04 -1.41814922e-03 7.46128615e-04 1.14268262e-03 3.31954740e-03 -1.41814922e-03 3.31954740e-03 -4.32790990e-03
2.24090763e-03 -3.32724518e-03 -1.72287325e-03 -3.32724518e-03 3.44125484e-03 2.41325283e-03 -1.72287325e-03 2.41325283e-03 -4.70738963e-03
-9.15391982e-04 -1.12560994e-03 -4.28526706e-04 -1.12560994e-03 5.83178698e-04 2.70060562e-04 -4.28526706e-04 2.70060562e-04 4.26204497e-04
-6.13104930e-05 -6.42257219e-05 9.28143527e-06 -6.42257219e-05 2.40658046e-05 -1.41272085e-05 9.28143527e-06 -1.41272085e-05 4.64939112e-05
0.00000000e+00 0.00000000e+00 0.00000000e+00 0.00000000e+00 0.00000000e+00 0.00000000e+00 0.00000000e+00 0.00000000e+00 0.00000000e+00
</DataArray>
<DataArray type="Float32" Name="Spatial_displacement" NumberOfComponents="3" format="ascii">
1.87230110e-03 2.11393461e-02 -7.91089889e-03
3.88162816e-03 2.04546899e-02 -5.09356614e-03
3.38649470e-03 2.41335072e-02 -7.94775132e-03
1.09996088e-03 2.34615766e-02 -9.88478307e-03
1.49460882e-03 2.32342612e-02 -1.14226891e-02
3.76944803e-03 2.37711407e-02 -1.12703815e-02
2.18681246e-03 2.87737437e-02 -1.48378350e-02
1.06736459e-03 2.46947948e-02 -1.22093279e-02
6.50525186e-03 1.95600428e-02 -3.78847495e-03
7.05829542e-03 2.34507564e-02 -6.87081181e-03
8.27361178e-03 2.13595554e-02 -1.07079959e-02
1.42276157e-02 3.23687159e-02 -2.72175279e-02
6.71763346e-03 2.24908479e-02 7.09481537e-06
6.72472827e-03 2.40420401e-02 -4.06615436e-05
5.15019940e-03 2.40609311e-02 2.08690763e-05
5.13429614e-03 2.24933326e-02 4.21889126e-05
6.75291801e-03 2.24397331e-02 -8.06711614e-06
6.74430747e-03 2.40147077e-02 -2.91690230e-05
5.17686643e-03 2.40025856e-02 9.06363130e-06
5.18791238e-03 2.24327035e-02 5.37261367e-05
0.00000000e+00 0.00000000e+00 -2.79011168e-02
5.15627861e-03 0.00000000e+00 -2.87161116e-02
5.04344003e-03 5.26946178e-03 -2.67838314e-02
0.00000000e+00 5.28104091e-03 -2.58439630e-02
0.00000000e+00 0.00000000e+00 -3.74720395e-02
7.50324037e-03 0.00000000e+00 -3.75812054e-02
7.57112866e-03 4.63127904e-03 -3.74219045e-02
0.00000000e+00 4.56541637e-03 -3.59727144e-02
1.12958569e-02 0.00000000e+00 -3.16682383e-02
9.86764487e-03 3.89112858e-03 -2.87486184e-02
1.44434944e-02 0.00000000e+00 -3.90829965e-02
1.48103833e-02 4.84782364e-03 -4.01720703e-02
1.69933513e-02 0.00000000e+00 -3.43589671e-02
1.70448273e-02 2.76400987e-03 -3.33090276e-02
2.11200304e-02 0.00000000e+00 -4.23810557e-02
2.08710209e-02 4.38794866e-03 -4.28937227e-02
2.38417201e-02 0.00000000e+00 -3.70899364e-02
2.38550100e-02 3.01982369e-03 -3.82458717e-02
2.65892781e-02 0.00000000e+00 -4.50747758e-02
2.66216509e-02 3.45059438e-03 -4.64497171e-02
2.96085905e-02 0.00000000e+00 -4.08337414e-02
3.01834960e-02 3.47472727e-03 -4.02394384e-02
3.10644675e-02 0.00000000e+00 -4.61989194e-02
3.12580466e-02 2.80646374e-03 -4.86521199e-02
3.40861641e-02 0.00000000e+00 -4.24866676e-02
3.51886004e-02 2.63151014e-03 -4.16126847e-02
3.42475921e-02 0.00000000e+00 -4.67053317e-02
3.55481245e-02 1.98947545e-03 -4.86097708e-02
2.99488427e-03 9.75187309e-03 -2.22165380e-02
0.00000000e+00 1.16367973e-02 -2.14609355e-02
7.49900471e-03 1.04671177e-02 -3.16619352e-02
0.00000000e+00 1.06210131e-02 -3.09093427e-02
8.62283166e-03 9.17408243e-03 -2.88080871e-02
1.59278791e-02 1.06674358e-02 -3.82551476e-02
1.51400659e-02 1.05610164e-02 -3.62938046e-02
2.16981731e-02 9.65495408e-03 -4.92846966e-02
2.45429464e-02 1.21141188e-02 -3.65183651e-02
2.57905778e-02 7.56271835e-03 -5.17945588e-02
3.17946076e-02 9.93425399e-03 -3.84133793e-02
3.18503603e-02 8.83917883e-03 -5.02203628e-02
3.74911577e-02 7.80495163e-03 -3.90645899e-02
3.79856378e-02 7.19770743e-03 -5.02391458e-02
1.57506112e-03 1.67735759e-02 -1.43604288e-02
0.00000000e+00 1.67342238e-02 -1.68732572e-02
5.30602597e-03 1.69534273e-02 -2.70792656e-02
0.00000000e+00 1.54727688e-02 -2.04468891e-02
7.72448489e-03 1.55171417e-02 -2.13854257e-02
1.71513688e-02 1.79790296e-02 -4.16898727e-02
6.55620452e-03 1.21423220e-02 -6.42179623e-02
2.66390257e-02 1.40090641e-02 -5.53772151e-02
1.26622897e-03 2.04018764e-02 -1.10187260e-02
0.00000000e+00 2.12508030e-02 -1.20463669e-02
2.53967755e-03 2.16281172e-02 -1.64416134e-02
0.00000000e+00 2.10447125e-02 -1.56667568e-02
0.00000000e+00 2.22638827e-02 -1.07950764e-02
3.07669071e-03 2.57617831e-02 -1.39197418e-02
0.00000000e+00 2.40847021e-02 -1.61060728e-02
3.46531393e-03 2.04390585e-02 -6.37980551e-03
8.93549062e-03 2.32387073e-02 -2.06330102e-02
9.87187773e-03 2.54403204e-02 -1.70283262e-02
0.00000000e+00 2.48675328e-02 -1.40481889e-02
5.41649945e-03 3.33200842e-02 -2.57085972e-02
0.00000000e+00 3.34590524e-02 -2.11734585e-02
1.18439067e-02 3.73107977e-02 -2.91845053e-02
1.99718885e-02 2.19384804e-02 -4.55867648e-02
2.80244108e-02 3.06096971e-02 -4.12359722e-02
0.00000000e+00 0.00000000e+00 -4.88868617e-02
9.69396438e-03 0.00000000e+00 -4.96880934e-02
1.03159733e-02 4.87731071e-03 -4.82394136e-02
0.00000000e+00 4.53503896e-03 -4.81560081e-02
1.76729076e-02 0.00000000e+00 -5.06189093e-02
1.89063586e-02 6.01839833e-03 -5.00581786e-02
2.37383302e-02 0.00000000e+00 -5.15899546e-02
2.44966764e-02 6.66891783e-03 -5.27411401e-02
2.81306300e-02 0.00000000e+00 -5.32380491e-02
2.81145107e-02 5.93758048e-03 -5.40112182e-02
3.17835361e-02 0.00000000e+00 -5.35368435e-02
3.13569680e-02 4.79125278e-03 -5.45459762e-02
3.49710807e-02 0.00000000e+00 -5.34039624e-02
3.52410078e-02 4.73365560e-03 -5.41570149e-02
1.26652932e-02 1.15774609e-02 -4.80512157e-02
0.00000000e+00 9.67386179e-03 -4.48208824e-02
2.18858048e-02 1.27996011e-02 -5.21215089e-02
2.70261485e-02 1.21012721e-02 -5.56342453e-02
2.92445961e-02 1.04740858e-02 -5.88698685e-02
3.10538542e-02 8.71668849e-03 -6.04247265e-02
3.30350175e-02 8.38582590e-03 -6.00371920e-02
1.35083962e-02 1.47531442e-02 -3.65044996e-02
0.00000000e+00 1.74949616e-02 -3.25579047e-02
2.51745079e-02 1.59147754e-02 -5.33598289e-02
3.08048092e-02 1.45893414e-02 -6.07057065e-02
2.82558054e-02 5.07333176e-03 -6.73444718e-02
3.21704969e-02 1.23216575e-02 -6.20536469e-02
1.17775369e-02 1.84406545e-02 -2.26469673e-02
0.00000000e+00 1.59960203e-02 -2.63464078e-02
2.82828268e-02 2.24875379e-02 -5.03186658e-02
1.22093856e-02 3.11973132e-02 -3.55793610e-02
0.00000000e+00 3.19573283e-02 -3.27198766e-02
1.36149246e-02 4.68313992e-02 -3.87893245e-02
0.00000000e+00 4.59839366e-02 -3.88841555e-02
2.25906447e-02 2.73868777e-02 -4.31171842e-02
3.17919627e-02 3.92220914e-02 -4.38596122e-02
3.14098969e-02 2.00346373e-02 -5.84953316e-02
4.09074724e-02 2.24582702e-02 -5.56462146e-02
1.88013799e-02 1.61018632e-02 -7.07224384e-02
2.93137673e-02 1.66208148e-02 -6.60960078e-02
3.68384756e-02 1.27252061e-02 -6.24830015e-02
4.05897647e-02 1.38426721e-02 -6.20903783e-02
3.71862054e-02 1.01802740e-02 -6.21629059e-02
3.71887758e-02 7.47930026e-03 -6.21748008e-02
3.98726612e-02 7.49687711e-03 -6.21820726e-02
3.98298204e-02 1.02160629e-02 -6.20978586e-02
3.71853188e-02 1.01799238e-02 -6.21540323e-02
3.72098759e-02 7.51134474e-03 -6.21651374e-02
3.98802906e-02 7.48967379e-03 -6.21796921e-02
3.99825945e-02 1.01003209e-02 -6.21063039e-02
0.00000000e+00 0.00000000e+00 -6.21545762e-02
1.04440376e-02 0.00000000e+00 -6.21545762e-02
1.17629804e-02 5.84870949e-03 -6.21545762e-02
0.00000000e+00 4.69702017e-03 -6.21545762e-02
1.91658102e-02 0.00000000e+00 -6.21545762e-02
2.02293545e-02 7.14990310e-03 -6.21545762e-02
2.47099083e-02 0.00000000e+00 -6.21545762e-02
2.58172676e-02 7.53774075e-03 -6.21545762e-02
2.83534285e-02 0.00000000e+00 -6.21545762e-02
2.90021300e-02 7.56395701e-03 -6.21545762e-02
3.20573151e-02 0.00000000e+00 -6.21545762e-02
3.13700959e-02 6.83622900e-03 -6.21545762e-02
3.62497158e-02 0.00000000e+00 -6.21545762e-02
3.41845341e-02 7.57636689e-03 -6.21545762e-02
1.47351352e-02 9.53538530e-03 -6.21545762e-02
0.00000000e+00 9.02626291e-03 -6.21545762e-02
2.44781487e-02 1.25140827e-02 -6.21545762e-02
2.86508333e-02 1.33886626e-02 -6.21545762e-02
3.07856575e-02 1.19860396e-02 -6.21545762e-02
3.10785566e-02 1.00620370e-02 -6.21545762e-02
3.17021497e-02 9.21966787e-03 -6.21545762e-02
1.88504569e-02 2.40687057e-02 -6.21545762e-02
0.00000000e+00 2.61638239e-02 -6.21545762e-02
2.99433470e-02 1.86420083e-02 -6.21545762e-02
3.22348475e-02 1.54366130e-02 -6.21545762e-02
3.22727114e-02 1.24531491e-02 -6.21545762e-02
3.23798135e-02 9.87729058e-03 -6.23620674e-02
3.25138867e-02 1.00693079e-02 -6.21545762e-02
3.25931758e-02 8.18190444e-03 -6.23026118e-02
3.25427987e-02 8.48365575e-03 -6.21545762e-02
3.49412635e-02 1.51269119e-02 -6.38999715e-02
3.54867727e-02 1.57052837e-02 -6.21545762e-02
3.61955389e-02 2.01189555e-02 -6.21545762e-02
3.47426608e-02 1.23510519e-02 -6.19769022e-02
3.46888341e-02 1.24597820e-02 -6.21545762e-02
3.45346890e-02 1.02129346e-02 -6.21544942e-02
3.45740244e-02 1.01643819e-02 -6.21545762e-02
3.45655829e-02 7.83747341e-03 -6.21775091e-02
3.45500112e-02 7.75044970e-03 -6.21545762e-02
0.00000000e+00 6.81005511e-03 -6.21545762e-02
2.85763871e-02 1.12690106e-02 -6.21545762e-02
1.89839341e-02 3.74345705e-02 -6.21545762e-02
0.00000000e+00 3.77061665e-02 -6.21545762e-02
3.71152163e-02 1.01588108e-02 -6.21545762e-02
3.70257795e-02 1.29122604e-02 -6.21545762e-02
3.72359715e-02 7.54419761e-03 -6.21545762e-02
2.06828751e-02 4.91148084e-02 -6.21545762e-02
0.00000000e+00 5.33391610e-02 -6.21545762e-02
2.70068906e-02 2.79909261e-02 -6.21545762e-02
3.94883975e-02 3.68873104e-02 -6.21545762e-02
3.49727646e-02 1.84806753e-02 -6.21545762e-02
4.34789583e-02 2.05982365e-02 -6.21545762e-02
4.09268551e-02 1.32350894e-02 -6.21545762e-02
3.99728008e-02 1.00366138e-02 -6.21545762e-02
3.98802459e-02 7.51092890e-03 -6.21545762e-02
</DataArray>
<DataArray type="Float32" Name="Spatial_acceleration" NumberOfComponents="3" format="ascii">
2.63571735e-07 1.28498675e-06 -7.91867592e-07
3.60329949e-07 1.09368557e-06 -5.72840349e-07
2.49087805e-07 1.86475120e-06 -1.08273821e-06
1.42415360e-07 1.59426531e-06 -1.34531660e-06
8.19961201e-08 1.76626440e-06 -1.24526025e-06
5.15165766e-07 1.59699573e-06 -1.27374562e-06
2.90234880e-07 2.02449155e-06 -1.88128149e-06
3.00844505e-07 1.67498979e-06 -1.48900347e-06
7.39336031e-07 7.70966210e-07 -3.38236475e-07
1.42999488e-06 1.55202542e-06 -1.22706092e-06
8.34994864e-07 1.35760843e-06 -1.51485870e-06
9.29514556e-07 1.97303302e-06 -2.19853723e-06
1.47926315e-07 2.32841558e-06 2.45512524e-06
5.18361730e-07 2.13648877e-06 -1.13586580e-07
1.44932415e-07 2.05996139e-06 4.54599643e-07
4.28160035e-07 2.54592305e-06 -1.56654914e-06
-2.01032179e-07 3.33359390e-06 -2.21340599e-07
-5.80827987e-07 3.00168563e-06 2.99809130e-06
-1.21489165e-07 2.46314198e-06 -2.75265916e-06
8.16098691e-07 4.35928996e-06 1.68765644e-06
0.00000000e+00 0.00000000e+00 -1.19145705e-06
2.38239764e-07 0.00000000e+00 -1.06239315e-06
3.58114647e-07 1.82996189e-07 -1.18319190e-06
0.00000000e+00 1.91887224e-07 -1.00803379e-06
0.00000000e+00 0.00000000e+00 -1.88064575e-06
4.38531231e-07 0.00000000e+00 -1.74744923e-06
4.58250440e-07 3.48846100e-07 -1.68577833e-06
0.00000000e+00 2.27093693e-07 -1.74872082e-06
6.63633159e-07 0.00000000e+00 -1.23087568e-06
5.62081709e-07 2.74538991e-07 -1.24963128e-06
7.10944335e-07 0.00000000e+00 -1.93119058e-06
7.99010195e-07 3.74237686e-07 -1.72344846e-06
9.54985580e-07 0.00000000e+00 -1.21593473e-06
9.95755158e-07 2.35160186e-07 -1.32179264e-06
1.14104091e-06 0.00000000e+00 -1.88032789e-06
1.20002528e-06 3.41246533e-07 -1.87810258e-06
1.24907490e-06 0.00000000e+00 -1.37551626e-06
1.43978991e-06 2.87751362e-07 -1.37424468e-06
1.51876611e-06 0.00000000e+00 -1.92387893e-06
1.55113139e-06 2.72472704e-07 -2.10666644e-06
1.81102746e-06 0.00000000e+00 -1.52905784e-06
1.87095009e-06 3.38062648e-07 -1.56545639e-06
1.82930626e-06 0.00000000e+00 -2.25289659e-06
2.04503544e-06 4.04357905e-07 -2.11620318e-06
2.24363794e-06 0.00000000e+00 -1.58945716e-06
2.16492026e-06 2.64267129e-07 -1.61393484e-06
2.35422453e-06 0.00000000e+00 -2.29962666e-06
2.51412393e-06 3.06924193e-07 -2.23414099e-06
2.82367068e-07 4.23550603e-07 -1.11897782e-06
0.00000000e+00 5.05765286e-07 -1.05953211e-06
3.95337736e-07 6.07252105e-07 -1.70850751e-06
0.00000000e+00 5.95569588e-07 -1.64095559e-06
6.37871892e-07 4.92232175e-07 -1.02851504e-06
8.74241209e-07 7.74860382e-07 -1.89495086e-06
9.49541743e-07 6.49642971e-07 -1.49154664e-06
1.27528961e-06 7.28834209e-07 -2.36765550e-06
1.32107732e-06 9.17077045e-07 -1.54050190e-06
1.48289996e-06 7.35982269e-07 -2.47599291e-06
1.70800092e-06 9.53475649e-07 -1.49599714e-06
1.96154906e-06 7.40845962e-07 -2.46111540e-06
2.22824019e-06 8.28584007e-07 -1.61107380e-06
2.59741137e-06 7.99675774e-07 -2.55330406e-06
8.14710361e-08 9.06898833e-07 -1.02924162e-06
0.00000000e+00 8.42889165e-07 -9.46044906e-07
4.69162359e-07 1.15703403e-06 -1.60489765e-06
0.00000000e+00 1.10141434e-06 -1.65081019e-06
5.01791646e-07 9.58760552e-07 -8.15073633e-07
8.78524816e-07 1.16291051e-06 -1.99228930e-06
4.46945421e-07 1.13232932e-06 -3.05029744e-06
1.48693721e-06 1.10986502e-06 -2.64909545e-06
2.77292145e-07 1.20644336e-06 -9.66026619e-07
0.00000000e+00 1.43218040e-06 -1.09815596e-06
2.52776687e-07 1.60941818e-06 -1.36990013e-06
0.00000000e+00 1.58995636e-06 -1.42701469e-06
0.00000000e+00 1.54783322e-06 -1.18064884e-06
3.13202548e-07 2.14531315e-06 -1.66865755e-06
0.00000000e+00 2.08431470e-06 -1.89717605e-06
4.67141462e-07 1.30724902e-06 -8.33511365e-07
1.05371078e-06 1.63364405e-06 -1.79672236e-06
7.11186715e-07 1.93758024e-06 -2.01161697e-06
0.00000000e+00 1.72185901e-06 -1.42987562e-06
1.91330912e-07 2.10722283e-06 -2.17246998e-06
0.00000000e+00 2.18629839e-06 -2.68046051e-06
7.29044245e-07 2.41680937e-06 -1.94835661e-06
8.27471411e-07 2.30174601e-06 -2.05273091e-06
1.18774835e-06 2.00886188e-06 -2.48336801e-06
0.00000000e+00 0.00000000e+00 -2.33586616e-06
5.62647983e-07 0.00000000e+00 -2.52977998e-06
5.62508887e-07 4.23689670e-07 -2.57953002e-06
0.00000000e+00 3.30607094e-07 -2.48336778e-06
9.99899612e-07 0.00000000e+00 -2.41470343e-06
1.08194354e-06 4.38849128e-07 -2.52564746e-06
1.43206114e-06 0.00000000e+00 -2.52342215e-06
1.37817858e-06 6.04748720e-07 -2.56125122e-06
1.60133834e-06 0.00000000e+00 -2.66551979e-06
1.69083478e-06 5.29885313e-07 -2.76374817e-06
2.41345174e-06 0.00000000e+00 -2.80062363e-06
2.10785856e-06 5.32766194e-07 -2.97800693e-06
2.19678873e-06 0.00000000e+00 -2.79426581e-06
2.51142183e-06 5.74390072e-07 -2.93763469e-06
6.47346155e-07 8.85963402e-07 -2.38927214e-06
0.00000000e+00 7.57296846e-07 -2.47764592e-06
1.09752023e-06 1.01703404e-06 -2.55584723e-06
1.48574509e-06 9.28163502e-07 -2.81842540e-06
1.67001997e-06 8.37507685e-07 -3.20143931e-06
2.16590047e-06 9.85145562e-07 -3.07549385e-06
2.15042974e-06 1.49536129e-06 -2.43886325e-06
7.05427624e-07 1.19272875e-06 -2.45073102e-06
0.00000000e+00 1.36947631e-06 -2.22354470e-06
1.40145096e-06 1.34330332e-06 -2.81100802e-06
1.75111825e-06 1.16803915e-06 -3.34888045e-06
1.99743113e-06 9.98536734e-07 -3.02094213e-06
1.74382535e-06 1.01114915e-06 -3.05913295e-06
9.23156733e-07 1.63157779e-06 -2.21061714e-06
0.00000000e+00 1.54728366e-06 -2.42275655e-06
1.40734517e-06 1.48248671e-06 -2.50244148e-06
4.92837671e-07 2.30413025e-06 -2.41597490e-06
0.00000000e+00 2.43886302e-06 -2.75421144e-06
5.66323592e-07 2.85689043e-06 -2.91951505e-06
0.00000000e+00 3.03769116e-06 -2.59653734e-06
8.43385862e-07 2.26936731e-06 -2.02178944e-06
1.26890336e-06 2.45181718e-06 -2.85339343e-06
1.27538044e-06 1.82994199e-06 -2.98118584e-06
1.55162809e-06 2.23938628e-06 -2.67155951e-06
5.47717036e-07 2.29481861e-06 -4.02256865e-06
3.75707941e-07 1.92793209e-06 -3.53264795e-06
2.02206775e-06 1.18875505e-06 -3.63131358e-06
2.00462341e-06 1.61552430e-06 -3.20625304e-06
1.12609825e-06 5.51809933e-07 -3.59190290e-06
1.62734591e-06 6.66163828e-07 -2.36602614e-06
7.07129630e-07 1.69972569e-08 -4.56595035e-06
8.33096578e-07 1.34382026e-06 -2.20679431e-06
2.07147605e-06 9.64661467e-07 -2.45707110e-06
1.68620215e-06 6.37531286e-07 -3.54292820e-06
1.63802508e-06 1.28813588e-06 -3.36318953e-06
1.89002355e-06 3.71138270e-07 -3.65087726e-06
0.00000000e+00 0.00000000e+00 -3.37466940e-06
5.75751073e-07 0.00000000e+00 -3.37466940e-06
5.67913048e-07 4.28934896e-07 -3.37466940e-06
0.00000000e+00 3.37918607e-07 -3.37466940e-06
1.11293787e-06 0.00000000e+00 -3.37466940e-06
1.08770530e-06 5.43197018e-07 -3.37466940e-06
1.21593473e-06 0.00000000e+00 -3.37466940e-06
1.50084497e-06 4.63088355e-07 -3.37466940e-06
1.72297155e-06 0.00000000e+00 -3.37466940e-06
1.66927771e-06 8.67366793e-07 -3.37466940e-06
2.37353629e-06 0.00000000e+00 -3.37466940e-06
2.25448616e-06 8.48134334e-07 -3.37466940e-06
2.54068527e-06 0.00000000e+00 -3.37466940e-06
2.50562039e-06 7.44501733e-07 -3.37466940e-06
7.62303671e-07 9.03288537e-07 -3.37466940e-06
0.00000000e+00 7.38143910e-07 -3.37466940e-06
1.45324066e-06 1.06625259e-06 -3.37466940e-06
1.63332618e-06 9.53038523e-07 -3.37466940e-06
1.88620879e-06 7.49429034e-07 -3.37466940e-06
2.26847328e-06 1.39665599e-06 -3.37466940e-06
1.73028309e-06 1.96536371e-06 -3.37466940e-06
8.49415869e-07 1.60113973e-06 -3.37466940e-06
0.00000000e+00 1.68335441e-06 -3.37466940e-06
1.37032407e-06 1.30287810e-06 -3.37466940e-06
1.73226988e-06 1.08734764e-06 -3.37466940e-06
1.87675153e-06 1.12874307e-06 -3.37466940e-06
9.90311264e-07 8.85645534e-07 -3.31004458e-06
2.40041800e-06 5.12440977e-07 -3.37466940e-06
1.39673546e-06 1.05698905e-06 -5.23408244e-06
2.11119641e-06 3.28318265e-06 -3.37466940e-06
2.12319696e-06 1.22133895e-06 -3.22659798e-06
1.67083738e-06 1.20957691e-06 -3.37466940e-06
1.89553691e-06 1.70866838e-06 -3.37466940e-06
1.75995297e-06 1.16984052e-06 -3.16646378e-06
1.95487337e-06 7.95576341e-07 -3.37466940e-06
2.09573909e-06 1.34984646e-06 -3.77738479e-06
1.74144907e-06 1.35884682e-06 -3.37466940e-06
1.90933542e-06 7.25428265e-07 -3.04025411e-06
1.45069760e-06 -1.01089476e-07 -3.37466940e-06
0.00000000e+00 1.41433691e-06 -3.37466940e-06
6.20752587e-07 1.89619016e-06 -3.37466940e-06
5.53766881e-07 2.46961918e-06 -3.37466940e-06
0.00000000e+00 2.76589390e-06 -3.37466940e-06
2.16166177e-06 5.47866023e-07 -3.37466940e-06
1.82975668e-06 1.43623356e-06 -3.37466940e-06
2.93064113e-06 1.25106169e-06 -3.37466940e-06
4.42544604e-07 3.06669858e-06 -3.37466940e-06
0.00000000e+00 2.71133581e-06 -3.37466940e-06
1.14063425e-06 2.53168741e-06 -3.37466940e-06
1.24740598e-06 3.11883286e-06 -3.37466940e-06
1.21323262e-06 1.55329701e-06 -3.37466940e-06
2.18200671e-06 1.84202190e-06 -3.37466940e-06
1.35993957e-06 9.25223048e-07 -3.37466940e-06
1.74681338e-06 1.30669275e-06 -3.37466940e-06
1.77105267e-06 1.07014182e-06 -3.37466940e-06
</DataArray>
<DataArray type="Float32" Name="Spatial_velocity" NumberOfComponents="3" format="ascii">
2.52679711e-05 2.31637299e-04 -8.97307036e-05
4.96365428e-05 2.23104245e-04 -5.93369805e-05
4.64630102e-05 2.72257545e-04 -9.47687004e-05
1.61990356e-05 2.62823422e-04 -1.15101582e-04
2.05502674e-05 2.57986598e-04 -1.32925052e-04
5.31253318e-05 2.62841961e-04 -1.32426212e-04
3.87889704e-05 3.27718066e-04 -1.76805625e-04
1.94312943e-05 2.83667003e-04 -1.47768165e-04
8.76259437e-05 2.10363476e-04 -4.50058360e-05
9.74656723e-05 2.66448071e-04 -9.07768044e-05
1.07793086e-04 2.40941474e-04 -1.43774712e-04
1.64065685e-04 3.43050197e-04 -2.86692113e-04
8.54592363e-05 2.24394782e-04 -4.15824343e-06
8.54633181e-05 2.36433145e-04 -4.01303123e-06
7.23856720e-05 2.36744861e-04 6.61753575e-06
7.20462194e-05 2.24494186e-04 3.59137198e-06
8.38506894e-05 2.12891537e-04 -7.99795089e-06
8.27145486e-05 2.26756019e-04 -2.28457952e-06
7.11787798e-05 2.26512668e-04 4.97378369e-06
7.05145139e-05 2.12975618e-04 7.23323228e-06
0.00000000e+00 0.00000000e+00 -2.88456911e-04
5.47512500e-05 0.00000000e+00 -2.93418416e-04
5.49059405e-05 5.80211708e-05 -2.77269748e-04
0.00000000e+00 5.70009906e-05 -2.67132506e-04
0.00000000e+00 0.00000000e+00 -3.86610976e-04
7.82291245e-05 0.00000000e+00 -3.87450884e-04
7.89724945e-05 5.21240363e-05 -3.83314706e-04
0.00000000e+00 5.07582517e-05 -3.70909111e-04
1.20765704e-04 0.00000000e+00 -3.20682273e-04
1.04994826e-04 4.38446368e-05 -2.95726117e-04
1.50197375e-04 0.00000000e+00 -4.01183410e-04
1.54623835e-04 5.43565147e-05 -4.06961917e-04
1.79330309e-04 0.00000000e+00 -3.46692716e-04
1.80328076e-04 3.22477026e-05 -3.37381498e-04
2.21257709e-04 0.00000000e+00 -4.30538028e-04
2.16988541e-04 4.87456491e-05 -4.32908913e-04
2.51147547e-04 0.00000000e+00 -3.72174574e-04
2.52396450e-04 3.47638343e-05 -3.82754137e-04
2.79266795e-04 0.00000000e+00 -4.54698806e-04
2.79088999e-04 3.83633305e-05 -4.68487939e-04
3.15333426e-04 0.00000000e+00 -4.09267814e-04
3.20703810e-04 3.94877279e-05 -4.01438796e-04
3.29534814e-04 0.00000000e+00 -4.66682861e-04
3.30814917e-04 3.20494255e-05 -4.91866725e-04
3.68262932e-04 0.00000000e+00 -4.25135309e-04
3.77383170e-04 3.28180577e-05 -4.15317103e-04
3.66157765e-04 0.00000000e+00 -4.71172563e-04
3.80628597e-04 2.44359144e-05 -4.91234765e-04
3.38231876e-05 1.05450308e-04 -2.35023937e-04
0.00000000e+00 1.24543716e-04 -2.29629964e-04
7.75700537e-05 1.14046183e-04 -3.31004558e-04
0.00000000e+00 1.15649782e-04 -3.25346424e-04
9.47352673e-05 1.01388810e-04 -2.88486131e-04
1.65126417e-04 1.16428491e-04 -3.91142006e-04
1.63531629e-04 1.15887022e-04 -3.62297549e-04
2.27348864e-04 1.05658488e-04 -4.91835992e-04
2.56664760e-04 1.30420507e-04 -3.72212759e-04
2.70193093e-04 8.64856993e-05 -5.20314614e-04
3.34228651e-04 1.11220455e-04 -3.81996855e-04
3.35284771e-04 9.99426920e-05 -5.10158890e-04
3.97040683e-04 9.36607175e-05 -3.90001049e-04
4.02427017e-04 8.62124580e-05 -5.09261852e-04
2.01785533e-05 1.82667543e-04 -1.62101569e-04
0.00000000e+00 1.78987349e-04 -1.81188050e-04
6.15110766e-05 1.79519426e-04 -2.82338820e-04
0.00000000e+00 1.70157931e-04 -2.36645894e-04
8.44096867e-05 1.65008212e-04 -2.25619646e-04
1.81651325e-04 1.91262778e-04 -4.14505979e-04
7.57935486e-05 1.45430531e-04 -6.28829875e-04
2.77072773e-04 1.50591150e-04 -5.64136950e-04
1.73079661e-05 2.20724760e-04 -1.29175532e-04
0.00000000e+00 2.30232370e-04 -1.33538022e-04
3.40590414e-05 2.38542474e-04 -1.82538381e-04
0.00000000e+00 2.37298183e-04 -1.85437006e-04
0.00000000e+00 2.47334305e-04 -1.26606799e-04
4.06213912e-05 2.92443612e-04 -1.74073328e-04
0.00000000e+00 2.73127225e-04 -1.96079374e-04
4.89335616e-05 2.19042049e-04 -7.98473702e-05
1.12943293e-04 2.51897087e-04 -2.34307052e-04
1.16905663e-04 2.86945782e-04 -2.06255441e-04
0.00000000e+00 2.85318180e-04 -1.68165672e-04
6.79788500e-05 3.70044727e-04 -2.85645248e-04
0.00000000e+00 3.82526021e-04 -2.50165293e-04
1.28340296e-04 3.96103627e-04 -3.08936724e-04
1.93823376e-04 2.50580633e-04 -4.42381075e-04
2.82719586e-04 3.21228406e-04 -4.12128284e-04
0.00000000e+00 0.00000000e+00 -5.00055437e-04
9.97787429e-05 0.00000000e+00 -5.07702527e-04
1.05570165e-04 5.40580513e-05 -4.95438289e-04
0.00000000e+00 5.04985182e-05 -4.94645617e-04
1.81909694e-04 0.00000000e+00 -5.14977612e-04
1.95221495e-04 6.57918426e-05 -5.11897553e-04
2.46578449e-04 0.00000000e+00 -5.24502888e-04
2.54939834e-04 7.18234151e-05 -5.33824088e-04
2.95833772e-04 0.00000000e+00 -5.41788875e-04
2.94761936e-04 6.45223336e-05 -5.46466326e-04
3.36675701e-04 0.00000000e+00 -5.44533657e-04
3.31106508e-04 5.25663163e-05 -5.54426515e-04
3.70907743e-04 0.00000000e+00 -5.42284863e-04
3.74057825e-04 5.29429053e-05 -5.50733646e-04
1.29067630e-04 1.25744264e-04 -4.88180231e-04
0.00000000e+00 1.07121101e-04 -4.63222561e-04
2.24317861e-04 1.38994510e-04 -5.24637173e-04
2.80825596e-04 1.32451096e-04 -5.63177047e-04
3.07602721e-04 1.15798735e-04 -5.94674901e-04
3.25628265e-04 9.75353032e-05 -6.14649267e-04
3.47141031e-04 9.36941433e-05 -6.12387201e-04
1.33857597e-04 1.65555612e-04 -3.96347663e-04
0.00000000e+00 1.92587191e-04 -3.53225507e-04
2.59117805e-04 1.73159919e-04 -5.40272275e-04
3.21579952e-04 1.61611097e-04 -6.15000143e-04
2.94480182e-04 6.12895456e-05 -6.84383442e-04
3.38657177e-04 1.37358045e-04 -6.31634670e-04
1.32511821e-04 2.17107430e-04 -2.64608767e-04
0.00000000e+00 1.89270970e-04 -3.14460514e-04
2.90195720e-04 2.39589019e-04 -5.06287965e-04
1.20704062e-04 3.52518255e-04 -3.80803307e-04
0.00000000e+00 3.60419857e-04 -3.69897956e-04
1.37789975e-04 5.01561386e-04 -4.28950007e-04
0.00000000e+00 4.95597022e-04 -4.16024937e-04
2.13698004e-04 3.07082722e-04 -4.19363263e-04
3.19946703e-04 4.19579708e-04 -4.50279913e-04
3.14135570e-04 2.12961022e-04 -5.88499825e-04
4.19425371e-04 2.47226126e-04 -5.50697558e-04
1.70946936e-04 1.82003161e-04 -7.43358047e-04
2.81660090e-04 1.94099528e-04 -6.64951745e-04
3.85391613e-04 1.35992697e-04 -6.33310527e-04
4.14282578e-04 1.43924597e-04 -6.32464595e-04
3.86888511e-04 1.13015907e-04 -6.31052244e-04
3.85965395e-04 8.84565670e-05 -6.33621588e-04
4.11106332e-04 8.89373769e-05 -6.33006566e-04
4.10237495e-04 1.12570793e-04 -6.34367694e-04
3.86806409e-04 1.13860813e-04 -6.33489573e-04
3.87219625e-04 8.97266436e-05 -6.32274896e-04
4.10509325e-04 8.92698372e-05 -6.33851043e-04
4.10954002e-04 1.13969691e-04 -6.32686249e-04
0.00000000e+00 0.00000000e+00 -6.33060292e-04
1.06473584e-04 0.00000000e+00 -6.33060292e-04
1.19946759e-04 6.33279851e-05 -6.33060292e-04
0.00000000e+00 5.20995927e-05 -6.33060292e-04
1.97694229e-04 0.00000000e+00 -6.33060292e-04
2.06979777e-04 7.63709322e-05 -6.33060292e-04
2.56585248e-04 0.00000000e+00 -6.33060292e-04
2.68721138e-04 8.12825019e-05 -6.33060292e-04
2.98234838e-04 0.00000000e+00 -6.33060292e-04
3.04486515e-04 8.14213126e-05 -6.33060292e-04
3.39356309e-04 0.00000000e+00 -6.33060292e-04
3.31522664e-04 7.33004053e-05 -6.33060292e-04
3.82830884e-04 0.00000000e+00 -6.33060292e-04
3.60706967e-04 8.23429073e-05 -6.33060292e-04
1.49981221e-04 1.06987281e-04 -6.33060292e-04
0.00000000e+00 1.00142475e-04 -6.33060292e-04
2.52124417e-04 1.36906747e-04 -6.33060292e-04
2.97639752e-04 1.45052472e-04 -6.33060292e-04
3.24196997e-04 1.32071655e-04 -6.33060292e-04
3.26136505e-04 1.11626970e-04 -6.33060292e-04
3.33063625e-04 1.00887344e-04 -6.33060292e-04
1.86090110e-04 2.46030395e-04 -6.33060292e-04
0.00000000e+00 2.64851231e-04 -6.33060292e-04
3.03721725e-04 1.99146700e-04 -6.33060292e-04
3.39203369e-04 1.69238367e-04 -6.33060292e-04
3.39435064e-04 1.38203657e-04 -6.33060292e-04
3.39968014e-04 1.12517548e-04 -6.34661643e-04
3.41765932e-04 1.12230664e-04 -6.33060292e-04
3.42723622e-04 9.24513806e-05 -6.35291333e-04
3.42456071e-04 9.53940253e-05 -6.33060292e-04
3.66342050e-04 1.65772217e-04 -6.46668195e-04
3.72806884e-04 1.72064669e-04 -6.33060292e-04
3.73218034e-04 2.23037365e-04 -6.33060292e-04
3.63887288e-04 1.36382863e-04 -6.32438809e-04
3.64566891e-04 1.37274401e-04 -6.33060292e-04
3.63393017e-04 1.13599264e-04 -6.33045100e-04
3.63205472e-04 1.13424918e-04 -6.33060292e-04
3.63027299e-04 9.07238791e-05 -6.33171410e-04
3.63056344e-04 8.97213176e-05 -6.33060292e-04
0.00000000e+00 1.28879590e-04 -6.33060292e-04
2.42632363e-04 1.64130004e-04 -6.33060292e-04
1.74675341e-04 4.08130349e-04 -6.33060292e-04
0.00000000e+00 4.14328329e-04 -6.33060292e-04
3.86963104e-04 1.13997346e-04 -6.33060292e-04
3.86515807e-04 1.36532064e-04 -6.33060292e-04
3.86498607e-04 8.97087302e-05 -6.33060292e-04
1.87249520e-04 5.28860895e-04 -6.33060292e-04
0.00000000e+00 5.48855576e-04 -6.33060292e-04
2.57367326e-04 3.14063102e-04 -6.33060292e-04
3.93671595e-04 4.11829853e-04 -6.33060292e-04
3.52748233e-04 1.89069833e-04 -6.33060292e-04
4.46339895e-04 2.23257288e-04 -6.33060292e-04
4.18030482e-04 1.40935445e-04 -6.33060292e-04
4.10466979e-04 1.12902511e-04 -6.33060292e-04
4.10993060e-04 9.04095577e-05 -6.33060292e-04
</DataArray>
<DataArray type="Float32" Name="Reaction_force" NumberOfComponents="3" format="ascii">
0.00000000e+00 0.00000000e+00 0.00000000e+00
0.00000000e+00 0.00000000e+00 0.00000000e+00
0.00000000e+00 0.00000000e+00 0.00000000e+00
0.00000000e+00 0.00000000e+00 0.00000000e+00
0.00000000e+00 0.00000000e+00 0.00000000e+00
0.00000000e+00 0.00000000e+00 0.00000000e+00
0.00000000e+00 0.00000000e+00 0.00000000e+00
0.00000000e+00 0.00000000e+00 0.00000000e+00
0.00000000e+00 0.00000000e+00 0.00000000e+00
0.00000000e+00 0.00000000e+00 0.00000000e+00
0.00000000e+00 0.00000000e+00 0.00000000e+00
0.00000000e+00 0.00000000e+00 0.00000000e+00
0.00000000e+00 0.00000000e+00 0.00000000e+00
0.00000000e+00 0.00000000e+00 0.00000000e+00
0.00000000e+00 0.00000000e+00 0.00000000e+00
0.00000000e+00 0.00000000e+00 0.00000000e+00
0.00000000e+00 0.00000000e+00 0.00000000e+00
0.00000000e+00 0.00000000e+00 0.00000000e+00
0.00000000e+00 0.00000000e+00 0.00000000e+00
0.00000000e+00 0.00000000e+00 0.00000000e+00
-2.59297848e-01 -3.77871633e-01 0.00000000e+00
0.00000000e+00 6.60640538e-01 0.00000000e+00
0.00000000e+00 0.00000000e+00 0.00000000e+00
8.09630096e-01 0.00000000e+00 0.00000000e+00
-5.91572881e-01 1.70466721e+00 0.00000000e+00
0.00000000e+00 3.13162017e+00 0.00000000e+00
0.00000000e+00 0.00000000e+00 0.00000000e+00
-3.81281406e-01 0.00000000e+00 0.00000000e+00
0.00000000e+00 1.57178092e+00 0.00000000e+00
0.00000000e+00 0.00000000e+00 0.00000000e+00
0.00000000e+00 3.19898558e+00 0.00000000e+00
0.00000000e+00 0.00000000e+00 0.00000000e+00
0.00000000e+00 2.91443896e+00 0.00000000e+00
0.00000000e+00 0.00000000e+00 0.00000000e+00
0.00000000e+00 2.53742051e+00 0.00000000e+00
0.00000000e+00 0.00000000e+00 0.00000000e+00
0.00000000e+00 4.54818535e+00 0.00000000e+00
0.00000000e+00 0.00000000e+00 0.00000000e+00
0.00000000e+00 1.02752566e+00 0.00000000e+00
0.00000000e+00 0.00000000e+00 0.00000000e+00
0.00000000e+00 4.15713501e+00 0.00000000e+00
0.00000000e+00 0.00000000e+00 0.00000000e+00
0.00000000e+00 6.23984516e-01 0.00000000e+00
0.00000000e+00 0.00000000e+00 0.00000000e+00
0.00000000e+00 2.57751369e+00 0.00000000e+00
0.00000000e+00 0.00000000e+00 0.00000000e+00
0.00000000e+00 1.01634681e+00 0.00000000e+00
0.00000000e+00 0.00000000e+00 0.00000000e+00
0.00000000e+00 0.00000000e+00 0.00000000e+00
1.26218557e+00 0.00000000e+00 0.00000000e+00
0.00000000e+00 0.00000000e+00 0.00000000e+00
3.73538196e-01 0.00000000e+00 0.00000000e+00
0.00000000e+00 0.00000000e+00 0.00000000e+00
0.00000000e+00 0.00000000e+00 0.00000000e+00
0.00000000e+00 0.00000000e+00 0.00000000e+00
0.00000000e+00 0.00000000e+00 0.00000000e+00
0.00000000e+00 0.00000000e+00 0.00000000e+00
0.00000000e+00 0.00000000e+00 0.00000000e+00
0.00000000e+00 0.00000000e+00 0.00000000e+00
0.00000000e+00 0.00000000e+00 0.00000000e+00
0.00000000e+00 0.00000000e+00 0.00000000e+00
0.00000000e+00 0.00000000e+00 0.00000000e+00
0.00000000e+00 0.00000000e+00 0.00000000e+00
2.27389860e+00 0.00000000e+00 0.00000000e+00
0.00000000e+00 0.00000000e+00 0.00000000e+00
7.57682741e-01 0.00000000e+00 0.00000000e+00
0.00000000e+00 0.00000000e+00 0.00000000e+00
0.00000000e+00 0.00000000e+00 0.00000000e+00
0.00000000e+00 0.00000000e+00 0.00000000e+00
0.00000000e+00 0.00000000e+00 0.00000000e+00
0.00000000e+00 0.00000000e+00 0.00000000e+00
4.80484962e-03 0.00000000e+00 0.00000000e+00
0.00000000e+00 0.00000000e+00 0.00000000e+00
-7.52857566e-01 0.00000000e+00 0.00000000e+00
1.94925070e-03 0.00000000e+00 0.00000000e+00
0.00000000e+00 0.00000000e+00 0.00000000e+00
1.09934855e+00 0.00000000e+00 0.00000000e+00
0.00000000e+00 0.00000000e+00 0.00000000e+00
0.00000000e+00 0.00000000e+00 0.00000000e+00
0.00000000e+00 0.00000000e+00 0.00000000e+00
1.61836469e+00 0.00000000e+00 0.00000000e+00
0.00000000e+00 0.00000000e+00 0.00000000e+00
2.37676144e+00 0.00000000e+00 0.00000000e+00
0.00000000e+00 0.00000000e+00 0.00000000e+00
0.00000000e+00 0.00000000e+00 0.00000000e+00
0.00000000e+00 0.00000000e+00 0.00000000e+00
-6.72519624e-01 2.97422814e+00 0.00000000e+00
0.00000000e+00 4.57362938e+00 0.00000000e+00
0.00000000e+00 0.00000000e+00 0.00000000e+00
-1.08393717e+00 0.00000000e+00 0.00000000e+00
0.00000000e+00 1.99831748e+00 0.00000000e+00
0.00000000e+00 0.00000000e+00 0.00000000e+00
0.00000000e+00 -2.58850574e-01 0.00000000e+00
0.00000000e+00 0.00000000e+00 0.00000000e+00
0.00000000e+00 -1.95622814e+00 0.00000000e+00
0.00000000e+00 0.00000000e+00 0.00000000e+00
0.00000000e+00 -3.36059165e+00 0.00000000e+00
0.00000000e+00 0.00000000e+00 0.00000000e+00
0.00000000e+00 -1.84204388e+00 0.00000000e+00
0.00000000e+00 0.00000000e+00 0.00000000e+00
0.00000000e+00 0.00000000e+00 0.00000000e+00
5.22585988e-01 0.00000000e+00 0.00000000e+00
0.00000000e+00 0.00000000e+00 0.00000000e+00
0.00000000e+00 0.00000000e+00 0.00000000e+00
0.00000000e+00 0.00000000e+00 0.00000000e+00
0.00000000e+00 0.00000000e+00 0.00000000e+00
0.00000000e+00 0.00000000e+00 0.00000000e+00
0.00000000e+00 0.00000000e+00 0.00000000e+00
-1.99582458e+00 0.00000000e+00 0.00000000e+00
0.00000000e+00 0.00000000e+00 0.00000000e+00
0.00000000e+00 0.00000000e+00 0.00000000e+00
0.00000000e+00 0.00000000e+00 0.00000000e+00
0.00000000e+00 0.00000000e+00 0.00000000e+00
0.00000000e+00 0.00000000e+00 0.00000000e+00
5.18162012e-01 0.00000000e+00 0.00000000e+00
0.00000000e+00 0.00000000e+00 0.00000000e+00
0.00000000e+00 0.00000000e+00 0.00000000e+00
2.77912879e+00 0.00000000e+00 0.00000000e+00
0.00000000e+00 0.00000000e+00 0.00000000e+00
9.57588673e-01 0.00000000e+00 0.00000000e+00
0.00000000e+00 0.00000000e+00 0.00000000e+00
0.00000000e+00 0.00000000e+00 0.00000000e+00
0.00000000e+00 0.00000000e+00 0.00000000e+00
0.00000000e+00 0.00000000e+00 0.00000000e+00
0.00000000e+00 0.00000000e+00 0.00000000e+00
0.00000000e+00 0.00000000e+00 0.00000000e+00
0.00000000e+00 0.00000000e+00 0.00000000e+00
0.00000000e+00 0.00000000e+00 0.00000000e+00
0.00000000e+00 0.00000000e+00 0.00000000e+00
0.00000000e+00 0.00000000e+00 0.00000000e+00
0.00000000e+00 0.00000000e+00 0.00000000e+00
0.00000000e+00 0.00000000e+00 0.00000000e+00
0.00000000e+00 0.00000000e+00 0.00000000e+00
0.00000000e+00 0.00000000e+00 0.00000000e+00
0.00000000e+00 0.00000000e+00 0.00000000e+00
0.00000000e+00 0.00000000e+00 0.00000000e+00
-3.17002386e-01 1.69247949e+00 -9.04644871e+00
0.00000000e+00 2.88552809e+00 -1.81002750e+01
0.00000000e+00 0.00000000e+00 -3.43635330e+01
-7.64851332e-01 0.00000000e+00 -1.80551815e+01
0.00000000e+00 1.10673153e+00 -1.71875439e+01
0.00000000e+00 0.00000000e+00 -3.18763962e+01
0.00000000e+00 -7.96414018e-01 -1.57726917e+01
0.00000000e+00 0.00000000e+00 -2.93418541e+01
0.00000000e+00 -1.36825502e+00 -1.52759647e+01
0.00000000e+00 0.00000000e+00 -2.66477470e+01
0.00000000e+00 -1.81992376e+00 -1.44494419e+01
0.00000000e+00 0.00000000e+00 -2.57868881e+01
0.00000000e+00 -1.35752165e+00 -6.83947277e+00
0.00000000e+00 0.00000000e+00 -1.35804529e+01
0.00000000e+00 0.00000000e+00 -3.67953300e+01
1.00200105e+00 0.00000000e+00 -2.03103218e+01
0.00000000e+00 0.00000000e+00 -2.88405800e+01
0.00000000e+00 0.00000000e+00 -2.38737755e+01
0.00000000e+00 0.00000000e+00 -1.82370415e+01
0.00000000e+00 0.00000000e+00 -1.80830078e+01
0.00000000e+00 0.00000000e+00 -1.18859882e+01
0.00000000e+00 0.00000000e+00 -1.95472507e+01
2.33609095e-01 0.00000000e+00 -1.11822701e+01
0.00000000e+00 0.00000000e+00 -2.18616180e+01
0.00000000e+00 0.00000000e+00 -1.70418110e+01
0.00000000e+00 0.00000000e+00 -6.55291033e+00
0.00000000e+00 0.00000000e+00 0.00000000e+00
0.00000000e+00 0.00000000e+00 -6.55397081e+00
0.00000000e+00 0.00000000e+00 0.00000000e+00
0.00000000e+00 0.00000000e+00 -3.29631805e+00
0.00000000e+00 0.00000000e+00 0.00000000e+00
0.00000000e+00 0.00000000e+00 -5.17864132e+00
0.00000000e+00 0.00000000e+00 -7.66095209e+00
0.00000000e+00 0.00000000e+00 0.00000000e+00
0.00000000e+00 0.00000000e+00 5.35481739e+00
0.00000000e+00 0.00000000e+00 0.00000000e+00
0.00000000e+00 0.00000000e+00 3.61388755e+00
0.00000000e+00 0.00000000e+00 0.00000000e+00
0.00000000e+00 0.00000000e+00 2.11722445e+00
1.49857700e+00 0.00000000e+00 -1.23815575e+01
0.00000000e+00 0.00000000e+00 -1.10528708e+01
0.00000000e+00 0.00000000e+00 -2.69402218e+01
2.07445908e+00 0.00000000e+00 -2.00690327e+01
0.00000000e+00 0.00000000e+00 2.25981164e+00
0.00000000e+00 0.00000000e+00 -4.32314634e+00
0.00000000e+00 0.00000000e+00 -8.81159961e-01
0.00000000e+00 0.00000000e+00 -1.59708481e+01
-7.25760311e-02 0.00000000e+00 -7.65430355e+00
0.00000000e+00 0.00000000e+00 -1.43312798e+01
0.00000000e+00 0.00000000e+00 -1.51514149e+01
0.00000000e+00 0.00000000e+00 -1.14105339e+01
0.00000000e+00 0.00000000e+00 -1.18549061e+01
0.00000000e+00 0.00000000e+00 -5.22793007e+00
0.00000000e+00 0.00000000e+00 1.24656403e+00
0.00000000e+00 0.00000000e+00 -3.05475205e-01
</DataArray>
<DataArray type="Float32" Name="Equivalent_plastic_strain" format="ascii">
3.15267252e-03
4.05164293e-03
5.18370490e-03
3.15680983e-03
2.72835357e-03
5.57630722e-03
1.06063267e-02
5.94075071e-03
4.50943940e-03
1.01536235e-02
1.49865430e-02
1.82578452e-02
0.00000000e+00
0.00000000e+00
0.00000000e+00
0.00000000e+00
0.00000000e+00
0.00000000e+00
0.00000000e+00
0.00000000e+00
8.81300261e-03
8.64702370e-03
8.81703466e-03
8.83940025e-03
1.00608366e-02
9.97136813e-03
1.04905133e-02
1.08188726e-02
8.36182048e-03
8.88623990e-03
9.22533195e-03
1.00427138e-02
8.09389562e-03
9.29717452e-03
8.28746893e-03
9.09524213e-03
7.45648879e-03
1.00908063e-02
7.33730569e-03
7.47958117e-03
6.31293748e-03
8.98913259e-03
5.78941184e-03
6.92567957e-03
5.33982832e-03
7.59115233e-03
4.79234988e-03
6.08319335e-03
8.77641409e-03
8.07775196e-03
1.24988861e-02
1.15288410e-02
9.94761501e-03
1.12369416e-02
1.47871416e-02
8.92342022e-03
1.44314549e-02
9.34549756e-03
1.24784140e-02
1.01201073e-02
1.07255261e-02
9.70429881e-03
8.14818744e-03
5.55773103e-03
1.14298513e-02
9.21327935e-03
1.51220150e-02
1.52237540e-02
1.38859404e-02
3.93544999e-03
4.16212519e-03
3.84656998e-03
6.92263773e-03
6.18684484e-03
3.08096129e-03
1.08946290e-02
9.71302844e-03
6.46536768e-03
1.76708745e-02
1.55345062e-02
4.71718900e-03
1.20123760e-02
1.23813273e-02
1.68815469e-02
1.78631938e-02
1.48095408e-02
1.20765707e-02
1.17811328e-02
1.23374892e-02
1.28797241e-02
1.09266841e-02
1.08618437e-02
9.52213444e-03
9.04891803e-03
8.08807102e-03
7.31491920e-03
7.18910550e-03
6.41850731e-03
6.94096531e-03
6.41214859e-03
1.49435434e-02
1.62585834e-02
1.10545435e-02
6.32471754e-03
4.50801254e-03
4.42302338e-03
4.50660568e-03
1.65903646e-02
1.88791854e-02
1.06619957e-02
3.90994215e-03
5.57966670e-03
-3.03457596e-04
1.92995109e-02
1.95909906e-02
1.71817336e-02
2.28722918e-02
2.24620863e-02
2.13346398e-02
2.11407980e-02
2.03179703e-02
1.82770006e-02
7.76879967e-03
8.90158990e-03
-5.37103624e-04
4.39186441e-03
1.86205452e-03
6.14524412e-04
0.00000000e+00
0.00000000e+00
0.00000000e+00
0.00000000e+00
-3.31755907e-05
0.00000000e+00
0.00000000e+00
1.36431433e-05
1.29777342e-02
1.23887206e-02
1.34007158e-02
1.39581105e-02
1.13206198e-02
1.15238409e-02
1.01161147e-02
9.13776178e-03
8.87007033e-03
7.63775362e-03
8.44963221e-03
6.86048332e-03
8.91339313e-03
7.15128682e-03
1.55056964e-02
1.86098851e-02
1.05454351e-02
6.20978733e-03
3.09674622e-03
1.59052177e-03
1.59860105e-03
2.47107726e-02
2.91397572e-02
8.47243300e-03
1.24677923e-03
-1.47963357e-04
2.22411752e-04
-1.70861445e-04
3.62431188e-04
-2.40678200e-05
3.84456699e-03
-1.08149243e-03
7.76744634e-03
6.45559073e-05
8.33731804e-05
-4.60121939e-06
-1.80527149e-06
1.28250645e-06
-6.18704917e-06
4.01904322e-02
4.18158509e-02
2.68741685e-02
3.14333281e-02
-2.64929026e-05
-9.97077041e-06
0.00000000e+00
2.48388257e-02
2.59507075e-02
1.66970529e-02
1.80699057e-02
4.42518876e-03
5.20331366e-03
5.01716524e-04
4.93720981e-05
0.00000000e+00
</DataArray>
<DataArray type="Float32" Name="Stress_Mises" format="ascii">
2.84516530e+01
2.94709371e+01
3.17804606e+01
2.99826121e+01
2.18529689e+01
2.71715961e+01
3.51528749e+01
3.20591474e+01
3.12253587e+01
4.82670078e+01
5.77273394e+01
5.72816525e+01
1.54336023e+00
2.23745960e+00
1.44653213e+00
1.91128379e+00
8.16720307e-01
9.93004918e-01
9.83392894e-01
8.97471130e-01
2.93411798e+01
2.95073962e+01
2.96285973e+01
2.99355268e+01
3.00706558e+01
3.06085601e+01
3.04259722e+01
3.11400790e+01
2.92847080e+01
2.97008462e+01
3.00893617e+01
3.14119165e+01
2.87918148e+01
3.00782247e+01
2.94890985e+01
3.16610532e+01
2.75554695e+01
3.22672627e+01
2.92638764e+01
2.83285427e+01
2.58617892e+01
2.97683575e+01
2.72458181e+01
2.89871817e+01
2.40798407e+01
2.57675920e+01
2.54635983e+01
2.70547795e+01
2.94417949e+01
2.82768002e+01
3.42722020e+01
3.13910866e+01
3.32257276e+01
3.13030446e+01
5.07028160e+01
3.11069142e+01
4.44332123e+01
4.00474991e+01
3.72908735e+01
3.98677702e+01
3.13452349e+01
3.88312206e+01
3.37010523e+01
2.39603853e+01
2.98134319e+01
2.67802563e+01
6.15516977e+01
4.37659409e+01
5.72128868e+01
3.22595088e+01
2.73110041e+01
2.49392042e+01
2.19612230e+01
1.68407425e+01
2.48595667e+01
3.03574189e+01
2.56718664e+01
4.19345913e+01
6.67956161e+01
4.21393826e+01
3.11092434e+01
2.68054676e+01
3.38507481e+01
3.84226551e+01
5.57039916e+01
4.07560590e+01
3.18494835e+01
3.21771045e+01
3.17620811e+01
3.18329988e+01
3.26942315e+01
3.16214991e+01
3.18766780e+01
3.15541561e+01
3.03932199e+01
2.99925866e+01
2.90928459e+01
2.92143416e+01
2.86619005e+01
3.02487888e+01
3.34064717e+01
3.45902629e+01
2.99079729e+01
2.56806738e+01
2.69918227e+01
3.10382690e+01
3.40702012e+01
3.80595942e+01
4.69987119e+01
2.96223297e+01
2.53621583e+01
4.94843712e+01
2.32269741e+01
3.65420113e+01
3.29753901e+01
6.64557037e+01
3.70010177e+01
3.16517012e+01
3.37035837e+01
3.03557625e+01
4.40624361e+01
3.53646555e+01
2.73415370e+01
2.96917887e+01
2.67047634e+01
3.02771358e+01
3.08993483e+01
2.71277161e+01
3.42320704e+00
1.26974964e+00
3.47621274e+00
4.64289427e+00
1.17421205e+01
6.03660647e+00
5.38355875e+00
1.68700074e+01
3.23173332e+01
3.20343266e+01
3.35393052e+01
3.28761396e+01
3.24111099e+01
3.31253176e+01
3.26871758e+01
3.12512412e+01
3.19229279e+01
3.10173783e+01
3.12784624e+01
3.09601798e+01
3.27242470e+01
3.32056494e+01
3.09148259e+01
3.55048676e+01
2.87962632e+01
2.77669201e+01
2.31892929e+01
2.30648322e+01
2.80600452e+01
6.24695206e+01
6.75564575e+01
2.89865630e+01
1.91205046e+01
1.94940000e+01
2.67617831e+01
2.02017620e+01
3.40027189e+01
3.30208673e+01
3.54804487e+01
1.79470909e+01
4.46847954e+01
2.55694167e+01
1.88798126e+01
1.73566029e+01
1.03776736e+01
1.96876602e+01
2.35989242e+01
6.77242737e+01
7.49218979e+01
3.30784429e+01
4.28882599e+01
9.47987628e+00
2.62418957e+01
9.20214820e+00
3.59497976e+01
3.24076767e+01
2.97557640e+01
3.54243565e+01
2.09058797e+01
2.40231345e+01
3.02208853e+01
2.08728380e+01
5.99421406e+00
</DataArray>
<DataArray type="Float32" Name="Stress_Max_Principal" format="ascii">
4.71263352e+00
4.77146946e+00
1.83493909e+00
2.71772295e+00
1.19747707e+01
1.15314678e+01
2.28891852e+00
3.28735304e+00
4.56551893e+00
-1.31069760e+01
-1.34218679e+01
-1.40925038e+01
7.51342565e-01
1.30918533e+00
5.17109305e-01
1.10885614e+00
5.85690677e-01
7.05369055e-01
6.61454678e-01
6.56628132e-01
9.54657331e-01
1.09841892e+00
2.27397346e+00
1.03111948e+00
2.30239278e+00
1.54308609e+00
1.34943422e+00
7.68626720e-01
3.10014322e+00
3.41702555e+00
1.68095845e+00
3.40674281e-01
4.39514822e+00
3.44157194e+00
2.21844501e+00
5.34922406e-02
5.52858075e+00
1.23865902e+00
2.48163423e+00
3.85046555e+00
5.90191507e+00
2.37893533e+00
3.86028008e+00
3.24213841e+00
7.86072922e+00
5.74658453e+00
6.79149485e+00
5.55608493e+00
4.52941197e+00
5.17559320e+00
-1.76043840e+00
1.61766679e-01
1.25701455e+00
7.00393319e-01
-1.33194362e+01
2.85285284e+00
-1.00904356e+01
-2.95576357e+00
-5.20864177e+00
-6.42753053e+00
-7.24948704e-01
-5.73087609e+00
2.67394089e+00
9.62366122e+00
3.39915568e+00
4.84745786e+00
-1.62892628e+01
-6.20593228e+00
5.95955515e+00
3.12410641e+01
6.30051141e+00
8.33478928e+00
1.41132393e+01
1.44659246e+01
8.41923892e+00
3.78330887e+00
8.04453957e+00
-1.50843394e+00
-2.44982796e+01
-5.83493781e+00
3.28134598e+00
6.72987050e+00
1.42595565e+00
-1.46900627e+00
-1.18355686e+01
3.98515224e-01
2.04241532e+00
1.00598151e+00
1.72301886e+00
2.06150892e+00
-7.86376506e-01
1.37973273e+00
1.72194822e-01
1.44547787e+00
1.83187452e+00
2.68289377e+00
2.72315338e+00
3.02393456e+00
3.50761485e+00
2.92690641e+00
1.44639647e+00
2.71819234e-02
3.69591389e+00
7.24854359e+00
7.74295708e+00
6.55155456e+00
6.05522879e+00
-1.40842863e+00
-7.86561255e+00
5.89655737e+00
1.34788035e+01
1.23375225e+01
2.47011488e+01
-2.90601075e-01
3.09569023e+00
-1.71474142e+01
-2.87144113e+00
5.41784167e-01
-2.92930275e-01
1.94717884e-01
-8.78983641e+00
9.48735595e-01
1.48089324e+01
9.22790286e+00
4.70546379e+01
2.31779442e+01
2.16244318e+01
2.50855719e+01
1.96368659e+00
4.72288668e-01
1.73582053e+00
2.73179579e+00
8.59447049e+00
8.05943330e-01
1.49450687e+00
7.75284982e+00
1.76629603e+00
1.01477832e+00
1.16127479e+00
2.13557571e+00
-5.36319725e-01
4.81211782e-01
6.84149057e-01
2.39799416e+00
2.29588163e+00
3.33579442e+00
2.18373966e+00
3.09311014e+00
2.12588763e+00
2.47401819e+00
4.52830416e+00
-4.95978594e-01
6.35663739e+00
7.06135981e+00
1.10860090e+01
1.37433285e+01
1.36944790e+01
-2.39722385e+01
-2.99367714e+01
6.58895991e+00
1.97847412e+01
1.96454251e+01
1.82154791e+01
1.41538508e+01
1.33381195e+01
1.41544423e+01
1.40272551e+01
2.96125116e+01
-5.86761808e+00
2.12385632e+01
1.62738320e+01
1.24365752e+01
8.00175617e+00
7.23257065e+00
7.34013808e+00
-2.87329521e+01
-3.57173767e+01
6.49862329e-01
-7.78686714e+00
6.98902661e+00
2.07914626e+01
2.84791410e+00
-2.76866913e-01
1.09942727e-01
2.60313463e+00
6.31257772e-01
1.80209107e+01
1.68253007e+01
1.86699262e+01
8.94972134e+00
4.93441731e-01
</DataArray>
<DataArray type="Float32" Name="Stress_Mid_Principal" format="ascii">
-1.31409522e+00
-3.04758299e+00
-2.79872179e+00
-4.94073212e-01
7.64276911e+00
5.68044349e+00
-8.65730315e+00
-3.81397702e+00
-1.38223994e+00
-1.46063614e+01
-2.40092901e+01
-2.80060515e+01
-7.95302093e-02
-4.82134506e-01
1.95101680e-01
-4.38698396e-01
2.25353870e-03
-4.42684591e-02
5.18362597e-02
-6.97055981e-02
4.21126693e-01
-1.85797364e-03
-1.24410191e+00
-5.70389371e-01
-2.38140267e+00
-2.58861822e+00
-1.84001258e+00
-2.62413508e+00
-1.54038012e+00
-2.48086855e+00
-1.67197735e+00
-2.21121713e+00
-2.33516660e+00
-2.94783863e+00
-1.08335593e+00
-2.13335092e+00
-1.23442572e+00
-4.68558972e+00
-8.66443396e-01
-1.72932930e-01
1.63453619e+00
-1.63778982e+00
1.51590917e+00
-8.76599021e-01
2.65022331e+00
1.89301318e+00
1.70955747e+00
2.92112943e-01
-3.12666329e+00
-1.77910302e+00
-4.66165431e+00
-1.76436430e+00
-1.69403344e+00
-1.89001445e+00
-1.75562618e+01
-2.16925173e+00
-1.38067135e+01
-8.04520395e+00
-6.81104434e+00
-9.37713563e+00
-1.08007926e+00
-8.30197001e+00
-6.86483923e+00
1.90534535e+00
-1.31208611e+00
3.39566342e+00
-2.74073429e+01
-1.45683690e+01
-1.89633942e+01
1.63290572e+01
1.22013589e+00
8.54111895e-01
7.75865996e+00
1.10076337e+01
2.72727633e+00
-2.64100026e+00
7.24988133e-01
-8.84017396e+00
-3.32765169e+01
-1.11773685e+01
-3.03457260e+00
1.92988229e+00
-6.12001017e+00
-1.03910389e+01
-2.08486325e+01
-1.18187214e+01
-5.60341930e+00
-4.93357199e+00
-4.83667426e+00
-5.41718614e+00
-3.77349749e+00
-4.25838105e+00
-3.21754664e+00
-3.95999911e+00
-2.25460143e+00
-2.16748763e+00
-9.18443984e-01
-6.89493811e-01
-7.33128875e-01
-1.79866230e+00
-6.66465096e+00
-7.63599086e+00
-3.00062054e+00
6.55735362e-01
6.13176503e-01
-2.87955062e+00
-7.28137779e+00
-1.08870953e+01
-2.03536221e+01
-2.26505520e+00
1.08887619e+00
-8.97958374e+00
8.29160656e+00
-8.12323584e+00
-5.94329810e+00
-3.40069170e+01
-7.03987346e+00
-2.41655278e+00
-5.09348351e+00
-4.35802460e-01
-1.30852942e+01
-7.76857557e+00
3.76736712e+00
-5.40908933e-01
2.68775196e+01
2.09298849e+00
-6.75628594e+00
7.29264204e+00
-9.79693294e-01
-2.87613511e-01
-2.66550660e-01
-1.11533773e+00
-9.10234308e-01
-4.09997875e-02
-3.58291060e-01
3.14020606e+00
-6.17944002e+00
-4.68108273e+00
-7.66595376e+00
-7.66801310e+00
-3.60744417e+00
-6.06757772e+00
-5.49721134e+00
-4.75816233e+00
-5.88774824e+00
-4.87300462e+00
-4.46890318e+00
-3.64163053e+00
-6.88486147e+00
-6.51701379e+00
-5.69648147e+00
-8.93351495e+00
-4.51571107e+00
-2.55979025e+00
3.47799407e+00
4.17940718e+00
-1.43857646e+00
-2.89543571e+01
-3.33051949e+01
-2.34641472e+00
1.03413436e+01
7.63032717e+00
-3.63498229e+00
3.62602046e+00
1.15137911e+00
4.14450467e+00
-8.69928932e+00
1.72713614e+01
-1.13785200e+01
6.12395159e+00
6.62091517e+00
1.33041894e+00
2.40966633e+00
3.14703339e+00
5.88131708e+00
-3.51614075e+01
-4.02089920e+01
-5.31191146e+00
-1.40560956e+01
1.29171097e+00
4.28854656e+00
-2.02575707e+00
-9.75087851e+00
-4.15811110e+00
2.16677666e-01
-8.85158841e+00
8.74268961e+00
2.63354921e+00
2.66918546e+00
4.68508369e+00
-5.85885167e-01
</DataArray>
<DataArray type="Float32" Name="Stress_Min_Principal" format="ascii">
-2.62560978e+01
-2.76855049e+01
-3.19816909e+01
-2.86214762e+01
-1.15683277e+01
-1.77315130e+01
-3.69843473e+01
-3.12382812e+01
-2.91875064e+01
-6.21050663e+01
-7.55746994e+01
-7.70489445e+01
-1.02287748e+00
-1.17812914e+00
-1.06327549e+00
-1.02124742e+00
-3.47692043e-01
-4.20842648e-01
-4.73014534e-01
-3.46682429e-01
-2.86496487e+01
-2.89415064e+01
-2.88962827e+01
-2.96575823e+01
-2.98347521e+01
-3.09164824e+01
-3.05254428e+01
-3.19024458e+01
-2.82231236e+01
-2.87622445e+01
-2.99425597e+01
-3.22518604e+01
-2.71467743e+01
-2.92614204e+01
-2.87647376e+01
-3.26189256e+01
-2.47717967e+01
-3.35521917e+01
-2.83039060e+01
-2.62627451e+01
-2.18068652e+01
-2.91765133e+01
-2.44463630e+01
-2.75766969e+01
-1.83909693e+01
-2.17117938e+01
-2.08215322e+01
-2.37257614e+01
-2.79131260e+01
-2.59192972e+01
-3.73841012e+01
-3.21472921e+01
-3.33426613e+01
-3.17904329e+01
-6.59328705e+01
-3.03427149e+01
-5.62624683e+01
-4.52444149e+01
-4.32746048e+01
-4.76790533e+01
-3.22460651e+01
-4.57803040e+01
-3.45332238e+01
-1.72225727e+01
-2.83990065e+01
-2.26266580e+01
-8.25370693e+01
-5.34788551e+01
-5.94872894e+01
-3.60315704e+00
-2.30375799e+01
-1.92341638e+01
-1.00674404e+01
-3.71140885e+00
-1.86777182e+01
-2.91328418e+01
-2.03107998e+01
-4.62614727e+01
-9.51584511e+01
-5.02652485e+01
-3.05012169e+01
-2.19616133e+01
-3.55422926e+01
-4.35008502e+01
-7.14353110e+01
-4.50277036e+01
-3.29323807e+01
-3.37090292e+01
-3.27971110e+01
-3.28390646e+01
-3.48669462e+01
-3.26608021e+01
-3.32420616e+01
-3.24487321e+01
-3.03875041e+01
-2.94110618e+01
-2.80120721e+01
-2.78316593e+01
-2.70364075e+01
-2.93616982e+01
-3.52067837e+01
-3.76790428e+01
-2.89204086e+01
-2.10342584e+01
-2.20351650e+01
-2.79362551e+01
-3.22368387e+01
-4.32414490e+01
-5.89916751e+01
-2.66517280e+01
-1.52712906e+01
-4.42327843e+01
-1.29696417e+00
-3.96411943e+01
-3.28160477e+01
-9.03903122e+01
-4.16717434e+01
-3.24598780e+01
-3.61184840e+01
-3.04712863e+01
-5.47500631e+01
-3.79434452e+01
-1.60407319e+01
-2.38356076e+01
1.67718391e+01
-1.15155897e+01
-1.12658198e+01
-5.87587611e+00
-1.79289544e+00
-9.93561029e-01
-2.27816057e+00
-2.42536664e+00
-4.01850525e+00
-5.55078789e+00
-4.57041895e+00
-1.08295031e+01
-3.37828140e+01
-3.34749498e+01
-3.58376026e+01
-3.45263262e+01
-3.43727932e+01
-3.53285003e+01
-3.46228743e+01
-3.17777290e+01
-3.29221668e+01
-3.08969755e+01
-3.18849821e+01
-3.05121861e+01
-3.41596909e+01
-3.41893721e+01
-3.01233298e+01
-3.91745977e+01
-2.62610164e+01
-2.41782169e+01
-1.45700173e+01
-1.17879432e+01
-1.82231009e+01
-8.87575264e+01
-9.91144257e+01
-2.57490658e+01
-2.06704731e+00
-2.82598069e+00
-1.14380233e+01
-8.49789442e+00
-2.44831610e+01
-2.22587814e+01
-2.62935333e+01
9.05359697e+00
-5.30522652e+01
-8.07391103e+00
-3.89972798e+00
-7.14658988e+00
-3.83475280e+00
-1.41749668e+01
-1.69004183e+01
-9.94422455e+01
-1.12784035e+02
-3.49839802e+01
-5.33968983e+01
-3.73016483e+00
-8.80183760e+00
-7.59631038e+00
-3.99401007e+01
-3.42202835e+01
-2.81685786e+01
-3.85604868e+01
-5.76779747e+00
-1.06110287e+01
-1.61871753e+01
-1.35862908e+01
-5.96710777e+00
</DataArray>
<DataArray type="Float32" Name="Stress_Pressure" format="ascii">
7.61918664e+00
8.65387291e+00
1.09818244e+01
8.79927540e+00
-2.68307082e+00
1.73200607e-01
1.44509107e+01
1.05883019e+01
8.66807532e+00
2.99394684e+01
3.76686185e+01
3.97158318e+01
1.17021691e-01
1.17026083e-01
1.17021501e-01
1.17029894e-01
-8.00840631e-02
-8.00859854e-02
-8.00921321e-02
-8.00800249e-02
9.09128809e+00
9.28164876e+00
9.28880364e+00
9.73228407e+00
9.97125435e+00
1.06540048e+01
1.03386737e+01
1.12526518e+01
8.88778675e+00
9.27536237e+00
9.97785974e+00
1.13741344e+01
8.36226428e+00
9.58922893e+00
9.20988274e+00
1.15662613e+01
6.82588080e+00
1.23330408e+01
8.89623833e+00
7.52840440e+00
4.75680473e+00
9.47845602e+00
6.35672465e+00
8.40371925e+00
2.62667227e+00
4.69073224e+00
4.10682690e+00
5.95918803e+00
8.83679241e+00
7.50760221e+00
1.46020645e+01
1.12499633e+01
1.12598931e+01
1.09933511e+01
3.22695221e+01
9.88637117e+00
2.67198725e+01
1.87484606e+01
1.84314299e+01
2.11612401e+01
1.13503647e+01
1.99377170e+01
1.29080405e+01
1.89785522e+00
8.77064532e+00
4.79451231e+00
4.20778923e+01
2.47510519e+01
2.41637096e+01
-1.46556551e+01
5.17231085e+00
3.34842102e+00
-3.93481906e+00
-7.25405002e+00
2.51040092e+00
9.33017772e+00
3.84709084e+00
1.88700269e+01
5.09777489e+01
2.24258512e+01
1.00848145e+01
4.43395376e+00
1.34121153e+01
1.84536319e+01
3.47065046e+01
1.88159695e+01
1.21644616e+01
1.25455399e+01
1.19702556e+01
1.20649141e+01
1.31422732e+01
1.18464833e+01
1.20958045e+01
1.16544179e+01
1.02700770e+01
9.63188529e+00
8.73578775e+00
8.49907282e+00
8.08730721e+00
9.41115117e+00
1.34750128e+01
1.50959507e+01
9.40837172e+00
4.37665975e+00
4.55967712e+00
8.08808359e+00
1.11543290e+01
1.85123241e+01
2.90703036e+01
7.67340877e+00
2.34537005e-01
1.36249475e+01
-1.05652641e+01
1.60183437e+01
1.18878854e+01
4.71815472e+01
1.71943528e+01
1.14448822e+01
1.38349662e+01
1.02374569e+01
2.55417312e+01
1.49210944e+01
-8.45189333e-01
5.04953825e+00
-3.02346649e+01
-4.58511400e+00
-1.20077546e+00
-8.83411249e+00
2.69634038e-01
2.69628644e-01
2.69630253e-01
2.69636214e-01
-1.22191023e+00
1.59528145e+00
1.14473431e+00
-2.11843550e-02
1.27319860e+01
1.23804183e+01
1.41140938e+01
1.33529215e+01
1.28388524e+01
1.36382885e+01
1.31453128e+01
1.13792986e+01
1.21713443e+01
1.08113952e+01
1.13900485e+01
1.03535688e+01
1.29728880e+01
1.27441230e+01
1.04305028e+01
1.62013628e+01
8.14002997e+00
6.55888234e+00
2.00471282e-03
-2.04493070e+00
1.98906612e+00
4.72280407e+01
5.41187973e+01
7.16884009e+00
-9.35301265e+00
-8.14992374e+00
-1.04749122e+00
-3.09399233e+00
3.33122063e+00
1.31994516e+00
6.98852289e+00
-1.86458240e+01
2.34328003e+01
-6.42953475e+00
-6.33167330e+00
-2.20680137e+00
-2.19222320e+00
1.26512090e+00
1.22632106e+00
5.44455338e+01
6.29034653e+01
1.32153432e+01
2.50799541e+01
-1.51685768e+00
-5.42605706e+00
2.25805104e+00
1.66559482e+01
1.27561502e+01
8.44958830e+00
1.55936060e+01
-6.99860096e+00
-2.94927359e+00
-1.71731236e+00
-1.61714554e-02
2.01985049e+00
</DataArray>
<DataArray type="Float32" Name="Stress_Tresca" format="ascii">
3.09687307e+01
3.24569743e+01
3.38166306e+01
3.13391986e+01
2.35430981e+01
2.92629807e+01
3.92732663e+01
3.45256343e+01
3.37530253e+01
4.89980888e+01
6.21528295e+01
6.29564419e+01
1.77421999e+00
2.48731446e+00
1.58038485e+00
2.13010347e+00
9.33382750e-01
1.12621164e+00
1.13446927e+00
1.00331056e+00
2.96043062e+01
3.00399251e+01
3.11702564e+01
3.06887016e+01
3.21371441e+01
3.24595680e+01
3.18748772e+01
3.26710725e+01
3.13232670e+01
3.21792696e+01
3.16235180e+01
3.25925350e+01
3.15419226e+01
3.27029929e+01
3.09831834e+01
3.26724169e+01
3.03003778e+01
3.47908502e+01
3.07855401e+01
3.01132104e+01
2.77087798e+01
3.15554485e+01
2.83066435e+01
3.08188355e+01
2.62516985e+01
2.74583783e+01
2.76130276e+01
2.92818465e+01
3.24425383e+01
3.10948906e+01
3.56236627e+01
3.23090587e+01
3.45996756e+01
3.24908264e+01
5.26134346e+01
3.31955673e+01
4.61720333e+01
4.22886513e+01
3.80659637e+01
4.12515230e+01
3.15211163e+01
4.00494289e+01
3.72071645e+01
2.68462343e+01
3.17981622e+01
2.74741158e+01
6.62478046e+01
4.72729225e+01
6.54468460e+01
3.48442218e+01
2.93380914e+01
2.75689535e+01
2.41806793e+01
1.81773338e+01
2.70969577e+01
3.29161510e+01
2.83553391e+01
4.47530403e+01
7.06601715e+01
4.44303101e+01
3.37825632e+01
2.86914840e+01
3.69682474e+01
4.20318437e+01
5.95997429e+01
4.54262187e+01
3.49747963e+01
3.47150106e+01
3.45201299e+01
3.49005737e+01
3.40805693e+01
3.40405343e+01
3.34142561e+01
3.38942103e+01
3.22193780e+01
3.20939558e+01
3.07352252e+01
3.08555934e+01
3.05440226e+01
3.22886047e+01
3.66531802e+01
3.77062254e+01
3.26163224e+01
2.82828023e+01
2.97781217e+01
3.44878095e+01
3.82920672e+01
4.18330212e+01
5.11260630e+01
3.25482858e+01
2.87500941e+01
5.65703049e+01
2.59981125e+01
3.93505945e+01
3.59117381e+01
7.32428970e+01
3.88003019e+01
3.30016623e+01
3.58255534e+01
3.06660042e+01
4.59602261e+01
3.88921800e+01
3.08496637e+01
3.30635104e+01
3.02827988e+01
3.46935349e+01
3.28902521e+01
3.09614480e+01
3.75658202e+00
1.46584964e+00
4.01398087e+00
5.15716267e+00
1.26129757e+01
6.35673102e+00
6.06492567e+00
1.85823536e+01
3.55491104e+01
3.44897270e+01
3.69988775e+01
3.66619034e+01
3.38364735e+01
3.58097124e+01
3.53070240e+01
3.41757231e+01
3.52180500e+01
3.42327700e+01
3.40687218e+01
3.36052957e+01
3.62855797e+01
3.66633892e+01
3.46516342e+01
3.86786194e+01
3.26176538e+01
3.12395768e+01
2.56560264e+01
2.55312715e+01
3.19175806e+01
6.47852898e+01
6.91776581e+01
3.23380254e+01
2.18517883e+01
2.24714060e+01
2.96535025e+01
2.26517453e+01
3.78212814e+01
3.64132233e+01
4.03207893e+01
2.05589142e+01
4.71846466e+01
2.93124739e+01
2.01735601e+01
1.95831647e+01
1.18365091e+01
2.14075375e+01
2.42405567e+01
7.07092896e+01
7.70666580e+01
3.56338437e+01
4.56100311e+01
1.07191913e+01
2.95932999e+01
1.04442246e+01
3.96632347e+01
3.43302269e+01
3.07717128e+01
3.91917439e+01
2.37887077e+01
2.74363298e+01
3.48571005e+01
2.25360122e+01
6.46054935e+00
</DataArray>
<DataArray type="Float32" Name="Stress_Third_Invariant" format="ascii">
-2.69102101e+01
-2.63660501e+01
-3.09211159e+01
-2.92048259e+01
-1.97076295e+01
-2.27523174e+01
-3.07195415e+01
-2.71201448e+01
-2.98465319e+01
-4.82111378e+01
-5.49808248e+01
-5.32758350e+01
-1.02237374e-01
1.89744520e+00
-1.36228633e+00
1.67204773e+00
6.10245168e-01
8.07140529e-01
4.96858627e-01
7.92395294e-01
-2.93302574e+01
-2.94544911e+01
-2.89590878e+01
-2.97920852e+01
-2.92311649e+01
-2.99554706e+01
-2.99832203e+01
-3.06368771e+01
-2.84243798e+01
-2.82364655e+01
-2.96588020e+01
-3.11234832e+01
-2.68635893e+01
-2.82859981e+01
-2.90125308e+01
-3.14128485e+01
-2.55592113e+01
-3.09104381e+01
-2.88017921e+01
-2.76356673e+01
-2.49794626e+01
-2.90925698e+01
-2.69070621e+01
-2.82932570e+01
-2.27342339e+01
-2.50449476e+01
-2.42535181e+01
-2.58004084e+01
-2.67587693e+01
-2.62065134e+01
-3.39728763e+01
-3.12554641e+01
-3.29191557e+01
-3.09774880e+01
-5.00657990e+01
-2.97577071e+01
-4.40734863e+01
-3.91163960e+01
-3.72124386e+01
-3.95931644e+01
-3.13401861e+01
-3.86285038e+01
-2.90616951e+01
-2.07557464e+01
-2.86525472e+01
-2.66838856e+01
-5.88673353e+01
-4.16525131e+01
-4.21156349e+01
-1.26166566e+01
-2.56618990e+01
-2.09179940e+01
-1.82227355e+01
-1.55660825e+01
-2.28613710e+01
-2.82162041e+01
-2.22849064e+01
-3.90880961e+01
-6.51863022e+01
-4.09545902e+01
-2.96147194e+01
-2.38010132e+01
-3.18064280e+01
-3.57359023e+01
-5.38194561e+01
-3.60859769e+01
-2.96708574e+01
-3.08451171e+01
-3.01460006e+01
-2.97360573e+01
-3.23704677e+01
-3.03896148e+01
-3.13989120e+01
-3.04413769e+01
-2.97324772e+01
-2.89956861e+01
-2.85510721e+01
-2.85539777e+01
-2.79365072e+01
-2.92521076e+01
-3.06539255e+01
-3.23290391e+01
-2.78438135e+01
-2.34522089e+01
-2.44430820e+01
-2.66334594e+01
-2.32908703e+01
-3.49561783e+01
-3.49986534e+01
-2.45266963e+01
-1.00328252e+01
-3.67996712e+01
8.19051952e+00
-3.27240839e+01
-1.99584119e+01
-6.12870369e+01
-3.59671311e+01
-3.12592866e+01
-3.28537645e+01
-3.03407040e+01
-4.32928076e+01
-3.27512579e+01
-1.51630044e+01
-2.00988522e+01
2.17314415e+01
2.15955715e+01
3.00932226e+01
5.19328531e+00
3.19485617e+00
5.07105649e-01
-5.51197112e-01
4.19589520e+00
6.90229559e+00
-5.66508071e+00
-4.57719541e+00
-1.48765372e+01
-2.99992104e+01
-3.08283472e+01
-3.04628620e+01
-2.93028297e+01
-3.20785513e+01
-3.12563396e+01
-3.12291059e+01
-2.91994514e+01
-2.94206829e+01
-2.81466660e+01
-2.96201191e+01
-2.86070890e+01
-2.97353058e+01
-2.97970524e+01
-2.62829442e+01
-3.20557451e+01
-2.32400415e+01
-2.31672387e+01
-1.37583449e+01
-6.09554935e+00
-5.07600784e+00
-6.19397335e+01
-6.73671417e+01
-2.52704579e+01
-6.05494130e+00
5.26377749e+00
2.33704181e+01
-6.37574744e+00
-2.38086023e+01
-2.71290789e+01
7.59840965e+00
1.22766707e+01
-4.39104996e+01
-3.28872840e+00
1.35284440e+00
2.80971229e+00
-4.62007523e-02
-1.86894646e+01
-2.33296561e+01
-6.70326996e+01
-7.46180649e+01
-3.17677383e+01
-4.16158943e+01
2.68408775e+00
9.51549212e-01
-2.23920226e+00
-3.26611223e+01
-3.17661419e+01
-2.91930938e+01
-3.23416185e+01
-1.25127679e+01
-6.66963387e+00
-1.57410617e+01
-1.92906141e+01
-5.76948309e+00
</DataArray>
<DataArray type="Float32" Name="Logarithmic_strain_Max_Principal" format="ascii">
2.61509122e-03
3.37933190e-03
3.95776721e-03
2.39367835e-03
2.52908227e-03
5.13533613e-03
9.62986390e-03
4.86967768e-03
3.59340332e-03
6.49998395e-03
1.23175291e-02
1.59102399e-02
1.95643543e-05
3.28272872e-05
1.36913877e-05
2.76543888e-05
1.31004381e-05
1.56907390e-05
1.48461995e-05
1.50821543e-05
5.47131733e-03
5.52729389e-03
6.24404364e-03
5.81826689e-03
7.49141653e-03
7.30334292e-03
7.32236786e-03
7.57280237e-03
6.24585454e-03
6.92563580e-03
6.58201799e-03
6.92604744e-03
6.59444917e-03
7.30822713e-03
5.89812675e-03
6.09558466e-03
6.12996414e-03
7.64349615e-03
5.23240957e-03
5.53278154e-03
4.79411986e-03
6.49212598e-03
4.04400652e-03
5.07735094e-03
4.37163236e-03
5.61043015e-03
3.84257932e-03
4.79224382e-03
7.25035486e-03
6.64488249e-03
8.58867267e-03
7.68993178e-03
7.21859626e-03
7.64717208e-03
1.05208101e-02
6.88406792e-03
9.77451447e-03
6.96651274e-03
8.01865698e-03
6.81417785e-03
6.71921275e-03
6.54521724e-03
6.97298404e-03
5.18644229e-03
8.89084954e-03
6.38414104e-03
1.20998267e-02
1.19835559e-02
1.83862541e-02
6.60550315e-03
3.52626124e-03
3.53480736e-03
5.76481184e-03
5.23928308e-03
2.67608883e-03
8.47141352e-03
8.06128455e-03
5.60323603e-03
1.24777150e-02
1.17886852e-02
3.90159420e-03
9.92447766e-03
9.58331954e-03
1.34230470e-02
1.40776712e-02
1.29225766e-02
9.67915356e-03
8.98610521e-03
9.58778290e-03
1.02928779e-02
7.47348485e-03
8.20037496e-03
6.58794772e-03
6.75978046e-03
5.85861504e-03
5.45895967e-03
5.11571881e-03
4.66007821e-03
5.02768066e-03
4.76925040e-03
1.20404024e-02
1.25175635e-02
8.95117142e-03
5.29682246e-03
3.94737504e-03
3.93128032e-03
4.08073414e-03
1.36585242e-02
1.49312395e-02
9.55969592e-03
4.37638024e-03
7.05043320e-03
1.91368845e-03
1.50587957e-02
1.56469593e-02
1.48709677e-02
1.55157514e-02
1.49947109e-02
1.53084279e-02
1.32929180e-02
1.43759137e-02
1.48111610e-02
8.25221231e-03
8.71137483e-03
7.36169983e-03
8.41533765e-03
3.91313637e-03
3.16924776e-03
5.06931792e-05
1.49359357e-05
4.45713049e-05
6.88872460e-05
1.81078735e-04
3.84149064e-05
4.95367949e-05
2.04673959e-04
1.04753189e-02
9.34926886e-03
1.10052621e-02
1.17516057e-02
7.75657641e-03
8.81479366e-03
7.60011422e-03
7.20459619e-03
7.22099817e-03
6.33926154e-03
6.54350896e-03
5.51538076e-03
7.25602731e-03
6.08050893e-03
1.32625278e-02
1.42165497e-02
9.73926694e-03
5.64097217e-03
3.04878861e-03
2.10338586e-03
2.30418850e-03
1.69145167e-02
1.84463877e-02
7.49020216e-03
1.84800642e-03
5.99547689e-04
8.12153077e-04
2.93250156e-04
8.23769689e-04
3.80940357e-04
5.30263467e-03
1.55265152e-03
5.71004953e-03
6.08796234e-04
4.33448149e-04
2.68789268e-04
1.61801287e-04
1.86613644e-04
1.91902087e-04
2.64094826e-02
2.81180777e-02
2.05013137e-02
2.23922497e-02
1.51540673e-04
8.42551371e-04
9.56342083e-05
2.00580871e-02
1.86172519e-02
1.18059036e-02
1.47871808e-02
5.18128683e-03
6.35780836e-03
1.42828259e-03
2.50081852e-04
3.53556970e-05
</DataArray>
<DataArray type="Float32" Name="Logarithmic_strain_Min_Principal" format="ascii">
-3.68780497e-03
-4.57887806e-03
-6.02383423e-03
-3.86154430e-03
-3.34665630e-03
-6.67956318e-03
-1.14919292e-02
-6.74975541e-03
-5.37068502e-03
-1.17105425e-02
-1.70774544e-02
-2.03979183e-02
-2.27141963e-05
-2.67399901e-05
-2.41716089e-05
-2.33341652e-05
-9.57932934e-06
-1.12980933e-05
-1.20094574e-05
-9.46766795e-06
-9.42585850e-03
-9.26515274e-03
-9.40609735e-03
-9.46900737e-03
-1.05700134e-02
-1.05084428e-02
-1.10973801e-02
-1.14130189e-02
-8.91799130e-03
-9.42277914e-03
-9.80865234e-03
-1.07476477e-02
-8.47183727e-03
-9.86607769e-03
-8.85639712e-03
-9.83482320e-03
-7.84338894e-03
-1.07381755e-02
-7.91262044e-03
-8.07903841e-03
-6.77875313e-03
-9.57748981e-03
-6.33914617e-03
-7.52388017e-03
-5.69678866e-03
-8.05589405e-03
-5.24096843e-03
-6.59500319e-03
-9.21074150e-03
-8.51905835e-03
-1.33745094e-02
-1.23127494e-02
-1.13567452e-02
-1.20418990e-02
-1.69286918e-02
-9.79831762e-03
-1.56049624e-02
-1.06729519e-02
-1.33705256e-02
-1.11301620e-02
-1.14424210e-02
-1.06693832e-02
-8.87728755e-03
-5.99120744e-03
-1.22071450e-02
-1.03039270e-02
-1.79384025e-02
-1.66804997e-02
-1.94980763e-02
-7.18375947e-03
-4.83146410e-03
-4.11416288e-03
-7.77656725e-03
-6.85815781e-03
-3.63220763e-03
-1.16896701e-02
-1.02001510e-02
-7.87610142e-03
-2.01686560e-02
-1.72483047e-02
-5.46709844e-03
-1.28082980e-02
-1.32658421e-02
-1.81303001e-02
-2.05147906e-02
-1.63430373e-02
-1.24079911e-02
-1.22492865e-02
-1.27955092e-02
-1.32367027e-02
-1.15849986e-02
-1.13764131e-02
-1.01699734e-02
-9.62772302e-03
-8.67692661e-03
-7.89860572e-03
-7.75118906e-03
-7.03770900e-03
-7.50826136e-03
-7.09295715e-03
-1.55445499e-02
-1.68208759e-02
-1.15357467e-02
-6.73971145e-03
-5.06212612e-03
-5.07304534e-03
-5.18867979e-03
-1.72998048e-02
-1.95501059e-02
-1.13190346e-02
-4.35852473e-03
-8.10374971e-03
-1.24825590e-03
-2.02540241e-02
-1.99412704e-02
-1.98677378e-02
-2.39982298e-02
-2.33176108e-02
-2.23120362e-02
-2.19203150e-02
-2.17096340e-02
-1.92759861e-02
-9.11067182e-03
-9.61595739e-03
-5.79116540e-03
-5.86776016e-03
-2.12475085e-03
-2.87829887e-03
-3.93126757e-05
-2.08188067e-05
-5.15804131e-05
-5.51780140e-05
-1.11239948e-04
-1.14291481e-04
-9.58814526e-05
-2.93922897e-04
-1.32690519e-02
-1.28699280e-02
-1.36420985e-02
-1.40850521e-02
-1.19611686e-02
-1.20080579e-02
-1.06566469e-02
-9.59809660e-03
-9.30384360e-03
-8.08450312e-03
-8.97048134e-03
-7.40710506e-03
-9.41123255e-03
-7.71312206e-03
-1.58159195e-02
-1.91573584e-02
-1.04926403e-02
-6.51028310e-03
-3.45703604e-03
-1.88517341e-03
-1.89746846e-03
-2.68966081e-02
-3.12816165e-02
-9.22373372e-03
-1.81206927e-03
-2.92918383e-04
-5.50120898e-04
-2.86182330e-04
-1.00742849e-03
-6.88735629e-04
-4.29384399e-03
-1.18502183e-03
-9.37807281e-03
-4.75557075e-04
-2.57040886e-04
-1.97759095e-04
-1.16498646e-04
-3.23118395e-04
-3.93494549e-04
-4.27027903e-02
-4.45022658e-02
-2.75053456e-02
-3.24654067e-02
-1.01784052e-04
-5.75168417e-04
-1.54945938e-04
-2.52032215e-02
-2.66547594e-02
-1.76573824e-02
-1.86887551e-02
-5.00610750e-03
-5.28931618e-03
-1.68280990e-03
-3.96180410e-04
-1.19296608e-04
</DataArray>
<DataArray type="Float32" Name="Plastic_strain_Max_Principal" format="ascii">
2.41135401e-03
3.16269795e-03
3.78024759e-03
2.22492867e-03
2.28303633e-03
4.87927949e-03
9.40576219e-03
4.68427618e-03
3.38295504e-03
6.50992931e-03
1.22726002e-02
1.57658211e-02
0.00000000e+00
0.00000000e+00
0.00000000e+00
0.00000000e+00
0.00000000e+00
0.00000000e+00
0.00000000e+00
0.00000000e+00
5.34009398e-03
5.38859109e-03
6.08131214e-03
5.67713077e-03
7.31540797e-03
7.13925110e-03
7.16368004e-03
7.41914462e-03
6.06427318e-03
6.73156342e-03
6.41998707e-03
6.78426051e-03
6.38887868e-03
7.10063108e-03
5.73148893e-03
5.95656526e-03
5.90998516e-03
7.46312254e-03
5.06709481e-03
5.34407981e-03
4.58849099e-03
6.31992659e-03
3.87362932e-03
4.89562802e-03
4.14504623e-03
5.41173131e-03
3.62795591e-03
4.58209892e-03
7.03039212e-03
6.43280335e-03
8.46888329e-03
7.55317055e-03
7.06565513e-03
7.50435772e-03
1.05018273e-02
6.70219911e-03
9.71615594e-03
6.82843402e-03
7.93934113e-03
6.72638521e-03
6.60754181e-03
6.45263982e-03
6.75721570e-03
4.92785219e-03
8.69041588e-03
6.21826365e-03
1.20216028e-02
1.18507324e-02
1.77140851e-02
6.06001494e-03
3.31202396e-03
3.29338119e-03
5.48275389e-03
4.97676042e-03
2.44546283e-03
8.28937015e-03
7.83237536e-03
5.41866943e-03
1.25620682e-02
1.16693834e-02
3.70392983e-03
9.67474817e-03
9.39045753e-03
1.32148713e-02
1.39815149e-02
1.26672129e-02
9.48344078e-03
8.81203101e-03
9.39970568e-03
1.00973141e-02
7.33695063e-03
8.02392216e-03
6.43996301e-03
6.58771826e-03
5.69237128e-03
5.27904893e-03
4.94749809e-03
4.48284941e-03
4.84857056e-03
4.58293350e-03
1.18486531e-02
1.23277868e-02
8.75824195e-03
5.06633276e-03
3.70464447e-03
3.67896856e-03
3.80293373e-03
1.34860316e-02
1.48332138e-02
9.31339028e-03
4.04621308e-03
6.54230919e-03
1.46984555e-03
1.48807240e-02
1.54576090e-02
1.47482175e-02
1.53929838e-02
1.48423156e-02
1.51235878e-02
1.31436428e-02
1.43407208e-02
1.45714390e-02
7.91025476e-03
8.42969568e-03
6.50843000e-03
7.84336776e-03
3.41998324e-03
2.69167026e-03
0.00000000e+00
0.00000000e+00
0.00000000e+00
0.00000000e+00
2.01595562e-05
0.00000000e+00
0.00000000e+00
2.87111519e-05
1.02791134e-02
9.17151757e-03
1.08140474e-02
1.15394942e-02
7.61409523e-03
8.64464918e-03
7.42889242e-03
7.01189635e-03
7.02032237e-03
6.13286986e-03
6.35590614e-03
5.32024552e-03
7.05186604e-03
5.87355485e-03
1.30058231e-02
1.40158064e-02
9.48463217e-03
5.39226935e-03
2.78307649e-03
1.79627037e-03
1.95271068e-03
1.69866737e-02
1.86061803e-02
7.23574295e-03
1.48726042e-03
2.86523475e-04
3.91829779e-04
1.55113561e-04
5.02319966e-04
1.94889406e-04
4.87819634e-03
1.13481336e-03
5.59386332e-03
1.80285608e-04
1.23798287e-04
3.35620894e-06
3.27872385e-06
3.63840695e-06
1.66297650e-05
2.64905933e-02
2.83325985e-02
2.03225290e-02
2.22720671e-02
2.42205915e-05
4.21374985e-04
0.00000000e+00
1.98681680e-02
1.84305292e-02
1.16537660e-02
1.45749669e-02
4.83148394e-03
5.98083669e-03
1.01409352e-03
4.96806606e-05
0.00000000e+00
</DataArray>
<DataArray type="Float32" Name="Plastic_strain_Min_Principal" format="ascii">
-3.14992419e-03
-4.01910383e-03
-5.38923882e-03
-3.28208937e-03
-3.05347051e-03
-6.29523503e-03
-1.07859033e-02
-6.14396465e-03
-4.77498333e-03
-1.05966600e-02
-1.57290959e-02
-1.89876063e-02
0.00000000e+00
0.00000000e+00
0.00000000e+00
0.00000000e+00
0.00000000e+00
0.00000000e+00
0.00000000e+00
0.00000000e+00
-8.84895073e-03
-8.68059625e-03
-8.82832741e-03
-8.87322426e-03
-9.97527316e-03
-9.89577221e-03
-1.04898309e-02
-1.07835873e-02
-8.34999478e-03
-8.84634187e-03
-9.20931133e-03
-1.01085000e-02
-7.92529329e-03
-9.27741150e-03
-8.27705860e-03
-9.19264043e-03
-7.33279181e-03
-1.00793464e-02
-7.34246185e-03
-7.54489977e-03
-6.31462934e-03
-8.99460842e-03
-5.83239237e-03
-6.96333562e-03
-5.29121421e-03
-7.59891258e-03
-4.79611568e-03
-6.10010710e-03
-8.65122944e-03
-7.99203583e-03
-1.26491195e-02
-1.16818980e-02
-1.06901103e-02
-1.14057825e-02
-1.57126216e-02
-9.18939530e-03
-1.45541257e-02
-9.82090458e-03
-1.25595219e-02
-1.02294434e-02
-1.08178556e-02
-9.80363134e-03
-8.20237179e-03
-5.60625142e-03
-1.16370178e-02
-9.82933596e-03
-1.64985636e-02
-1.56705832e-02
-1.85707770e-02
-6.99783272e-03
-4.34322599e-03
-3.69648408e-03
-7.52664590e-03
-6.70699246e-03
-3.21855495e-03
-1.11321512e-02
-9.78524319e-03
-6.99330796e-03
-1.85310165e-02
-1.63110346e-02
-4.86448652e-03
-1.23881469e-02
-1.25866355e-02
-1.72702651e-02
-1.92705921e-02
-1.54688669e-02
-1.17659867e-02
-1.15929560e-02
-1.21492515e-02
-1.25959979e-02
-1.09045964e-02
-1.07307688e-02
-9.51343006e-03
-8.98799102e-03
-8.06951697e-03
-7.30942417e-03
-7.18565297e-03
-6.47354720e-03
-6.95860246e-03
-6.50300074e-03
-1.48715510e-02
-1.60978958e-02
-1.09567258e-02
-6.28959830e-03
-4.59116425e-03
-4.50438843e-03
-4.55400049e-03
-1.65058066e-02
-1.84700917e-02
-1.07728938e-02
-3.99395011e-03
-7.24066049e-03
-1.10035382e-03
-1.95301916e-02
-1.93318936e-02
-1.82908829e-02
-2.32286543e-02
-2.27058656e-02
-2.15356066e-02
-2.13015694e-02
-2.06996086e-02
-1.85186528e-02
-8.71467614e-03
-9.13485046e-03
-5.91370510e-03
-5.59620000e-03
-1.83182459e-03
-2.61772749e-03
0.00000000e+00
0.00000000e+00
0.00000000e+00
0.00000000e+00
-3.07772257e-05
0.00000000e+00
0.00000000e+00
-4.29124048e-05
-1.26140714e-02
-1.22127039e-02
-1.29542958e-02
-1.34180705e-02
-1.12850508e-02
-1.13223954e-02
-9.97987902e-03
-8.96832626e-03
-8.65404913e-03
-7.47080962e-03
-8.33636848e-03
-6.79837563e-03
-8.73609819e-03
-7.04500568e-03
-1.51959022e-02
-1.83739532e-02
-9.95759224e-03
-6.00905635e-03
-3.10882594e-03
-1.58002143e-03
-1.48886541e-03
-2.52512787e-02
-2.94165462e-02
-8.69726328e-03
-1.65788832e-03
-2.93942761e-04
-2.68907818e-04
-1.71665179e-04
-4.99555701e-04
-1.86254954e-04
-3.74947535e-03
-1.19869856e-03
-8.40831641e-03
-2.11520891e-04
-8.95941387e-05
-5.76361560e-06
-5.36443804e-06
-4.19776052e-06
-1.42634608e-05
-4.05668579e-02
-4.22570258e-02
-2.68146365e-02
-3.13597796e-02
-1.59665309e-05
-3.54289312e-04
0.00000000e+00
-2.43911101e-02
-2.59020124e-02
-1.71227036e-02
-1.79685839e-02
-4.80605394e-03
-5.02329809e-03
-1.27390941e-03
-7.22716431e-05
0.00000000e+00
</DataArray>
</PointData>
<Cells>
<DataArray type="Int32" Name="connectivity" format="ascii">
0 1 2 3 4 5 6 7
1 8 9 2 5 10 11 6
12 13 14 15 16 17 18 19
20 21 22 23 24 25 26 27
21 28 29 22 25 30 31 26
28 32 33 29 30 34 35 31
32 36 37 33 34 38 39 35
36 40 41 37 38 42 43 39
40 44 45 41 42 46 47 43
23 22 48 49 27 26 50 51
22 29 52 48 26 31 53 50
29 33 54 52 31 35 55 53
33 37 56 54 35 39 57 55
37 41 58 56 39 43 59 57
41 45 60 58 43 47 61 59
49 48 62 63 51 50 64 65
48 52 66 62 50 53 67 64
52 54 68 66 53 55 69 67
63 62 70 71 65 64 72 73
71 70 4 74 73 72 75 76
70 77 5 4 72 78 79 75
74 4 7 80 76 75 81 82
4 5 6 7 75 79 83 81
5 10 11 6 79 84 85 83
24 25 26 27 86 87 88 89
25 30 31 26 87 90 91 88
30 34 35 31 90 92 93 91
34 38 39 35 92 94 95 93
38 42 43 39 94 96 97 95
42 46 47 43 96 98 99 97
27 26 50 51 89 88 100 101
26 31 53 50 88 91 102 100
31 35 55 53 91 93 103 102
35 39 57 55 93 95 104 103
39 43 59 57 95 97 105 104
43 47 61 59 97 99 106 105
51 50 64 65 101 100 107 108
50 53 67 64 100 102 109 107
53 55 69 67 102 103 110 109
55 57 111 69 103 104 112 110
65 64 72 73 108 107 113 114
64 67 78 72 107 109 115 113
73 72 75 76 114 113 116 117
76 75 81 82 117 116 118 119
75 79 83 81 116 120 121 118
79 84 85 83 120 122 123 121
84 124 125 85 122 126 127 123
128 129 130 131 132 133 134 135
86 87 88 89 136 137 138 139
87 90 91 88 137 140 141 138
90 92 93 91 140 142 143 141
92 94 95 93 142 144 145 143
94 96 97 95 144 146 147 145
96 98 99 97 146 148 149 147
89 88 100 101 139 138 150 151
88 91 102 100 138 141 152 150
91 93 103 102 141 143 153 152
93 95 104 103 143 145 154 153
95 97 105 104 145 147 155 154
97 99 106 105 147 149 156 155
101 100 107 108 151 150 157 158
100 102 109 107 150 152 159 157
102 103 110 109 152 153 160 159
103 104 112 110 153 154 161 160
104 105 162 112 154 155 163 161
105 106 164 162 155 156 165 163
109 110 166 115 159 160 167 168
110 112 169 166 160 161 170 167
112 162 171 169 161 163 172 170
162 164 173 171 163 165 174 172
114 113 116 117 175 176 177 178
169 171 132 126 170 172 179 180
171 173 133 132 172 174 181 179
117 116 118 119 178 177 182 183
116 120 121 118 177 184 185 182
120 122 123 121 184 186 187 185
122 126 127 123 186 180 188 187
126 132 135 127 180 179 189 188
132 133 134 135 179 181 190 189
</DataArray>
<DataArray type="Int32" Name="offsets" format="ascii">
8
16
24
32
40
48
56
64
72
80
88
96
104
112
120
128
136
144
152
160
168
176
184
192
200
208
216
224
232
240
248
256
264
272
280
288
296
304
312
320
328
336
344
352
360
368
376
384
392
400
408
416
424
432
440
448
456
464
472
480
488
496
504
512
520
528
536
544
552
560
568
576
584
592
600
608
616
624
632
</DataArray>
<DataArray type="UInt8" Name="types" format="ascii">
12
12
12
12
12
12
12
12
12
12
12
12
12
12
12
12
12
12
12
12
12
12
12
12
12
12
12
12
12
12
12
12
12
12
12
12
12
12
12
12
12
12
12
12
12
12
12
12
12
12
12
12
12
12
12
12
12
12
12
12
12
12
12
12
12
12
12
12
12
12
12
12
12
12
12
12
12
12
12
</DataArray>
</Cells>
</Piece>
</UnstructuredGrid>
</VTKFile>
