<VTKFile type="UnstructuredGrid" version="0.1" byte_order="LittleEndian">
<UnstructuredGrid>
<Piece NumberOfPoints="173" NumberOfCells="80">
<Points>
<DataArray type="Float64" NumberOfComponents="3" format="ascii">
 0.00000000e+00  0.00000000e+00  0.00000000e+00
 1.00012410e+00  0.00000000e+00  0.00000000e+00
 1.00015318e+00  1.00039804e+00  0.00000000e+00
 0.00000000e+00  1.00036705e+00  0.00000000e+00
 0.00000000e+00  0.00000000e+00  9.99223828e-01
 1.00012422e+00  0.00000000e+00  9.99173522e-01
 1.00012875e+00  1.00034988e+00  9.99235332e-01
 0.00000000e+00  1.00034332e+00  9.99255061e-01
 2.00027943e+00  0.00000000e+00  0.00000000e+00
 2.00031137e+00  1.00046921e+00  0.00000000e+00
 2.00028539e+00  0.00000000e+00  9.99050438e-01
 2.00029612e+00  1.00038016e+00  9.99208212e-01
 3.00047398e+00  0.00000000e+00  0.00000000e+00
 3.00048184e+00  1.00054574e+00  0.00000000e+00
 3.00051045e+00  0.00000000e+00  9.98948872e-01
 3.00050020e+00  1.00040543e+00  9.99123335e-01
 4.00072765e+00  0.00000000e+00  0.00000000e+00
 4.00069857e+00  1.00061142e+00  0.00000000e+00
 4.00079203e+00  0.00000000e+00  9.98880446e-01
 4.00075293e+00  1.00041115e+00  9.98960733e-01
 5.00111103e+00  0.00000000e+00  0.00000000e+00
 5.00100899e+00  1.00069630e+00  0.00000000e+00
 5.00114870e+00  0.00000000e+00  9.98708189e-01
 5.00108337e+00  1.00044990e+00  9.98808801e-01
 6.00170088e+00  0.00000000e+00  0.00000000e+00
 6.00141096e+00  1.00095117e+00  0.00000000e+00
 6.00156021e+00  0.00000000e+00  9.98611093e-01
 6.00149632e+00  1.00058722e+00  9.98654962e-01
 1.00019360e+00  2.00064659e+00  0.00000000e+00
 0.00000000e+00  2.00062323e+00  0.00000000e+00
 1.00015855e+00  2.00062156e+00  9.99387443e-01
 0.00000000e+00  2.00061059e+00  9.99331951e-01
 2.00036025e+00  2.00069308e+00  0.00000000e+00
 2.00031948e+00  2.00067425e+00  9.99455571e-01
 3.00052214e+00  2.00076771e+00  0.00000000e+00
 3.00044751e+00  2.00069475e+00  9.99565184e-01
 4.00065613e+00  2.00088859e+00  0.00000000e+00
 4.00066614e+00  2.00067115e+00  9.99581993e-01
 5.00079298e+00  2.00102758e+00  0.00000000e+00
 5.00087833e+00  2.00078273e+00  9.99548197e-01
 6.00090122e+00  2.00132132e+00  0.00000000e+00
 6.00110388e+00  2.00103569e+00  9.99457181e-01
 1.00019813e+00  3.00075412e+00  0.00000000e+00
 0.00000000e+00  3.00075722e+00  0.00000000e+00
 1.00016928e+00  3.00075746e+00  9.99494672e-01
 0.00000000e+00  3.00075936e+00  9.99430656e-01
 2.00036573e+00  3.00076509e+00  0.00000000e+00
 2.00033593e+00  3.00075531e+00  9.99613404e-01
 3.00051546e+00  3.00079703e+00  0.00000000e+00
 3.00044394e+00  3.00077438e+00  9.99847531e-01
 4.00057268e+00  3.00089574e+00  0.00000000e+00
 4.00050116e+00  3.00071931e+00  1.00010967e+00
 5.00060749e+00  3.00102997e+00  0.00000000e+00
 5.00061941e+00  3.00084138e+00  1.00011122e+00
 6.00061989e+00  3.00121212e+00  0.00000000e+00
 6.00066566e+00  3.00111723e+00  1.00003338e+00
 1.00018322e+00  4.00080776e+00  0.00000000e+00
 0.00000000e+00  4.00082064e+00  0.00000000e+00
 1.00016177e+00  4.00082588e+00  9.99523520e-01
 0.00000000e+00  4.00083685e+00  9.99493122e-01
 2.00034904e+00  4.00079155e+00  0.00000000e+00
 2.00031114e+00  4.00078106e+00  9.99641180e-01
 3.00047469e+00  4.00079155e+00  0.00000000e+00
 3.00038433e+00  4.00077486e+00  9.99846220e-01
 4.00048208e+00  4.00084448e+00  0.00000000e+00
 4.00042486e+00  4.00087452e+00  1.00003564e+00
 6.00045776e+00  4.00106001e+00  0.00000000e+00
 5.00047398e+00  4.00095177e+00  0.00000000e+00
 6.00047445e+00  4.00108814e+00  1.00000310e+00
 5.00047541e+00  4.00097466e+00  1.00001967e+00
 1.00016391e+00  5.00086403e+00  0.00000000e+00
 0.00000000e+00  5.00088549e+00  0.00000000e+00
 1.00014830e+00  5.00088835e+00  9.99501407e-01
 0.00000000e+00  5.00090456e+00  9.99477506e-01
 2.00032091e+00  5.00082493e+00  0.00000000e+00
 2.00027108e+00  5.00084162e+00  9.99552727e-01
 3.00043368e+00  5.00081873e+00  0.00000000e+00
 3.00034237e+00  5.00083399e+00  9.99750793e-01
 4.00043726e+00  5.00087118e+00  0.00000000e+00
 4.00037003e+00  5.00087738e+00  1.00002682e+00
 5.00038147e+00  5.00095892e+00  0.00000000e+00
 5.00039959e+00  5.00095844e+00  1.00000453e+00
 6.00039530e+00  5.00104380e+00  0.00000000e+00
 6.00039911e+00  5.00103903e+00  9.99989331e-01
 1.00017393e+00  6.00095415e+00  0.00000000e+00
 0.00000000e+00  6.00096989e+00  0.00000000e+00
 1.00015712e+00  6.00096846e+00  9.99442399e-01
 0.00000000e+00  6.00100136e+00  9.99425530e-01
 2.00032973e+00  6.00090456e+00  0.00000000e+00
 2.00027514e+00  6.00092745e+00  9.99467254e-01
 3.00042844e+00  6.00086737e+00  0.00000000e+00
 3.00033569e+00  6.00090313e+00  9.99680817e-01
 4.00040197e+00  6.00089645e+00  0.00000000e+00
 4.00032139e+00  6.00090170e+00  1.00003433e+00
 5.00032425e+00  6.00095081e+00  0.00000000e+00
 5.00033569e+00  6.00095749e+00  1.00001073e+00
 6.00031614e+00  6.00103903e+00  0.00000000e+00
 6.00032854e+00  6.00102997e+00  9.99997914e-01
 0.00000000e+00  0.00000000e+00  1.99849403e+00
 1.00015163e+00  0.00000000e+00  1.99844491e+00
 1.00011802e+00  1.00026488e+00  1.99850333e+00
 0.00000000e+00  1.00029910e+00  1.99856031e+00
 2.00035071e+00  0.00000000e+00  1.99833500e+00
 2.00029111e+00  1.00018132e+00  1.99831021e+00
 3.00060129e+00  0.00000000e+00  1.99814332e+00
 3.00059319e+00  1.00014591e+00  1.99817491e+00
 4.00093031e+00  0.00000000e+00  1.99789524e+00
 4.00091076e+00  1.00017524e+00  1.99814320e+00
 5.00125504e+00  0.00000000e+00  1.99769723e+00
 5.00124598e+00  1.00019193e+00  1.99794829e+00
 6.00149012e+00  0.00000000e+00  1.99758852e+00
 6.00156879e+00  1.00017500e+00  1.99778879e+00
 1.00004947e+00  2.00055194e+00  1.99867105e+00
 0.00000000e+00  2.00057030e+00  1.99875784e+00
 2.00022149e+00  2.00047445e+00  1.99879456e+00
 3.00048232e+00  2.00048256e+00  1.99877834e+00
 4.00087595e+00  2.00057817e+00  1.99826348e+00
 5.00122833e+00  2.00058651e+00  1.99823225e+00
 6.00167513e+00  2.00057554e+00  1.99802232e+00
 1.00007093e+00  3.00079203e+00  1.99890697e+00
 0.00000000e+00  3.00076437e+00  1.99895334e+00
 2.00013375e+00  3.00074959e+00  1.99928546e+00
 3.00009394e+00  3.00062156e+00  1.99996471e+00
 1.00012219e+00  4.00088215e+00  1.99906909e+00
 0.00000000e+00  4.00088358e+00  1.99900436e+00
 2.00020099e+00  4.00085735e+00  1.99930918e+00
 3.00025344e+00  4.00076532e+00  1.99963331e+00
 1.00010121e+00  5.00095034e+00  1.99900675e+00
 0.00000000e+00  5.00097227e+00  1.99896741e+00
 2.00019598e+00  5.00091362e+00  1.99914122e+00
 3.00029302e+00  5.00087690e+00  1.99923539e+00
 1.00007522e+00  6.00107908e+00  1.99886262e+00
 0.00000000e+00  6.00106239e+00  1.99889457e+00
 2.00015974e+00  6.00106096e+00  1.99891269e+00
 3.00026464e+00  6.00100422e+00  1.99903202e+00
 5.00042391e+00  5.00094366e+00  2.00000477e+00
 6.00042343e+00  5.00101566e+00  1.99997830e+00
 6.00035286e+00  6.00101662e+00  1.99999928e+00
 5.00034857e+00  6.00094700e+00  2.00002289e+00
 0.00000000e+00  0.00000000e+00  2.99774694e+00
 1.00022447e+00  0.00000000e+00  2.99769163e+00
 1.00019777e+00  1.00022995e+00  2.99780393e+00
 0.00000000e+00  1.00025547e+00  2.99787045e+00
 2.00048733e+00  0.00000000e+00  2.99753070e+00
 2.00042295e+00  1.00013649e+00  2.99766755e+00
 3.00077319e+00  0.00000000e+00  2.99736476e+00
 3.00076127e+00  1.00007010e+00  2.99740767e+00
 4.00109529e+00  0.00000000e+00  2.99721742e+00
 4.00109673e+00  1.00009561e+00  2.99712420e+00
 5.00136518e+00  0.00000000e+00  2.99704933e+00
 5.00139236e+00  1.00013649e+00  2.99703956e+00
 6.00155067e+00  0.00000000e+00  2.99695325e+00
 6.00161743e+00  1.00008810e+00  2.99697566e+00
 1.00008118e+00  2.00044346e+00  2.99803782e+00
 0.00000000e+00  2.00054502e+00  2.99810863e+00
 2.00029373e+00  2.00036049e+00  2.99744821e+00
 3.00061560e+00  2.00036144e+00  2.99701834e+00
 4.00114632e+00  2.00050354e+00  2.99726939e+00
 5.00146675e+00  2.00040913e+00  2.99707270e+00
 6.00172567e+00  2.00032043e+00  2.99707532e+00
 1.00003076e+00  3.00076103e+00  2.99852586e+00
 0.00000000e+00  3.00081062e+00  2.99829006e+00
 2.00023150e+00  3.00062537e+00  2.99798131e+00
 1.00004327e+00  4.00098610e+00  2.99866939e+00
 0.00000000e+00  4.00101900e+00  2.99849367e+00
 2.00013304e+00  4.00101948e+00  2.99913168e+00
 1.00007510e+00  5.00113010e+00  2.99850821e+00
 0.00000000e+00  5.00108051e+00  2.99852467e+00
 2.00010872e+00  5.00118399e+00  2.99858022e+00
 3.00005555e+00  4.00123453e+00  2.99963951e+00
 3.00026846e+00  5.00111294e+00  2.99880576e+00
 1.00003421e+00  6.00116587e+00  2.99839664e+00
 0.00000000e+00  6.00117683e+00  2.99831247e+00
</DataArray>
</Points>
<PointData Tensors="Stress_Components,Plastic_strain_components" Vevtors="Spatial_displacement,Reaction_force" Scalars="Equivalent_plastic_strain,Stress_Mises,Stress_Max_Principal,Stress_Mid_Principal,Stress_Min_Principal,Stress_Pressure,Stress_Tresca,Stress_Third_Invariant,Plastic_strain_Max_Principal,Plastic_strain_Min_Principal">
<DataArray type="Float32" Name="Stress_Components" NumberOfComponents="9" format="ascii">
-3.19026327e+00 2.05318630e-03 1.56438909e-04 2.05318630e-03 4.24558735e+00 5.18009067e-04 1.56438909e-04 5.18009067e-04 -2.78741550e+01
-3.34069252e+00 3.93161997e-01 1.70663767e-03 3.93161997e-01 4.20566058e+00 2.68632732e-02 1.70663767e-03 2.68632732e-02 -2.80752945e+01
-1.77629304e+00 1.28203374e+00 -7.24144697e-01 1.28203374e+00 3.41824931e+00 -3.49267542e-01 -7.24144697e-01 -3.49267542e-01 -2.75384345e+01
-1.73558325e+00 4.78744790e-01 -3.63413334e-01 4.78744790e-01 3.31399155e+00 -1.25132292e-03 -3.63413334e-01 -1.25132292e-03 -2.77785015e+01
-2.73182821e+00 -4.35173977e-04 4.98884261e-01 -4.35173977e-04 4.08638847e+00 -7.61900932e-01 4.98884261e-01 -7.61900932e-01 -2.76493912e+01
-2.63188148e+00 5.63638490e-02 9.29625198e-01 5.63638490e-02 3.70136946e+00 -1.05778551e+00 9.29625198e-01 -1.05778551e+00 -2.80026140e+01
-1.83386195e+00 5.16839454e-01 6.44135909e-01 5.16839454e-01 3.31554067e+00 -6.39607858e-01 6.44135909e-01 -6.39607858e-01 -2.78465395e+01
-2.05567488e+00 1.01440586e-01 3.35606042e-01 1.01440586e-01 3.67482871e+00 -3.37168686e-01 3.35606042e-01 -3.37168686e-01 -2.76321149e+01
-3.67307961e+00 3.48642528e-01 7.64964474e-03 3.48642528e-01 4.00977552e+00 1.31944165e-01 7.64964474e-03 1.31944165e-01 -2.87029324e+01
-1.71366121e+00 1.59759346e+00 -1.30641666e+00 1.59759346e+00 3.54840273e+00 -1.68609258e-01 -1.30641666e+00 -1.68609258e-01 -2.71630669e+01
-2.52479476e+00 1.37777917e-01 2.19231260e+00 1.37777917e-01 2.94663113e+00 -1.03241026e+00 2.19231260e+00 -1.03241026e+00 -2.88060975e+01
-1.67479558e+00 5.72138965e-01 8.66087683e-01 5.72138965e-01 2.73082237e+00 -9.34242327e-01 8.66087683e-01 -9.34242327e-01 -2.85218899e+01
-3.99964213e+00 2.69565387e-02 1.11817913e-02 2.69565387e-02 3.56585610e+00 4.62359622e-01 1.11817913e-02 4.62359622e-01 -2.96007128e+01
-1.59601954e+00 1.12905847e+00 -1.86216196e+00 1.12905847e+00 3.22989872e+00 3.52337465e-01 -1.86216196e+00 3.52337465e-01 -2.75069690e+01
-2.14280483e+00 -1.53533392e-01 2.21357447e+00 -1.53533392e-01 2.02317679e+00 -2.40313571e-01 2.21357447e+00 -2.40313571e-01 -2.97416224e+01
-1.41396029e+00 -2.13183097e-01 1.36849921e+00 -2.13183097e-01 1.84932666e+00 -8.84723043e-01 1.36849921e+00 -8.84723043e-01 -2.91460576e+01
-3.65857792e+00 -3.82066384e-01 8.67178058e-03 -3.82066384e-01 2.62862170e+00 6.94366544e-01 8.67178058e-03 6.94366544e-01 -3.05046406e+01
-1.47175479e+00 3.02741497e-01 -2.17587578e+00 3.02741497e-01 2.29203598e+00 7.00999945e-01 -2.17587578e+00 7.00999945e-01 -2.86173949e+01
-1.31042935e+00 -4.83596936e-01 9.69828770e-01 -4.83596936e-01 1.07105674e+00 -2.22680265e-01 9.69828770e-01 -2.22680265e-01 -3.02471342e+01
-8.32049549e-01 -5.46832899e-01 1.61014158e+00 -5.46832899e-01 5.35575934e-01 -5.84259659e-01 1.61014158e+00 -5.84259659e-01 -2.96318917e+01
-2.07930803e+00 -1.09970349e+00 1.27564203e-02 -1.09970349e+00 1.81573641e+00 2.70746060e-01 1.27564203e-02 2.70746060e-01 -3.00984583e+01
-9.05971363e-01 -7.78922029e-02 -2.32253605e+00 -7.78922029e-02 1.68376639e+00 7.52202883e-01 -2.32253605e+00 7.52202883e-01 -2.88044319e+01
-4.81056815e-01 -7.52155334e-01 1.08880199e+00 -7.52155334e-01 1.10137762e+00 -7.37343994e-01 1.08880199e+00 -7.37343994e-01 -2.93076835e+01
-5.44028291e-01 -6.46609068e-01 1.88185038e+00 -6.46609068e-01 9.16073695e-02 -3.71547802e-01 1.88185038e+00 -3.71547802e-01 -2.96800888e+01
-3.01626658e+00 -2.40116143e+00 1.08439755e-02 -2.40116143e+00 2.92203832e+00 -1.12011123e+00 1.08439755e-02 -1.12011123e+00 -2.93478069e+01
-1.79403311e+00 -1.45691790e+00 -3.07844770e+00 -1.45691790e+00 1.91904205e+00 7.43370384e-01 -3.07844770e+00 7.43370384e-01 -2.88351259e+01
-1.33592147e+00 -6.68472141e-01 4.15470392e-01 -6.68472141e-01 2.42110109e+00 -2.00104481e+00 4.15470392e-01 -2.00104481e+00 -2.86352024e+01
-1.38560398e+00 -1.11165226e+00 3.12984049e-01 -1.11165226e+00 1.05743547e+00 -8.31934109e-01 3.12984049e-01 -8.31934109e-01 -2.95822363e+01
1.60161357e+00 1.02177611e+00 -4.59161326e-01 1.02177611e+00 1.53623366e+00 -6.26637965e-01 -4.59161326e-01 -6.26637965e-01 -2.63951349e+01
1.16783034e+00 4.09269869e-01 -2.02188909e-01 4.09269869e-01 1.26067322e+00 4.08070488e-03 -2.02188909e-01 4.08070488e-03 -2.73346624e+01
4.39238433e-01 8.62802308e-01 1.41011140e+00 8.62802308e-01 1.99787007e+00 -1.67186540e-01 1.41011140e+00 -1.67186540e-01 -2.69759057e+01
2.72387087e-01 1.96272891e-01 1.10384916e+00 1.96272891e-01 2.06066748e+00 9.68513399e-01 1.10384916e+00 9.68513399e-01 -2.73625684e+01
3.18614721e+00 1.70544931e+00 -3.69279571e-01 1.70544931e+00 2.39037500e+00 -7.87232146e-01 -3.69279571e-01 -7.87232146e-01 -2.50504689e+01
1.63600536e+00 9.88860235e-01 1.76656980e+00 9.88860235e-01 3.00516068e+00 3.75095723e-01 1.76656980e+00 3.75095723e-01 -2.56157739e+01
3.77196795e+00 2.31832814e+00 -1.45689154e+00 2.31832814e+00 2.79292996e+00 -1.47339684e+00 -1.45689154e+00 -1.47339684e+00 -2.11454654e+01
2.18815800e+00 -5.70977326e-01 4.53705117e+00 -5.70977326e-01 2.97634393e+00 6.46178484e-01 4.53705117e+00 6.46178484e-01 -2.43480612e+01
4.29148134e+00 1.28155668e+00 -4.28945935e+00 1.28155668e+00 4.24011260e+00 2.36191113e-01 -4.28945935e+00 2.36191113e-01 -1.93818145e+01
2.50623435e+00 -1.26073186e+00 6.52020280e+00 -1.26073186e+00 1.19869951e+00 8.52900306e-01 6.52020280e+00 8.52900306e-01 -2.46561931e+01
3.59660158e+00 2.48170421e-01 -4.60762143e+00 2.48170421e-01 4.55041087e+00 1.64527515e+00 -4.60762143e+00 1.64527515e+00 -2.01037612e+01
1.59026310e+00 -8.27297375e-01 6.81611800e+00 -8.27297375e-01 1.56507663e+00 1.45928224e+00 6.81611800e+00 1.45928224e+00 -2.54132992e+01
3.60144639e+00 -1.64562598e+00 -5.05064631e+00 -1.64562598e+00 2.87322448e+00 3.63043380e+00 -5.05064631e+00 3.63043380e+00 -2.11000433e+01
6.70604308e-01 -2.52175681e+00 5.39740324e+00 -2.52175681e+00 2.52724076e+00 3.02810585e+00 5.39740324e+00 3.02810585e+00 -2.71339404e+01
4.08456147e+00 -1.70871923e-02 6.62745563e-02 -1.70871923e-02 -2.18559911e-01 -6.07513160e-01 6.62745563e-02 -6.07513160e-01 -2.50530815e+01
3.65126741e+00 -6.13297038e-02 3.59476712e-02 -6.13297038e-02 -2.83633083e-01 4.01520915e-03 3.59476712e-02 4.01520915e-03 -2.66001549e+01
3.43651459e+00 -1.45825744e-03 1.76934624e+00 -1.45825744e-03 7.53414294e-01 5.94990872e-01 1.76934624e+00 5.94990872e-01 -2.60210981e+01
2.45257506e+00 -3.73610128e-02 1.73466206e+00 -3.73610128e-02 1.32517120e-01 1.31341311e+00 1.73466206e+00 1.31341311e+00 -2.61479197e+01
3.58529937e+00 3.29118591e-01 -2.02549398e-01 3.29118591e-01 -9.64806248e-01 -6.19716868e-01 -2.02549398e-01 -6.19716868e-01 -1.90536914e+01
3.05983320e+00 9.08317352e-02 1.82431605e+00 9.08317352e-02 -4.28328514e-01 1.29479551e+00 1.82431605e+00 1.29479551e+00 -1.81474313e+01
2.35351920e+00 8.67710937e-01 -4.72763725e-01 8.67710937e-01 -1.45312735e+00 -1.48861235e+00 -4.72763725e-01 -1.48861235e+00 -8.30882859e+00
2.77314991e-01 -8.81614203e-01 1.79728112e+00 -8.81614203e-01 -1.79112005e+00 1.74484601e+00 1.79728112e+00 1.74484601e+00 -6.42134793e+00
-4.18311318e-01 5.15229652e-01 -3.67889865e+00 5.15229652e-01 -3.00746425e+00 -1.49531289e+00 -3.67889865e+00 -1.49531289e+00 2.07217584e+00
-9.89465773e-01 -2.74089128e+00 3.13552713e+00 -2.74089128e+00 -7.21220255e-01 2.15427097e+00 3.13552713e+00 2.15427097e+00 3.57078254e-01
-1.51381262e+00 -4.30575907e-02 -3.92628376e+00 -4.30575907e-02 -3.35840233e+00 2.39879111e-01 -3.92628376e+00 2.39879111e-01 2.29583389e+00
-1.61198187e+00 7.89376497e-02 3.25724475e+00 7.89376497e-02 -1.05703545e+00 -8.31383437e-01 3.25724475e+00 -8.31383437e-01 9.26195383e-02
5.00747144e-01 -8.25473577e-01 -1.97411990e+00 -8.25473577e-01 -5.44168282e+00 9.53557700e-01 -1.97411990e+00 9.53557700e-01 1.38712612e+00
-7.24943340e-01 -8.13931525e-01 3.71250594e+00 -8.13931525e-01 -1.56418705e+00 -6.69258714e-01 3.71250594e+00 -6.69258714e-01 -1.26470697e+00
3.65071613e+00 -6.58582985e-01 3.76393497e-01 -6.58582985e-01 -1.32865637e+00 -4.44998324e-01 3.76393497e-01 -4.44998324e-01 -2.34618349e+01
3.72490501e+00 -2.66367018e-01 3.39837387e-01 -2.66367018e-01 -1.25552297e+00 6.06700778e-05 3.39837387e-01 6.06700778e-05 -2.51528559e+01
2.70060870e+00 -8.00833926e-01 8.44868908e-01 -8.00833926e-01 -1.05711303e+00 9.07551562e-01 8.44868908e-01 9.07551562e-01 -2.31764297e+01
2.70644891e+00 -2.28097048e-01 1.14268835e+00 -2.28097048e-01 -1.01704764e+00 6.34273514e-01 1.14268835e+00 6.34273514e-01 -2.48006964e+01
3.28502965e+00 -6.35442466e-01 -2.21115503e-01 -6.35442466e-01 -1.54485571e+00 -7.91195869e-01 -2.21115503e-01 -7.91195869e-01 -1.77418964e+01
1.90852910e+00 -1.21078201e+00 5.35814613e-02 -1.21078201e+00 -9.28741999e-01 1.82042654e+00 5.35814613e-02 1.82042654e+00 -1.71221128e+01
1.67708738e+00 -3.02146159e-01 -3.57072830e-01 -3.02146159e-01 -6.36923641e-01 -1.88183105e+00 -3.57072830e-01 -1.88183105e+00 -7.49870634e+00
9.31273644e-01 -4.53412046e-01 -1.31016918e+00 -4.53412046e-01 -4.20918763e-01 2.00127246e+00 -1.31016918e+00 2.00127246e+00 -8.89231388e+00
-2.67006586e-01 2.27130890e-01 6.29239400e-01 2.27130890e-01 -3.21850459e-01 -1.19262548e+00 6.29239400e-01 -1.19262548e+00 1.13102890e+00
1.53811038e-01 7.93777893e-01 -6.45023584e-03 7.93777893e-01 5.70017596e-01 1.32778569e+00 -6.45023584e-03 1.32778569e+00 -1.81656599e-01
7.56535649e-01 -7.73704052e-02 5.81182659e-01 -7.73704052e-02 -2.08430868e+00 3.42364177e-01 5.81182659e-01 3.42364177e-01 1.55244355e+00
-1.33946836e-02 4.06952004e-02 4.82956588e-01 4.06952004e-02 -3.41849834e-01 2.97656811e-02 4.82956588e-01 2.97656811e-02 1.36464309e+00
5.48762821e-01 -4.14705902e-01 1.22599758e-01 -4.14705902e-01 -1.04344781e+00 -3.49942863e-03 1.22599758e-01 -3.49942863e-03 7.19363287e-01
4.52933908e-02 2.17252870e-01 -3.63141720e-01 2.17252870e-01 7.72414446e-01 -3.11525732e-01 -3.63141720e-01 -3.11525732e-01 1.91688369e-01
2.76260912e+00 -7.28916492e-01 5.04331961e-01 -7.28916492e-01 -8.78405072e-01 -3.26034680e-01 5.04331961e-01 -3.26034680e-01 -2.46899495e+01
2.99749708e+00 -4.51510608e-01 3.94550472e-01 -4.51510608e-01 -7.40342736e-01 -1.85670564e-04 3.94550472e-01 -1.85670564e-04 -2.57325354e+01
1.92745933e+00 -7.01816177e-01 5.29940329e-02 -7.01816177e-01 -7.51883302e-01 1.30781053e-01 5.29940329e-02 1.30781053e-01 -2.44149783e+01
2.13869527e+00 -3.39073874e-01 1.99749805e-01 -3.39073874e-01 -6.19673202e-01 4.98298369e-01 1.99749805e-01 4.98298369e-01 -2.55888615e+01
2.76734629e+00 -6.70562606e-01 3.53294097e-01 -6.70562606e-01 -4.97818373e-01 -1.03803194e+00 3.53294097e-01 -1.03803194e+00 -2.14912052e+01
5.87694382e-01 -9.37110823e-01 -8.85547593e-01 -9.37110823e-01 -4.03423911e-01 1.29822682e+00 -8.85547593e-01 1.29822682e+00 -2.13486736e+01
9.70144771e-01 1.82133168e-03 3.16897266e-01 1.82133168e-03 1.19862586e-01 -1.90347320e+00 3.16897266e-01 -1.90347320e+00 -1.18390396e+01
3.70001689e-01 -3.10784135e-01 -1.21639892e+00 -3.10784135e-01 6.86503882e-01 3.05885553e+00 -1.21639892e+00 3.05885553e+00 -1.60634793e+01
-2.05621198e+00 6.23689108e-01 1.28928486e-01 6.23689108e-01 1.18033990e-01 -1.40716133e+00 1.28928486e-01 -1.40716133e+00 1.47966623e-01
-3.63990471e-01 2.20568044e-01 1.15448119e-01 2.20568044e-01 -9.88846969e-01 1.23559269e+00 1.15448119e-01 1.23559269e+00 -4.37378086e-01
-5.22334799e-01 2.37758698e-01 -6.10732043e-03 2.37758698e-01 3.33741322e-01 3.74715641e-01 -6.10732043e-03 3.74715641e-01 5.41367875e-01
4.60315973e-01 2.51069058e-01 -1.16519898e-01 2.51069058e-01 -3.30745743e-01 2.50695616e-02 -1.16519898e-01 2.50695616e-02 1.23392923e-01
3.89078289e-01 2.90177442e-01 -1.00166194e-01 2.90177442e-01 -6.29136428e-01 8.25649686e-02 -1.00166194e-01 8.25649686e-02 -6.31073743e-01
2.44982287e-01 1.64340243e-01 -2.03537382e-01 1.64340243e-01 -6.77567288e-01 -9.46630637e-02 -2.03537382e-01 -9.46630637e-02 -1.96931356e-01
3.11570680e+00 -4.73896604e-01 3.03198785e-01 -4.73896604e-01 -1.32625401e-02 -3.51193905e-01 3.03198785e-01 -3.51193905e-01 -2.71037149e+01
3.18665171e+00 -3.19739014e-01 6.41527116e-01 -3.19739014e-01 -4.43337798e-01 1.42266415e-03 6.41527116e-01 1.42266415e-03 -2.70934429e+01
2.42031911e+00 -5.87905809e-01 7.28705972e-02 -5.87905809e-01 3.19984630e-02 -5.92700363e-01 7.28705972e-02 -5.92700363e-01 -2.70464683e+01
2.27392375e+00 -6.77845597e-01 -1.11359611e-01 -6.77845597e-01 -2.17215613e-01 3.48981798e-01 -1.11359611e-01 3.48981798e-01 -2.70787010e+01
2.64003098e+00 -7.20077097e-01 4.75494340e-01 -7.20077097e-01 6.59899533e-01 -1.13644594e+00 4.75494340e-01 -1.13644594e+00 -2.48652010e+01
8.26156020e-01 -5.97170040e-01 -1.51919752e-01 -5.97170040e-01 6.68510545e-01 7.12889344e-01 -1.51919752e-01 7.12889344e-01 -2.55436110e+01
3.42212707e-01 -1.90968424e-01 7.43354648e-01 -1.90968424e-01 8.61234486e-01 -1.92951721e+00 7.43354648e-01 -1.92951721e+00 -1.44605098e+01
-1.00062867e-01 -4.83290181e-01 -2.64595528e-01 -4.83290181e-01 1.29172824e+00 3.64482530e+00 -2.64595528e-01 3.64482530e+00 -1.95152124e+01
-3.39513755e+00 1.26084082e-01 1.08278833e-01 1.26084082e-01 -1.67614639e-01 -1.67606741e+00 1.08278833e-01 -1.67606741e+00 2.06048489e-01
-1.93562452e+00 -4.45159927e-01 2.64574528e-01 -4.45159927e-01 -9.18478869e-01 1.76030898e+00 2.64574528e-01 1.76030898e+00 -5.02611279e-01
-1.20409676e+00 2.89151050e-01 1.38548754e-01 2.89151050e-01 2.37258956e-01 2.39797145e-01 1.38548754e-01 2.39797145e-01 1.02306588e+00
-1.46257460e-01 6.51005954e-02 1.47319006e-01 6.51005954e-02 -1.91554755e-01 -9.15410132e-02 1.47319006e-01 -9.15410132e-02 3.26536059e-01
-2.83315957e-01 1.89061493e-01 -1.87877715e-01 1.89061493e-01 -1.43478036e-01 2.51900882e-01 -1.87877715e-01 2.51900882e-01 -3.52716967e-02
-1.79941118e-01 3.19702979e-02 -5.20517705e-02 3.19702979e-02 -2.39774972e-01 1.15348761e-01 -5.20517705e-02 1.15348761e-01 1.15540947e-01
-1.52018368e+00 5.17993281e-03 1.05332673e+00 5.17993281e-03 3.11252677e+00 -7.72779077e-01 1.05332673e+00 -7.72779077e-01 -2.78264923e+01
-7.77227700e-01 -5.15963331e-01 9.59919751e-01 -5.15963331e-01 2.13718724e+00 -4.51555334e-01 9.59919751e-01 -4.51555334e-01 -2.83468976e+01
-1.75577043e+00 -1.74352537e+00 8.98490999e-01 -1.74352537e+00 2.49075881e+00 -1.40905422e+00 8.98490999e-01 -1.40905422e+00 -2.84083245e+01
-1.96574634e+00 -5.49409539e-01 1.45321602e+00 -5.49409539e-01 3.49487305e+00 -9.18526888e-01 1.45321602e+00 -9.18526888e-01 -2.75526981e+01
9.85612869e-01 -9.22995776e-01 -3.71451370e-01 -9.22995776e-01 -1.94079675e-01 -7.96273150e-01 -3.71451370e-01 -7.96273150e-01 -2.92220716e+01
-7.83048358e-01 -1.86952689e+00 1.67207646e+00 -1.86952689e+00 -6.31644603e-01 -1.38745359e+00 1.67207646e+00 -1.38745359e+00 -3.03135431e+01
1.99237970e+00 -1.29411625e-01 5.03821768e-01 -1.29411625e-01 -2.17006361e+00 -1.32112736e+00 5.03821768e-01 -1.32112736e+00 -3.00342803e+01
-2.97315538e-01 -8.30781743e-01 1.93467444e+00 -8.30781743e-01 -2.00481281e+00 6.32743753e-01 1.93467444e+00 6.32743753e-01 -3.16920273e+01
1.66062948e+00 -3.01191270e-01 3.62646061e+00 -3.01191270e-01 -2.51642928e+00 -1.05361967e+00 3.62646061e+00 -1.05361967e+00 -3.00542374e+01
-4.39227227e-01 -8.09127628e-02 3.98890421e-01 -8.09127628e-02 -1.32083570e+00 7.04894876e-01 3.98890421e-01 7.04894876e-01 -3.19719875e+01
1.11901154e+00 -1.51711963e-01 3.72665113e+00 -1.51711963e-01 -1.28826495e+00 -7.19922549e-01 3.72665113e+00 -7.19922549e-01 -2.92640224e+01
-1.60523929e-01 -1.84854272e-01 1.56578204e+00 -1.84854272e-01 -1.05021536e+00 -3.20646874e-01 1.56578204e+00 -3.20646874e-01 -3.12315679e+01
1.01095590e+00 1.14236119e+00 3.06161809e+00 1.14236119e+00 -6.14760801e-01 -1.61067355e+00 3.06161809e+00 -1.61067355e+00 -2.89362316e+01
1.39718920e-01 1.03799167e+00 -3.33396018e-01 1.03799167e+00 -7.89223932e-01 -1.43173447e+00 -3.33396018e-01 -1.43173447e+00 -3.05281076e+01
-2.33020175e+00 -1.23350585e+00 2.01756087e+00 -1.23350585e+00 2.83061132e+00 -4.35338432e-01 2.01756087e+00 -4.35338432e-01 -2.87779150e+01
-2.49780357e+00 -3.48915793e-01 2.99305016e+00 -3.48915793e-01 4.19469392e+00 -1.62464774e+00 2.99305016e+00 -1.62464774e+00 -2.66045113e+01
-1.97964638e+00 -1.59796703e+00 4.32789033e+00 -1.59796703e+00 7.27954251e-02 2.35193659e-01 4.32789033e+00 2.35193659e-01 -3.13410936e+01
-2.19942269e+00 -1.37393392e+00 5.69626851e+00 -1.37393392e+00 -2.12957872e+00 -1.51655200e+00 5.69626851e+00 -1.51655200e+00 -3.22699539e+01
-2.44226265e+00 1.32716767e-01 5.75124070e-01 1.32716767e-01 -1.52823211e+00 3.52773070e-02 5.75124070e-01 3.52773070e-02 -3.43971825e+01
-2.05470826e+00 -1.91498145e-01 1.12804422e+00 -1.91498145e-01 -2.06408007e+00 2.09788296e+00 1.12804422e+00 2.09788296e+00 -3.43547993e+01
-1.29031700e+00 1.07323748e+00 -1.35361212e+00 1.07323748e+00 -2.36018854e+00 1.10251099e+00 -1.35361212e+00 1.10251099e+00 -3.35991373e+01
-1.21416251e+00 5.42903384e-01 4.20839241e+00 5.42903384e-01 2.90085578e+00 2.06899185e+00 4.20839241e+00 2.06899185e+00 -2.56342010e+01
-4.82978523e-01 5.35594158e-01 2.92850253e+00 5.35594158e-01 2.95154765e+00 -9.03596237e-01 2.92850253e+00 -9.03596237e-01 -2.59298711e+01
-2.74968574e+00 -1.60027096e+00 3.83044414e+00 -1.60027096e+00 3.01797860e+00 6.03325498e+00 3.83044414e+00 6.03325498e+00 -2.25802709e+01
-7.27996349e+00 -4.08376813e+00 3.87594366e+00 -4.08376813e+00 -6.86137378e-01 6.06615186e+00 3.87594366e+00 6.06615186e+00 -2.20401424e+00
2.40441355e-01 4.65505607e-02 2.59625699e+00 4.65505607e-02 -7.16933369e-01 1.88895932e+00 2.59625699e+00 1.88895932e+00 -2.13278174e+01
1.26563531e+00 -2.12556822e-02 2.08877710e+00 -2.12556822e-02 5.41584408e-01 1.36016652e+00 2.08877710e+00 1.36016652e+00 -2.49213672e+01
-6.13837370e-01 -5.64178075e-01 1.04378769e+00 -5.64178075e-01 1.20158319e-01 4.18501908e+00 1.04378769e+00 4.18501908e+00 -1.61480022e+01
-2.67607348e+00 -2.62338559e-01 -4.70160004e+00 -2.62338559e-01 2.24756976e-01 3.56355429e+00 -4.70160004e+00 3.56355429e+00 -1.06898365e+01
-7.23818690e-03 -1.09989301e+00 3.68487464e-01 -1.09989301e+00 7.50580058e-03 1.04980609e+00 3.68487464e-01 1.04980609e+00 -2.47778897e+01
-2.61931074e-01 -4.63580288e-01 6.90590261e-01 -4.63580288e-01 -7.47730091e-01 8.19486976e-01 6.90590261e-01 8.19486976e-01 -2.43377008e+01
2.99900562e-01 -1.21665175e+00 -5.54424457e-01 -1.21665175e+00 5.35110377e-01 6.87668075e-01 -5.54424457e-01 6.87668075e-01 -2.39748313e+01
9.54303518e-01 -6.08804538e-01 -3.52124630e+00 -6.08804538e-01 2.10839652e+00 1.32269236e+00 -3.52124630e+00 1.32269236e+00 -2.46217265e+01
-1.54185089e+00 -5.61039545e-01 -9.44721043e-01 -5.61039545e-01 5.07030055e-01 -1.09207165e+00 -9.44721043e-01 -1.09207165e+00 -2.67182827e+01
-4.25162464e-01 3.44246462e-01 3.12293559e-01 3.44246462e-01 1.94915660e-01 -6.66111380e-01 3.12293559e-01 -6.66111380e-01 -2.67563677e+01
-3.68538689e-01 -1.40017357e+00 -1.91497982e-01 -1.40017357e+00 1.59042902e+00 -1.02011744e+00 -1.91497982e-01 -1.02011744e+00 -2.94743810e+01
-3.91891748e-01 -1.08916542e+00 1.69255304e+00 -1.08916542e+00 5.40196896e-02 2.93260995e+00 1.69255304e+00 2.93260995e+00 -3.10275011e+01
-6.22511050e-02 -6.31842054e-02 -1.74541809e-02 -6.31842054e-02 8.70819204e-02 6.56282529e-04 -1.74541809e-02 6.56282529e-04 -7.75646195e-02
4.75635454e-02 3.20655201e-02 1.05058216e-03 3.20655201e-02 1.12943765e-01 -1.23857027e-02 1.05058216e-03 -1.23857027e-02 -2.13241888e-01
7.99510507e-02 -9.90913948e-03 6.64517339e-02 -9.90913948e-03 -4.51716708e-02 1.30785648e-02 6.64517339e-02 1.30785648e-02 -8.75136890e-02
-6.71969140e-02 -1.05159946e-01 -7.50230998e-03 -1.05159946e-01 -1.08360781e-01 -5.24160229e-02 -7.50230998e-03 -5.24160229e-02 1.22822747e-01
-1.18973345e-01 1.64935860e-03 1.89755368e+00 1.64935860e-03 7.72407964e-01 -8.44049662e-01 1.89755368e+00 -8.44049662e-01 -2.90815945e+01
3.59315578e-01 -3.87332611e-01 1.73765156e+00 -3.87332611e-01 -6.77511413e-02 -1.86370648e-01 1.73765156e+00 -1.86370648e-01 -2.94990788e+01
-9.97112384e-02 -1.94097812e+00 2.24931152e+00 -1.94097812e+00 1.87195216e-01 1.67307623e-01 2.24931152e+00 1.67307623e-01 -2.94521320e+01
-6.95490439e-01 -3.58167492e-01 2.07421058e+00 -3.58167492e-01 1.44150716e+00 -1.01410128e+00 2.07421058e+00 -1.01410128e+00 -2.88165221e+01
1.90369549e+00 -9.95601267e-01 2.19084793e+00 -9.95601267e-01 -2.34333256e+00 -3.81257087e-02 2.19084793e+00 -3.81257087e-02 -2.99654455e+01
5.28750135e-01 -2.61762746e+00 -2.90457532e-01 -2.61762746e+00 -2.48440081e+00 -2.59705920e-01 -2.90457532e-01 -2.59705920e-01 -3.13936076e+01
3.17560911e+00 -1.86678983e-01 7.40871713e-01 -1.86678983e-01 -4.26489103e+00 4.94489711e-01 7.40871713e-01 4.94489711e-01 -3.03301048e+01
7.06628151e-01 -1.35980263e+00 -1.89997526e+00 -1.35980263e+00 -3.84198728e+00 -1.16464864e+00 -1.89997526e+00 -1.16464864e+00 -3.24668245e+01
2.81976479e+00 2.89448162e-02 -1.51906741e+00 2.89448162e-02 -3.83474725e+00 -6.50761803e-02 -1.51906741e+00 -6.50761803e-02 -3.04360251e+01
-1.51949123e-01 7.73289599e-01 2.11263821e-01 7.73289599e-01 -2.07011393e+00 -2.50511408e-01 2.11263821e-01 -2.50511408e-01 -3.22091796e+01
1.37780811e+00 4.90869179e-01 -1.56306369e-01 4.90869179e-01 -1.93962711e+00 -5.61057556e-01 -1.56306369e-01 -5.61057556e-01 -3.05311084e+01
2.46568721e-01 6.22475311e-01 -3.09380826e-01 6.22475311e-01 -1.41746648e+00 4.80503488e-01 -3.09380826e-01 4.80503488e-01 -3.11528404e+01
1.62896520e+00 1.30729949e+00 4.53005835e-01 1.30729949e+00 -2.29816055e+00 -8.62561345e-01 4.53005835e-01 -8.62561345e-01 -3.04556694e+01
7.65694900e-01 6.11009099e-01 2.35586092e-01 6.11009099e-01 -1.40739278e+00 -3.67463812e-01 2.35586092e-01 -3.67463812e-01 -3.05654349e+01
-2.99020836e+00 -2.66545832e+00 5.00187711e+00 -2.66545832e+00 4.81053740e-01 -2.76847818e+00 5.00187711e+00 -2.76847818e+00 -2.88075769e+01
-2.49149558e+00 -1.63090086e+00 3.22861052e+00 -1.63090086e+00 3.70995826e+00 -1.18702444e+00 3.22861052e+00 -1.18702444e+00 -2.73805132e+01
-1.56380109e+00 -1.94193777e+00 1.72312895e+00 -1.94193777e+00 -1.81811066e+00 -3.23414057e+00 1.72312895e+00 -3.23414057e+00 -3.32956042e+01
-2.19343468e+00 -1.61342186e+00 -7.26813350e+00 -1.61342186e+00 -5.43330317e+00 1.24189942e+00 -7.26813350e+00 1.24189942e+00 -3.41983078e+01
-2.06110242e+00 6.63572684e-01 -8.25654119e-02 6.63572684e-01 -2.30756266e+00 1.83679265e+00 -8.25654119e-02 1.83679265e+00 -3.47375097e+01
-5.97607255e-01 -2.91464381e-01 -7.50353411e-01 -2.91464381e-01 -1.01202642e+00 4.37305853e-01 -7.50353411e-01 4.37305853e-01 -3.16732163e+01
4.50810026e-02 2.85183817e-01 -6.02707744e-01 2.85183817e-01 -7.02513278e-01 6.83048308e-01 -6.02707744e-01 6.83048308e-01 -3.06566563e+01
-4.09598242e+00 -1.77635391e+00 5.81569311e+00 -1.77635391e+00 1.12463917e+00 -1.55478924e+00 5.81569311e+00 -1.55478924e+00 -2.77298268e+01
-3.26221040e+00 -9.62789893e-01 4.71547407e+00 -9.62789893e-01 4.94272673e+00 4.49587578e+00 4.71547407e+00 4.49587578e+00 -2.59534464e+01
-4.92674762e+00 -1.96631503e+00 7.00933266e+00 -1.96631503e+00 -2.25612881e+00 -6.98371590e+00 7.00933266e+00 -6.98371590e+00 -3.29343047e+01
-1.48272866e+00 3.92183377e-01 2.14640551e+00 3.92183377e-01 3.32150646e+00 5.52240263e+00 2.14640551e+00 5.52240263e+00 -2.54601209e+01
-2.39572510e+00 -6.99220687e-01 3.93234816e+00 -6.99220687e-01 1.42759135e+00 3.73156798e+00 3.93234816e+00 3.73156798e+00 -2.19899626e+01
-5.95019841e+00 6.18136380e-01 1.09408051e-01 6.18136380e-01 -3.51182729e-01 6.59863341e+00 1.09408051e-01 6.59863341e+00 -1.86328785e+01
-1.92244368e+00 1.04581813e+00 1.20656231e+00 1.04581813e+00 -2.64684021e-01 8.15606259e-01 1.20656231e+00 8.15606259e-01 -2.21087651e+01
-3.34027700e-01 1.05534109e+00 9.39691186e-01 1.05534109e+00 -5.36512733e-02 -3.04890975e-01 9.39691186e-01 -3.04890975e-01 -2.32149429e+01
-5.78344735e-01 -1.03051588e+00 -5.05751903e+00 -1.03051588e+00 3.28426496e+00 3.77006800e+00 -5.05751903e+00 3.77006800e+00 -2.82333270e+01
-5.54696321e+00 8.91313744e+00 -7.59489632e+00 8.91313744e+00 -7.37222195e+00 6.45674944e+00 -7.59489632e+00 6.45674944e+00 -2.04695535e+00
-4.17265590e+00 2.35253100e+00 -1.09383777e+01 2.35253100e+00 -2.33286953e+00 4.18387914e+00 -1.09383777e+01 4.18387914e+00 -2.88778776e+01
-1.44001378e+00 9.73600417e-01 2.87242803e+00 9.73600417e-01 -2.61764079e-01 -4.11110058e-01 2.87242803e+00 -4.11110058e-01 -2.56643810e+01
-9.52881016e-01 -2.24260554e-01 1.21194267e+00 -2.24260554e-01 1.55115619e+00 1.63663405e+00 1.21194267e+00 1.63663405e+00 -2.77809343e+01
</DataArray>
<DataArray type="Float32" Name="Logarithmic_strain_components" NumberOfComponents="9" format="ascii">
1.25379156e-04 -1.38771270e-07 -2.02177546e-07 -1.38771270e-07 3.69001908e-04 1.59289243e-07 -2.02177546e-07 1.59289243e-07 -7.75603927e-04
1.43863719e-04 2.88287674e-05 -3.32464396e-07 2.88287674e-05 4.01974903e-04 -1.31544823e-07 -3.32464396e-07 -1.31544823e-07 -8.23004404e-04
1.60228257e-04 8.59914317e-05 -4.80855497e-05 8.59914317e-05 3.27665213e-04 -2.41312450e-05 -4.80855497e-05 -2.41312450e-05 -7.60558076e-04
1.53018744e-04 3.07922219e-05 -2.36653132e-05 3.07922219e-05 3.12121629e-04 -1.32647045e-07 -2.36653132e-05 -1.32647045e-07 -7.44405377e-04
1.26132883e-04 8.79336710e-08 3.09737134e-05 8.79336710e-08 3.45550608e-04 -5.03530482e-05 3.09737134e-05 -5.03530482e-05 -7.51382409e-04
1.43191608e-04 4.70559496e-06 6.18857830e-05 4.70559496e-06 3.50780603e-04 -7.29705048e-05 6.18857830e-05 -7.29705048e-05 -7.76932051e-04
1.50706101e-04 3.54901111e-05 4.05065082e-05 3.54901111e-05 3.13652385e-04 -4.09740012e-05 4.05065082e-05 -4.09740012e-05 -7.45916062e-04
1.30159977e-04 6.64818742e-06 2.02605711e-05 6.64818742e-06 3.06499089e-04 -1.96488490e-05 2.02605711e-05 -1.96488490e-05 -7.18779425e-04
1.86550627e-04 3.19946557e-05 1.64252185e-07 3.19946557e-05 4.80396688e-04 6.06964886e-06 1.64252185e-07 6.06964886e-06 -9.37994075e-04
1.71847416e-04 1.14342267e-04 -8.92288663e-05 1.14342267e-04 3.53707757e-04 -1.53764381e-05 -8.92288663e-05 -1.53764381e-05 -7.84729244e-04
1.83081193e-04 1.07018645e-05 1.57981096e-04 1.07018645e-05 3.69928930e-04 -7.66833082e-05 1.57981096e-04 -7.66833082e-05 -8.43068963e-04
1.99218748e-04 4.48513747e-05 5.88649764e-05 4.48513747e-05 3.50949045e-04 -6.62317857e-05 5.88649764e-05 -6.62317857e-05 -8.31504447e-04
2.26860764e-04 7.97308303e-06 -3.20967587e-07 7.97308303e-06 5.48052776e-04 3.64381012e-05 -3.20967587e-07 3.64381012e-05 -1.04918849e-03
2.09546059e-04 9.50023150e-05 -1.40569773e-04 9.50023150e-05 3.99651020e-04 1.82422141e-05 -1.40569773e-04 1.82422141e-05 -8.61325010e-04
2.45583880e-04 -1.02571823e-05 1.74333181e-04 -1.02571823e-05 3.97494674e-04 -2.14960301e-05 1.74333181e-04 -2.14960301e-05 -9.36856974e-04
2.45504141e-04 -1.59102088e-05 1.08517392e-04 -1.59102088e-05 3.64260286e-04 -6.81925158e-05 1.08517392e-04 -6.81925158e-05 -8.95743251e-04
2.90511962e-04 -2.92856930e-05 6.30148307e-08 -2.92856930e-05 5.82871056e-04 6.41785446e-05 6.30148307e-08 6.41785446e-05 -1.14856230e-03
2.90679294e-04 3.93056030e-05 -2.00344581e-04 3.93056030e-05 4.71433239e-04 5.44593531e-05 -2.00344581e-04 5.44593531e-05 -1.01307644e-03
3.31998948e-04 -3.90405776e-05 8.05642230e-05 -3.90405776e-05 4.23996062e-04 -1.92048175e-05 8.05642230e-05 -1.92048175e-05 -1.04011287e-03
2.93860950e-04 -4.08047724e-05 1.33320716e-04 -4.08047724e-05 3.37752645e-04 -5.12655080e-05 1.33320716e-04 -5.12655080e-05 -9.26570407e-04
4.47597340e-04 -1.02358928e-04 -7.30349257e-08 -1.02358928e-04 6.57262543e-04 3.72093673e-05 -7.30349257e-08 3.72093673e-05 -1.33183779e-03
3.87799897e-04 1.07549176e-05 -2.46216026e-04 1.07549176e-05 5.45500479e-04 7.44641584e-05 -2.46216026e-04 7.44641584e-05 -1.16003535e-03
4.08860782e-04 -6.51601185e-05 1.00801972e-04 -6.51601185e-05 4.74900218e-04 -6.28774505e-05 1.00801972e-04 -6.28774505e-05 -1.12711423e-03
3.66999448e-04 -4.71151041e-05 1.68280119e-04 -4.71151041e-05 3.86631589e-04 -3.47915264e-05 1.68280119e-04 -3.47915264e-05 -1.03101692e-03
4.79555747e-04 -2.90409720e-04 2.91751121e-07 -2.90409720e-04 8.40652559e-04 -1.40908960e-04 2.91751121e-07 -1.40908960e-04 -1.50110270e-03
4.28567888e-04 -1.45085362e-04 -3.63887884e-04 -1.45085362e-04 6.87406733e-04 8.58175808e-05 -3.63887884e-04 8.58175808e-05 -1.31920434e-03
4.09953544e-04 -6.37564990e-05 4.44493089e-05 -6.37564990e-05 5.85726375e-04 -2.02632917e-04 4.44493089e-05 -2.02632917e-04 -1.20788452e-03
3.86615160e-04 -9.07993053e-05 3.54905715e-05 -9.07993053e-05 4.91066465e-04 -7.51606858e-05 3.54905715e-05 -7.51606858e-05 -1.13280985e-03
1.76715381e-04 5.76159064e-05 -2.52942859e-05 5.76159064e-05 1.74574840e-04 -3.54127706e-05 -2.52942859e-05 -3.54127706e-05 -6.16008052e-04
1.93996384e-04 2.32688599e-05 -1.30293088e-05 2.32688599e-05 1.95583627e-04 2.14405134e-07 -1.30293088e-05 2.14405134e-07 -6.67640183e-04
1.68674753e-04 5.20948097e-05 8.25414604e-05 5.20948097e-05 2.12595483e-04 -1.02797535e-05 8.25414604e-05 -1.02797535e-05 -6.55687450e-04
1.47749630e-04 1.08712859e-05 6.13853736e-05 1.08712859e-05 1.97682832e-04 5.56133973e-05 6.13853736e-05 5.56133973e-05 -6.31845935e-04
1.65052577e-04 8.75720962e-05 -1.89652137e-05 8.75720962e-05 1.48965308e-04 -4.07789175e-05 -1.89652137e-05 -4.07789175e-05 -5.43708011e-04
1.55045291e-04 5.66372978e-05 9.34677619e-05 5.66372978e-05 1.97895171e-04 1.96325108e-05 9.34677619e-05 1.96325108e-05 -5.92614240e-04
1.42512559e-04 1.14804216e-04 -7.30683732e-05 1.14804216e-04 1.20522771e-04 -7.44113877e-05 -7.30683732e-05 -7.44113877e-05 -4.39426149e-04
1.68181963e-04 -3.01535095e-05 2.41404284e-04 -3.01535095e-05 2.01010922e-04 4.20133708e-05 2.41404284e-04 4.20133708e-05 -5.84538706e-04
1.38662497e-04 6.70577056e-05 -2.17552748e-04 6.70577056e-05 1.44938344e-04 1.02335944e-05 -2.17552748e-04 1.02335944e-05 -4.15433984e-04
2.47656227e-04 -6.87727033e-05 4.14622982e-04 -6.87727033e-05 2.21789734e-04 6.80025890e-05 4.14622982e-04 6.80025890e-05 -6.85944227e-04
1.29866758e-04 1.56517153e-05 -2.45300951e-04 1.56517153e-05 1.74088189e-04 8.51496716e-05 -2.45300951e-04 8.51496716e-05 -4.44830475e-04
2.36458585e-04 -4.08705531e-05 4.52305506e-04 -4.08705531e-05 2.58904388e-04 1.10685294e-04 4.52305506e-04 1.10685294e-04 -7.22303836e-04
1.54810274e-04 -1.01828279e-04 -2.85679882e-04 -1.01828279e-04 1.76429930e-04 2.02805793e-04 -2.85679882e-04 2.02805793e-04 -4.96824810e-04
2.43021047e-04 -1.55158482e-04 3.83882036e-04 -1.55158482e-04 3.43839919e-04 2.34109231e-04 3.83882036e-04 2.34109231e-04 -8.22986631e-04
1.78385493e-04 -1.47384378e-06 3.30604030e-06 -1.47384378e-06 7.62769150e-05 -2.88861625e-05 3.30604030e-06 -2.88861625e-05 -5.10024489e-04
1.97539193e-04 -3.09689813e-06 2.00647150e-06 -3.09689813e-06 9.83405989e-05 -1.50363832e-07 2.00647150e-06 -1.50363832e-07 -5.69520256e-04
1.73150851e-04 -3.17215381e-07 8.70085969e-05 -3.17215381e-07 1.07181888e-04 2.78897610e-05 8.70085969e-05 2.78897610e-05 -5.41870126e-04
1.55519563e-04 -2.05534724e-06 8.42697027e-05 -2.05534724e-06 9.94879774e-05 6.42235573e-05 8.42697027e-05 6.42235573e-05 -5.36987383e-04
1.52746950e-04 1.59551207e-05 -9.82379606e-06 1.59551207e-05 4.33053788e-05 -2.97408196e-05 -9.82379606e-06 -2.97408196e-05 -3.92559938e-04
1.30103406e-04 4.21401342e-06 8.49191938e-05 4.21401342e-06 4.61343275e-05 6.04936199e-05 8.49191938e-05 6.04936199e-05 -3.64165899e-04
8.64777758e-05 4.15826753e-05 -2.28853150e-05 4.15826753e-05 -4.94158712e-06 -7.14969756e-05 -2.28853150e-05 -7.14969756e-05 -1.69594145e-04
3.57609118e-05 -3.73021855e-05 7.44023079e-05 -3.73021855e-05 -1.51898906e-05 7.92361328e-05 7.44023079e-05 7.92361328e-05 -1.17796020e-04
-4.90220615e-06 2.46191691e-05 -1.76652509e-04 2.46191691e-05 -6.68821691e-05 -7.17144746e-05 -1.76652509e-04 -7.17144746e-05 5.54015090e-05
-1.80701063e-05 -1.31285152e-04 1.50472459e-04 -1.31285152e-04 -1.17062858e-05 1.03597762e-04 1.50472459e-04 1.03597762e-04 1.41130713e-05
-2.61987457e-05 -2.18352435e-06 -1.88609993e-04 -2.18352435e-06 -7.03531647e-05 1.15916849e-05 -1.88609993e-04 1.15916849e-05 6.56316818e-05
-2.82212374e-05 3.94157663e-06 1.56470419e-04 3.94157663e-06 -1.51100673e-05 -3.98273639e-05 1.56470419e-04 -3.98273639e-05 1.24408434e-05
2.59191453e-05 -3.94977942e-05 -9.50642752e-05 -3.94977942e-05 -1.16382351e-04 4.56696289e-05 -9.50642752e-05 4.56696289e-05 4.72309566e-05
-2.99764179e-06 -3.89415145e-05 1.78538037e-04 -3.89415145e-05 -2.27393639e-05 -3.26783029e-05 1.78538037e-04 -3.26783029e-05 -1.60766003e-05
1.72273161e-04 -3.16185547e-05 1.79032663e-05 -3.16185547e-05 5.26485737e-05 -2.13051471e-05 1.79032663e-05 -2.13051471e-05 -4.78856033e-04
1.78702430e-04 -1.25767533e-05 1.60150712e-05 -1.25767533e-05 5.97660965e-05 -4.07677305e-08 1.60150712e-05 -4.07677305e-08 -5.10814338e-04
1.50853832e-04 -3.83217518e-05 4.03999414e-05 -3.83217518e-05 6.08285836e-05 4.36362743e-05 4.03999414e-05 4.36362743e-05 -4.70282077e-04
1.57246068e-04 -1.09888485e-05 5.48544303e-05 -1.09888485e-05 6.77749613e-05 3.04648265e-05 5.48544303e-05 3.04648265e-05 -5.02370487e-04
1.42989535e-04 -3.04702380e-05 -1.08576987e-05 -3.04702380e-05 2.69200294e-05 -3.80968495e-05 -1.08576987e-05 -3.80968495e-05 -3.61948885e-04
1.10421408e-04 -5.80826395e-05 2.49976915e-06 -5.80826395e-05 4.22024310e-05 8.71906555e-05 2.49976915e-06 8.71906555e-05 -3.46194767e-04
6.59592079e-05 -1.44260064e-05 -1.72560676e-05 -1.44260064e-05 1.04612263e-05 -9.03031760e-05 -1.72560676e-05 -9.03031760e-05 -1.54235142e-04
5.59757949e-05 -2.18852322e-05 -6.28272358e-05 -2.18852322e-05 2.34131623e-05 9.60627379e-05 -6.28272358e-05 9.60627379e-05 -1.79858694e-04
-8.35298427e-06 1.06413299e-05 2.98182689e-05 1.06413299e-05 -9.84992918e-06 -5.73521296e-05 2.98182689e-05 -5.73521296e-05 2.49572572e-05
1.41088738e-06 3.82703826e-05 -3.34906266e-07 3.82703826e-05 1.15076855e-05 6.39941427e-05 -3.34906266e-07 6.39941427e-05 -7.02409761e-06
1.71199945e-05 -3.49412403e-06 2.76421542e-05 -3.49412403e-06 -5.09008241e-05 1.63644736e-05 2.76421542e-05 1.63644736e-05 3.67625744e-05
-4.34041961e-06 2.21355306e-06 2.31901613e-05 2.21355306e-06 -1.20020683e-05 1.35999873e-06 2.31901613e-05 1.35999873e-06 2.83504799e-05
1.26793020e-05 -1.98497983e-05 5.85587236e-06 -1.98497983e-05 -2.57031438e-05 9.17085927e-08 5.85587236e-06 9.17085927e-08 1.62299698e-05
-3.13727242e-06 1.02026085e-05 -1.74416446e-05 1.02026085e-05 1.43350110e-05 -1.48572987e-05 -1.74416446e-05 -1.48572987e-05 6.98880285e-07
1.57754319e-04 -3.52379279e-05 2.41745547e-05 -3.52379279e-05 7.03316800e-05 -1.57920313e-05 2.41745547e-05 -1.57920313e-05 -5.01366005e-04
1.64590638e-04 -2.18948826e-05 1.88175918e-05 -2.18948826e-05 7.52415544e-05 -1.55975258e-07 1.88175918e-05 -1.55975258e-07 -5.21995331e-04
1.39215688e-04 -3.36014202e-05 2.55341376e-06 -3.36014202e-05 7.49431347e-05 6.12542675e-06 2.55341376e-06 6.12542675e-06 -4.92911440e-04
1.47348142e-04 -1.62883593e-05 9.93493643e-06 -1.62883593e-05 8.12131293e-05 2.37920303e-05 9.93493643e-06 2.37920303e-05 -5.17691442e-04
1.43188290e-04 -3.21071585e-05 1.68271185e-05 -3.21071585e-05 6.48955347e-05 -4.98456802e-05 1.68271185e-05 -4.98456802e-05 -4.38959541e-04
9.88665483e-05 -4.49450799e-05 -4.21331948e-05 -4.49450799e-05 7.49549017e-05 6.23368393e-05 -4.21331948e-05 6.23368393e-05 -4.27771549e-04
6.65140788e-05 1.03514594e-07 1.49346529e-05 1.03514594e-07 4.61208904e-05 -9.13861022e-05 1.49346529e-05 -9.13861022e-05 -2.41188984e-04
6.88794159e-05 -1.49514169e-05 -5.83947349e-05 -1.49514169e-05 7.64974199e-05 1.46905967e-04 -5.83947349e-05 1.46905967e-04 -3.25656406e-04
-4.22894809e-05 3.02532958e-05 5.96199368e-06 3.02532958e-05 9.98270116e-06 -6.73032391e-05 5.96199368e-06 -6.73032391e-05 1.08726833e-05
-1.58885905e-06 1.04592212e-05 5.46052138e-06 1.04592212e-05 -1.66594347e-05 5.93322766e-05 5.46052138e-06 5.93322766e-05 -3.09796189e-06
-1.38766729e-05 1.12300278e-05 -4.75892982e-07 1.12300278e-05 6.45548266e-06 1.76847943e-05 -4.75892982e-07 1.76847943e-05 1.15465025e-05
1.00984550e-05 1.21811541e-05 -5.73086927e-06 1.21811541e-05 -8.83397724e-06 1.04510746e-06 -5.73086927e-06 1.04510746e-06 1.97391010e-06
1.29561372e-05 1.37301327e-05 -4.88110322e-06 1.37301327e-05 -1.12853795e-05 4.18468517e-06 -4.88110322e-06 4.18468517e-06 -1.15226871e-05
8.35037721e-06 7.89616342e-06 -9.48352711e-06 7.89616342e-06 -1.40113885e-05 -4.29407949e-06 -9.48352711e-06 -4.29407949e-06 -2.58168795e-06
1.69657127e-04 -2.31927647e-05 1.41172627e-05 -2.31927647e-05 9.48076777e-05 -1.64303428e-05 1.41172627e-05 -1.64303428e-05 -5.52680751e-04
1.82443211e-04 -1.59970259e-05 3.10788055e-05 -1.59970259e-05 9.36061479e-05 -1.23559971e-07 3.10788055e-05 -1.23559971e-07 -5.66345290e-04
1.56154714e-04 -2.81453908e-05 3.56441251e-06 -2.81453908e-05 9.89850196e-05 -2.82411591e-05 3.56441251e-06 -2.82411591e-05 -5.50314013e-04
1.56734008e-04 -3.27482448e-05 -5.73655370e-06 -3.27482448e-05 9.67265805e-05 1.66411255e-05 -5.73655370e-06 1.66411255e-05 -5.52553189e-04
1.49729109e-04 -3.46179677e-05 2.25677231e-05 -3.46179677e-05 1.02540518e-04 -5.47236523e-05 2.25677231e-05 -5.47236523e-05 -5.10288519e-04
1.16002813e-04 -2.85899828e-05 -7.03356091e-06 -2.85899828e-05 1.12186528e-04 3.41623831e-05 -7.03356091e-06 3.41623831e-05 -5.16686770e-04
6.10166044e-05 -8.96971505e-06 3.54901749e-05 -8.96971505e-06 7.32578637e-05 -9.26225948e-05 3.54901749e-05 -9.26225948e-05 -2.93909659e-04
7.03819145e-05 -2.30382081e-05 -1.24967592e-05 -2.30382081e-05 1.04069764e-04 1.74721279e-04 -1.24967592e-05 1.74721279e-04 -3.94694662e-04
-6.82622267e-05 6.08565256e-06 4.93889002e-06 6.08565256e-06 9.82635811e-06 -8.05685377e-05 4.93889002e-06 -8.05685377e-05 1.82371814e-05
-3.27275695e-05 -2.15256600e-05 1.25253923e-05 -2.15256600e-05 -8.64740912e-06 8.42458867e-05 1.25253923e-05 8.42458867e-05 1.08691665e-06
-2.93598068e-05 1.35010143e-05 6.66291294e-06 1.35010143e-05 5.49458264e-06 1.17045870e-05 6.66291294e-06 1.17045870e-05 2.43442078e-05
-3.35237473e-06 3.36899150e-06 7.17250199e-06 3.36899150e-06 -4.58106858e-06 -4.33088108e-06 7.17250199e-06 -4.33088108e-06 7.83890725e-06
-4.59251578e-06 9.55513769e-06 -9.09716618e-06 9.55513769e-06 -1.63837205e-06 1.20630102e-05 -9.09716618e-06 1.20630102e-05 1.15066018e-06
-3.12728696e-06 1.22125113e-06 -2.42187113e-06 1.22125113e-06 -4.36353162e-06 5.59057358e-06 -2.42187113e-06 5.59057358e-06 4.10348105e-06
1.53702575e-04 5.61633939e-08 6.62167258e-05 5.61633939e-08 3.01413893e-04 -4.93583721e-05 6.62167258e-05 -4.93583721e-05 -7.37077877e-04
1.78014569e-04 -3.40349425e-05 5.88175126e-05 -3.40349425e-05 2.67572017e-04 -2.95613336e-05 5.88175126e-05 -2.95613336e-05 -7.38205141e-04
1.42406489e-04 -1.10104525e-04 5.30935163e-05 -1.10104525e-04 2.72912654e-04 -9.06883661e-05 5.30935163e-05 -9.06883661e-05 -7.18998177e-04
1.18563501e-04 -3.42672465e-05 8.80132175e-05 -3.42672465e-05 2.86132803e-04 -5.70054581e-05 8.80132175e-05 -5.70054581e-05 -6.91518551e-04
2.39046582e-04 -5.96207674e-05 -2.45497522e-05 -5.96207674e-05 1.95609187e-04 -4.99546441e-05 -2.45497522e-05 -4.99546441e-05 -7.46021979e-04
2.21314502e-04 -1.24194385e-04 1.08078256e-04 -1.24194385e-04 2.20913555e-04 -1.00891881e-04 1.08078256e-04 -1.00891881e-04 -7.86826393e-04
2.99609594e-04 -8.22512447e-06 3.17678769e-05 -8.22512447e-06 1.55658006e-04 -8.87038677e-05 3.17678769e-05 -8.87038677e-05 -7.82578994e-04
2.92389946e-04 -6.25506816e-05 1.50198957e-04 -6.25506816e-05 2.23643912e-04 4.68643434e-05 1.50198957e-04 4.68643434e-05 -8.75529455e-04
3.28467584e-04 -1.96249634e-05 2.48347453e-04 -1.96249634e-05 1.76313961e-04 -7.16101695e-05 2.48347453e-04 -7.16101695e-05 -8.30629811e-04
3.11166768e-04 -4.31459338e-06 2.68753595e-05 -4.31459338e-06 2.73864427e-04 5.83896750e-05 2.68753595e-05 5.83896750e-05 -9.33675597e-04
2.96184895e-04 -9.39914116e-06 2.51321064e-04 -9.39914116e-06 2.07932128e-04 -4.50961982e-05 2.51321064e-04 -4.50961982e-05 -8.13689825e-04
3.05000951e-04 -1.36864789e-05 1.10998209e-04 -1.36864789e-05 2.69221880e-04 -2.29323451e-05 1.10998209e-04 -2.29323451e-05 -9.08923037e-04
2.74087972e-04 7.85366974e-05 2.00846531e-04 7.85366974e-05 2.13821753e-04 -1.13647933e-04 2.00846531e-04 -1.13647933e-04 -7.89917918e-04
2.90944379e-04 7.53786589e-05 -3.23247805e-05 7.53786589e-05 2.56180596e-04 -9.92277492e-05 -3.23247805e-05 -9.92277492e-05 -8.71987402e-04
1.04428507e-04 -7.15565377e-05 1.12908084e-04 -7.15565377e-05 2.57263395e-04 -2.03727719e-05 1.12908084e-04 -2.03727719e-05 -6.81451602e-04
6.34081061e-05 -1.83845805e-05 1.63909965e-04 -1.83845805e-05 2.46625790e-04 -8.70627937e-05 1.63909965e-04 -8.70627937e-05 -5.97770966e-04
2.48953390e-04 -1.18296556e-04 3.24526145e-04 -1.18296556e-04 3.24453741e-04 3.86117951e-05 3.24526145e-04 3.86117951e-05 -9.16127373e-04
3.87464772e-04 -1.23178733e-04 5.45125874e-04 -1.23178733e-04 3.70506546e-04 -1.41703634e-04 5.45125874e-04 -1.41703634e-04 -1.10295054e-03
3.76354132e-04 1.68580332e-05 3.66116988e-05 1.68580332e-05 4.06460822e-04 -3.34950892e-05 3.66116988e-05 -3.34950892e-05 -1.15324082e-03
4.27724721e-04 -1.89235661e-05 9.75927960e-05 -1.89235661e-05 4.22326419e-04 1.73607353e-04 9.75927960e-05 1.73607353e-04 -1.21075049e-03
4.46838429e-04 9.54019524e-05 -1.23840015e-04 9.54019524e-05 3.99720026e-04 1.00871963e-04 -1.23840015e-04 1.00871963e-04 -1.19229336e-03
5.37239976e-05 2.88423214e-05 2.00973323e-04 2.88423214e-05 1.51989464e-04 9.69964876e-05 2.00973323e-04 9.69964876e-05 -4.97364577e-04
9.27206675e-05 2.77724353e-05 1.48790645e-04 2.77724353e-05 1.78405331e-04 -4.62158396e-05 1.48790645e-04 -4.62158396e-05 -5.48795913e-04
9.27938530e-05 -8.11767901e-05 2.12324233e-04 -8.11767901e-05 2.55528710e-04 3.76732043e-04 2.12324233e-04 3.76732043e-04 -5.89635936e-04
-1.50760890e-04 -2.42306049e-04 2.74453181e-04 -2.42306049e-04 3.05166632e-05 3.28987153e-04 2.74453181e-04 3.28987153e-04 7.10587938e-06
9.63444963e-05 2.08143229e-06 1.29813521e-04 2.08143229e-06 7.48388120e-05 9.33216239e-05 1.29813521e-04 9.33216239e-05 -4.31140441e-04
1.20179857e-04 -1.01080111e-06 9.81992694e-05 -1.01080111e-06 1.02554175e-04 6.47282359e-05 9.81992694e-05 6.47282359e-05 -5.01502815e-04
3.87148949e-05 -2.76412518e-05 2.71222535e-05 -2.76412518e-05 4.97450429e-05 1.84240510e-04 2.71222535e-05 1.84240510e-04 -2.94778068e-04
-1.13801758e-05 -1.23054269e-05 -2.25582048e-04 -1.23054269e-05 5.81171524e-05 1.70880754e-04 -2.25582048e-04 1.70880754e-04 -2.03750373e-04
9.90162807e-05 -5.28844703e-05 1.76505587e-05 -5.28844703e-05 9.95237688e-05 5.04055783e-05 1.76505587e-05 5.04055783e-05 -4.95598324e-04
9.50482590e-05 -2.23829843e-05 3.32852791e-05 -2.23829843e-05 8.34763759e-05 3.91495596e-05 3.32852791e-05 3.91495596e-05 -4.82428833e-04
9.95340547e-05 -5.76473913e-05 -2.72757752e-05 -5.76473913e-05 1.05470928e-04 3.31678598e-05 -2.72757752e-05 3.31678598e-05 -4.82590098e-04
9.42550669e-05 -3.17866555e-05 -1.61122361e-04 -3.17866555e-05 1.16588926e-04 5.74203195e-05 -1.61122361e-04 5.74203195e-05 -4.75268636e-04
7.34411506e-05 -2.68864612e-05 -4.52781005e-05 -2.68864612e-05 1.22789424e-04 -5.23127960e-05 -4.52781005e-05 -5.23127960e-05 -5.29276731e-04
9.75627445e-05 1.64065896e-05 1.47459555e-05 1.64065896e-05 1.12526664e-04 -3.19149094e-05 1.47459555e-05 -3.19149094e-05 -5.34308027e-04
1.13392347e-04 -7.40173946e-05 -9.49023161e-06 -7.40173946e-05 1.65452991e-04 -5.11505568e-05 -9.49023161e-06 -5.11505568e-05 -6.14256540e-04
2.62196991e-04 -8.49168609e-05 1.70314259e-04 -8.49168609e-05 2.85054564e-04 2.04276221e-04 1.70314259e-04 2.04276221e-04 -8.76160775e-04
-1.19293068e-06 -3.11841302e-06 -7.66692665e-07 -3.11841302e-06 2.47981302e-06 4.00337854e-07 -7.66692665e-07 4.00337854e-07 -1.47659262e-06
1.38798360e-06 1.65095105e-06 -1.17166849e-07 1.65095105e-06 2.98447094e-06 -6.70568966e-07 -1.17166849e-07 -6.70568966e-07 -5.07973215e-06
1.97727843e-06 7.57848042e-08 3.07275855e-06 7.57848042e-08 -8.86085342e-07 5.49984804e-07 3.07275855e-06 5.49984804e-07 -1.91181749e-06
-1.09841667e-06 -5.11753797e-06 -6.60056685e-08 -5.11753797e-06 -2.44029965e-06 -2.80580480e-06 -6.60056685e-08 -2.80580480e-06 3.14619894e-06
2.18828653e-04 2.29706458e-08 1.23881022e-04 2.29706458e-08 2.49865800e-04 -5.51360263e-05 1.23881022e-04 -5.51360263e-05 -7.74805900e-04
2.35236497e-04 -2.68306717e-05 1.12260439e-04 -2.68306717e-05 2.21381448e-04 -1.27225408e-05 1.12260439e-04 -1.27225408e-05 -7.72772022e-04
2.25419477e-04 -1.31369648e-04 1.47421294e-04 -1.31369648e-04 2.35706146e-04 1.42660836e-05 1.47421294e-04 1.42660836e-05 -7.77816087e-04
2.00282975e-04 -2.56486437e-05 1.36668767e-04 -2.56486437e-05 2.75311813e-04 -6.68250832e-05 1.36668767e-04 -6.68250832e-05 -7.75261724e-04
2.80606844e-04 -6.41245078e-05 1.37121729e-04 -6.41245078e-05 1.42781004e-04 -3.97609620e-06 1.37121729e-04 -3.97609620e-06 -7.57824440e-04
2.74086795e-04 -1.76544751e-04 -1.68394427e-05 -1.76544751e-04 1.72480779e-04 -4.10423206e-06 -1.68394427e-05 -4.10423206e-06 -8.10477984e-04
3.15658588e-04 -1.17558432e-05 4.31839899e-05 -1.17558432e-05 8.14455125e-05 3.27684884e-05 4.31839899e-05 3.27684884e-05 -7.46446196e-04
3.12334176e-04 -9.91960429e-05 -1.43815644e-04 -9.91960429e-05 1.56216237e-04 -8.43712105e-05 -1.43815644e-04 -8.43712105e-05 -8.54089441e-04
2.84863090e-04 1.17824436e-06 -9.32226540e-05 1.17824436e-06 8.47853753e-05 -1.80566185e-06 -9.32226540e-05 -1.80566185e-06 -7.23816003e-04
3.00387697e-04 5.85548912e-05 1.58585290e-05 5.85548912e-05 2.36418901e-04 -1.78639120e-05 1.58585290e-05 -1.78639120e-05 -9.00031482e-04
1.99674098e-04 2.70720884e-05 -9.94252014e-06 2.70720884e-05 1.08443895e-04 -3.26218714e-05 -9.94252014e-06 -3.26218714e-05 -6.69476605e-04
2.67983760e-04 4.72026418e-05 -2.34312363e-05 4.72026418e-05 2.12213876e-04 3.62350329e-05 -2.34312363e-05 3.62350329e-05 -8.28118165e-04
1.71785359e-04 6.67010390e-05 2.23101770e-05 6.67010390e-05 7.52891610e-05 -4.36052269e-05 2.23101770e-05 -4.36052269e-05 -6.18825812e-04
2.36308071e-04 3.93542000e-05 1.42752815e-05 3.93542000e-05 1.71393018e-04 -2.04988164e-05 1.42752815e-05 -2.04988164e-05 -7.54465495e-04
1.36628616e-04 -1.75744088e-04 3.43019323e-04 -1.75744088e-04 2.55654822e-04 -1.79066284e-04 3.43019323e-04 -1.79066284e-04 -7.33181063e-04
9.74330451e-05 -1.01816537e-04 1.95375866e-04 -1.01816537e-04 2.94113779e-04 -7.07512245e-05 1.95375866e-04 -7.07512245e-05 -6.80756944e-04
2.91401782e-04 -1.47482874e-04 1.34923333e-04 -1.47482874e-04 2.73358676e-04 -2.32422684e-04 1.34923333e-04 -2.32422684e-04 -9.50985829e-04
5.08560363e-04 -1.71713488e-04 -7.38082395e-04 -1.71713488e-04 3.40255586e-04 1.06506940e-04 -7.38082395e-04 1.06506940e-04 -1.23364412e-03
4.20207180e-04 7.34316736e-05 7.12347810e-06 7.34316736e-05 4.02227866e-04 1.76460751e-04 7.12347810e-06 1.76460751e-04 -1.19470168e-03
3.24734188e-04 -1.67095202e-05 -6.28416606e-05 -1.67095202e-05 3.07824466e-04 3.97920103e-05 -6.28416606e-05 3.97920103e-05 -9.68555178e-04
2.97627703e-04 1.99464239e-05 -4.27141131e-05 1.99464239e-05 2.71369820e-04 5.32595313e-05 -4.27141131e-05 5.32595313e-05 -8.91632459e-04
1.10658604e-04 -1.09735005e-04 3.92802924e-04 -1.09735005e-04 2.84976870e-04 -5.93477910e-05 3.92802924e-04 -5.93477910e-05 -7.26754835e-04
1.08513559e-05 -4.96242055e-05 2.18210309e-04 -4.96242055e-05 2.16970777e-04 2.36081352e-04 2.18210309e-04 2.36081352e-04 -5.20299196e-04
3.53083931e-04 -2.32978433e-04 7.70244507e-04 -2.32978433e-04 5.44849085e-04 -8.88458755e-04 7.70244507e-04 -8.88458755e-04 -1.24382140e-03
5.95060891e-05 1.90378994e-05 9.16566786e-05 1.90378994e-05 1.75186998e-04 2.72306103e-04 9.16566786e-05 2.72306103e-04 -5.18373970e-04
3.59675223e-05 -3.30369785e-05 1.93363648e-04 -3.30369785e-05 1.27683445e-04 1.75940968e-04 1.93363648e-04 1.75940968e-04 -4.38333671e-04
1.72696432e-05 3.58574948e-05 7.72577550e-05 3.58574948e-05 1.91107447e-04 4.37900941e-04 7.72577550e-05 4.37900941e-04 -4.75605269e-04
3.77274537e-05 4.72133759e-05 5.78956244e-05 4.72133759e-05 7.34543927e-05 3.34770482e-05 5.78956244e-05 3.34770482e-05 -4.08234770e-04
8.22685070e-05 4.96595085e-05 4.57708802e-05 4.96595085e-05 8.64049216e-05 -1.63205509e-05 4.57708802e-05 -1.63205509e-05 -4.53215936e-04
7.05485312e-05 -7.02420722e-05 -2.27713301e-04 -7.02420722e-05 1.57315078e-04 2.15942786e-04 -2.27713301e-04 2.15942786e-04 -5.41918470e-04
-7.27433799e-05 4.27656138e-04 -3.64286767e-04 4.27656138e-04 -1.16464107e-04 3.09939060e-04 -3.64286767e-04 3.09939060e-04 1.10699821e-05
2.92788302e-04 1.58287434e-04 -8.40840881e-04 1.58287434e-04 4.50969767e-04 4.09346831e-04 -8.40840881e-04 4.09346831e-04 -1.06755754e-03
1.29213652e-04 5.35515173e-05 1.98292889e-04 5.35515173e-05 1.63670380e-04 -1.02046879e-05 1.98292889e-04 -1.02046879e-05 -6.02900509e-04
9.98010109e-05 -1.09196458e-05 6.78753131e-05 -1.09196458e-05 1.62205026e-04 8.43208363e-05 6.78753131e-05 8.43208363e-05 -5.83936635e-04
</DataArray>
<DataArray type="Float32" Name="Plastic_strain_components" NumberOfComponents="9" format="ascii">
9.47702865e-05 -9.86694886e-08 -7.54495488e-09 -9.86694886e-08 1.59180563e-04 -2.49409027e-08 -7.54495488e-09 -2.49409027e-08 -2.13390609e-04
1.14890649e-04 1.01936048e-05 -8.18726207e-08 1.01936048e-05 1.92099964e-04 -1.19624735e-06 -8.18726207e-08 -1.19624735e-06 -2.57972075e-04
9.93035610e-05 2.42656579e-05 -1.34297859e-05 2.42656579e-05 1.42214016e-04 -7.62103991e-06 -1.34297859e-05 -7.62103991e-06 -2.03057283e-04
9.02296779e-05 8.06568028e-06 -6.21312074e-06 8.06568028e-06 1.27481238e-04 6.02009074e-08 -6.21312074e-06 6.02009074e-08 -1.83140481e-04
8.68458046e-05 2.15654694e-08 7.29290696e-06 2.15654694e-08 1.42331541e-04 -1.37523621e-05 7.29290696e-06 -1.37523621e-05 -1.92587228e-04
9.89476739e-05 1.88079244e-06 1.71982651e-05 1.88079244e-06 1.54114568e-04 -2.22067172e-05 1.71982651e-05 -2.22067172e-05 -2.12689523e-04
8.92651015e-05 1.07296006e-05 9.49832815e-06 1.07296006e-05 1.28386710e-04 -1.03200753e-05 9.49832815e-06 -1.03200753e-05 -1.83060645e-04
7.54208704e-05 1.64314059e-06 4.04057539e-06 1.64314059e-06 1.14378903e-04 -3.55891558e-06 4.04057539e-06 -3.55891558e-06 -1.59604962e-04
1.61104792e-04 1.52280022e-05 -3.67295300e-07 1.52280022e-05 2.70881137e-04 -3.91381633e-07 -3.67295300e-07 -3.91381633e-07 -3.63055078e-04
1.11465557e-04 3.75634409e-05 -2.62301951e-05 3.75634409e-05 1.67285216e-04 -7.23384642e-06 -2.62301951e-05 -7.23384642e-06 -2.34183233e-04
1.29903005e-04 4.08166375e-06 5.26670592e-05 4.08166375e-06 1.85641635e-04 -2.71915121e-05 5.26670592e-05 -2.71915121e-05 -2.65254581e-04
1.29706273e-04 1.73910025e-05 1.72589164e-05 1.73910025e-05 1.75453331e-04 -2.13135886e-05 1.72589164e-05 -2.13135886e-05 -2.56822732e-04
2.02887262e-04 6.70828263e-06 -5.36966922e-07 6.70828263e-06 3.42729691e-04 1.42514664e-05 -5.36966922e-07 1.42514664e-05 -4.58574010e-04
1.44086185e-04 4.09661934e-05 -5.09330430e-05 4.09661934e-05 2.18453468e-04 1.29488748e-06 -5.09330430e-05 1.29488748e-06 -3.04658053e-04
1.77478338e-04 -2.86983391e-06 6.83778817e-05 -2.86983391e-06 2.29375808e-04 -9.87153817e-06 6.83778817e-05 -9.87153817e-06 -3.42332154e-04
1.64678768e-04 -5.67593116e-06 4.28679665e-05 -5.67593116e-06 2.05208125e-04 -2.57957256e-05 4.28679665e-05 -2.57957256e-05 -3.11136097e-04
2.51836384e-04 -1.09831126e-05 -4.15246305e-07 -1.09831126e-05 3.93506503e-04 3.10523064e-05 -4.15246305e-07 3.10523064e-05 -5.42687485e-04
2.14747171e-04 2.47752901e-05 -9.57069642e-05 2.47752901e-05 3.05016434e-04 2.08462661e-05 -9.57069642e-05 2.08462661e-05 -4.37138275e-04
2.41419970e-04 -1.60038649e-05 3.38693499e-05 -1.60038649e-05 2.76304061e-04 -8.48143245e-06 3.38693499e-05 -8.48143245e-06 -4.36066548e-04
1.94001715e-04 -1.45878670e-05 5.58128622e-05 -1.45878670e-05 2.05018292e-04 -2.32893838e-05 5.58128622e-05 -2.32893838e-05 -3.35246028e-04
3.75930103e-04 -4.92513936e-05 -6.08850769e-07 -4.92513936e-05 4.92056133e-04 2.42051838e-05 -6.08850769e-07 2.42051838e-05 -7.30747182e-04
2.97496641e-04 1.44697615e-05 -1.34816248e-04 1.44697615e-05 3.93013492e-04 3.82572989e-05 -1.34816248e-04 3.82572989e-05 -5.80925713e-04
3.05623442e-04 -2.87853645e-05 4.84584252e-05 -2.87853645e-05 3.33646640e-04 -2.74674248e-05 4.84584252e-05 -2.74674248e-05 -5.38410502e-04
2.59323606e-04 -1.59126696e-05 7.79894317e-05 -1.59126696e-05 2.63692153e-04 -1.69997936e-05 7.79894317e-05 -1.69997936e-05 -4.39365336e-04
4.34039277e-04 -1.74885819e-04 -5.34947389e-07 -1.74885819e-04 6.52543502e-04 -8.72089004e-05 -5.34947389e-07 -8.72089004e-05 -9.13528027e-04
3.56846955e-04 -7.51919770e-05 -2.15872744e-04 -7.51919770e-05 5.26584132e-04 4.99732905e-05 -2.15872744e-04 4.99732905e-05 -7.41711032e-04
3.31929594e-04 -3.14212866e-05 2.39687888e-05 -3.14212866e-05 4.17411298e-04 -1.06593998e-04 2.39687888e-05 -1.06593998e-04 -6.30837836e-04
2.99706564e-04 -3.73294633e-05 2.05412107e-05 -3.73294633e-05 3.45931163e-04 -3.51529270e-05 2.05412107e-05 -3.51529270e-05 -5.42519359e-04
4.52661070e-05 8.27443989e-06 -3.04333383e-06 8.27443989e-06 4.46553645e-05 -5.07724997e-06 -3.04333383e-06 -5.07724997e-06 -7.56967465e-05
6.64981308e-05 3.65314077e-06 -2.97561769e-06 3.65314077e-06 6.57334585e-05 -1.95866605e-07 -2.97561769e-06 -1.95866605e-07 -1.11355024e-04
5.99983528e-05 1.06508448e-05 1.47966909e-05 1.06508448e-05 6.65836542e-05 -2.20993218e-06 1.47966909e-05 -2.20993218e-06 -1.06527317e-04
4.13362138e-05 1.47110557e-06 8.40127734e-06 1.47110557e-06 4.79495845e-05 9.04415322e-06 8.40127734e-06 9.04415322e-06 -7.51589719e-05
1.06888481e-05 5.86520801e-06 -9.72421303e-07 5.86520801e-06 1.35659398e-05 -2.93394547e-06 -9.72421303e-07 -2.93394547e-06 -2.04324119e-05
3.16389276e-05 9.11548690e-06 8.60818261e-06 9.11548690e-06 4.18296396e-05 1.52715150e-06 8.60818261e-06 1.52715150e-06 -6.17675230e-05
-6.14988221e-06 3.25383780e-06 -2.97347640e-06 3.25383780e-06 -4.78289689e-06 -3.74129581e-06 -2.97347640e-06 -3.74129581e-06 9.14559632e-06
3.87565207e-05 -2.59227461e-06 2.33259936e-05 -2.59227461e-06 5.25392006e-05 1.11672740e-05 2.33259936e-05 1.11672740e-05 -7.69521716e-05
-7.95109281e-06 5.58681722e-06 -1.14958771e-05 5.58681722e-06 5.03266619e-08 -1.20683296e-06 -1.14958771e-05 -1.20683296e-06 6.63908099e-06
1.03796225e-04 -8.50043898e-06 1.01563166e-04 -8.50043898e-06 1.09088066e-04 2.71224206e-05 1.01563166e-04 2.71224206e-05 -1.78107757e-04
-4.54656424e-06 3.68163558e-06 -2.37459562e-05 3.68163558e-06 1.67639100e-05 6.46320882e-06 -2.37459562e-05 6.46320882e-06 -1.02957647e-05
1.09210501e-04 -1.25694351e-06 1.25266850e-04 -1.25694351e-06 1.32314325e-04 4.08894360e-05 1.25266850e-04 4.08894360e-05 -2.01672596e-04
9.53573908e-06 -2.29395300e-05 -4.31538901e-05 -2.29395300e-05 4.91941682e-05 2.84086236e-05 -4.31538901e-05 2.84086236e-05 -4.89226586e-05
1.31617298e-04 -3.40374099e-05 1.24736267e-04 -3.40374099e-05 1.87604887e-04 8.88383935e-05 1.24736267e-04 8.88383935e-05 -2.67014480e-04
-4.40046995e-06 -4.90828784e-07 2.54724331e-07 -4.90828784e-07 -3.39654173e-06 2.77742616e-07 2.54724331e-07 2.77742616e-07 6.56259738e-06
1.70593730e-05 -2.80677632e-07 4.39289579e-07 -2.80677632e-07 1.20573945e-05 -1.92741169e-07 4.39289579e-07 -1.92741169e-07 -2.45020838e-05
3.29023603e-06 -2.89406580e-07 2.13799090e-06 -2.89406580e-07 1.89474258e-06 -7.52875923e-07 2.13799090e-06 -7.52875923e-07 -4.38436011e-06
2.47510695e-06 -1.63054386e-07 9.60130137e-07 -1.63054386e-07 2.07088104e-06 1.01380395e-06 9.60130137e-07 1.01380395e-06 -3.81500377e-06
7.98239171e-07 1.20506058e-07 -6.01493411e-10 1.20506058e-07 6.11929977e-07 -6.71966518e-08 -6.01493411e-10 -6.71966518e-08 -1.18661490e-06
-5.21766790e-06 -1.36355643e-07 -2.52010992e-06 -1.36355643e-07 -5.57357215e-06 -1.63576930e-06 -2.52010992e-06 -1.63576930e-06 9.07117061e-06
0.00000000e+00 0.00000000e+00 0.00000000e+00 0.00000000e+00 0.00000000e+00 0.00000000e+00 0.00000000e+00 0.00000000e+00 0.00000000e+00
-2.62281416e-06 5.00084934e-06 -1.18366770e-05 5.00084934e-06 -3.99197537e-06 -4.55921175e-06 -1.18366770e-05 -4.55921175e-06 4.62554969e-06
0.00000000e+00 0.00000000e+00 0.00000000e+00 0.00000000e+00 0.00000000e+00 0.00000000e+00 0.00000000e+00 0.00000000e+00 0.00000000e+00
0.00000000e+00 0.00000000e+00 0.00000000e+00 0.00000000e+00 0.00000000e+00 0.00000000e+00 0.00000000e+00 0.00000000e+00 0.00000000e+00
0.00000000e+00 0.00000000e+00 0.00000000e+00 0.00000000e+00 0.00000000e+00 0.00000000e+00 0.00000000e+00 0.00000000e+00 0.00000000e+00
0.00000000e+00 0.00000000e+00 0.00000000e+00 0.00000000e+00 0.00000000e+00 0.00000000e+00 0.00000000e+00 0.00000000e+00 0.00000000e+00
0.00000000e+00 0.00000000e+00 0.00000000e+00 0.00000000e+00 0.00000000e+00 0.00000000e+00 0.00000000e+00 0.00000000e+00 0.00000000e+00
0.00000000e+00 0.00000000e+00 0.00000000e+00 0.00000000e+00 0.00000000e+00 0.00000000e+00 0.00000000e+00 0.00000000e+00 0.00000000e+00
1.67560813e-07 -4.17882440e-09 6.40666453e-09 -4.17882440e-09 9.96875826e-08 3.75250941e-10 6.40666453e-09 3.75250941e-10 -2.24586813e-07
-1.25069096e-06 3.11911741e-08 -4.78200022e-08 3.11911741e-08 -7.44078307e-07 -2.80091328e-09 -4.78200022e-08 -2.80091328e-09 1.67633880e-06
2.23889796e-08 -3.25724281e-10 6.47701848e-09 -3.25724281e-10 1.64009748e-08 5.74590642e-09 6.47701848e-09 5.74590642e-09 -3.26122525e-08
-1.67113640e-07 2.43123965e-09 -4.83451288e-08 2.43123965e-09 -1.22418555e-07 -4.28880327e-08 -4.83451288e-08 -4.28880327e-08 2.43421169e-07
0.00000000e+00 0.00000000e+00 0.00000000e+00 0.00000000e+00 0.00000000e+00 0.00000000e+00 0.00000000e+00 0.00000000e+00 0.00000000e+00
0.00000000e+00 0.00000000e+00 0.00000000e+00 0.00000000e+00 0.00000000e+00 0.00000000e+00 0.00000000e+00 0.00000000e+00 0.00000000e+00
0.00000000e+00 0.00000000e+00 0.00000000e+00 0.00000000e+00 0.00000000e+00 0.00000000e+00 0.00000000e+00 0.00000000e+00 0.00000000e+00
0.00000000e+00 0.00000000e+00 0.00000000e+00 0.00000000e+00 0.00000000e+00 0.00000000e+00 0.00000000e+00 0.00000000e+00 0.00000000e+00
0.00000000e+00 0.00000000e+00 0.00000000e+00 0.00000000e+00 0.00000000e+00 0.00000000e+00 0.00000000e+00 0.00000000e+00 0.00000000e+00
0.00000000e+00 0.00000000e+00 0.00000000e+00 0.00000000e+00 0.00000000e+00 0.00000000e+00 0.00000000e+00 0.00000000e+00 0.00000000e+00
0.00000000e+00 0.00000000e+00 0.00000000e+00 0.00000000e+00 0.00000000e+00 0.00000000e+00 0.00000000e+00 0.00000000e+00 0.00000000e+00
0.00000000e+00 0.00000000e+00 0.00000000e+00 0.00000000e+00 0.00000000e+00 0.00000000e+00 0.00000000e+00 0.00000000e+00 0.00000000e+00
0.00000000e+00 0.00000000e+00 0.00000000e+00 0.00000000e+00 0.00000000e+00 0.00000000e+00 0.00000000e+00 0.00000000e+00 0.00000000e+00
0.00000000e+00 0.00000000e+00 0.00000000e+00 0.00000000e+00 0.00000000e+00 0.00000000e+00 0.00000000e+00 0.00000000e+00 0.00000000e+00
1.46137893e-07 -7.89463250e-09 1.08699290e-08 -7.89463250e-09 1.04724947e-07 -7.77212072e-10 1.08699290e-08 -7.77212072e-10 -2.11071495e-07
-1.19568688e-06 6.32167527e-08 -8.36290255e-08 6.32167527e-08 -8.57714895e-07 9.10220344e-09 -8.36290255e-08 9.10220344e-09 1.72770626e-06
4.09759515e-08 -4.15005408e-09 -4.73172967e-09 -4.15005408e-09 3.25622196e-08 2.18708607e-09 -4.73172967e-09 2.18708607e-09 -6.18985538e-08
-2.91794890e-07 3.04016190e-08 3.56523486e-08 3.04016190e-08 -2.32860714e-07 -1.67668848e-08 3.56523486e-08 -1.67668848e-08 4.41619875e-07
0.00000000e+00 0.00000000e+00 0.00000000e+00 0.00000000e+00 0.00000000e+00 0.00000000e+00 0.00000000e+00 0.00000000e+00 0.00000000e+00
-1.21756818e-08 3.35466988e-09 4.13035206e-09 3.35466988e-09 -1.33556526e-08 -2.80989942e-09 4.13035206e-09 -2.80989942e-09 2.14599236e-08
0.00000000e+00 0.00000000e+00 0.00000000e+00 0.00000000e+00 0.00000000e+00 0.00000000e+00 0.00000000e+00 0.00000000e+00 0.00000000e+00
6.05870175e-08 -1.66930647e-08 -2.05529129e-08 -1.66930647e-08 6.64586347e-08 1.39822506e-08 -2.05529129e-08 1.39822506e-08 -1.06786037e-07
0.00000000e+00 0.00000000e+00 0.00000000e+00 0.00000000e+00 0.00000000e+00 0.00000000e+00 0.00000000e+00 0.00000000e+00 0.00000000e+00
0.00000000e+00 0.00000000e+00 0.00000000e+00 0.00000000e+00 0.00000000e+00 0.00000000e+00 0.00000000e+00 0.00000000e+00 0.00000000e+00
0.00000000e+00 0.00000000e+00 0.00000000e+00 0.00000000e+00 0.00000000e+00 0.00000000e+00 0.00000000e+00 0.00000000e+00 0.00000000e+00
0.00000000e+00 0.00000000e+00 0.00000000e+00 0.00000000e+00 0.00000000e+00 0.00000000e+00 0.00000000e+00 0.00000000e+00 0.00000000e+00
0.00000000e+00 0.00000000e+00 0.00000000e+00 0.00000000e+00 0.00000000e+00 0.00000000e+00 0.00000000e+00 0.00000000e+00 0.00000000e+00
0.00000000e+00 0.00000000e+00 0.00000000e+00 0.00000000e+00 0.00000000e+00 0.00000000e+00 0.00000000e+00 0.00000000e+00 0.00000000e+00
-1.09078815e-06 5.89263358e-08 -8.11342602e-08 5.89263358e-08 -7.81677784e-07 5.80119064e-09 -8.11342602e-08 5.80119064e-09 1.57545912e-06
8.92472872e-06 -4.71856282e-07 6.24215545e-07 -4.71856282e-07 6.40207054e-06 -6.79397729e-08 6.24215545e-07 -6.79397729e-08 -1.28957745e-05
-3.05848658e-07 3.09764268e-08 3.53181129e-08 3.09764268e-08 -2.43047765e-07 -1.63246323e-08 3.53181129e-08 -1.63246323e-08 4.62017113e-07
2.17798674e-06 -2.26920776e-07 -2.66112750e-07 -2.26920776e-07 1.73809576e-06 1.25149739e-07 -2.66112750e-07 1.25149739e-07 -3.29629574e-06
0.00000000e+00 0.00000000e+00 0.00000000e+00 0.00000000e+00 0.00000000e+00 0.00000000e+00 0.00000000e+00 0.00000000e+00 0.00000000e+00
9.08805262e-08 -2.50395971e-08 -3.08293693e-08 -2.50395971e-08 9.96879521e-08 2.09733759e-08 -3.08293693e-08 2.09733759e-08 -1.60179056e-07
0.00000000e+00 0.00000000e+00 0.00000000e+00 0.00000000e+00 0.00000000e+00 0.00000000e+00 0.00000000e+00 0.00000000e+00 0.00000000e+00
-4.52227710e-07 1.24598747e-07 1.53409047e-07 1.24598747e-07 -4.96054061e-07 -1.04364953e-07 1.53409047e-07 -1.04364953e-07 7.97061906e-07
0.00000000e+00 0.00000000e+00 0.00000000e+00 0.00000000e+00 0.00000000e+00 0.00000000e+00 0.00000000e+00 0.00000000e+00 0.00000000e+00
0.00000000e+00 0.00000000e+00 0.00000000e+00 0.00000000e+00 0.00000000e+00 0.00000000e+00 0.00000000e+00 0.00000000e+00 0.00000000e+00
0.00000000e+00 0.00000000e+00 0.00000000e+00 0.00000000e+00 0.00000000e+00 0.00000000e+00 0.00000000e+00 0.00000000e+00 0.00000000e+00
0.00000000e+00 0.00000000e+00 0.00000000e+00 0.00000000e+00 0.00000000e+00 0.00000000e+00 0.00000000e+00 0.00000000e+00 0.00000000e+00
0.00000000e+00 0.00000000e+00 0.00000000e+00 0.00000000e+00 0.00000000e+00 0.00000000e+00 0.00000000e+00 0.00000000e+00 0.00000000e+00
0.00000000e+00 0.00000000e+00 0.00000000e+00 0.00000000e+00 0.00000000e+00 0.00000000e+00 0.00000000e+00 0.00000000e+00 0.00000000e+00
8.51795412e-05 -2.47022527e-07 1.57972472e-05 -2.47022527e-07 1.21428628e-04 -1.21299167e-05 1.57972472e-05 -1.21299167e-05 -1.73790431e-04
8.88806317e-05 -8.90170031e-06 1.24170908e-05 -8.90170031e-06 1.08349956e-04 -7.79547690e-06 1.24170908e-05 -7.79547690e-06 -1.66040260e-04
7.38537665e-05 -2.63024340e-05 1.00652576e-05 -2.63024340e-05 1.02352793e-04 -2.30398809e-05 1.00652576e-05 -2.30398809e-05 -1.48041088e-04
6.19552202e-05 -7.91203638e-06 1.83274212e-05 -7.91203638e-06 9.80515306e-05 -1.29935886e-05 1.83274212e-05 -1.29935886e-05 -1.34415910e-04
1.01598509e-04 -1.53486797e-05 -6.91914465e-06 -1.53486797e-05 8.63838814e-05 -1.17222638e-05 -6.91914465e-06 -1.17222638e-05 -1.58365478e-04
1.13099711e-04 -3.43729355e-05 2.78889745e-05 -3.43729355e-05 1.09087639e-04 -3.42696191e-05 2.78889745e-05 -3.42696191e-05 -1.86291107e-04
1.30689963e-04 -1.99297904e-06 7.38983942e-06 -1.99297904e-06 8.66175596e-05 -2.52848320e-05 7.38983942e-06 -2.52848320e-05 -1.82900050e-04
1.63350278e-04 -2.26948778e-05 5.73331924e-05 -2.26948778e-05 1.35726421e-04 1.66035642e-05 5.73331924e-05 1.66035642e-05 -2.51074945e-04
1.64478184e-04 -5.25505493e-06 7.41232398e-05 -5.25505493e-06 1.13029117e-04 -2.10985047e-05 7.41232398e-05 -2.10985047e-05 -2.33084713e-04
1.86903306e-04 -4.92607509e-07 7.46402978e-06 -4.92607509e-07 1.70790537e-04 2.45410567e-05 7.46402978e-06 2.45410567e-05 -3.01329443e-04
1.51298715e-04 -2.11923394e-06 7.23957846e-05 -2.11923394e-06 1.21247307e-04 -1.05908192e-05 7.23957846e-05 -1.05908192e-05 -2.28988771e-04
1.78982918e-04 -4.75907119e-06 3.59349792e-05 -4.75907119e-06 1.64560115e-04 -7.57503609e-06 3.59349792e-05 -7.57503609e-06 -2.89304829e-04
1.35312810e-04 2.39496112e-05 5.35223899e-05 2.39496112e-05 1.14428809e-04 -3.61645375e-05 5.35223899e-05 -3.61645375e-05 -2.10033613e-04
1.63168603e-04 2.57871811e-05 -1.64281846e-05 2.57871811e-05 1.50206035e-04 -3.04336454e-05 -1.64281846e-05 -3.04336454e-05 -2.63849804e-04
4.72263775e-05 -1.23258296e-05 1.60511450e-05 -1.23258296e-05 7.61799008e-05 5.85583052e-07 1.60511450e-05 5.85583052e-07 -1.03745691e-04
2.39090566e-05 -1.57784023e-06 2.01763658e-05 -1.57784023e-06 4.64354018e-05 -8.92133622e-06 2.01763658e-05 -8.92133622e-06 -5.88743164e-05
1.63569799e-04 -4.15184799e-05 1.16808600e-04 -4.15184799e-05 1.89633295e-04 2.72820633e-05 1.16808600e-04 2.72820633e-05 -2.96937352e-04
2.93896071e-04 -5.72285338e-05 2.71703795e-04 -5.72285338e-05 2.75414830e-04 -6.90326291e-05 2.71703795e-04 -6.90326291e-05 -4.74833703e-04
2.81710669e-04 1.05711272e-05 9.05760692e-06 1.05711272e-05 2.89636257e-04 -3.50387018e-05 9.05760692e-06 -3.50387018e-05 -4.81277551e-04
3.23108805e-04 -9.70989561e-06 4.34002432e-05 -9.70989561e-06 3.18061502e-04 7.27170702e-05 4.34002432e-05 7.27170702e-05 -5.39984889e-04
3.28210401e-04 4.38458883e-05 -5.87330608e-05 4.38458883e-05 3.07373673e-04 4.78092843e-05 -5.87330608e-05 4.78092843e-05 -5.35029249e-04
-1.27358129e-05 2.83740773e-06 -1.09728344e-06 2.83740773e-06 -1.32887672e-05 -2.35974946e-06 -1.09728344e-06 -2.35974946e-06 2.18918336e-05
1.04364412e-05 1.87390913e-06 8.30023055e-06 1.87390913e-06 1.36511212e-05 -2.98036025e-06 8.30023055e-06 -2.98036025e-06 -2.02364195e-05
6.94011721e-05 -4.46422196e-06 2.83499235e-05 -4.46422196e-06 9.37711632e-05 8.72153485e-05 2.83499235e-05 8.72153485e-05 -1.36919453e-04
-1.67144372e-05 -4.62761600e-05 8.84913607e-05 -4.62761600e-05 6.11347696e-06 3.79670309e-05 8.84913607e-05 3.79670309e-05 1.88112681e-05
3.31269567e-06 -5.70267247e-08 5.24588705e-06 -5.70267247e-08 4.87301878e-06 2.52906214e-06 5.24588705e-06 2.52906214e-06 -6.66376047e-06
-2.12854093e-06 -5.99791150e-08 -2.22262156e-06 -5.99791150e-08 -2.94827078e-06 -5.23173924e-07 -2.22262156e-06 -5.23173924e-07 4.23693200e-06
-1.29928199e-05 -7.02200006e-07 -2.28392351e-05 -7.02200006e-07 -1.96817127e-05 -1.66789229e-05 -2.28392351e-05 -1.66789229e-05 2.64778750e-05
0.00000000e+00 0.00000000e+00 0.00000000e+00 0.00000000e+00 0.00000000e+00 0.00000000e+00 0.00000000e+00 0.00000000e+00 0.00000000e+00
6.34289137e-08 -1.42015892e-08 1.05429052e-08 -1.42015892e-08 7.74711282e-08 -1.37104674e-08 1.05429052e-08 -1.37104674e-08 -1.18715718e-07
0.00000000e+00 0.00000000e+00 0.00000000e+00 0.00000000e+00 0.00000000e+00 0.00000000e+00 0.00000000e+00 0.00000000e+00 0.00000000e+00
-1.69598604e-07 9.43892349e-07 -5.65518789e-07 9.43892349e-07 3.02892715e-08 1.83533758e-07 -5.65518789e-07 1.83533758e-07 2.02713331e-07
-1.50089902e-05 -2.39033663e-06 7.70510567e-06 -2.39033663e-06 -2.02887558e-05 -6.12612926e-06 7.70510567e-06 -6.12612926e-06 2.92274982e-05
-4.73439940e-07 1.06002112e-07 -7.86933185e-08 1.06002112e-07 -5.78252411e-07 1.02336315e-07 -7.86933185e-08 1.02336315e-07 8.86106193e-07
0.00000000e+00 0.00000000e+00 0.00000000e+00 0.00000000e+00 0.00000000e+00 0.00000000e+00 0.00000000e+00 0.00000000e+00 0.00000000e+00
9.03555886e-06 -6.63542941e-06 -3.37894996e-07 -6.63542941e-06 1.44700817e-05 -2.23814139e-06 -3.37894996e-07 -2.23814139e-06 -2.00147928e-05
1.46342886e-04 -3.28256573e-05 8.93652107e-05 -3.28256573e-05 1.58329923e-04 6.34712250e-05 8.93652107e-05 6.34712250e-05 -2.56802439e-04
0.00000000e+00 0.00000000e+00 0.00000000e+00 0.00000000e+00 0.00000000e+00 0.00000000e+00 0.00000000e+00 0.00000000e+00 0.00000000e+00
0.00000000e+00 0.00000000e+00 0.00000000e+00 0.00000000e+00 0.00000000e+00 0.00000000e+00 0.00000000e+00 0.00000000e+00 0.00000000e+00
0.00000000e+00 0.00000000e+00 0.00000000e+00 0.00000000e+00 0.00000000e+00 0.00000000e+00 0.00000000e+00 0.00000000e+00 0.00000000e+00
0.00000000e+00 0.00000000e+00 0.00000000e+00 0.00000000e+00 0.00000000e+00 0.00000000e+00 0.00000000e+00 0.00000000e+00 0.00000000e+00
1.08469754e-04 -7.58566685e-08 3.25324709e-05 -7.58566685e-08 1.18103930e-04 -1.48926638e-05 3.25324709e-05 -1.48926638e-05 -1.90701307e-04
1.09695888e-04 -8.13014356e-06 2.88089850e-05 -8.13014356e-06 1.06238340e-04 -3.60590826e-06 2.88089850e-05 -3.60590826e-06 -1.81761814e-04
1.10342905e-04 -3.79664672e-05 3.93809228e-05 -3.79664672e-05 1.13593860e-04 6.33897430e-06 3.93809228e-05 6.33897430e-06 -1.88344831e-04
1.04732166e-04 -8.38572089e-06 3.71958236e-05 -8.38572089e-06 1.28229503e-04 -1.81273792e-05 3.71958236e-05 -1.81273792e-05 -1.95978708e-04
1.13205617e-04 -1.64116589e-05 3.17593144e-05 -1.64116589e-05 7.73202100e-05 -2.12068886e-06 3.17593144e-05 -2.12068886e-06 -1.60189946e-04
1.28030096e-04 -5.10202603e-05 -2.90419598e-06 -5.10202603e-05 9.87590388e-05 8.32954174e-06 -2.90419598e-06 8.32954174e-06 -1.90528944e-04
1.13540407e-04 -2.82306777e-06 7.54891198e-06 -2.82306777e-06 5.81521172e-05 8.98858519e-06 7.54891198e-06 8.98858519e-06 -1.44161277e-04
1.52909284e-04 -3.38846952e-05 -5.26931354e-05 -3.38846952e-05 1.05999432e-04 -2.85073219e-05 -5.26931354e-05 -2.85073219e-05 -2.17287794e-04
9.13136919e-05 -1.97815226e-07 -2.04325888e-05 -1.97815226e-07 5.06759716e-05 1.20913666e-06 -2.04325888e-05 1.20913666e-06 -1.19297112e-04
1.66153164e-04 2.14691256e-05 5.63874426e-06 2.14691256e-05 1.48454547e-04 -5.74135652e-06 5.63874426e-06 -5.74135652e-06 -2.64885544e-04
4.20333404e-05 3.65488933e-06 -2.40417170e-06 3.65488933e-06 3.06696279e-05 -5.68753381e-06 -2.40417170e-06 -5.68753381e-06 -6.12272079e-05
1.32515379e-04 1.72588777e-05 -8.58257857e-06 1.72588777e-05 1.16729073e-04 1.30455157e-05 -8.58257857e-06 1.30455157e-05 -2.09843665e-04
8.91438731e-06 3.92964444e-06 4.80902031e-07 3.92964444e-06 5.83362953e-06 -1.95721316e-06 4.80902031e-07 -1.95721316e-06 -1.24100186e-05
9.28923746e-05 9.82057520e-06 3.00641159e-06 9.82057520e-06 8.03434723e-05 -2.69178659e-06 3.00641159e-06 -2.69178659e-06 -1.45869111e-04
8.32661485e-05 -4.78133475e-05 1.02993881e-04 -4.78133475e-05 1.18664231e-04 -4.61753442e-05 1.02993881e-04 -4.61753442e-05 -1.67287555e-04
5.27476113e-05 -2.34430017e-05 4.03714075e-05 -2.34430017e-05 1.00231908e-04 -1.36888075e-05 4.03714075e-05 -1.36888075e-05 -1.28283717e-04
1.82167738e-04 -5.42023364e-05 5.21738083e-05 -5.42023364e-05 1.70322964e-04 -7.71905683e-05 5.21738083e-05 -7.71905683e-05 -2.98456087e-04
3.93887761e-04 -9.44023048e-05 -3.89311157e-04 -9.44023048e-05 3.03448984e-04 4.68756247e-05 -3.89311157e-04 4.68756247e-05 -5.80230885e-04
3.13176646e-04 4.15258207e-05 1.11498143e-05 4.15258207e-05 3.01387154e-04 8.82894237e-05 1.11498143e-05 8.82894237e-05 -5.17476044e-04
2.06383054e-04 -2.98298062e-06 -2.69161659e-05 -2.98298062e-06 1.99172948e-04 1.86748414e-05 -2.69161659e-05 1.86748414e-05 -3.41491541e-04
1.71175554e-04 6.10020766e-06 -1.37839370e-05 6.10020766e-06 1.62617791e-04 2.04003218e-05 -1.37839370e-05 2.04003218e-05 -2.81101471e-04
8.63256899e-05 -2.45593124e-05 1.13673559e-04 -2.45593124e-05 1.35274942e-04 1.53104250e-05 1.13673559e-04 1.53104250e-05 -1.84005236e-04
-7.94170410e-06 -3.31209997e-06 -8.21963749e-06 -3.31209997e-06 1.21053381e-06 2.01967450e-05 -8.21963749e-06 2.01967450e-05 5.48835851e-06
3.11012554e-04 -1.38672529e-04 4.33910925e-04 -1.38672529e-04 4.38737785e-04 -5.53410892e-04 4.33910925e-04 -5.53410892e-04 -6.14040342e-04
5.42431824e-07 2.32485405e-07 -1.15029417e-05 2.32485405e-07 8.22056401e-07 7.35087833e-06 -1.15029417e-05 7.35087833e-06 -1.92193274e-06
1.54868877e-06 5.86957128e-07 4.62905234e-06 5.86957128e-07 1.53777808e-06 -3.13369463e-06 4.62905234e-06 -3.13369463e-06 -2.47252615e-06
6.03709195e-05 6.25509142e-06 7.18346200e-05 6.25509142e-06 9.98818359e-05 1.21252120e-04 7.18346200e-05 1.21252120e-04 -1.28080374e-04
-1.31386579e-05 -2.93950668e-06 -1.76830746e-08 -2.93950668e-06 -1.71896838e-05 -5.78287933e-06 -1.76830746e-08 -5.78287933e-06 2.52949269e-05
-4.15602210e-06 -1.05786737e-06 8.21043074e-07 -1.05786737e-06 -6.95250449e-06 -1.64529898e-06 8.21043074e-07 -1.64529898e-06 9.29851439e-06
-1.77569524e-05 -2.08212697e-05 1.52787127e-05 -2.08212697e-05 -2.38284003e-05 3.50217354e-05 1.52787127e-05 3.50217354e-05 3.33888718e-05
0.00000000e+00 0.00000000e+00 0.00000000e+00 0.00000000e+00 0.00000000e+00 0.00000000e+00 0.00000000e+00 0.00000000e+00 0.00000000e+00
2.51644242e-04 4.51352674e-05 -3.16197635e-04 4.51352674e-05 3.65928441e-04 2.08707391e-04 -3.16197635e-04 2.08707391e-04 -5.16028750e-04
5.44016377e-05 6.68218567e-06 6.05712419e-05 6.68218567e-06 6.05161134e-05 9.31716590e-06 6.05712419e-05 9.31716590e-06 -9.65344507e-05
1.42415001e-05 -2.08094406e-07 9.70093424e-06 -2.08094406e-07 1.64514040e-05 5.63417007e-06 9.70093424e-06 5.63417007e-06 -2.58173241e-05
</DataArray>
<DataArray type="Float32" Name="Spatial_displacement" NumberOfComponents="3" format="ascii">
0.00000000e+00 0.00000000e+00 0.00000000e+00
1.24112121e-04 0.00000000e+00 0.00000000e+00
1.53182220e-04 3.98098549e-04 0.00000000e+00
0.00000000e+00 3.67043278e-04 0.00000000e+00
0.00000000e+00 0.00000000e+00 -7.76167843e-04
1.24205515e-04 0.00000000e+00 -8.26453615e-04
1.28790940e-04 3.49893351e-04 -7.64681026e-04
0.00000000e+00 3.43379070e-04 -7.44951773e-04
2.79413158e-04 0.00000000e+00 0.00000000e+00
3.11383454e-04 4.69153252e-04 0.00000000e+00
2.85356422e-04 0.00000000e+00 -9.49544425e-04
2.96049402e-04 3.80184094e-04 -7.91777158e-04
4.73900582e-04 0.00000000e+00 0.00000000e+00
4.81906172e-04 5.45760384e-04 0.00000000e+00
5.10353828e-04 0.00000000e+00 -1.05113653e-03
5.00109512e-04 4.05391824e-04 -8.76669365e-04
7.27859791e-04 0.00000000e+00 0.00000000e+00
6.98528835e-04 6.11371361e-04 0.00000000e+00
7.92263076e-04 0.00000000e+00 -1.11958128e-03
7.53033732e-04 4.11136600e-04 -1.03924458e-03
1.11124793e-03 0.00000000e+00 0.00000000e+00
1.00916170e-03 6.96334639e-04 0.00000000e+00
1.14847138e-03 0.00000000e+00 -1.29181624e-03
1.08355435e-03 4.49915009e-04 -1.19120919e-03
1.70106860e-03 0.00000000e+00 0.00000000e+00
1.41075393e-03 9.51160328e-04 0.00000000e+00
1.56002806e-03 0.00000000e+00 -1.38888997e-03
1.49648695e-03 5.87282586e-04 -1.34502677e-03
1.93651926e-04 6.46625645e-04 0.00000000e+00
0.00000000e+00 6.23323489e-04 0.00000000e+00
1.58489158e-04 6.21537212e-04 -6.12558099e-04
0.00000000e+00 6.10640040e-04 -6.68056426e-04
3.60312522e-04 6.93040318e-04 0.00000000e+00
3.19584389e-04 6.74337731e-04 -5.44455019e-04
5.22076793e-04 7.67637393e-04 0.00000000e+00
4.47597879e-04 6.94720191e-04 -4.34819114e-04
6.55965938e-04 8.88572773e-04 0.00000000e+00
6.66089822e-04 6.71153655e-04 -4.18027688e-04
7.93006679e-04 1.02767861e-03 0.00000000e+00
8.78451625e-04 7.82727962e-04 -4.51820437e-04
9.01212159e-04 1.32125756e-03 0.00000000e+00
1.10392226e-03 1.03562640e-03 -5.42848487e-04
1.98123045e-04 7.54053588e-04 0.00000000e+00
0.00000000e+00 7.57278758e-04 0.00000000e+00
1.69235005e-04 7.57489586e-04 -5.05305419e-04
0.00000000e+00 7.59443501e-04 -5.69329364e-04
3.65848711e-04 7.65130855e-04 0.00000000e+00
3.36030498e-04 7.55406916e-04 -3.86588537e-04
5.15462074e-04 7.97138899e-04 0.00000000e+00
4.44001867e-04 7.74442335e-04 -1.52457593e-04
5.72714722e-04 8.95797159e-04 0.00000000e+00
5.00932743e-04 7.19209434e-04 1.09616900e-04
6.07715861e-04 1.02995080e-03 0.00000000e+00
6.19227241e-04 8.41494417e-04 1.11171452e-04
6.19796047e-04 1.21201354e-03 0.00000000e+00
6.65563915e-04 1.11726730e-03 3.33722564e-05
1.83175551e-04 8.07905803e-04 0.00000000e+00
0.00000000e+00 8.20661429e-04 0.00000000e+00
1.61812044e-04 8.25980213e-04 -4.76464949e-04
0.00000000e+00 8.36926629e-04 -5.06851764e-04
3.49060690e-04 7.91581580e-04 0.00000000e+00
3.11077951e-04 7.80968112e-04 -3.58829566e-04
4.74700995e-04 7.91774248e-04 0.00000000e+00
3.84367362e-04 7.74635584e-04 -1.53786736e-04
4.81902156e-04 8.44390946e-04 0.00000000e+00
4.24656668e-04 8.74594785e-04 3.56555393e-05
4.57789982e-04 1.06019888e-03 0.00000000e+00
4.73797729e-04 9.51707363e-04 0.00000000e+00
4.74223343e-04 1.08809303e-03 3.10083851e-06
4.75226901e-04 9.74888797e-04 1.97050394e-05
1.63963123e-04 8.63941968e-04 0.00000000e+00
0.00000000e+00 8.85552843e-04 0.00000000e+00
1.48309802e-04 8.88162991e-04 -4.98621783e-04
0.00000000e+00 9.04409098e-04 -5.22510905e-04
3.20971536e-04 8.24804069e-04 0.00000000e+00
2.71139026e-04 8.41763802e-04 -4.47274884e-04
4.33641893e-04 8.18907516e-04 0.00000000e+00
3.42270127e-04 8.34119157e-04 -2.49181350e-04
4.37388895e-04 8.71269731e-04 0.00000000e+00
3.69846879e-04 8.77457904e-04 2.68491858e-05
3.81535385e-04 9.58944671e-04 0.00000000e+00
3.99521145e-04 9.58651537e-04 4.52218228e-06
3.95370356e-04 1.04365067e-03 0.00000000e+00
3.99333541e-04 1.03884295e-03 -1.06459484e-05
1.73927096e-04 9.54004936e-04 0.00000000e+00
0.00000000e+00 9.69825545e-04 0.00000000e+00
1.57072616e-04 9.68478736e-04 -5.57598192e-04
0.00000000e+00 1.00124546e-03 -5.74465259e-04
3.29718692e-04 9.04518995e-04 0.00000000e+00
2.75162311e-04 9.27346060e-04 -5.32749284e-04
4.28413507e-04 8.67380761e-04 0.00000000e+00
3.35793302e-04 9.03063803e-04 -3.19199840e-04
4.01745376e-04 8.96649086e-04 0.00000000e+00
3.21298314e-04 9.01846099e-04 3.43466527e-05
3.24244436e-04 9.50778136e-04 0.00000000e+00
3.35754303e-04 9.57428361e-04 1.06948719e-05
3.16230784e-04 1.03899266e-03 0.00000000e+00
3.28322116e-04 1.02997455e-03 -2.05734977e-06
0.00000000e+00 0.00000000e+00 -1.50594523e-03
1.51665736e-04 0.00000000e+00 -1.55513245e-03
1.17991207e-04 2.64838047e-04 -1.49668125e-03
0.00000000e+00 2.99133826e-04 -1.43963716e-03
3.50802089e-04 0.00000000e+00 -1.66502711e-03
2.91137345e-04 1.81292766e-04 -1.68975641e-03
6.01316220e-04 0.00000000e+00 -1.85666385e-03
5.93108649e-04 1.45862432e-04 -1.82511390e-03
9.30521637e-04 0.00000000e+00 -2.10481742e-03
9.10797447e-04 1.75233479e-04 -1.85682834e-03
1.25521270e-03 0.00000000e+00 -2.30279844e-03
1.24580320e-03 1.91954299e-04 -2.05173064e-03
1.49009167e-03 0.00000000e+00 -2.41148099e-03
1.56888063e-03 1.74970803e-04 -2.21117050e-03
4.94739943e-05 5.52017475e-04 -1.32898591e-03
0.00000000e+00 5.70353819e-04 -1.24213356e-03
2.21497001e-04 4.74367873e-04 -1.20548042e-03
4.82233707e-04 4.82443982e-04 -1.22164714e-03
8.75730417e-04 5.78131876e-04 -1.73650321e-03
1.22825126e-03 5.86510985e-04 -1.76779879e-03
1.67536247e-03 5.75536862e-04 -1.97767862e-03
7.08744483e-05 7.92021514e-04 -1.09301496e-03
0.00000000e+00 7.64438068e-04 -1.04669074e-03
1.33868889e-04 7.49522122e-04 -7.14518828e-04
9.40379032e-05 6.21534768e-04 -3.52981733e-05
1.22210447e-04 8.82347929e-04 -9.30942420e-04
0.00000000e+00 8.83425702e-04 -9.95674985e-04
2.01013216e-04 8.57437961e-04 -6.90831221e-04
2.53555831e-04 7.65337027e-04 -3.66654567e-04
1.01240541e-04 9.50202812e-04 -9.93276481e-04
0.00000000e+00 9.72456182e-04 -1.03259250e-03
1.96034394e-04 9.13803698e-04 -8.58764281e-04
2.93074932e-04 8.76666047e-04 -7.64577242e-04
7.52430933e-05 1.07910344e-03 -1.13740703e-03
0.00000000e+00 1.06257829e-03 -1.10545056e-03
1.59655829e-04 1.06093427e-03 -1.08726427e-03
2.64602888e-04 1.00421335e-03 -9.67968372e-04
4.23751771e-04 9.43713239e-04 4.80041490e-06
4.23280057e-04 1.01572322e-03 -2.17267661e-05
3.52810079e-04 1.01682043e-03 -6.76402124e-07
3.48709873e-04 9.46825836e-04 2.29434227e-05
0.00000000e+00 0.00000000e+00 -2.25295639e-03
2.24484393e-04 0.00000000e+00 -2.30832165e-03
1.97754940e-04 2.29933357e-04 -2.19619041e-03
0.00000000e+00 2.55522318e-04 -2.12943670e-03
4.87273384e-04 0.00000000e+00 -2.46927748e-03
4.23055608e-04 1.36518283e-04 -2.33246083e-03
7.73171778e-04 0.00000000e+00 -2.63535883e-03
7.61385192e-04 7.01413519e-05 -2.59228004e-03
1.09553011e-03 0.00000000e+00 -2.78257392e-03
1.09672290e-03 9.56180156e-05 -2.87585566e-03
1.36515545e-03 0.00000000e+00 -2.95061246e-03
1.39237917e-03 1.36538030e-04 -2.96051521e-03
1.55059935e-03 0.00000000e+00 -3.04665184e-03
1.61729183e-03 8.81012311e-05 -3.02444119e-03
8.11736172e-05 4.43361292e-04 -1.96208525e-03
0.00000000e+00 5.45123359e-04 -1.89145247e-03
2.93635239e-04 3.60448175e-04 -2.55182059e-03
6.15694793e-04 3.61494167e-04 -2.98157148e-03
1.14634773e-03 5.03529853e-04 -2.73066387e-03
1.46698265e-03 4.09109110e-04 -2.92741973e-03
1.72580127e-03 3.20403429e-04 -2.92461971e-03
3.07839618e-05 7.61081115e-04 -1.47418655e-03
0.00000000e+00 8.10586149e-04 -1.71005528e-03
2.31548664e-04 6.25472749e-04 -2.01873435e-03
4.32194720e-05 9.85951978e-04 -1.33053237e-03
0.00000000e+00 1.01891649e-03 -1.50643510e-03
1.33055873e-04 1.01942569e-03 -8.68391129e-04
7.51353800e-05 1.13015226e-03 -1.49172137e-03
0.00000000e+00 1.08054955e-03 -1.47545128e-03
1.08684137e-04 1.18407595e-03 -1.41969172e-03
5.56567975e-05 1.23440474e-03 -3.60489590e-04
2.68510485e-04 1.11312466e-03 -1.19417941e-03
3.42263520e-05 1.16606371e-03 -1.60343468e-03
0.00000000e+00 1.17703958e-03 -1.68757653e-03
</DataArray>
<DataArray type="Float32" Name="Spatial_acceleration" NumberOfComponents="3" format="ascii">
0.00000000e+00 0.00000000e+00 0.00000000e+00
-7.57614771e-07 0.00000000e+00 0.00000000e+00
5.91337653e-07 9.57338034e-06 0.00000000e+00
0.00000000e+00 1.17142996e-07 0.00000000e+00
0.00000000e+00 0.00000000e+00 -3.32705167e-06
3.94741676e-07 0.00000000e+00 -9.56821441e-06
6.09590597e-06 -3.44564523e-06 -4.19934594e-07
0.00000000e+00 -2.80221286e-07 1.23812360e-05
9.47896660e-06 0.00000000e+00 0.00000000e+00
8.61054650e-06 -1.19312608e-06 0.00000000e+00
-1.34448214e-06 0.00000000e+00 -2.79998767e-06
1.90409025e-06 1.83377665e-06 -6.65203743e-06
7.89046317e-06 0.00000000e+00 0.00000000e+00
7.68288010e-06 -3.90934929e-06 0.00000000e+00
2.51907113e-06 0.00000000e+00 7.96286258e-06
8.47367392e-06 7.50165191e-06 3.87318914e-06
6.23893720e-06 0.00000000e+00 0.00000000e+00
4.72247592e-07 -1.04086002e-05 0.00000000e+00
8.47656520e-06 0.00000000e+00 1.81582764e-05
2.42759779e-06 -5.37420328e-06 8.15073633e-07
-8.11135760e-06 0.00000000e+00 0.00000000e+00
6.91845025e-06 -7.14639827e-06 0.00000000e+00
1.35681230e-05 0.00000000e+00 1.33625663e-05
1.41932560e-06 -7.76976322e-07 9.85638326e-06
-9.47038552e-06 0.00000000e+00 0.00000000e+00
-6.31888679e-06 -1.48153304e-05 0.00000000e+00
4.75490106e-06 0.00000000e+00 4.96737175e-06
6.01482407e-06 -1.10754172e-05 9.70077508e-06
-3.71170040e-06 4.85658632e-07 0.00000000e+00
0.00000000e+00 -6.19248522e-06 0.00000000e+00
8.47339606e-07 2.37691393e-06 5.65719620e-06
0.00000000e+00 -2.88343426e-06 4.69716406e-06
-4.00606768e-06 6.29822381e-08 0.00000000e+00
4.33196601e-06 5.92112542e-07 6.99178372e-06
1.11087161e-06 6.69312476e-06 0.00000000e+00
4.74003400e-06 3.02360178e-07 -4.43358658e-06
6.15461659e-06 -3.33201888e-06 0.00000000e+00
6.71780117e-06 -2.90732919e-06 -5.30370062e-06
1.29761693e-05 -9.33900446e-06 0.00000000e+00
1.82821350e-06 1.97066200e-07 -9.89447744e-06
1.48986974e-05 -1.54879890e-05 0.00000000e+00
-4.14943679e-06 -2.49910363e-06 1.55614216e-05
6.00298245e-06 1.44110118e-06 0.00000000e+00
0.00000000e+00 -4.36544406e-06 0.00000000e+00
-1.28579143e-06 -4.31054832e-06 4.26928210e-07
0.00000000e+00 3.32369405e-06 1.28587089e-06
7.42403654e-06 -2.25689018e-06 0.00000000e+00
-2.98301370e-06 4.41667180e-06 7.12394694e-07
8.35327319e-06 -6.42635905e-06 0.00000000e+00
8.56452516e-07 3.01816726e-06 1.70813664e-07
4.22702897e-06 1.61202752e-06 0.00000000e+00
1.07473270e-05 2.50699782e-06 -3.39386202e-06
5.11264807e-06 6.50686707e-06 0.00000000e+00
1.10319725e-05 -7.78113463e-06 5.70085312e-08
1.05834797e-05 -7.58488966e-07 0.00000000e+00
5.09674828e-06 1.89741449e-08 -1.09879174e-05
2.88530191e-06 -9.77762556e-06 0.00000000e+00
0.00000000e+00 1.28200845e-05 0.00000000e+00
-3.17198032e-06 4.51503183e-06 -2.30391811e-06
0.00000000e+00 -1.47588048e-06 -4.78744505e-06
-5.64773870e-07 5.86489818e-07 0.00000000e+00
1.59651037e-07 -4.12066790e-08 1.39888130e-06
7.33639808e-06 -3.15030405e-07 0.00000000e+00
-2.13887961e-06 8.10596703e-07 -8.55912094e-06
1.15794974e-05 -4.83417534e-06 0.00000000e+00
-1.34838956e-06 5.09455458e-06 9.56191002e-07
-3.85882458e-06 6.02416185e-06 0.00000000e+00
1.24156804e-05 1.06423431e-05 0.00000000e+00
1.92273255e-05 9.59793738e-07 2.12932241e-06
5.17710532e-06 -2.94925121e-06 5.36960215e-06
-5.55363295e-06 6.36090817e-06 0.00000000e+00
0.00000000e+00 5.15768897e-06 0.00000000e+00
4.72833699e-06 -1.94453196e-06 -1.56799956e-06
0.00000000e+00 -6.05396417e-06 -2.34444929e-06
6.98028998e-06 -1.99496753e-06 0.00000000e+00
-3.43197576e-06 4.79912751e-06 -5.40399560e-06
7.57464750e-06 -1.44378339e-06 0.00000000e+00
-3.26448026e-06 1.12136206e-06 6.50448283e-06
-3.67446728e-06 1.66243308e-06 0.00000000e+00
1.02637214e-05 -4.91504852e-06 6.48556124e-06
6.96767347e-06 -1.01602416e-06 0.00000000e+00
-3.96688984e-06 2.48880019e-06 -2.19714525e-06
4.70452505e-06 8.79367192e-08 0.00000000e+00
4.39855796e-07 8.47470073e-06 2.92031632e-06
4.94480105e-07 1.09041130e-05 0.00000000e+00
0.00000000e+00 2.36246728e-06 0.00000000e+00
-7.12809970e-06 -5.83712244e-06 -1.01788839e-06
0.00000000e+00 -6.19582943e-06 1.91148119e-05
1.30804381e-06 1.08610784e-05 0.00000000e+00
-2.69560019e-06 -2.16809917e-06 4.18853733e-06
1.32447376e-05 -6.97974338e-06 0.00000000e+00
-2.76512566e-07 -1.11977258e-07 -1.98817779e-05
6.82536756e-06 -3.03794934e-07 0.00000000e+00
1.07635060e-06 7.81990093e-06 -3.76240405e-06
-3.67135794e-06 -9.43501789e-07 0.00000000e+00
-4.79523987e-06 -5.70419786e-07 4.71532360e-07
-1.03653947e-05 -2.15090768e-06 0.00000000e+00
-5.37864116e-06 9.42042516e-06 1.71154113e-06
0.00000000e+00 0.00000000e+00 -1.22324627e-05
2.28142744e-06 0.00000000e+00 5.89466072e-06
6.08539585e-06 -9.75398234e-06 -6.75344472e-06
0.00000000e+00 2.22682957e-07 9.67121105e-06
8.21837784e-06 0.00000000e+00 4.63898959e-06
3.05247295e-06 -5.66065319e-06 9.84032977e-06
-1.64880350e-06 0.00000000e+00 8.52616631e-06
-1.02329250e-06 2.53303847e-06 -4.69843553e-06
2.13013095e-06 0.00000000e+00 5.84824875e-06
4.23708570e-06 6.86243197e-07 8.24213021e-06
2.45960541e-06 0.00000000e+00 8.06808475e-06
2.05658876e-06 5.32020113e-06 1.65732695e-06
1.05767849e-05 0.00000000e+00 1.07332862e-05
1.12531579e-05 2.61267019e-07 1.88191734e-07
-2.03768408e-07 -2.59290147e-07 -6.27835561e-08
0.00000000e+00 -4.25942744e-06 9.08533730e-06
-2.63236814e-07 1.37211021e-06 -7.58416309e-06
1.21270818e-06 2.24208833e-07 2.49379468e-06
2.19578919e-06 -3.67956363e-06 -9.35236585e-07
-1.91668573e-06 7.55050769e-06 9.33170304e-06
3.72966633e-06 2.60357547e-06 -7.98161818e-06
-4.26280985e-06 2.87075841e-06 1.81341170e-06
0.00000000e+00 -5.15325837e-06 -1.87238061e-06
8.98785061e-07 -1.31469301e-06 1.32369996e-06
8.82069287e-07 -2.44299576e-06 3.79864377e-06
2.43320073e-06 -1.93386768e-06 -1.51817005e-06
0.00000000e+00 -6.16133207e-07 3.57437125e-06
2.50307721e-06 -2.90979665e-06 -6.05928335e-06
-1.07955930e-06 7.20553928e-09 6.03908984e-06
-1.66477753e-06 2.53487633e-06 1.81214011e-06
0.00000000e+00 -5.66351400e-06 3.56356304e-06
-7.29858840e-08 5.41905536e-07 2.08187112e-06
3.37525216e-06 -6.57312057e-06 -8.72643795e-06
-1.37519839e-06 8.67075687e-06 -4.82050564e-06
0.00000000e+00 -8.44733404e-06 2.42869049e-07
1.03529492e-05 -1.31475929e-06 1.47056573e-06
9.84451162e-06 -4.02212117e-06 -5.28462715e-06
-4.57425176e-06 8.69141877e-06 1.81262442e-06
-1.88686977e-06 5.06991682e-06 3.41975692e-06
-1.24628714e-05 1.15725570e-05 -4.71087833e-06
-1.22567317e-05 -4.75317222e-07 -4.99382122e-06
0.00000000e+00 0.00000000e+00 1.25509896e-05
9.11415839e-07 0.00000000e+00 -2.53041571e-06
-3.14122440e-06 7.93511674e-07 4.60592901e-06
0.00000000e+00 -8.58716157e-06 -3.95838424e-06
3.29786531e-06 0.00000000e+00 6.44302372e-06
5.20765798e-06 1.33617721e-06 4.51819096e-06
1.06919606e-05 0.00000000e+00 1.71333941e-05
7.29133660e-07 -5.39700204e-06 2.57078796e-06
6.31030389e-06 0.00000000e+00 4.31569424e-06
8.66209461e-07 2.70509713e-06 4.53186021e-06
1.18156668e-05 0.00000000e+00 -4.25783810e-06
1.24256185e-05 -5.86445140e-07 2.42074339e-06
9.70021847e-06 0.00000000e+00 7.30832426e-06
1.04327100e-05 1.27041039e-05 5.31228397e-06
2.26942689e-06 -5.00852366e-06 2.79585515e-06
0.00000000e+00 -1.23567579e-05 3.86873899e-06
-2.54049746e-06 -1.67206349e-06 2.26810994e-06
4.84873453e-06 2.85873421e-06 -3.46171055e-06
5.77039509e-06 1.73762442e-06 -1.24794642e-05
1.83896464e-05 2.67502173e-06 3.44912195e-07
3.09662755e-06 6.43501664e-07 -1.15343728e-05
1.42744602e-06 -7.02785292e-06 2.40071608e-06
0.00000000e+00 2.58549062e-06 6.00878411e-06
-1.54077206e-05 -2.62101480e-06 4.56078851e-06
2.50795915e-06 -7.58429906e-06 -3.47500759e-06
0.00000000e+00 -1.10701721e-05 -2.69571933e-06
-5.45310968e-06 -5.36795460e-06 -1.05857850e-06
2.63732659e-06 -1.87442697e-06 -3.38157020e-06
0.00000000e+00 -2.25830081e-06 4.17168940e-06
4.24612125e-07 -4.66700976e-06 -1.20831446e-05
-6.50181346e-06 -1.99290116e-06 4.84816246e-06
-9.78681783e-07 -2.07943390e-06 3.22808160e-06
7.11252278e-06 4.74633771e-06 7.09406550e-06
0.00000000e+00 -5.93543064e-06 -5.23694371e-06
</DataArray>
<DataArray type="Float32" Name="Spatial_velocity" NumberOfComponents="3" format="ascii">
0.00000000e+00 0.00000000e+00 0.00000000e+00
4.19415665e-06 0.00000000e+00 0.00000000e+00
4.33852119e-06 1.84274231e-05 0.00000000e+00
0.00000000e+00 1.43414045e-05 0.00000000e+00
0.00000000e+00 0.00000000e+00 -1.47257042e-05
4.12397685e-06 0.00000000e+00 -1.68502229e-05
3.84399391e-06 1.75106507e-05 -1.53324436e-05
0.00000000e+00 1.79850304e-05 -1.82160511e-05
5.79740026e-06 0.00000000e+00 0.00000000e+00
9.66325570e-06 2.44854655e-05 0.00000000e+00
9.35194475e-06 0.00000000e+00 -2.66330262e-05
1.02096255e-05 1.84979435e-05 -1.95648736e-05
1.89183847e-05 0.00000000e+00 0.00000000e+00
1.47999899e-05 2.97772876e-05 0.00000000e+00
2.00818449e-05 0.00000000e+00 -3.70745583e-05
1.88095091e-05 2.06714194e-05 -2.71207100e-05
3.12822558e-05 0.00000000e+00 0.00000000e+00
3.02604421e-05 3.22466512e-05 0.00000000e+00
3.57928584e-05 0.00000000e+00 -3.79157900e-05
3.19232167e-05 2.45259471e-05 -3.67197572e-05
5.16134314e-05 0.00000000e+00 0.00000000e+00
4.47254642e-05 4.05194114e-05 0.00000000e+00
5.90624586e-05 0.00000000e+00 -5.08112389e-05
5.09141064e-05 2.65666149e-05 -4.26319421e-05
8.83897519e-05 0.00000000e+00 0.00000000e+00
6.42672894e-05 5.83016808e-05 0.00000000e+00
7.90898193e-05 0.00000000e+00 -5.93907716e-05
7.69506805e-05 3.57023819e-05 -5.81271670e-05
6.97402083e-06 3.11972217e-05 0.00000000e+00
0.00000000e+00 3.21066727e-05 0.00000000e+00
3.40020961e-06 3.17290869e-05 -1.22997999e-05
0.00000000e+00 3.10253417e-05 -1.48245272e-05
1.07499218e-05 3.56893725e-05 0.00000000e+00
8.91244326e-06 3.28440874e-05 -7.58402666e-06
1.51594213e-05 3.96955729e-05 0.00000000e+00
1.48420104e-05 3.66502718e-05 -4.46873946e-06
1.98480739e-05 4.75609268e-05 0.00000000e+00
2.47417611e-05 3.94186172e-05 -1.05841591e-05
3.01934215e-05 5.68272553e-05 0.00000000e+00
3.17796039e-05 4.85917917e-05 -6.24646009e-06
2.91949764e-05 7.21956967e-05 0.00000000e+00
4.60762240e-05 6.87763313e-05 -1.45551176e-05
6.53521329e-06 3.92923794e-05 0.00000000e+00
0.00000000e+00 3.99861856e-05 0.00000000e+00
5.22230039e-06 3.69668123e-05 -3.23375571e-06
0.00000000e+00 3.88160915e-05 -1.01384558e-05
8.52555604e-06 3.69360059e-05 0.00000000e+00
7.38304789e-06 3.82624312e-05 -4.78795664e-06
1.10454548e-05 3.95112438e-05 0.00000000e+00
9.20387356e-06 3.84576779e-05 -1.74156344e-06
1.43377501e-05 4.38055395e-05 0.00000000e+00
9.94058973e-06 4.15133363e-05 3.19523178e-06
1.31564293e-05 5.61017296e-05 0.00000000e+00
1.71526008e-05 5.23558665e-05 2.91718789e-06
1.65526744e-05 6.51670271e-05 0.00000000e+00
1.90059709e-05 6.47214838e-05 -2.52807968e-06
5.08093808e-06 3.90518944e-05 0.00000000e+00
0.00000000e+00 3.95589414e-05 0.00000000e+00
3.13835812e-06 4.00294011e-05 -4.59198691e-06
0.00000000e+00 4.11925539e-05 -5.59652653e-06
7.37837172e-06 4.14802525e-05 0.00000000e+00
5.99872783e-06 3.82171675e-05 -3.43153329e-06
7.86828605e-06 4.08160231e-05 0.00000000e+00
8.86059388e-06 3.90583336e-05 -8.42964425e-07
1.14299119e-05 4.16837283e-05 0.00000000e+00
8.72902001e-06 4.51894630e-05 9.85402949e-07
1.13938358e-05 6.00442581e-05 0.00000000e+00
1.18614807e-05 5.54225117e-05 0.00000000e+00
1.03183456e-05 5.88736111e-05 1.60268399e-07
1.25716542e-05 5.48074349e-05 9.31571037e-07
4.77584172e-06 3.89203997e-05 0.00000000e+00
0.00000000e+00 3.80564343e-05 0.00000000e+00
3.12016095e-06 4.09786444e-05 -3.56782107e-06
0.00000000e+00 3.87742875e-05 -3.05544700e-06
4.80437075e-06 4.16320217e-05 0.00000000e+00
6.41684346e-06 4.07531443e-05 -1.53968926e-06
6.32515230e-06 4.14959613e-05 0.00000000e+00
5.36258267e-06 4.05576393e-05 -2.21690630e-06
6.88720093e-06 4.42893906e-05 0.00000000e+00
4.99134831e-06 4.54967048e-05 -1.47737774e-06
5.87268551e-06 5.09746387e-05 0.00000000e+00
6.57693499e-06 5.40936126e-05 1.72952673e-06
7.96681979e-06 5.81883396e-05 0.00000000e+00
7.68038717e-06 6.12659715e-05 4.95267159e-06
9.13914903e-07 3.88339176e-05 0.00000000e+00
0.00000000e+00 3.92908987e-05 0.00000000e+00
3.01161799e-06 3.90643545e-05 -4.59593957e-06
0.00000000e+00 3.97503245e-05 -6.35548940e-06
5.25213136e-06 4.21115910e-05 0.00000000e+00
4.26878478e-06 4.06817671e-05 -1.58528462e-06
3.81824157e-06 4.35505208e-05 0.00000000e+00
6.88448472e-06 4.17050724e-05 3.81207542e-07
3.45469198e-06 4.53020184e-05 0.00000000e+00
1.91499316e-06 4.54771071e-05 3.73805307e-07
2.15815612e-06 5.11479957e-05 0.00000000e+00
8.98760675e-08 5.31678706e-05 -5.03996716e-06
-1.41692306e-06 5.77052706e-05 0.00000000e+00
-7.43682904e-07 6.34471653e-05 -3.62044193e-06
0.00000000e+00 0.00000000e+00 -3.67962857e-05
6.77053595e-06 0.00000000e+00 -3.54252552e-05
4.66346546e-06 1.55513517e-05 -3.26592562e-05
0.00000000e+00 1.67725666e-05 -3.01264754e-05
1.70553412e-05 0.00000000e+00 -4.20329197e-05
1.26102659e-05 1.02134018e-05 -4.40390795e-05
2.88132651e-05 0.00000000e+00 -5.39815337e-05
2.63628463e-05 9.51508810e-06 -5.52478014e-05
4.60436859e-05 0.00000000e+00 -7.68640530e-05
4.16849361e-05 1.14099221e-05 -6.09307790e-05
6.33727177e-05 0.00000000e+00 -8.48462878e-05
6.43235689e-05 1.26634313e-05 -7.64175566e-05
8.17019973e-05 0.00000000e+00 -9.67698434e-05
8.37207990e-05 1.48030585e-05 -8.60479995e-05
1.12681107e-06 2.56110907e-05 -2.47603512e-05
0.00000000e+00 2.87645398e-05 -1.92153620e-05
8.17603086e-06 2.79472370e-05 -2.55797768e-05
2.09806858e-05 2.97408351e-05 -3.29400427e-05
3.82076141e-05 3.60215854e-05 -5.14263011e-05
6.03116387e-05 4.08242049e-05 -5.88089933e-05
9.04677654e-05 4.05757346e-05 -7.37394730e-05
1.27010037e-06 3.97866170e-05 -1.44848455e-05
0.00000000e+00 3.62699720e-05 -1.13121650e-05
5.29560384e-06 3.61547573e-05 -6.01104739e-06
5.19542436e-06 3.95102761e-05 3.31463093e-06
2.59485728e-06 3.98857046e-05 -9.18163914e-06
0.00000000e+00 4.02249607e-05 -8.60792261e-06
2.95262225e-06 4.05694009e-05 -5.65180744e-06
1.59389981e-06 3.68539477e-05 -5.33728416e-06
3.38032805e-06 4.09064669e-05 -5.65713253e-06
0.00000000e+00 4.16806070e-05 -8.58797466e-06
4.33059222e-06 3.94289964e-05 -5.21166248e-06
6.00949397e-06 3.73287257e-05 -3.53055270e-06
4.30993765e-08 4.26725128e-05 -8.03028979e-06
0.00000000e+00 4.12360969e-05 -7.56483905e-06
3.99476312e-06 4.28783715e-05 -4.72477313e-06
7.22533468e-06 3.75890631e-05 3.09830227e-07
8.49226467e-07 7.48334642e-05 5.89655338e-06
2.18160085e-06 7.76080196e-05 1.51026716e-05
-5.64186712e-06 8.10459605e-05 -7.85789143e-06
-4.00778481e-06 7.20784883e-05 -1.60361524e-05
0.00000000e+00 0.00000000e+00 -5.26337535e-05
1.04778564e-05 0.00000000e+00 -5.72771569e-05
9.04141416e-06 1.13257511e-05 -4.75607230e-05
0.00000000e+00 8.70992426e-06 -4.62252210e-05
2.48753204e-05 0.00000000e+00 -6.56158008e-05
2.31218237e-05 8.74554553e-06 -5.99315499e-05
4.10068315e-05 0.00000000e+00 -7.90286431e-05
3.97936456e-05 7.50578965e-06 -7.51127955e-05
5.69147778e-05 0.00000000e+00 -8.67509734e-05
5.65250593e-05 7.95187043e-06 -9.59686658e-05
7.19417440e-05 0.00000000e+00 -1.08058754e-04
7.21112810e-05 1.10518786e-05 -1.06731364e-04
8.37109546e-05 0.00000000e+00 -1.12380709e-04
9.01968451e-05 7.93665004e-06 -1.12511450e-04
5.45253579e-06 2.31961440e-05 -3.77701072e-05
0.00000000e+00 2.63121055e-05 -3.34175566e-05
1.71599040e-05 2.16144981e-05 -6.13731681e-05
3.33897879e-05 2.56227322e-05 -8.53818055e-05
5.97239668e-05 2.97308470e-05 -8.77757484e-05
7.88970283e-05 2.26978664e-05 -1.03482402e-04
8.79418003e-05 2.24044688e-05 -1.02989361e-04
5.03185902e-07 3.69442023e-05 -1.95042012e-05
0.00000000e+00 3.90018977e-05 -2.05026336e-05
1.10201754e-05 3.67282264e-05 -3.54420008e-05
-1.81674736e-07 4.29690044e-05 -9.14414250e-06
0.00000000e+00 4.41107550e-05 -1.48550125e-05
1.93597452e-06 3.91335379e-05 -5.31555906e-06
9.34656271e-07 4.54347028e-05 -1.15888106e-05
0.00000000e+00 4.24280151e-05 -8.41046767e-06
6.37864832e-06 4.23118618e-05 -8.69886753e-06
1.70496264e-06 3.07064402e-05 -1.30014096e-05
1.60232539e-05 3.04844125e-05 -7.86670626e-06
4.47218417e-06 4.09387831e-05 -7.85097563e-06
0.00000000e+00 4.56429043e-05 -1.25499155e-05
</DataArray>
<DataArray type="Float32" Name="Reaction_force" NumberOfComponents="3" format="ascii">
7.90933192e-01 -1.12526715e+00 7.05030870e+00
0.00000000e+00 -2.24361515e+00 1.40628433e+01
0.00000000e+00 0.00000000e+00 2.74238567e+01
9.50409591e-01 0.00000000e+00 1.39227180e+01
1.35200644e+00 -2.10498857e+00 0.00000000e+00
0.00000000e+00 -3.69417500e+00 0.00000000e+00
0.00000000e+00 0.00000000e+00 0.00000000e+00
2.13931680e+00 0.00000000e+00 0.00000000e+00
0.00000000e+00 -2.20723057e+00 1.40852394e+01
0.00000000e+00 0.00000000e+00 2.68825760e+01
0.00000000e+00 -2.47790456e+00 0.00000000e+00
0.00000000e+00 0.00000000e+00 0.00000000e+00
0.00000000e+00 -1.82528484e+00 1.46094503e+01
0.00000000e+00 0.00000000e+00 2.68255253e+01
0.00000000e+00 -1.73289895e+00 0.00000000e+00
0.00000000e+00 0.00000000e+00 0.00000000e+00
0.00000000e+00 -1.07186890e+00 1.54909649e+01
0.00000000e+00 0.00000000e+00 2.73937206e+01
0.00000000e+00 -1.63548326e+00 0.00000000e+00
0.00000000e+00 0.00000000e+00 0.00000000e+00
0.00000000e+00 -9.23394918e-01 1.52546110e+01
0.00000000e+00 0.00000000e+00 2.74466267e+01
0.00000000e+00 -2.04912257e+00 0.00000000e+00
0.00000000e+00 0.00000000e+00 0.00000000e+00
0.00000000e+00 -8.24322820e-01 7.22345495e+00
0.00000000e+00 0.00000000e+00 1.37082195e+01
0.00000000e+00 -1.37205291e+00 0.00000000e+00
0.00000000e+00 0.00000000e+00 0.00000000e+00
0.00000000e+00 0.00000000e+00 2.63334084e+01
-5.20611107e-01 0.00000000e+00 1.34878206e+01
0.00000000e+00 0.00000000e+00 0.00000000e+00
5.67422509e-01 0.00000000e+00 0.00000000e+00
0.00000000e+00 0.00000000e+00 2.39626884e+01
0.00000000e+00 0.00000000e+00 0.00000000e+00
0.00000000e+00 0.00000000e+00 2.03839474e+01
0.00000000e+00 0.00000000e+00 0.00000000e+00
0.00000000e+00 0.00000000e+00 1.77628765e+01
0.00000000e+00 0.00000000e+00 0.00000000e+00
0.00000000e+00 0.00000000e+00 1.82453537e+01
0.00000000e+00 0.00000000e+00 0.00000000e+00
0.00000000e+00 0.00000000e+00 1.05551863e+01
0.00000000e+00 0.00000000e+00 0.00000000e+00
0.00000000e+00 0.00000000e+00 2.46377258e+01
-1.69752729e+00 0.00000000e+00 1.30175762e+01
0.00000000e+00 0.00000000e+00 0.00000000e+00
-1.51987290e+00 0.00000000e+00 0.00000000e+00
0.00000000e+00 0.00000000e+00 1.94208813e+01
0.00000000e+00 0.00000000e+00 0.00000000e+00
0.00000000e+00 0.00000000e+00 1.06237707e+01
0.00000000e+00 0.00000000e+00 0.00000000e+00
0.00000000e+00 0.00000000e+00 3.22139835e+00
0.00000000e+00 0.00000000e+00 0.00000000e+00
0.00000000e+00 0.00000000e+00 2.23250556e+00
0.00000000e+00 0.00000000e+00 0.00000000e+00
0.00000000e+00 0.00000000e+00 1.88027835e+00
0.00000000e+00 0.00000000e+00 0.00000000e+00
0.00000000e+00 0.00000000e+00 2.33399239e+01
-1.75097561e+00 0.00000000e+00 1.25535078e+01
0.00000000e+00 0.00000000e+00 0.00000000e+00
-2.45726323e+00 0.00000000e+00 0.00000000e+00
0.00000000e+00 0.00000000e+00 1.78949337e+01
0.00000000e+00 0.00000000e+00 0.00000000e+00
0.00000000e+00 0.00000000e+00 8.11502266e+00
0.00000000e+00 0.00000000e+00 0.00000000e+00
0.00000000e+00 0.00000000e+00 2.02780396e-01
0.00000000e+00 0.00000000e+00 0.00000000e+00
0.00000000e+00 0.00000000e+00 -8.42358768e-01
0.00000000e+00 0.00000000e+00 -1.53041899e+00
0.00000000e+00 0.00000000e+00 0.00000000e+00
0.00000000e+00 0.00000000e+00 0.00000000e+00
0.00000000e+00 0.00000000e+00 2.47839699e+01
-1.50112534e+00 0.00000000e+00 1.28343611e+01
0.00000000e+00 0.00000000e+00 0.00000000e+00
-2.08224249e+00 0.00000000e+00 0.00000000e+00
0.00000000e+00 0.00000000e+00 2.03952255e+01
0.00000000e+00 0.00000000e+00 0.00000000e+00
0.00000000e+00 0.00000000e+00 1.10177069e+01
0.00000000e+00 0.00000000e+00 0.00000000e+00
0.00000000e+00 0.00000000e+00 1.90966296e+00
0.00000000e+00 0.00000000e+00 0.00000000e+00
0.00000000e+00 0.00000000e+00 -8.49874496e-01
0.00000000e+00 0.00000000e+00 0.00000000e+00
0.00000000e+00 0.00000000e+00 1.82552323e-01
0.00000000e+00 0.00000000e+00 0.00000000e+00
0.00000000e+00 0.00000000e+00 1.31863461e+01
-8.26023519e-01 0.00000000e+00 6.71338892e+00
0.00000000e+00 0.00000000e+00 0.00000000e+00
-1.05343854e+00 0.00000000e+00 0.00000000e+00
0.00000000e+00 0.00000000e+00 1.13538876e+01
0.00000000e+00 0.00000000e+00 0.00000000e+00
0.00000000e+00 0.00000000e+00 6.56870699e+00
0.00000000e+00 0.00000000e+00 0.00000000e+00
0.00000000e+00 0.00000000e+00 1.39308226e+00
0.00000000e+00 0.00000000e+00 0.00000000e+00
0.00000000e+00 0.00000000e+00 -4.46185082e-01
0.00000000e+00 0.00000000e+00 0.00000000e+00
0.00000000e+00 0.00000000e+00 4.18099910e-02
0.00000000e+00 0.00000000e+00 0.00000000e+00
7.87602186e-01 -1.57164979e+00 0.00000000e+00
0.00000000e+00 -2.22300625e+00 0.00000000e+00
0.00000000e+00 0.00000000e+00 0.00000000e+00
1.92822075e+00 0.00000000e+00 0.00000000e+00
0.00000000e+00 -3.54956031e-01 0.00000000e+00
0.00000000e+00 0.00000000e+00 0.00000000e+00
0.00000000e+00 1.59481835e+00 0.00000000e+00
0.00000000e+00 0.00000000e+00 0.00000000e+00
0.00000000e+00 2.10851502e+00 0.00000000e+00
0.00000000e+00 0.00000000e+00 0.00000000e+00
0.00000000e+00 7.46951103e-01 0.00000000e+00
0.00000000e+00 0.00000000e+00 0.00000000e+00
0.00000000e+00 2.64940262e-01 0.00000000e+00
0.00000000e+00 0.00000000e+00 0.00000000e+00
0.00000000e+00 0.00000000e+00 0.00000000e+00
1.62246597e+00 0.00000000e+00 0.00000000e+00
0.00000000e+00 0.00000000e+00 0.00000000e+00
0.00000000e+00 0.00000000e+00 0.00000000e+00
0.00000000e+00 0.00000000e+00 0.00000000e+00
0.00000000e+00 0.00000000e+00 0.00000000e+00
0.00000000e+00 0.00000000e+00 0.00000000e+00
0.00000000e+00 0.00000000e+00 0.00000000e+00
-1.54983491e-01 0.00000000e+00 0.00000000e+00
0.00000000e+00 0.00000000e+00 0.00000000e+00
0.00000000e+00 0.00000000e+00 0.00000000e+00
0.00000000e+00 0.00000000e+00 0.00000000e+00
-7.99730718e-01 0.00000000e+00 0.00000000e+00
0.00000000e+00 0.00000000e+00 0.00000000e+00
0.00000000e+00 0.00000000e+00 0.00000000e+00
0.00000000e+00 0.00000000e+00 0.00000000e+00
-1.05242431e-01 0.00000000e+00 0.00000000e+00
0.00000000e+00 0.00000000e+00 0.00000000e+00
0.00000000e+00 0.00000000e+00 0.00000000e+00
0.00000000e+00 0.00000000e+00 0.00000000e+00
6.44608736e-02 0.00000000e+00 0.00000000e+00
0.00000000e+00 0.00000000e+00 0.00000000e+00
0.00000000e+00 0.00000000e+00 0.00000000e+00
0.00000000e+00 0.00000000e+00 0.00000000e+00
0.00000000e+00 0.00000000e+00 0.00000000e+00
0.00000000e+00 0.00000000e+00 0.00000000e+00
0.00000000e+00 0.00000000e+00 0.00000000e+00
5.91252372e-02 -1.69269696e-01 0.00000000e+00
0.00000000e+00 4.94021088e-01 0.00000000e+00
0.00000000e+00 0.00000000e+00 0.00000000e+00
8.32194686e-01 0.00000000e+00 0.00000000e+00
0.00000000e+00 1.93725526e+00 0.00000000e+00
0.00000000e+00 0.00000000e+00 0.00000000e+00
0.00000000e+00 3.43664145e+00 0.00000000e+00
0.00000000e+00 0.00000000e+00 0.00000000e+00
0.00000000e+00 4.21215248e+00 0.00000000e+00
0.00000000e+00 0.00000000e+00 0.00000000e+00
0.00000000e+00 3.71716189e+00 0.00000000e+00
0.00000000e+00 0.00000000e+00 0.00000000e+00
0.00000000e+00 2.12788773e+00 0.00000000e+00
0.00000000e+00 0.00000000e+00 0.00000000e+00
0.00000000e+00 0.00000000e+00 0.00000000e+00
2.01726341e+00 0.00000000e+00 0.00000000e+00
0.00000000e+00 0.00000000e+00 0.00000000e+00
0.00000000e+00 0.00000000e+00 0.00000000e+00
0.00000000e+00 0.00000000e+00 0.00000000e+00
0.00000000e+00 0.00000000e+00 0.00000000e+00
0.00000000e+00 0.00000000e+00 0.00000000e+00
0.00000000e+00 0.00000000e+00 0.00000000e+00
3.84130573e+00 0.00000000e+00 0.00000000e+00
0.00000000e+00 0.00000000e+00 0.00000000e+00
0.00000000e+00 0.00000000e+00 0.00000000e+00
1.84242797e+00 0.00000000e+00 0.00000000e+00
0.00000000e+00 0.00000000e+00 0.00000000e+00
0.00000000e+00 0.00000000e+00 0.00000000e+00
6.68215394e-01 0.00000000e+00 0.00000000e+00
0.00000000e+00 0.00000000e+00 0.00000000e+00
0.00000000e+00 0.00000000e+00 0.00000000e+00
0.00000000e+00 0.00000000e+00 0.00000000e+00
0.00000000e+00 0.00000000e+00 0.00000000e+00
8.39464188e-01 0.00000000e+00 0.00000000e+00
</DataArray>
<DataArray type="Float32" Name="Equivalent_plastic_strain" format="ascii">
2.16508241e-04
2.61658424e-04
2.05298929e-04
1.84535238e-04
1.95316723e-04
2.15507378e-04
1.84645805e-04
1.61178163e-04
3.67950182e-04
2.37897777e-04
2.68445987e-04
2.58020278e-04
4.64629804e-04
3.08968600e-04
3.44415690e-04
3.13608507e-04
5.47969947e-04
4.41050077e-04
4.35883077e-04
3.40422028e-04
7.32569140e-04
5.84953479e-04
5.38387168e-04
4.46523143e-04
9.23747953e-04
7.56498572e-04
6.32558658e-04
5.50439931e-04
7.59308205e-05
1.11438039e-04
1.07050748e-04
7.54082516e-05
2.04038047e-05
6.24594010e-05
-9.53969538e-06
7.65645678e-05
-6.73521481e-06
1.85636235e-04
1.02579470e-05
2.12729234e-04
5.23500130e-05
2.78679780e-04
-6.58923608e-06
2.46329018e-05
4.27366463e-06
3.90200626e-06
1.19332014e-06
-9.18162218e-06
0.00000000e+00
-1.06184707e-05
0.00000000e+00
0.00000000e+00
0.00000000e+00
0.00000000e+00
0.00000000e+00
0.00000000e+00
2.27725252e-07
-1.69976454e-06
3.29762671e-08
-2.46138228e-07
0.00000000e+00
0.00000000e+00
0.00000000e+00
0.00000000e+00
0.00000000e+00
0.00000000e+00
0.00000000e+00
0.00000000e+00
0.00000000e+00
0.00000000e+00
2.12404231e-07
-1.73854608e-06
6.21315763e-08
-4.43239685e-07
0.00000000e+00
-2.17329692e-08
0.00000000e+00
1.08144728e-07
0.00000000e+00
0.00000000e+00
0.00000000e+00
0.00000000e+00
0.00000000e+00
0.00000000e+00
-1.58540684e-06
1.29766840e-05
-4.63756436e-07
3.30838543e-06
0.00000000e+00
1.62217091e-07
0.00000000e+00
-8.07203302e-07
0.00000000e+00
0.00000000e+00
0.00000000e+00
0.00000000e+00
0.00000000e+00
0.00000000e+00
1.75179448e-04
1.66493301e-04
1.50345846e-04
1.36602590e-04
1.58093611e-04
1.91612036e-04
1.83666987e-04
2.56230040e-04
2.37125285e-04
3.00870148e-04
2.32506414e-04
2.89522082e-04
2.11959832e-04
2.64358783e-04
1.04947123e-04
6.12270251e-05
3.00344641e-04
5.04314317e-04
4.80784445e-04
5.40122637e-04
5.36758540e-04
-2.20604043e-05
2.05572451e-05
1.40136602e-04
4.38261523e-05
8.12411145e-06
-4.48323772e-06
-3.30774471e-05
0.00000000e+00
1.18418420e-07
0.00000000e+00
3.38444728e-07
-3.24027633e-05
-8.83887196e-07
0.00000000e+00
1.86340375e-05
2.55529777e-04
0.00000000e+00
0.00000000e+00
0.00000000e+00
0.00000000e+00
1.91485160e-04
1.82410189e-04
1.89987744e-04
1.97412548e-04
1.61931461e-04
1.93555295e-04
1.46960756e-04
2.22169379e-04
1.21132056e-04
2.65414519e-04
6.12569911e-05
2.10319899e-04
1.24800572e-05
1.46083126e-04
1.84921607e-04
1.31825518e-04
2.88432385e-04
6.25105225e-04
5.18246728e-04
3.41973337e-04
2.81267421e-04
2.00682089e-04
-6.63400169e-06
7.24414065e-04
-2.97561136e-06
3.27718863e-06
1.71734238e-04
-2.68681290e-05
-9.66171967e-06
-4.37521038e-05
0.00000000e+00
5.42038300e-04
9.81292205e-05
2.60253582e-05
</DataArray>
<DataArray type="Float32" Name="Stress_Mises" format="ascii">
2.91227074e+01
2.92581310e+01
2.88980303e+01
2.89543514e+01
2.89786482e+01
2.91836200e+01
2.90470781e+01
2.89088173e+01
2.96394491e+01
2.88186440e+01
2.97229233e+01
2.94869552e+01
3.01245756e+01
2.91147017e+01
3.01691098e+01
2.98850851e+01
3.05431957e+01
2.97120552e+01
3.03009586e+01
3.03137491e+01
3.02634192e+01
2.98626151e+01
2.97851467e+01
3.04021902e+01
3.01004848e+01
3.01306248e+01
2.95965347e+01
3.05450768e+01
2.81506166e+01
2.86181374e+01
2.84870880e+01
2.87504697e+01
2.81816478e+01
2.85891109e+01
2.53007898e+01
2.85951075e+01
2.53561721e+01
2.94739936e+01
2.63431792e+01
3.02169104e+01
2.80239124e+01
3.18099480e+01
2.72916865e+01
2.85184536e+01
2.85079010e+01
2.78107748e+01
2.08085675e+01
2.06127682e+01
1.00842049e+01
1.15265975e+01
8.33037456e+00
1.42459615e+01
8.67254702e+00
1.34730727e+01
7.94681644e+00
1.23714747e+01
2.50457764e+01
2.67482023e+01
2.44426162e+01
2.59941063e+01
1.91741705e+01
1.85550959e+01
9.18858671e+00
1.05507995e+01
3.47782048e+00
5.34342519e+00
4.34350574e+00
2.28797297e+00
2.82945693e+00
3.50738633e+00
2.58930969e+01
2.70779552e+01
2.51857152e+01
2.65083580e+01
2.29568758e+01
2.19301958e+01
1.30569212e+01
1.77622569e+01
3.61014587e+00
5.54506004e+00
1.87445882e+00
1.10867939e+00
1.20034447e+00
1.17231101e+00
2.88138981e+01
2.86650658e+01
2.84704895e+01
2.82263079e+01
2.67043505e+01
2.66846538e+01
1.57097020e+01
2.15320365e+01
4.57569039e+00
7.02933669e+00
2.41637701e+00
8.65565836e-01
6.70733631e-01
4.37272012e-01
2.89909458e+01
2.92330360e+01
2.94668024e+01
2.89439826e+01
2.97649589e+01
3.09545643e+01
3.03013630e+01
3.17171800e+01
3.05756903e+01
3.13750739e+01
3.00415606e+01
3.09441197e+01
2.98859472e+01
3.07289190e+01
2.99996579e+01
2.86985993e+01
3.16699930e+01
3.28726467e+01
3.27424135e+01
3.26385193e+01
3.24586182e+01
2.91060200e+01
2.79795156e+01
2.86436323e+01
2.91693926e+01
2.24736574e+01
2.62904763e+01
1.84416628e+01
1.56443326e+01
2.51476693e+01
2.39443698e+01
2.49100294e+01
2.74241900e+01
2.64605169e+01
2.67002869e+01
3.04901538e+01
3.23438034e+01
2.58970849e-01
3.30985650e-01
2.56131634e-01
5.15843391e-01
2.96376324e+01
2.98535318e+01
3.00586782e+01
2.95711055e+01
3.02693176e+01
3.14359605e+01
3.05235195e+01
3.21653979e+01
3.06020036e+01
3.16879280e+01
3.04648604e+01
3.07612283e+01
3.04456635e+01
3.04569168e+01
3.10127406e+01
2.92654562e+01
3.37945505e+01
3.63540516e+01
3.32028828e+01
3.11362867e+01
3.05113897e+01
3.16311493e+01
3.00326209e+01
3.68187628e+01
2.96890161e+01
2.40460114e+01
2.91336164e+01
2.15885568e+01
2.36230016e+01
3.25734689e+01
2.36308746e+01
3.55165831e+01
2.67318115e+01
2.89243393e+01
</DataArray>
<DataArray type="Float32" Name="Stress_Max_Principal" format="ascii">
4.24558783e+00
4.22613811e+00
3.81627381e+00
3.36919534e+00
4.09425378e+00
3.72877359e+00
3.42258736e+00
3.68539935e+00
4.02562582e+00
4.24657524e+00
3.09912884e+00
2.86182320e+00
3.56595874e+00
3.88482267e+00
2.18413019e+00
2.13992992e+00
2.65338898e+00
2.83641380e+00
1.21578009e+00
1.49400899e+00
2.16115439e+00
2.97738677e+00
1.47583538e+00
1.53143515e+00
3.77591753e+00
3.93081272e+00
2.55505967e+00
2.83602083e+00
3.26212615e+00
2.34477746e+00
2.79868934e+00
2.34008062e+00
5.17721915e+00
4.65515375e+00
6.55721021e+00
5.15170574e+00
7.47619915e+00
5.06381729e+00
7.81420612e+00
5.21077728e+00
8.83438849e+00
6.04597451e+00
4.11534125e+00
3.65237772e+00
3.51147084e+00
2.51559982e+00
3.66037095e+00
3.55736730e+00
3.04833686e+00
3.06357709e+00
4.52837467e+00
7.38125261e+00
4.38487530e+00
7.17941316e+00
2.64760187e+00
6.03211570e+00
3.74694729e+00
3.73912275e+00
2.94591984e+00
2.73214620e+00
3.39870125e+00
2.67210891e+00
2.29131570e+00
2.14100342e+00
1.94321367e+00
3.20361654e+00
1.98740727e+00
1.59194112e+00
1.29125708e+00
2.43094887e+00
2.92552835e+00
3.05192316e+00
2.16793738e+00
2.19024390e+00
2.97029245e+00
1.40350577e+00
1.99088998e+00
1.64998650e+00
9.57026049e-01
2.73702514e+00
9.53803748e-01
6.89344471e-01
4.76806566e-01
3.67778808e-01
3.23720694e+00
3.21469808e+00
2.62281460e+00
2.45109761e+00
2.95834601e+00
1.69946789e+00
2.23348519e+00
1.77859491e+00
9.02436137e-01
2.79830480e+00
1.14640158e+00
5.17792910e-01
1.42394602e-01
1.81817217e-01
3.14844346e+00
2.26702765e+00
3.27211311e+00
3.66518068e+00
1.57779720e+00
1.97760931e+00
2.06720465e+00
1.16004245e+00
1.74591053e+00
6.81647296e-01
1.18348667e+00
8.56213348e-01
1.62480503e+00
1.64158872e+00
3.41255970e+00
4.52120578e+00
1.48340828e+00
5.87019229e-01
-1.32175892e+00
-1.42353959e+00
-4.76857424e-01
3.97779830e+00
3.37070957e+00
4.55983155e+00
1.32651119e+01
1.35399766e+00
1.49880274e+00
2.21960621e+00
3.05804865e+00
1.33082695e+00
2.66603567e-02
2.10691804e+00
3.18060231e+00
7.34881341e-01
3.57808277e-01
2.46986288e+00
1.44628413e+00
1.50727194e-01
1.37637269e-01
1.03667520e-01
3.23561296e-01
8.95287395e-01
7.18406450e-01
2.11863450e+00
1.68926182e+00
2.13873333e+00
2.32903741e+00
3.18991321e+00
1.71724254e+00
2.82147574e+00
1.41668546e+00
1.48697229e+00
1.05137810e+00
2.04010320e+00
1.34078851e+00
3.53458968e+00
4.48597085e+00
1.28042630e+00
6.76094883e-01
-1.83160089e-01
-1.91281432e-01
1.56389363e-01
4.10433761e+00
5.66834319e+00
2.25238305e+00
4.38119967e+00
2.28587280e+00
5.20295817e+00
6.44219197e-01
1.09563453e+00
5.26311583e+00
3.34754753e+00
4.30938466e+00
1.60805130e+00
1.96822113e+00
</DataArray>
<DataArray type="Float32" Name="Stress_Mid_Principal" format="ascii">
-3.19026375e+00
-3.36114073e+00
-2.15335712e+00
-1.78652817e+00
-2.70858264e+00
-2.57598191e+00
-1.89096349e+00
-2.05291763e+00
-3.68823338e+00
-2.35536966e+00
-2.47976801e+00
-1.70648352e+00
-3.99138367e+00
-2.13008589e+00
-2.14131728e+00
-1.48272832e+00
-3.66533935e+00
-1.84391111e+00
-1.40277818e+00
-1.31147286e+00
-2.42205036e+00
-2.00267909e+00
-7.88920060e-01
-1.43219582e+00
-3.82232523e+00
-3.48063469e+00
-1.31914124e+00
-2.67034423e+00
-1.03372540e-01
8.51731524e-02
-2.68643346e-01
7.12630153e-02
4.25099533e-01
2.27522582e-01
1.72579592e-01
9.27881452e-01
1.88175272e+00
3.74407217e-01
1.37046531e+00
-1.66117233e-01
-7.55618811e-01
-1.25102258e+00
-2.36490376e-01
-2.84692854e-01
8.55714802e-01
2.47281168e-01
-1.02084036e+00
-3.79895583e-01
-1.91921514e+00
-1.15633885e+00
-8.86821946e-01
-2.42842257e-01
-1.43173244e+00
-1.70836029e+00
5.20639420e-02
-1.36931026e+00
-1.41154699e+00
-1.26490843e+00
-1.18204421e+00
-9.41550590e-01
-1.62505827e+00
-1.30656863e+00
-8.34811956e-01
-9.60994303e-01
5.05814433e-01
1.26104057e-01
9.41256419e-01
4.36810543e-01
7.03803211e-01
1.39383239e-02
-1.02712612e+00
-7.88538367e-01
-9.71779093e-01
-6.44049373e-01
-6.51332639e-01
-9.79766615e-01
-6.06362328e-01
1.45347575e-01
2.00677395e-01
-9.20018021e-01
4.59047727e-01
1.26231557e-01
-4.76899654e-01
-5.42622780e-02
-1.27410166e-01
-4.55947459e-01
-1.07215725e-01
-3.86404358e-01
3.96315426e-01
2.99714617e-02
-7.41024047e-01
3.32073847e-01
-1.60413206e-01
-8.52808230e-01
4.48214051e-01
-5.15829250e-02
-1.22919688e-02
-1.83685571e-01
-1.49764299e+00
-8.57795864e-01
-2.35160848e+00
-1.99823141e+00
-7.34664705e-01
-2.68687175e+00
-2.16689178e+00
-2.81138101e+00
-2.09139267e+00
-2.33329391e+00
-8.25396746e-01
-1.92301387e+00
-7.78912008e-01
-2.05559470e+00
-2.60833360e+00
-2.43294439e+00
-2.70101104e+00
-3.24375252e+00
-2.43794256e+00
-2.47550106e+00
-2.75912589e+00
-7.86331013e-01
-5.16006157e-01
-7.29919771e-01
-3.13847542e+00
-9.69353691e-01
6.08462488e-01
-1.20798054e+00
-1.79975009e+00
-1.14623868e+00
-9.72423298e-01
-1.03360835e+00
6.66574076e-01
-1.65176446e+00
-5.56545734e-01
-1.08504699e+00
-8.52466643e-01
-6.90306462e-02
3.61341208e-02
2.17647129e-02
-1.54718768e-01
-9.72892940e-02
-2.96999902e-01
-1.80803388e+00
-7.42069898e-01
-2.40115699e+00
-3.92752403e+00
-4.24795252e+00
-4.34044318e+00
-3.74844307e+00
-3.46159303e+00
-2.02413547e+00
-2.19261973e+00
-2.67669606e+00
-1.94530591e+00
-4.25008613e+00
-2.89044130e+00
-3.38593742e+00
-4.58793054e+00
-3.86727852e+00
-1.24966368e+00
-6.97604090e-01
-4.11388049e+00
-2.39416969e+00
-4.84700614e+00
-6.12323933e-01
-1.82569804e+00
-3.48048877e+00
-2.62894984e+00
-1.13540970e+00
-8.64218042e-01
2.41983485e+00
-5.10903104e+00
-2.23905598e+00
-8.77209030e-01
</DataArray>
<DataArray type="Float32" Name="Stress_Min_Principal" format="ascii">
-2.78741550e+01
-2.80753241e+01
-2.75593944e+01
-2.77827606e+01
-2.76805019e+01
-2.80859175e+01
-2.78964846e+01
-2.76454430e+01
-2.87036285e+01
-2.72195311e+01
-2.90036221e+01
-2.86212029e+01
-2.96090736e+01
-2.76278262e+01
-2.99040632e+01
-2.93678930e+01
-3.05226460e+01
-2.87896161e+01
-3.02995095e+01
-3.01109016e+01
-3.01011343e+01
-2.90013447e+01
-2.93742781e+01
-3.02317495e+01
-2.93956280e+01
-2.91602955e+01
-2.87859411e+01
-3.00760813e+01
-2.64160414e+01
-2.73361101e+01
-2.70688436e+01
-2.74408574e+01
-2.50762658e+01
-2.58572841e+01
-2.13103571e+01
-2.52631465e+01
-2.02081728e+01
-2.63894844e+01
-2.11414204e+01
-2.73026193e+01
-2.27041426e+01
-2.87310467e+01
-2.50659308e+01
-2.66002054e+01
-2.61983550e+01
-2.63257084e+01
-1.90727291e+01
-1.86933981e+01
-8.53755879e+00
-9.84239125e+00
-4.99515247e+00
-8.49201822e+00
-5.52952385e+00
-8.04745070e+00
-6.25347543e+00
-8.21664286e+00
-2.34751759e+01
-2.51576881e+01
-2.32968094e+01
-2.49018908e+01
-1.77753656e+01
-1.75078658e+01
-7.91504622e+00
-9.56196817e+00
-1.90685630e+00
-2.78754854e+00
-2.70399314e+00
-1.01935305e+00
-1.77038199e+00
-1.43549093e+00
-2.47041473e+01
-2.57387657e+01
-2.44355605e+01
-2.56160336e+01
-2.15406370e+01
-2.15881424e+01
-1.21335597e+01
-1.68023074e+01
-2.94791484e+00
-3.60722275e+00
-1.06007710e+00
-5.62612879e-01
-8.71038765e-01
-9.43032861e-01
-2.71110678e+01
-2.71088791e+01
-2.71097493e+01
-2.70866861e+01
-2.49199314e+01
-2.57783837e+01
-1.47495236e+01
-2.04342159e+01
-4.09872663e+00
-5.30221128e+00
-1.53838754e+00
-4.77486144e-01
-5.92168331e-01
-3.02306786e-01
-2.78849497e+01
-2.83961701e+01
-2.85938406e+01
-2.76905203e+01
-2.92736712e+01
-3.10189736e+01
-3.01122766e+01
-3.23428168e+01
-3.05645547e+01
-3.20804033e+01
-2.97913651e+01
-3.13755066e+01
-2.93859291e+01
-3.07636070e+01
-2.90817313e+01
-2.69958820e+01
-3.20303416e+01
-3.39422218e+01
-3.46079760e+01
-3.45745478e+01
-3.40136585e+01
-2.71389751e+01
-2.63160057e+01
-2.61418896e+01
-2.02967515e+01
-2.21889536e+01
-2.52214127e+01
-1.76533070e+01
-1.43994516e+01
-2.49622102e+01
-2.44015994e+01
-2.42131302e+01
-2.54062028e+01
-2.68362207e+01
-2.67878771e+01
-2.96373062e+01
-3.19591904e+01
-1.34430356e-01
-2.26505961e-01
-1.78166538e-01
-2.21577466e-01
-2.92261581e+01
-2.96289210e+01
-2.96752484e+01
-2.90176978e+01
-3.01426587e+01
-3.17507713e+01
-3.03613477e+01
-3.29789829e+01
-3.05240407e+01
-3.23863347e+01
-3.05557642e+01
-3.11824963e+01
-3.04882717e+01
-3.06026154e+01
-3.06012352e+01
-2.77575803e+01
-3.45720049e+01
-3.79132095e+01
-3.50557361e+01
-3.18419046e+01
-3.07728739e+01
-3.06916270e+01
-2.75471039e+01
-3.75225573e+01
-2.73902190e+01
-2.34182711e+01
-2.66567287e+01
-2.23111620e+01
-2.35628467e+01
-2.99263044e+01
-2.07335224e+01
-3.45837561e+01
-2.67351542e+01
-2.82736712e+01
</DataArray>
<DataArray type="Float32" Name="Stress_Pressure" format="ascii">
8.93961048e+00
9.07010889e+00
8.63215947e+00
8.73336458e+00
8.76494360e+00
8.97770858e+00
8.78828692e+00
8.67098713e+00
9.45541191e+00
8.44277513e+00
9.46142054e+00
9.15528768e+00
1.00114994e+01
8.62436306e+00
9.95375013e+00
9.57023025e+00
1.05115323e+01
9.26570439e+00
1.01621692e+01
9.97612190e+00
1.01206770e+01
9.34221220e+00
9.56245422e+00
1.00441700e+01
9.81401157e+00
9.57003880e+00
9.18334055e+00
9.97013497e+00
7.75242925e+00
8.30205297e+00
8.17959911e+00
8.34317112e+00
6.49131548e+00
6.99153596e+00
4.86018911e+00
6.39451989e+00
3.61674017e+00
6.98375312e+00
3.98558289e+00
7.41931978e+00
4.87512410e+00
7.97869833e+00
7.06236005e+00
7.74417353e+00
7.27705640e+00
7.85427582e+00
5.47773278e+00
5.17197546e+00
2.46947895e+00
2.64505106e+00
4.51199889e-01
4.51202586e-01
8.58793711e-01
8.58799264e-01
1.18460318e+00
1.18461248e+00
7.04659164e+00
7.56115794e+00
7.17764467e+00
7.70376503e+00
5.33390737e+00
5.38077526e+00
2.15284748e+00
2.79398631e+00
-1.80723965e-01
-1.80723985e-01
-7.48901665e-02
-3.36466183e-01
-7.48927593e-02
-3.36465408e-01
7.60191524e+00
7.82512689e+00
7.74646741e+00
8.02327967e+00
6.40722585e+00
7.05480117e+00
3.58301076e+00
5.00232452e+00
5.96737135e-01
5.96738514e-01
-1.17591470e-01
-8.43210526e-02
2.90377297e-01
2.09838789e-01
8.00042367e+00
8.11670971e+00
8.19805026e+00
8.34066439e+00
7.18842340e+00
8.01631474e+00
4.41902089e+00
6.10784896e+00
1.11890129e+00
1.11890485e+00
-1.87426880e-02
3.75871733e-03
1.54021889e-01
1.01391712e-01
8.74471617e+00
8.99564600e+00
9.22444546e+00
8.67452359e+00
9.47684598e+00
1.05760787e+01
1.00706546e+01
1.13313854e+01
1.03033457e+01
1.12440168e+01
9.81109190e+00
1.08141024e+01
9.51334524e+00
1.03925376e+01
9.42583513e+00
8.30254018e+00
1.10826481e+01
1.21996515e+01
1.27892258e+01
1.28245292e+01
1.24165478e+01
7.98250252e+00
7.82043409e+00
7.43732613e+00
3.39003831e+00
7.26810318e+00
7.70471573e+00
5.54722713e+00
4.38038445e+00
8.25920731e+00
8.44912064e+00
7.71327335e+00
7.18634212e+00
9.25103450e+00
8.99553823e+00
9.41749716e+00
1.04551244e+01
1.75779355e-02
1.75781925e-02
1.75781040e-02
1.75783155e-02
9.47605324e+00
9.73583817e+00
9.78821599e+00
9.35683513e+00
1.01350276e+01
1.11164194e+01
1.04731288e+01
1.18673947e+01
1.04836693e+01
1.14770809e+01
1.03643091e+01
1.07745794e+01
1.03749547e+01
1.04023776e+01
1.04389105e+01
8.72068357e+00
1.22258388e+01
1.39416821e+01
1.30353918e+01
1.10942831e+01
1.04380293e+01
1.02337232e+01
8.09097672e+00
1.33723938e+01
7.87378100e+00
7.65269887e+00
8.31141984e+00
8.09863102e+00
7.86754072e+00
8.50913565e+00
4.98871326e+00
1.17944681e+01
9.12205303e+00
9.06088638e+00
</DataArray>
<DataArray type="Float32" Name="Stress_Tresca" format="ascii">
3.21197433e+01
3.23014603e+01
3.13756690e+01
3.11519566e+01
3.17747564e+01
3.18146906e+01
3.13190720e+01
3.13308425e+01
3.27292557e+01
3.14661059e+01
3.21027513e+01
3.14830265e+01
3.31750317e+01
3.15126491e+01
3.20881934e+01
3.15078232e+01
3.31760349e+01
3.16260300e+01
3.15152898e+01
3.16049104e+01
3.22622890e+01
3.19787316e+01
3.08501129e+01
3.17631850e+01
3.31715469e+01
3.30911083e+01
3.13410006e+01
3.29121022e+01
2.96781673e+01
2.96808882e+01
2.98675330e+01
2.97809377e+01
3.02534847e+01
3.05124378e+01
2.78675671e+01
3.04148521e+01
2.76843719e+01
3.14533021e+01
2.89556265e+01
3.25133966e+01
3.15385323e+01
3.47770220e+01
2.91812720e+01
3.02525835e+01
2.97098258e+01
2.88413086e+01
2.27331004e+01
2.22507651e+01
1.15858958e+01
1.29059685e+01
9.52352715e+00
1.58732713e+01
9.91439915e+00
1.52268639e+01
8.90107775e+00
1.42487581e+01
2.72221231e+01
2.88968115e+01
2.62427292e+01
2.76340370e+01
2.11740670e+01
2.01799743e+01
1.02063620e+01
1.17029718e+01
3.85006992e+00
5.99116516e+00
4.69140053e+00
2.61129419e+00
3.06163907e+00
3.86643982e+00
2.76296759e+01
2.87906895e+01
2.66034977e+01
2.78062773e+01
2.45109296e+01
2.29916482e+01
1.41244497e+01
1.84522936e+01
3.90494078e+00
6.34424800e+00
2.01388085e+00
1.25195736e+00
1.34784532e+00
1.31081166e+00
3.03482742e+01
3.03235779e+01
2.97325640e+01
2.95377836e+01
2.78782768e+01
2.74778514e+01
1.69830084e+01
2.22128105e+01
5.00116253e+00
8.10051584e+00
2.68478912e+00
9.95279074e-01
7.34562933e-01
4.84124005e-01
3.10333929e+01
3.06631980e+01
3.18659537e+01
3.13557010e+01
3.08514686e+01
3.29965823e+01
3.21794810e+01
3.35028591e+01
3.23104644e+01
3.27620504e+01
3.09748516e+01
3.22317207e+01
3.10107346e+01
3.24051962e+01
3.24942913e+01
3.15170865e+01
3.35137503e+01
3.45292412e+01
3.32862163e+01
3.31510077e+01
3.35368004e+01
3.11167731e+01
2.96867156e+01
3.07017206e+01
3.35618649e+01
2.35429513e+01
2.67202153e+01
1.98729135e+01
1.74575001e+01
2.62930374e+01
2.44282598e+01
2.63200483e+01
2.85868044e+01
2.75711021e+01
2.71456861e+01
3.21071687e+01
3.34054737e+01
2.85157546e-01
3.64143230e-01
2.81834051e-01
5.45138747e-01
3.01214457e+01
3.03473272e+01
3.17938826e+01
3.07069597e+01
3.22813921e+01
3.40798090e+01
3.35512609e+01
3.46962256e+01
3.33455172e+01
3.38030195e+01
3.20427361e+01
3.22338748e+01
3.25283737e+01
3.19434032e+01
3.41358247e+01
3.22435513e+01
3.58524312e+01
3.85893044e+01
3.48725767e+01
3.16506233e+01
3.09292631e+01
3.47959641e+01
3.32154465e+01
3.97749405e+01
3.17714187e+01
2.57041435e+01
3.18596873e+01
2.29553816e+01
2.46584811e+01
3.51894212e+01
2.40810699e+01
3.88931414e+01
2.83432050e+01
3.02418919e+01
</DataArray>
<DataArray type="Float32" Name="Stress_Third_Invariant" format="ascii">
-2.68594971e+01
-2.68961859e+01
-2.73118491e+01
-2.77774448e+01
-2.70928192e+01
-2.75663657e+01
-2.78600371e+01
-2.75241294e+01
-2.72223158e+01
-2.67320437e+01
-2.84592090e+01
-2.86035521e+01
-2.78353558e+01
-2.71537690e+01
-2.94261737e+01
-2.93100204e+01
-2.89012957e+01
-2.83618994e+01
-3.00140228e+01
-2.99756222e+01
-2.93644238e+01
-2.87000985e+01
-2.95820150e+01
-3.00362239e+01
-2.78173752e+01
-2.77563496e+01
-2.90119219e+01
-2.93574452e+01
-2.76801133e+01
-2.84161816e+01
-2.80207107e+01
-2.84349289e+01
-2.72512078e+01
-2.76956673e+01
-2.33287897e+01
-2.76902308e+01
-2.39009428e+01
-2.83200455e+01
-2.44292531e+01
-2.90051238e+01
-2.37743416e+01
-2.96622442e+01
-2.64111934e+01
-2.78005037e+01
-2.81248331e+01
-2.74960237e+01
-1.95056953e+01
-1.95707380e+01
-4.23341882e+00
-8.52801752e+00
2.27688742e+00
-3.56213951e+00
3.13359475e+00
3.53242906e+00
-6.79291987e+00
3.20847988e+00
-2.38016357e+01
-2.56631536e+01
-2.36357820e+01
-2.53953872e+01
-1.75516415e+01
-1.74034085e+01
-6.86945128e+00
-9.17866190e+00
-8.14019799e-01
3.12300126e-01
-2.77257270e+00
-4.04616455e-01
-2.63135290e+00
9.01343346e-01
-2.51597967e+01
-2.64468212e+01
-2.47241704e+01
-2.61474562e+01
-2.21616111e+01
-2.15319841e+01
-1.23289413e+01
-1.75727393e+01
-3.33325249e+00
2.40279135e+00
-9.51802820e-01
-3.30972946e-01
1.03897586e+00
-7.01068302e-01
-2.83661900e+01
-2.81290302e+01
-2.81594439e+01
-2.79023991e+01
-2.63798532e+01
-2.65596089e+01
-1.50519094e+01
-2.14039548e+01
-4.23596561e+00
-3.70681763e+00
-2.15337580e+00
5.27448684e-01
-6.28693521e-01
3.97646606e-01
-2.81349592e+01
-2.88326182e+01
-2.81954951e+01
-2.76509314e+01
-2.95548587e+01
-3.00636396e+01
-2.95721803e+01
-3.11090813e+01
-3.00180283e+01
-3.10103042e+01
-2.98264275e+01
-3.06358585e+01
-2.96535091e+01
-3.02063913e+01
-2.83821850e+01
-2.66265922e+01
-3.09068751e+01
-3.20621922e+01
-3.26995187e+01
-3.25980053e+01
-3.22690439e+01
-2.79448378e+01
-2.72548203e+01
-2.67030729e+01
-3.82195997e+00
-2.21943743e+01
-2.62441020e+01
-1.75555442e+01
-1.36030795e+01
-2.48662946e+01
-2.38973598e+01
-2.44223781e+01
-2.71389017e+01
-2.62108712e+01
-2.66649275e+01
-3.00039306e+01
-3.20784273e+01
2.38351181e-01
-1.88599192e-01
-1.20370567e-01
5.03116995e-01
-2.96001787e+01
-2.98117671e+01
-2.93593464e+01
-2.93303156e+01
-2.94840088e+01
-2.99367924e+01
-2.83604207e+01
-3.06089413e+01
-2.89221458e+01
-3.06887538e+01
-2.99237432e+01
-3.03071382e+01
-2.96055098e+01
-2.99809227e+01
-2.85737839e+01
-2.70353851e+01
-3.29515029e+01
-3.51120113e+01
-3.26792474e+01
-3.10916762e+01
-3.04840097e+01
-2.84941243e+01
-2.73281236e+01
-3.49617128e+01
-2.83821477e+01
-2.27847748e+01
-1.59110346e+01
-2.07346840e+01
-2.33814349e+01
-3.11933517e+01
-2.35898495e+01
-3.04641171e+01
-2.57464609e+01
-2.86069031e+01
</DataArray>
<DataArray type="Float32" Name="Logarithmic_strain_Max_Principal" format="ascii">
3.69001937e-04
4.02779959e-04
3.41438150e-04
3.13918426e-04
3.45769731e-04
3.51640309e-04
3.17438287e-04
3.06819726e-04
4.81269250e-04
3.79084777e-04
3.75148411e-04
3.56278881e-04
5.48102689e-04
4.26594459e-04
4.03427664e-04
3.75283678e-04
5.83640882e-04
4.88418809e-04
4.29864151e-04
3.76867676e-04
6.71654125e-04
5.88895091e-04
4.91364408e-04
4.46946287e-04
8.92030890e-04
7.73240579e-04
5.92218159e-04
5.70003744e-04
2.22737490e-04
2.27353317e-04
2.37203381e-04
2.05278913e-04
2.17152941e-04
2.42762279e-04
2.12388481e-04
2.57314563e-04
2.25395397e-04
3.26438004e-04
2.55472900e-04
3.60207264e-04
3.27572881e-04
4.40317390e-04
1.79084967e-04
1.97567038e-04
1.74808833e-04
1.57063245e-04
1.54554284e-04
1.41771873e-04
1.03124110e-04
1.01658259e-04
1.14218276e-04
1.82654558e-04
1.15819072e-04
1.82741011e-04
7.74401906e-05
1.59477029e-04
1.74579589e-04
1.79034352e-04
1.56724953e-04
1.57866467e-04
1.45712711e-04
1.28687377e-04
8.07859342e-05
8.48885490e-05
4.45117288e-05
7.45708094e-05
4.69443803e-05
3.39851425e-05
3.03406032e-05
5.42875411e-05
1.61693253e-04
1.65929530e-04
1.44966329e-04
1.48582403e-04
1.48058460e-04
1.18366320e-04
9.08587936e-05
9.96468122e-05
3.01871197e-05
7.28541318e-05
2.14454169e-05
1.57494961e-05
1.50218129e-05
1.11250001e-05
1.72640401e-04
1.83160417e-04
1.61010081e-04
1.61022399e-04
1.57463306e-04
1.36923509e-04
1.06269126e-04
1.15560368e-04
3.49764796e-05
8.05764521e-05
2.73620080e-05
1.25530848e-05
5.38042377e-06
5.75665081e-06
3.02472254e-04
2.71950354e-04
2.97816212e-04
2.91231459e-04
2.56678188e-04
3.10111116e-04
3.02088622e-04
3.42448719e-04
3.31030817e-04
3.51410083e-04
2.97848012e-04
3.41607050e-04
2.94352867e-04
3.46775174e-04
2.73949287e-04
2.55497784e-04
3.73217722e-04
5.01047826e-04
4.23112593e-04
4.51730069e-04
4.81146271e-04
1.79993292e-04
1.89257174e-04
2.94035852e-04
4.15030707e-04
1.24859647e-04
1.24902039e-04
9.74392627e-05
1.26011703e-04
1.31291784e-04
1.02051261e-04
1.42707693e-04
1.44400816e-04
1.28244370e-04
1.16387804e-04
1.88071459e-04
3.22369495e-04
4.06175980e-06
3.53842597e-06
2.51715244e-06
8.07831452e-06
2.53677819e-04
2.47650198e-04
3.00573245e-04
2.83317160e-04
2.88129362e-04
3.34892868e-04
3.16140569e-04
3.49648220e-04
2.84913964e-04
3.58230838e-04
2.02785799e-04
2.95002112e-04
1.82596501e-04
2.53923758e-04
3.56452747e-04
3.17396458e-04
3.94036145e-04
6.35256828e-04
5.03728101e-04
3.38248945e-04
3.01551932e-04
3.75042921e-04
2.33417104e-04
7.97530432e-04
1.99366907e-04
1.48575091e-04
3.59049380e-04
9.63765369e-05
1.14258548e-04
2.22854819e-04
1.40504373e-04
6.41228651e-04
2.15921695e-04
1.72715168e-04
</DataArray>
<DataArray type="Float32" Name="Logarithmic_strain_Min_Principal" format="ascii">
-7.75603927e-04
-8.23004433e-04
-7.61225878e-04
-7.44538236e-04
-7.52323074e-04
-7.79585054e-04
-7.47396574e-04
-7.19153701e-04
-9.38002282e-04
-7.86526012e-04
-8.49828706e-04
-8.34718034e-04
-1.04944874e-03
-8.65426686e-04
-9.42860017e-04
-9.04191686e-04
-1.14927912e-03
-1.02050834e-03
-1.04200499e-03
-9.46043911e-04
-1.33203296e-03
-1.16987410e-03
-1.12969530e-03
-1.05489823e-03
-1.50361646e-03
-1.33663625e-03
-1.21445855e-03
-1.15608666e-03
-6.16587684e-04
-6.67689601e-04
-6.58360543e-04
-6.34058088e-04
-5.44394075e-04
-5.99144856e-04
-4.43798235e-04
-6.08906013e-04
-4.37055198e-04
-7.37461965e-04
-4.72998072e-04
-7.81096712e-04
-5.41313959e-04
-8.76045475e-04
-5.10332109e-04
-5.69521828e-04
-5.46247342e-04
-5.41341738e-04
-3.93016155e-04
-3.77278091e-04
-1.75093674e-04
-2.01069980e-04
-1.14527866e-04
-1.98217941e-04
-1.22515834e-04
-1.83091169e-04
-1.35965078e-04
-1.82604846e-04
-4.79172479e-04
-5.10926766e-04
-4.73163916e-04
-5.04797557e-04
-3.62759827e-04
-3.55423690e-04
-1.64233496e-04
-1.95888675e-04
-4.77985632e-05
-6.94729691e-05
-6.58034933e-05
-2.84956965e-05
-4.31032240e-05
-3.85931544e-05
-5.01707567e-04
-5.22143586e-04
-4.93401578e-04
-5.18343411e-04
-4.40145021e-04
-4.33512090e-04
-2.48242046e-04
-3.43395943e-04
-6.35475099e-05
-7.92170986e-05
-2.68108047e-05
-1.45575765e-05
-1.72977334e-05
-2.02006680e-05
-5.52848302e-04
-5.66711009e-04
-5.51843303e-04
-5.52744954e-04
-5.11604361e-04
-5.22322225e-04
-3.00849104e-04
-4.16715203e-04
-8.51729783e-05
-1.13808026e-04
-3.71918468e-05
-1.14618745e-05
-1.23445916e-05
-5.81125869e-06
-7.38814240e-04
-7.39665513e-04
-7.24600301e-04
-6.95567505e-04
-7.47591243e-04
-8.09961050e-04
-7.85156124e-04
-9.00815365e-04
-8.47192583e-04
-9.37956880e-04
-8.30219637e-04
-9.13780430e-04
-8.04053270e-04
-8.80278021e-04
-6.90484914e-04
-6.08354690e-04
-9.40560779e-04
-1.18277594e-03
-1.16340478e-03
-1.21850209e-03
-1.20684353e-03
-5.36723022e-04
-5.58634791e-04
-6.87424190e-04
-4.99762944e-04
-4.52521334e-04
-5.08531230e-04
-3.26887867e-04
-2.92701239e-04
-5.00030481e-04
-4.83955941e-04
-4.88280675e-04
-4.94028383e-04
-5.32111939e-04
-5.35062863e-04
-6.18093021e-04
-9.04485234e-04
-2.90024627e-06
-5.33413981e-06
-4.06162815e-06
-5.14717249e-06
-7.79297407e-04
-7.76774308e-04
-7.84796444e-04
-7.81514915e-04
-7.63158634e-04
-8.21980160e-04
-7.47363432e-04
-8.73987228e-04
-7.26546961e-04
-9.06458299e-04
-6.70187597e-04
-8.29059238e-04
-6.19665370e-04
-7.55474146e-04
-7.92774947e-04
-6.91776717e-04
-1.00622185e-03
-1.39712796e-03
-1.20996422e-03
-9.74483832e-04
-8.95308622e-04
-8.16651175e-04
-5.63677830e-04
-1.51512935e-03
-5.64093997e-04
-4.72490188e-04
-7.13320282e-04
-4.13546415e-04
-4.61524600e-04
-5.92176644e-04
-4.37078619e-04
-1.24917505e-03
-6.34769800e-04
-5.96465223e-04
</DataArray>
<DataArray type="Float32" Name="Plastic_strain_Max_Principal" format="ascii">
1.59180607e-04
1.92437059e-04
1.46405291e-04
1.28000607e-04
1.42371326e-04
1.54325870e-04
1.29684059e-04
1.14444863e-04
2.71409241e-04
1.76001387e-04
1.87233585e-04
1.77839658e-04
3.42810556e-04
2.29880894e-04
2.31495105e-04
2.09325854e-04
3.93726994e-04
3.11898257e-04
2.78768210e-04
2.21494427e-04
4.98275651e-04
4.07910768e-04
3.41055675e-04
2.89589463e-04
6.83354621e-04
5.65456852e-04
4.20644705e-04
3.82155777e-04
5.13570285e-05
7.17498478e-05
7.20318012e-05
4.89790716e-05
2.25710792e-05
4.86712919e-05
9.57640532e-06
5.80581447e-05
1.01899454e-05
1.21784994e-04
2.15761138e-05
1.46399723e-04
5.79661755e-05
1.99866729e-04
6.56843866e-06
1.70636904e-05
8.45806666e-06
1.22005146e-05
8.16548152e-07
9.72326454e-06
0.00000000e+00
8.54248234e-06
0.00000000e+00
0.00000000e+00
0.00000000e+00
0.00000000e+00
0.00000000e+00
0.00000000e+00
1.67625089e-07
1.67657583e-06
2.25386447e-08
2.46127712e-07
0.00000000e+00
0.00000000e+00
0.00000000e+00
0.00000000e+00
0.00000000e+00
0.00000000e+00
0.00000000e+00
0.00000000e+00
0.00000000e+00
0.00000000e+00
1.46513031e-07
1.72838793e-06
4.14848103e-08
4.42177480e-07
0.00000000e+00
2.16323883e-08
0.00000000e+00
7.32284965e-08
0.00000000e+00
0.00000000e+00
0.00000000e+00
0.00000000e+00
0.00000000e+00
0.00000000e+00
1.57615921e-06
8.94678396e-06
4.62537770e-07
2.20707921e-06
0.00000000e+00
1.09842745e-07
0.00000000e+00
8.03467553e-07
0.00000000e+00
0.00000000e+00
0.00000000e+00
0.00000000e+00
0.00000000e+00
0.00000000e+00
1.21642082e-04
1.09599829e-04
1.08529805e-04
9.90914141e-05
1.05277621e-04
1.35815860e-04
1.31378356e-04
1.78725491e-04
1.65114014e-04
2.00550445e-04
1.51562751e-04
1.91367079e-04
1.41133583e-04
1.82909280e-04
7.97215264e-05
4.74788255e-05
2.05819079e-04
3.42317554e-04
3.02987697e-04
3.32342468e-04
3.43521111e-04
5.55381125e-05
2.70889750e-05
1.05498165e-04
5.71715027e-05
5.47541862e-06
4.41476232e-06
3.06335922e-05
0.00000000e+00
8.07196443e-08
0.00000000e+00
1.14938410e-06
2.97481787e-05
8.88980367e-07
0.00000000e+00
1.70554517e-05
1.70887630e-04
0.00000000e+00
0.00000000e+00
0.00000000e+00
0.00000000e+00
1.18977656e-04
1.13488733e-04
1.32048939e-04
1.30336197e-04
1.15128780e-04
1.45934139e-04
1.13687358e-04
1.66109614e-04
9.13463555e-05
1.86626833e-04
4.26096772e-05
1.40363087e-04
1.57936295e-05
9.67031719e-05
1.46393957e-04
1.04993347e-04
2.31786402e-04
4.54227068e-04
3.52134724e-04
2.10662114e-04
1.72372449e-04
1.65617611e-04
9.81817866e-05
5.85886628e-04
2.31790121e-05
8.15577505e-06
1.38963449e-04
2.66842260e-05
9.60869320e-06
4.76685536e-05
0.00000000e+00
3.98514472e-04
6.97225270e-05
1.70184685e-05
</DataArray>
<DataArray type="Float32" Name="Plastic_strain_Min_Principal" format="ascii">
-2.13390609e-04
-2.57973035e-04
-2.03230582e-04
-1.83171622e-04
-1.92796280e-04
-2.13366897e-04
-1.83361488e-04
-1.59667081e-04
-3.63055209e-04
-2.34640600e-04
-2.67318741e-04
-2.57691805e-04
-4.58650888e-04
-3.05922811e-04
-3.44492139e-04
-3.14286644e-04
-5.42991213e-04
-4.40474869e-04
-4.36739632e-04
-3.43235544e-04
-7.30879576e-04
-5.86076407e-04
-5.39458451e-04
-4.50042797e-04
-9.14943637e-04
-7.51418789e-04
-6.33922609e-04
-5.54050872e-04
-7.57674634e-05
-1.11367568e-04
-1.06983183e-04
-7.55256638e-05
-2.79772437e-05
-6.41552336e-05
-7.30625538e-06
-8.03530815e-05
-8.94468212e-06
-1.88451567e-04
-1.64691664e-05
-2.15515510e-04
-5.55633451e-05
-2.82415756e-04
-4.48355797e-06
-2.45039196e-05
-9.77626780e-06
-1.35845794e-05
-1.18718378e-06
-6.44428141e-06
0.00000000e+00
-7.35500544e-06
0.00000000e+00
0.00000000e+00
0.00000000e+00
0.00000000e+00
0.00000000e+00
0.00000000e+00
-2.24618560e-07
-1.25117072e-06
-3.29748602e-08
-1.68230756e-07
0.00000000e+00
0.00000000e+00
0.00000000e+00
0.00000000e+00
0.00000000e+00
0.00000000e+00
0.00000000e+00
0.00000000e+00
0.00000000e+00
0.00000000e+00
-2.11165286e-07
-1.19864171e-06
-6.19683078e-08
-2.95692530e-07
0.00000000e+00
-1.47161368e-08
0.00000000e+00
-1.07644231e-07
0.00000000e+00
0.00000000e+00
0.00000000e+00
0.00000000e+00
0.00000000e+00
0.00000000e+00
-1.09358825e-06
-1.29008622e-05
-3.09646850e-07
-3.30045759e-06
0.00000000e+00
-1.61466346e-07
0.00000000e+00
-5.46584981e-07
0.00000000e+00
0.00000000e+00
0.00000000e+00
0.00000000e+00
0.00000000e+00
0.00000000e+00
-1.74143250e-04
-1.66328067e-04
-1.49226829e-04
-1.35177404e-04
-1.58710496e-04
-1.92650376e-04
-1.83610544e-04
-2.60990215e-04
-2.37487337e-04
-3.03095283e-04
-2.32964378e-04
-2.90803804e-04
-2.13431420e-04
-2.66579787e-04
-1.06751631e-04
-6.00835042e-05
-3.05104911e-04
-5.14672359e-04
-4.86663412e-04
-5.42754191e-04
-5.40350899e-04
-4.79185395e-05
-3.29232917e-05
-1.56746753e-04
-5.53859427e-05
-7.38626045e-06
-3.12103043e-06
-2.29298499e-05
0.00000000e+00
-1.19100783e-07
0.00000000e+00
-8.50787558e-07
-2.08038495e-05
-6.02499654e-07
0.00000000e+00
-2.10729010e-05
-2.64467896e-04
0.00000000e+00
0.00000000e+00
0.00000000e+00
0.00000000e+00
-1.91740655e-04
-1.82666579e-04
-1.90009635e-04
-1.97457190e-04
-1.61283031e-04
-1.93757382e-04
-1.44345480e-04
-2.25253081e-04
-1.19946986e-04
-2.67147010e-04
-6.13570573e-05
-2.10102680e-04
-1.88919714e-05
-1.46014514e-04
-1.84031982e-04
-1.30328352e-04
-3.29990133e-04
-6.56497886e-04
-5.25232572e-04
-3.43461881e-04
-2.82072288e-04
-2.14642603e-04
-9.28779682e-05
-7.76163688e-04
-2.41528319e-05
-8.32717973e-06
-1.75806657e-04
-1.88713434e-05
-7.23452347e-06
-4.02385409e-05
0.00000000e+00
-5.62114956e-04
-1.04367822e-04
-2.65604376e-05
</DataArray>
</PointData>
<Cells>
<DataArray type="Int32" Name="connectivity" format="ascii">
0 1 2 3 4 5 6 7
1 8 9 2 5 10 11 6
8 12 13 9 10 14 15 11
12 16 17 13 14 18 19 15
16 20 21 17 18 22 23 19
20 24 25 21 22 26 27 23
3 2 28 29 7 6 30 31
2 9 32 28 6 11 33 30
9 13 34 32 11 15 35 33
13 17 36 34 15 19 37 35
17 21 38 36 19 23 39 37
21 25 40 38 23 27 41 39
29 28 42 43 31 30 44 45
28 32 46 42 30 33 47 44
32 34 48 46 33 35 49 47
34 36 50 48 35 37 51 49
36 38 52 50 37 39 53 51
38 40 54 52 39 41 55 53
43 42 56 57 45 44 58 59
42 46 60 56 44 47 61 58
46 48 62 60 47 49 63 61
48 50 64 62 49 51 65 63
52 54 66 67 53 55 68 69
57 56 70 71 59 58 72 73
56 60 74 70 58 61 75 72
60 62 76 74 61 63 77 75
62 64 78 76 63 65 79 77
64 67 80 78 65 69 81 79
67 66 82 80 69 68 83 81
71 70 84 85 73 72 86 87
70 74 88 84 72 75 89 86
74 76 90 88 75 77 91 89
76 78 92 90 77 79 93 91
78 80 94 92 79 81 95 93
80 82 96 94 81 83 97 95
4 5 6 7 98 99 100 101
5 10 11 6 99 102 103 100
10 14 15 11 102 104 105 103
14 18 19 15 104 106 107 105
18 22 23 19 106 108 109 107
22 26 27 23 108 110 111 109
7 6 30 31 101 100 112 113
6 11 33 30 100 103 114 112
11 15 35 33 103 105 115 114
15 19 37 35 105 107 116 115
19 23 39 37 107 109 117 116
23 27 41 39 109 111 118 117
31 30 44 45 113 112 119 120
30 33 47 44 112 114 121 119
33 35 49 47 114 115 122 121
45 44 58 59 120 119 123 124
44 47 61 58 119 121 125 123
47 49 63 61 121 122 126 125
59 58 72 73 124 123 127 128
58 61 75 72 123 125 129 127
61 63 77 75 125 126 130 129
73 72 86 87 128 127 131 132
72 75 89 86 127 129 133 131
75 77 91 89 129 130 134 133
81 83 97 95 135 136 137 138
98 99 100 101 139 140 141 142
99 102 103 100 140 143 144 141
102 104 105 103 143 145 146 144
104 106 107 105 145 147 148 146
106 108 109 107 147 149 150 148
108 110 111 109 149 151 152 150
101 100 112 113 142 141 153 154
100 103 114 112 141 144 155 153
103 105 115 114 144 146 156 155
105 107 116 115 146 148 157 156
107 109 117 116 148 150 158 157
109 111 118 117 150 152 159 158
113 112 119 120 154 153 160 161
112 114 121 119 153 155 162 160
120 119 123 124 161 160 163 164
119 121 125 123 160 162 165 163
124 123 127 128 164 163 166 167
123 125 129 127 163 165 168 166
125 126 130 129 165 169 170 168
128 127 131 132 167 166 171 172
</DataArray>
<DataArray type="Int32" Name="offsets" format="ascii">
8
16
24
32
40
48
56
64
72
80
88
96
104
112
120
128
136
144
152
160
168
176
184
192
200
208
216
224
232
240
248
256
264
272
280
288
296
304
312
320
328
336
344
352
360
368
376
384
392
400
408
416
424
432
440
448
456
464
472
480
488
496
504
512
520
528
536
544
552
560
568
576
584
592
600
608
616
624
632
640
</DataArray>
<DataArray type="UInt8" Name="types" format="ascii">
12
12
12
12
12
12
12
12
12
12
12
12
12
12
12
12
12
12
12
12
12
12
12
12
12
12
12
12
12
12
12
12
12
12
12
12
12
12
12
12
12
12
12
12
12
12
12
12
12
12
12
12
12
12
12
12
12
12
12
12
12
12
12
12
12
12
12
12
12
12
12
12
12
12
12
12
12
12
12
12
</DataArray>
</Cells>
</Piece>
</UnstructuredGrid>
</VTKFile>
