<VTKFile type="UnstructuredGrid" version="0.1" byte_order="LittleEndian">
<UnstructuredGrid>
<Piece NumberOfPoints="173" NumberOfCells="80">
<Points>
<DataArray type="Float64" NumberOfComponents="3" format="ascii">
 0.00000000e+00  0.00000000e+00  0.00000000e+00
 1.04332626e+00  0.00000000e+00  0.00000000e+00
 1.04628086e+00  1.07838035e+00  0.00000000e+00
 0.00000000e+00  1.07551706e+00  0.00000000e+00
 0.00000000e+00  0.00000000e+00  9.07430828e-01
 1.04257190e+00  0.00000000e+00  9.03868914e-01
 1.04350102e+00  1.07307112e+00  9.08360183e-01
 0.00000000e+00  1.07199645e+00  9.10225272e-01
 2.09097600e+00  0.00000000e+00  0.00000000e+00
 2.09214568e+00  1.08421314e+00  0.00000000e+00
 2.08869052e+00  0.00000000e+00  8.97426307e-01
 2.09102154e+00  1.07639694e+00  9.02607858e-01
 3.13978624e+00  0.00000000e+00  0.00000000e+00
 3.14439511e+00  1.09251750e+00  0.00000000e+00
 3.14540386e+00  0.00000000e+00  8.91577005e-01
 3.13984895e+00  1.07935381e+00  8.92327726e-01
 4.20473719e+00  0.00000000e+00  0.00000000e+00
 4.19247293e+00  1.09861743e+00  0.00000000e+00
 4.20877266e+00  0.00000000e+00  8.83198321e-01
 4.19502163e+00  1.07982576e+00  8.86382222e-01
 5.26785278e+00  0.00000000e+00  0.00000000e+00
 5.25303030e+00  1.10562885e+00  0.00000000e+00
 5.27373981e+00  0.00000000e+00  8.74850988e-01
 5.26270771e+00  1.08281624e+00  8.80380332e-01
 6.33862162e+00  0.00000000e+00  0.00000000e+00
 6.29764080e+00  1.13132143e+00  0.00000000e+00
 6.33513880e+00  0.00000000e+00  8.73436332e-01
 6.32504368e+00  1.10679579e+00  8.68512690e-01
 1.05038667e+00  2.14014459e+00  0.00000000e+00
 0.00000000e+00  2.13786149e+00  0.00000000e+00
 1.04634571e+00  2.13563323e+00  9.19713974e-01
 0.00000000e+00  2.13206315e+00  9.20576513e-01
 2.10022998e+00  2.15216732e+00  0.00000000e+00
 2.09193707e+00  2.14246082e+00  9.18525398e-01
 3.14077449e+00  2.16259480e+00  0.00000000e+00
 3.13433266e+00  2.15049648e+00  9.26899314e-01
 4.17465353e+00  2.18352437e+00  0.00000000e+00
 4.17753172e+00  2.14987040e+00  9.23932731e-01
 5.19709349e+00  2.18477416e+00  0.00000000e+00
 5.21297503e+00  2.15490389e+00  9.28500891e-01
 6.22945595e+00  2.22151494e+00  0.00000000e+00
 6.25593424e+00  2.18916726e+00  9.28686857e-01
 1.05378330e+00  3.17849350e+00  0.00000000e+00
 0.00000000e+00  3.17529774e+00  0.00000000e+00
 1.04835939e+00  3.17965889e+00  9.34178591e-01
 0.00000000e+00  3.17778325e+00  9.35340524e-01
 2.10799170e+00  3.18102336e+00  0.00000000e+00
 2.09829497e+00  3.18223143e+00  9.48025703e-01
 3.13787937e+00  3.18975711e+00  0.00000000e+00
 3.13149118e+00  3.18700552e+00  9.84569311e-01
 4.14434195e+00  3.19667482e+00  0.00000000e+00
 4.13599968e+00  3.18548536e+00  1.00606561e+00
 5.15985823e+00  3.18935156e+00  0.00000000e+00
 5.16172409e+00  3.16910028e+00  1.01478302e+00
 6.16236019e+00  3.22893596e+00  0.00000000e+00
 6.16893959e+00  3.22565031e+00  1.00466728e+00
 1.05618250e+00  4.19944572e+00  0.00000000e+00
 0.00000000e+00  4.20378876e+00  0.00000000e+00
 1.04911363e+00  4.20198154e+00  9.42736745e-01
 0.00000000e+00  4.20725632e+00  9.40855443e-01
 2.10719657e+00  4.19554901e+00  0.00000000e+00
 2.09589386e+00  4.19177961e+00  9.59822774e-01
 3.13292289e+00  4.18968773e+00  0.00000000e+00
 3.12450290e+00  4.18831205e+00  9.92300689e-01
 4.12973213e+00  4.19540882e+00  0.00000000e+00
 4.12934303e+00  4.19540310e+00  9.99972999e-01
 6.12964058e+00  4.19921589e+00  0.00000000e+00
 5.12969589e+00  4.19713306e+00  0.00000000e+00
 6.12976122e+00  4.19924212e+00  9.99726474e-01
 5.12976408e+00  4.19707394e+00  1.00001752e+00
 1.05400717e+00  5.21938848e+00  0.00000000e+00
 0.00000000e+00  5.22909689e+00  0.00000000e+00
 1.05079460e+00  5.22661018e+00  9.40503538e-01
 0.00000000e+00  5.23066711e+00  9.33436632e-01
 2.10518169e+00  5.20261526e+00  0.00000000e+00
 2.08975220e+00  5.20598984e+00  9.53706443e-01
 3.12460780e+00  5.19088268e+00  0.00000000e+00
 3.11812806e+00  5.19478369e+00  9.88555372e-01
 4.12796116e+00  5.19550180e+00  0.00000000e+00
 4.12773085e+00  5.19551754e+00  1.00024390e+00
 5.12781382e+00  5.19723749e+00  0.00000000e+00
 5.12790918e+00  5.19721556e+00  1.00002861e+00
 6.12793303e+00  5.19897270e+00  0.00000000e+00
 6.12795067e+00  5.19890785e+00  1.00000799e+00
 1.06098557e+00  6.25393581e+00  0.00000000e+00
 0.00000000e+00  6.25837374e+00  0.00000000e+00
 1.05479646e+00  6.25502300e+00  9.27899539e-01
 0.00000000e+00  6.26505756e+00  9.21708047e-01
 2.11331034e+00  6.22491646e+00  0.00000000e+00
 2.09279871e+00  6.24348450e+00  9.33744550e-01
 3.12998581e+00  6.20134926e+00  0.00000000e+00
 3.12320185e+00  6.21742439e+00  9.70464945e-01
 4.12726212e+00  6.19613695e+00  0.00000000e+00
 4.12658834e+00  6.19614601e+00  1.00053704e+00
 5.12624836e+00  6.19708872e+00  0.00000000e+00
 5.12636137e+00  6.19717646e+00  9.99966562e-01
 6.12621212e+00  6.19892979e+00  0.00000000e+00
 6.12623978e+00  6.19890070e+00  9.99995112e-01
 0.00000000e+00  0.00000000e+00  1.82245326e+00
 1.04303837e+00  0.00000000e+00  1.81529820e+00
 1.04239273e+00  1.06146133e+00  1.82271516e+00
 0.00000000e+00  1.06226718e+00  1.82369363e+00
 2.09596086e+00  0.00000000e+00  1.80604815e+00
 2.08609366e+00  1.05491388e+00  1.81050265e+00
 3.14897561e+00  0.00000000e+00  1.79401600e+00
 3.14901924e+00  1.05444872e+00  1.79328477e+00
 4.21768999e+00  0.00000000e+00  1.77541804e+00
 4.21216393e+00  1.05493915e+00  1.78729367e+00
 5.28836727e+00  0.00000000e+00  1.76251924e+00
 5.28123617e+00  1.05698442e+00  1.77596855e+00
 6.34473324e+00  0.00000000e+00  1.75688112e+00
 6.35675097e+00  1.06445611e+00  1.76522887e+00
 1.03677821e+00  2.12066984e+00  1.83955908e+00
 0.00000000e+00  2.12709928e+00  1.84469247e+00
 2.08306241e+00  2.11971474e+00  1.83312011e+00
 3.13414860e+00  2.12407017e+00  1.82867503e+00
 4.20220089e+00  2.13882232e+00  1.81042719e+00
 5.27287579e+00  2.14109612e+00  1.81625557e+00
 6.33463526e+00  2.15167689e+00  1.80395699e+00
 1.03226542e+00  3.17494106e+00  1.86742842e+00
 0.00000000e+00  3.17775726e+00  1.87237465e+00
 2.07044172e+00  3.17649627e+00  1.88129389e+00
 3.06303883e+00  3.15222955e+00  2.01016903e+00
 1.03464508e+00  4.21953440e+00  1.89212704e+00
 0.00000000e+00  4.21389532e+00  1.88303912e+00
 2.07628417e+00  4.20060301e+00  1.92121911e+00
 3.09808207e+00  4.16939497e+00  1.96539307e+00
 1.04285657e+00  5.23785305e+00  1.88371480e+00
 0.00000000e+00  5.24517250e+00  1.87662673e+00
 2.07148719e+00  5.22611904e+00  1.90530443e+00
 3.12149954e+00  5.20914936e+00  1.92655599e+00
 1.03762293e+00  6.27958727e+00  1.85387230e+00
 0.00000000e+00  6.27835464e+00  1.84866250e+00
 2.07296562e+00  6.28593779e+00  1.86279547e+00
 3.13187122e+00  6.27352238e+00  1.86574376e+00
 5.12794828e+00  5.19726229e+00  2.00003386e+00
 6.12794828e+00  5.19892502e+00  2.00003195e+00
 6.12628412e+00  6.19893265e+00  1.99998260e+00
 5.12625694e+00  6.19727612e+00  1.99996567e+00
 0.00000000e+00  0.00000000e+00  2.73525858e+00
 1.05029416e+00  0.00000000e+00  2.73327208e+00
 1.05322146e+00  1.05516732e+00  2.73916698e+00
 0.00000000e+00  1.05309021e+00  2.74431133e+00
 2.11160088e+00  0.00000000e+00  2.71928835e+00
 2.09965348e+00  1.04722822e+00  2.72822070e+00
 3.16606665e+00  0.00000000e+00  2.70387602e+00
 3.16717768e+00  1.04254842e+00  2.70760679e+00
 4.23163939e+00  0.00000000e+00  2.69040585e+00
 4.23455763e+00  1.04425728e+00  2.68560314e+00
 5.30070305e+00  0.00000000e+00  2.67389846e+00
 5.30121660e+00  1.04709661e+00  2.67627573e+00
 6.36455345e+00  0.00000000e+00  2.66845798e+00
 6.36413336e+00  1.04778111e+00  2.67028022e+00
 1.03756964e+00  2.10427475e+00  2.76016212e+00
 0.00000000e+00  2.11865091e+00  2.76350665e+00
 2.09927034e+00  2.10614944e+00  2.73855209e+00
 3.15688157e+00  2.11261749e+00  2.69640541e+00
 4.22997522e+00  2.12449265e+00  2.68560171e+00
 5.29598856e+00  2.11717510e+00  2.68773961e+00
 6.35270023e+00  2.12430120e+00  2.68234634e+00
 1.03338873e+00  3.17862463e+00  2.80360627e+00
 0.00000000e+00  3.17538738e+00  2.79970789e+00
 2.08916378e+00  3.15683627e+00  2.77279115e+00
 1.03378546e+00  4.22107077e+00  2.83517385e+00
 0.00000000e+00  4.22924566e+00  2.82811236e+00
 2.07959080e+00  4.22167063e+00  2.86915064e+00
 1.03483415e+00  5.27428675e+00  2.82189322e+00
 0.00000000e+00  5.26803780e+00  2.81778002e+00
 2.07669783e+00  5.27017403e+00  2.83182216e+00
 3.09347057e+00  4.27295399e+00  3.02049875e+00
 3.11713839e+00  5.26154089e+00  2.80998921e+00
 1.03810048e+00  6.31539392e+00  2.78644824e+00
 0.00000000e+00  6.31942749e+00  2.77518582e+00
</DataArray>
</Points>
<PointData Tensors="Stress_Components,Plastic_strain_components" Vevtors="Spatial_displacement,Reaction_force" Scalars="Equivalent_plastic_strain,Stress_Mises,Stress_Max_Principal,Stress_Mid_Principal,Stress_Min_Principal,Stress_Pressure,Stress_Tresca,Stress_Third_Invariant,Plastic_strain_Max_Principal,Plastic_strain_Min_Principal">
<DataArray type="Float32" Name="Stress_Components" NumberOfComponents="9" format="ascii">
-3.17365384e+00 -1.02729211e-02 -1.21712163e-02 -1.02729211e-02 4.62224513e-01 7.72719318e-03 -1.21712163e-02 7.72719318e-03 -3.27189407e+01
-8.84731907e+00 2.14923576e-01 -5.19605353e-03 2.14923576e-01 -4.42881608e+00 -2.49554269e-01 -5.19605353e-03 -2.49554269e-01 -4.40978155e+01
-4.28522575e+00 4.11225442e-01 -3.73235788e-01 4.11225442e-01 -1.60544115e+00 -3.18442255e-01 -3.73235788e-01 -3.18442255e-01 -3.62337200e+01
-5.23092479e+00 9.46875736e-02 -3.83183464e-01 9.46875736e-02 -2.78582311e+00 1.69379814e-02 -3.83183464e-01 1.69379814e-02 -3.85744524e+01
-1.17474663e+00 -6.24490110e-03 -7.58156627e-02 -6.24490110e-03 2.15769666e+00 -2.34889470e-01 -7.58156627e-02 -2.34889470e-01 -2.87460508e+01
-5.96795619e+00 1.24554964e-01 3.53337541e-01 1.24554964e-01 -2.06391186e+00 -5.60104553e-01 3.53337541e-01 -5.60104553e-01 -3.84477301e+01
-2.87200738e+00 3.04611854e-01 -1.31403164e-01 3.04611854e-01 -2.25192875e-01 -3.30698574e-01 -1.31403164e-01 -3.30698574e-01 -3.32190633e+01
-4.47491729e+00 9.94856227e-02 -2.58906763e-01 9.94856227e-02 -1.82506657e+00 1.72714507e-01 -2.58906763e-01 1.72714507e-01 -3.66890771e+01
-1.15183479e+01 1.77394271e-01 -1.70052322e-02 1.77394271e-01 -6.40832138e+00 -4.47749406e-01 -1.70052322e-02 -4.47749406e-01 -4.90627527e+01
-1.27187240e+01 9.25389472e-01 -6.40970342e-01 9.25389472e-01 -8.41719925e+00 -4.63752875e-01 -6.40970342e-01 -4.63752875e-01 -5.25789382e+01
-7.37160242e+00 1.45418243e-01 4.02996816e-01 1.45418243e-01 -3.96168888e+00 -8.72453190e-02 4.02996816e-01 -8.72453190e-02 -4.21320324e+01
-7.22582038e+00 2.51450644e-01 -7.42033094e-01 2.51450644e-01 -3.62706496e+00 -1.14401294e+00 -7.42033094e-01 -1.14401294e+00 -4.14683446e+01
-1.46975009e+01 5.52150756e-01 -7.08287759e-02 5.52150756e-01 -9.59765589e+00 4.10312250e-01 -7.08287759e-02 4.10312250e-01 -5.60111141e+01
-2.05541556e+01 6.08303085e-01 -1.30588524e+00 6.08303085e-01 -1.43298472e+01 -1.16988453e+00 -1.30588524e+00 -1.16988453e+00 -6.73038247e+01
-6.76039219e+00 -5.02308823e-01 -6.04228467e-01 -5.02308823e-01 -4.76542020e+00 -8.18795273e-02 -6.04228467e-01 -8.18795273e-02 -4.24290914e+01
-1.23532588e+01 -4.37428366e-01 -3.34843326e-01 -4.37428366e-01 -7.67711192e+00 -9.12240531e-01 -3.34843326e-01 -9.12240531e-01 -5.13015851e+01
-1.90367687e+01 -1.42461777e+00 -1.03852879e-01 -1.42461777e+00 -1.46598327e+01 1.47790436e-01 -1.03852879e-01 1.47790436e-01 -6.62258186e+01
-2.96320572e+01 -1.30026846e+00 -2.48400508e+00 -1.30026846e+00 -1.83560679e+01 -1.68876398e-01 -2.48400508e+00 -1.68876398e-01 -8.06569228e+01
-8.42234087e+00 -1.36441655e+00 -2.90636778e-01 -1.36441655e+00 -7.17360234e+00 -1.17221944e-01 -2.90636778e-01 -1.17221944e-01 -4.68084915e+01
-1.29747987e-01 -1.00971338e+00 -5.18048977e-01 -1.00971338e+00 1.26528245e+00 2.72952699e-01 -5.18048977e-01 2.72952699e-01 -2.87129962e+01
-1.95852377e+01 -4.90258504e-01 -2.16769554e-01 -4.90258504e-01 -1.31094021e+01 1.13964805e+00 -2.16769554e-01 1.13964805e+00 -6.49518070e+01
-1.25811217e+01 -3.10029717e+00 -2.14462458e+00 -3.10029717e+00 -6.79479301e+00 5.14873981e-01 -2.14462458e+00 5.14873981e-01 -4.97359548e+01
-1.82051802e+00 -5.27429223e-01 -2.57894631e-01 -5.27429223e-01 -6.48254991e-01 1.20667819e+00 -2.57894631e-01 1.20667819e+00 -3.25995684e+01
3.51685899e+00 -1.79486274e+00 -2.21653257e-01 -1.79486274e+00 3.89545573e+00 2.81202242e-01 -2.21653257e-01 2.81202242e-01 -2.17764141e+01
-4.77551727e+01 -4.69896984e+00 -2.19826743e-01 -4.69896984e+00 -3.47134132e+01 5.25334179e-01 -2.19826743e-01 5.25334179e-01 -1.17771835e+02
-6.25976734e+01 -5.17128563e+00 -3.05344820e+00 -5.17128563e+00 -3.75456810e+01 5.22707486e+00 -3.05344820e+00 5.22707486e+00 -1.33275494e+02
-2.67295656e+01 -5.77981368e-01 -1.80033439e+00 -5.77981368e-01 -1.82567211e+01 2.75797567e+00 -1.80033439e+00 2.75797567e+00 -7.77239323e+01
-2.47203066e+01 -1.79397944e+00 -1.07956962e+00 -1.79397944e+00 -1.80460818e+01 2.88512656e+00 -1.07956962e+00 2.88512656e+00 -7.49323804e+01
-1.46358633e+00 8.52873258e-01 -5.20437859e-01 8.52873258e-01 -3.47655392e+00 -3.98424202e-01 -5.20437859e-01 -3.98424202e-01 -3.52011325e+01
2.88380146e-01 1.88356254e-01 -5.24108022e-01 1.88356254e-01 -1.64833212e+00 5.71596762e-03 -5.24108022e-01 5.71596762e-03 -3.13652015e+01
-1.38362712e+00 5.23485497e-01 5.31936113e-02 5.23485497e-01 -1.57276866e+00 -7.41660767e-01 5.31936113e-02 -7.41660767e-01 -3.31614830e+01
1.83229876e+00 2.00456399e-01 8.37495111e-01 2.00456399e-01 1.39578867e+00 4.34512813e-02 8.37495111e-01 4.34512813e-02 -2.64821170e+01
-5.93661582e+00 2.48112254e+00 -8.74311553e-01 2.48112254e+00 -8.48727942e+00 -1.16119612e+00 -8.74311553e-01 -1.16119612e+00 -4.50589130e+01
-4.19350395e+00 1.96528543e+00 1.75605987e+00 1.96528543e+00 -4.95796036e+00 -3.59006405e-01 1.75605987e+00 -3.59006405e-01 -3.89462161e+01
1.92545176e+01 1.42245505e+00 -1.54110572e+00 1.42245505e+00 1.76700981e+01 -5.68664253e-01 -1.54110572e+00 -5.68664253e-01 8.90778500e+00
5.47782094e+00 1.45207201e+00 3.76410905e+00 1.45207201e+00 6.60112122e+00 -2.67805359e-01 3.76410905e+00 -2.67805359e-01 -1.74341025e+01
2.89473233e+01 -9.30215172e-01 -4.64341673e+00 -9.30215172e-01 2.33665602e+01 -2.06111317e-01 -4.64341673e+00 -2.06111317e-01 2.55900345e+01
-1.41867369e+01 -6.76911144e+00 8.68927296e+00 -6.76911144e+00 -1.07239045e+01 5.83953435e-01 8.68927296e+00 5.83953435e-01 -5.15442095e+01
2.85748678e+01 8.81685004e-01 -3.99146866e+00 8.81685004e-01 2.72263123e+01 3.43020614e-01 -3.99146866e+00 3.43020614e-01 2.81030636e+01
-3.92112446e+00 -4.97215923e+00 9.34276855e+00 -4.97215923e+00 -8.93622208e+00 2.65729774e+00 9.34276855e+00 2.65729774e+00 -3.60297283e+01
1.62625599e+01 -5.10116148e+00 -6.85135007e+00 -5.10116148e+00 5.13726425e+00 2.06793529e+00 -6.85135007e+00 2.06793529e+00 -5.60559464e+00
-4.03785782e+01 -1.16636662e+01 1.19646957e+01 -1.16636662e+01 -3.16711909e+01 5.89611030e+00 1.19646957e+01 5.89611030e+00 -9.80072606e+01
2.50114977e-01 6.23496212e-01 1.86114196e-01 6.23496212e-01 -8.63080037e+00 -8.22217658e-01 1.86114196e-01 -8.22217658e-01 -3.78225633e+01
6.95749497e+00 2.73378119e-01 2.99123675e-01 2.73378119e-01 2.35674047e+00 4.54387628e-04 2.99123675e-01 4.54387628e-04 -1.95071688e+01
2.91838229e+00 1.11032800e-01 1.02449214e+00 1.11032800e-01 -3.79334414e+00 -6.27293020e-01 1.02449214e+00 -6.27293020e-01 -3.01566953e+01
7.27491161e+00 1.00356851e-01 8.50966528e-01 1.00356851e-01 4.41818118e+00 -3.33243305e-01 8.50966528e-01 -3.33243305e-01 -1.70999758e+01
1.73935480e+01 -1.09839655e-01 -8.74220468e-02 -1.09839655e-01 9.74773216e+00 -1.07686266e+00 -8.74220468e-02 -1.07686266e+00 1.16266727e-01
1.49035722e+01 -1.42359316e-01 1.10162184e+00 -1.42359316e-01 4.99887955e+00 1.53558579e+00 1.10162184e+00 1.53558579e+00 -7.95279554e+00
3.04306164e+01 -4.89117868e-01 8.85935873e-02 -4.89117868e-01 2.91173114e+01 -2.27519637e+00 8.85935873e-02 -2.27519637e+00 3.28995619e+01
2.92007260e+01 -1.62291991e+00 -2.59731402e-01 -1.62291991e+00 2.58077100e+01 2.92886868e+00 -2.59731402e-01 2.92886868e+00 3.06639811e+01
2.38591293e+01 -2.64991201e+00 -1.84843461e-01 -2.64991201e+00 2.20868869e+01 -2.62670994e+00 -1.84843461e-01 -2.62670994e+00 2.99694862e+01
3.19738770e+01 7.15744336e-01 -1.01780135e+01 7.15744336e-01 3.30198275e+01 3.93465197e+00 -1.01780135e+01 3.93465197e+00 5.14199622e+01
3.40914548e+01 -8.31490397e-01 3.46858664e+00 -8.31490397e-01 3.54459476e+01 -4.33438749e-01 3.46858664e+00 -4.33438749e-01 3.54042657e+01
2.75398486e+01 4.82052358e+00 -9.41792901e+00 4.82052358e+00 3.57417091e+01 -1.19156067e+00 -9.41792901e+00 -1.19156067e+00 4.50488847e+01
1.81026707e+01 3.47934794e+00 -4.48939562e-01 3.47934794e+00 7.64799213e+00 1.42657632e+00 -4.48939562e-01 1.42657632e+00 3.04477060e+01
4.27901220e+01 1.01665444e+01 -5.32368636e+00 1.01665444e+01 3.07269681e+01 -1.78242296e+00 -5.32368636e+00 -1.78242296e+00 5.89935179e+01
3.10416278e+00 -7.95762829e-01 2.03159511e-01 -7.95762829e-01 -8.10776329e+00 -1.18966472e+00 2.03159511e-01 -1.18966472e+00 -3.33479359e+01
2.71575916e+00 -8.20598751e-01 2.82773353e-01 -8.20598751e-01 -5.14575100e+00 -4.83985059e-02 2.82773353e-01 -4.83985059e-02 -3.15609407e+01
8.32699496e+00 -1.14797238e+00 1.41880942e+00 -1.14797238e+00 1.68362477e+00 3.03351693e-02 1.41880942e+00 3.03351693e-02 -1.78656034e+01
5.49602735e+00 -6.75264396e-01 2.81116769e-01 -6.75264396e-01 4.59280208e-01 -1.32799894e-01 2.81116769e-01 -1.32799894e-01 -2.30739224e+01
1.53023843e+01 -2.27736226e+00 -9.55442242e-01 -2.27736226e+00 9.17573297e+00 -2.22053158e+00 -9.55442242e-01 -2.22053158e+00 -2.01115656e+00
1.82864784e+01 -1.08632854e+00 -7.73380436e-01 -1.08632854e+00 1.33626847e+01 2.81028710e+00 -7.73380436e-01 2.81028710e+00 6.64957082e+00
1.94677693e+01 -3.17724213e-01 4.66925509e-01 -3.17724213e-01 2.48499050e+01 -2.90889323e+00 4.66925509e-01 -2.90889323e+00 1.91906774e+01
2.87348857e+01 7.77148003e-01 -3.87152289e-01 7.77148003e-01 3.35062669e+01 -2.12208486e+00 -3.87152289e-01 -2.12208486e+00 3.42888810e+01
2.01114890e+01 1.53141185e+00 7.01352889e-01 1.53141185e+00 2.44271568e+01 -2.24587475e+00 7.01352889e-01 -2.24587475e+00 2.46734034e+01
1.38722445e+01 3.22413721e+00 7.79189418e-02 3.22413721e+00 1.00424877e+01 2.32678827e+00 7.79189418e-02 2.32678827e+00 3.29791077e+00
-9.67217577e+00 -7.30594444e+00 1.72304824e-01 -7.30594444e+00 -3.02436204e+01 1.39728087e+00 1.72304824e-01 1.39728087e+00 -1.41404533e+01
1.20682004e+01 2.04169663e+00 -8.41002335e-01 2.04169663e+00 1.79259199e+01 9.81774516e-01 -8.41002335e-01 9.81774516e-01 1.42288431e+01
8.59487772e-01 -5.82227778e+00 1.41386735e+00 -5.82227778e+00 -2.05938172e+01 -1.84534671e+00 1.41386735e+00 -1.84534671e+00 -4.88179862e+00
2.54111226e+00 -2.60311675e+00 -2.51979069e+00 -2.60311675e+00 8.95899574e+00 -8.09482232e-01 -2.51979069e+00 -8.09482232e-01 -2.93815126e+00
3.91760994e+00 -2.18319797e+00 1.12580031e+00 -2.18319797e+00 -5.18763342e+00 -3.84572601e-01 1.12580031e+00 -3.84572601e-01 -2.95078492e+01
1.76103973e+00 -1.50980133e+00 4.45183381e-01 -1.50980133e+00 -6.35758924e+00 -1.12531241e-02 4.45183381e-01 -1.12531241e-02 -3.37798359e+01
9.98382217e+00 -1.35748653e+00 7.87421748e-01 -1.35748653e+00 5.88299760e+00 2.96356089e-01 7.87421748e-01 2.96356089e-01 -1.20975348e+01
4.77484870e+00 -7.12587796e-01 -1.64890662e-04 -7.12587796e-01 -1.51125932e+00 7.81093352e-01 -1.64890662e-04 7.81093352e-01 -2.56214923e+01
1.44345295e+01 -2.30970297e+00 4.49260589e-01 -2.30970297e+00 8.77861702e+00 -2.65249524e+00 4.49260589e-01 -2.65249524e+00 -3.06146669e+00
9.58441848e+00 -2.34086865e+00 -7.22701151e-01 -2.34086865e+00 5.68170674e+00 2.57931168e+00 -7.22701151e-01 2.57931168e+00 -1.17290721e+01
1.52320951e+01 2.25784717e+00 2.69177147e+00 2.25784717e+00 1.43293570e+01 -1.58035803e+00 2.69177147e+00 -1.58035803e+00 2.37480211e+00
1.53853517e+01 -1.89467532e+00 -1.36011366e+00 -1.89467532e+00 1.29986200e+01 3.28794665e+00 -1.36011366e+00 3.28794665e+00 3.18050067e+00
1.44899862e+01 2.84922096e+00 -2.48964939e-01 2.84922096e+00 1.92408226e+01 -2.03330887e+00 -2.48964939e-01 -2.03330887e+00 2.11640114e+01
1.25124354e+01 2.90695640e+00 3.26992434e+00 2.90695640e+00 7.17551088e+00 -5.47995776e-01 3.26992434e+00 -5.47995776e-01 7.67569900e+00
-1.33864641e-01 7.60127723e-01 -3.73712935e-01 7.60127723e-01 2.44580656e+00 1.74160194e+00 -3.73712935e-01 1.74160194e+00 4.40753494e+00
3.40490929e+00 5.92443895e-01 -7.91400361e-01 5.92443895e-01 9.34979659e-01 -6.58826089e-01 -7.91400361e-01 -6.58826089e-01 2.86072266e-01
2.92530322e+00 4.52530116e-01 -1.35984808e+00 4.52530116e-01 -7.99199200e+00 3.71378899e-01 -1.35984808e+00 3.71378899e-01 -1.76822686e+00
9.70462084e-01 -1.08003542e+00 9.87686416e-01 -1.08003542e+00 -5.60094539e+00 -2.16498338e-01 9.87686416e-01 -2.16498338e-01 -2.69509579e-01
-2.10140562e+01 -2.73061587e+00 1.26891586e+00 -2.73061587e+00 -3.18048191e+01 -1.40989971e+00 1.26891586e+00 -1.40989971e+00 -8.56794701e+01
-1.86146297e+01 -1.21106279e+00 1.62318289e+00 -1.21106279e+00 -3.32753601e+01 -3.61892879e-02 1.62318289e+00 -3.61892879e-02 -8.42268753e+01
-9.36390565e+00 -1.50995308e+00 1.40943229e-02 -1.50995308e+00 -1.62139333e+01 -1.02382486e+00 1.40943229e-02 -1.02382486e+00 -5.69429874e+01
-1.93437500e+01 -1.53438276e+00 1.66169465e-01 -1.53438276e+00 -2.96394300e+01 9.26497579e-01 1.66169465e-01 9.26497579e-01 -8.20041809e+01
-3.05023379e+01 -6.62436843e+00 5.87935257e+00 -6.62436843e+00 -3.96712561e+01 -5.69670928e+00 5.87935257e+00 -5.69670928e+00 -1.02656765e+02
-1.61822370e+01 -4.24147440e+00 4.10887331e-01 -4.24147440e+00 -1.62638627e+01 2.54480168e-01 4.10887331e-01 2.54480168e-01 -6.42794752e+01
2.71058083e+00 6.11395836e-01 5.30544007e+00 6.11395836e-01 1.59920902e+01 -2.94216830e+00 5.30544007e+00 -2.94216830e+00 -8.42862320e+00
-3.85536620e+01 -9.27581521e+00 4.73442892e-01 -9.27581521e+00 -3.30863419e+01 1.24676303e+01 4.73442892e-01 1.24676303e+01 -1.02235313e+02
2.20437055e+01 2.40732598e+00 -1.14385677e+00 2.40732598e+00 3.19889669e+01 -5.23973036e+00 -1.14385677e+00 -5.23973036e+00 4.13715348e+01
-1.48338511e+01 -9.95738292e+00 1.94132081e+00 -9.95738292e+00 -1.42430613e+01 8.47385740e+00 1.94132081e+00 8.47385740e+00 -1.67964964e+01
-5.36738452e+00 -9.36740398e-01 1.35397881e+00 -9.36740398e-01 2.19512844e+00 1.84633541e+00 1.35397881e+00 1.84633541e+00 5.41457445e+00
-3.62489541e+00 -5.82772732e-01 7.12107937e-01 -5.82772732e-01 2.88657402e+00 -2.63943179e+00 7.12107937e-01 -2.63943179e+00 3.61006589e+00
-1.89840162e+00 2.49989796e+00 -6.04315460e-01 2.49989796e+00 -2.16914558e+00 5.83589971e-01 -6.04315460e-01 5.83589971e-01 -6.31047368e-01
-4.08335161e+00 2.74613246e-01 -2.25497082e-01 2.74613246e-01 6.80240139e-01 1.38779730e+00 -2.25497082e-01 1.38779730e+00 5.38614163e-01
-1.74939966e+00 2.67299358e-03 -1.73985232e-01 2.67299358e-03 1.13907862e+00 -4.07284394e-01 -1.73985232e-01 -4.07284394e-01 -3.05296712e+01
-3.69580172e-01 8.30655787e-02 4.56456065e-01 8.30655787e-02 1.44981986e+00 -4.03823121e-01 4.56456065e-01 -4.03823121e-01 -2.87590194e+01
2.58007434e+00 -2.01739055e-01 -1.28212257e-02 -2.01739055e-01 4.64224778e+00 2.05030037e-01 -1.28212257e-02 2.05030037e-01 -2.20921696e+01
-2.24319947e+00 -3.18997540e-04 -2.10240468e-01 -3.18997540e-04 8.43660504e-01 1.87742984e-01 -2.10240468e-01 1.87742984e-01 -3.13395619e+01
5.08365130e+00 -7.85372108e-01 4.86703120e-01 -7.85372108e-01 5.09888843e+00 3.20704382e-01 4.86703120e-01 3.20704382e-01 -1.89683671e+01
3.87461530e+00 -3.92498447e-01 -3.50834677e-01 -3.92498447e-01 5.01791498e+00 -8.00485135e-01 -3.50834677e-01 -8.00485135e-01 -2.02056198e+01
3.17729044e+00 -3.60099496e-02 -3.26594833e-01 -3.60099496e-02 2.88251865e+00 5.66001423e-02 -3.26594833e-01 5.66001423e-02 -2.34409190e+01
6.74665409e+00 -3.21209786e-01 -5.60673393e-01 -3.21209786e-01 6.18171674e+00 -4.31987671e-01 -5.60673393e-01 -4.31987671e-01 -1.59859706e+01
4.16328371e+00 -2.93106478e-01 1.01643856e-01 -2.93106478e-01 2.54617232e+00 -2.10985892e-01 1.01643856e-01 -2.10985892e-01 -2.27222764e+01
5.29271960e+00 -5.50768062e-01 -2.51356542e-01 -5.50768062e-01 5.05613136e+00 7.44927026e-01 -2.51356542e-01 7.44927026e-01 -1.87188461e+01
1.04017802e+01 -5.00319608e-01 6.10554181e-02 -5.00319608e-01 9.19917965e+00 5.49751766e-01 6.10554181e-02 5.49751766e-01 -8.73570716e+00
4.80325264e+00 -4.11379792e-01 8.66867602e-03 -4.11379792e-01 3.76879805e+00 6.12128449e-01 8.66867602e-03 6.12128449e-01 -2.07260916e+01
8.46483302e+00 4.38752055e-01 -2.44367287e-01 4.38752055e-01 9.29635525e+00 1.66243207e+00 -2.44367287e-01 1.66243207e+00 -1.05870161e+01
4.54871130e+00 2.68548220e-01 -9.66844339e-01 2.68548220e-01 3.79115820e+00 1.00348012e+00 -9.66844339e-01 1.00348012e+00 -2.08202901e+01
5.68958744e+00 -4.49175289e-01 2.90895721e-01 -4.49175289e-01 6.96061522e+00 -7.97559147e-01 2.90895721e-01 -7.97559147e-01 -1.62235745e+01
-1.31479436e+00 -5.27011052e-01 1.37723954e+00 -5.27011052e-01 1.10653810e+00 9.24864027e-03 1.37723954e+00 9.24864027e-03 -2.99731057e+01
-9.44841831e+00 -2.27207303e-01 -2.67086485e-01 -2.27207303e-01 -5.63731588e+00 -1.11563691e-01 -2.67086485e-01 -1.11563691e-01 -4.91325563e+01
-6.21013657e+01 -8.66884547e+00 1.79278856e+01 -8.66884547e+00 -6.30142470e+01 6.96879482e-01 1.79278856e+01 6.96879482e-01 -1.45522784e+02
-4.32618141e+01 -6.75942178e-01 8.07495400e-01 -6.75942178e-01 -3.89234734e+01 2.51992616e+00 8.07495400e-01 2.51992616e+00 -1.18685541e+02
-4.02840097e+01 -1.42125142e+00 2.73223680e+00 -1.42125142e+00 -3.34791918e+01 5.09496325e+00 2.73223680e+00 5.09496325e+00 -1.08337076e+02
-4.66510620e+01 -4.33160019e+00 2.38521153e+00 -4.33160019e+00 -3.60096092e+01 6.51379871e+00 2.38521153e+00 6.51379871e+00 -1.16606861e+02
1.41677507e+01 -3.27695841e-02 8.27452876e-01 -3.27695841e-02 1.55928050e+01 -9.57792750e-01 8.27452876e-01 -9.57792750e-01 2.04876041e+00
1.13177561e+01 -2.41489758e-01 1.01458938e+00 -2.41489758e-01 1.12302278e+01 7.36221736e-02 1.01458938e+00 7.36221736e-02 -5.50593901e+00
-3.56686727e+01 -1.98942852e+00 5.92731897e+00 -1.98942852e+00 -3.10031462e+01 1.27883539e+01 5.92731897e+00 1.27883539e+01 -8.61571388e+01
5.49834442e+01 5.06788731e+00 -1.35257821e+01 5.06788731e+00 5.50295639e+01 -5.27575396e+00 -1.35257821e+01 -5.27575396e+00 8.46016197e+01
1.49792493e+01 -3.88231372e-01 1.85209910e+00 -3.88231372e-01 1.31735659e+01 5.57863217e-01 1.85209910e+00 5.57863217e-01 1.44044971e+00
1.56320012e+01 8.29804257e-01 2.02604461e-01 8.29804257e-01 1.54483370e+01 4.99035331e-01 2.02604461e-01 4.99035331e-01 3.61144221e+00
3.08182030e+01 -1.62741653e+00 -2.60107622e-01 -1.62741653e+00 2.90405414e+01 -9.21748493e-01 -2.60107622e-01 -9.21748493e-01 3.19834106e+01
2.50135368e+01 -6.77439849e-01 -4.78096811e+00 -6.77439849e-01 2.64489883e+01 -1.78171496e-01 -4.78096811e+00 -1.78171496e-01 2.56804272e+01
1.71248482e+01 2.78663710e-02 1.96796753e-01 2.78663710e-02 1.42525195e+01 6.16546022e-02 1.96796753e-01 6.16546022e-02 4.13078070e+00
1.10129293e+01 -7.11303987e-01 4.69937749e-01 -7.11303987e-01 8.91813672e+00 4.33700973e-01 4.69937749e-01 4.33700973e-01 -8.29135990e+00
5.10821348e+00 -2.78600945e+00 9.02214845e-01 -2.78600945e+00 4.36588752e+00 2.44581473e+00 9.02214845e-01 2.44581473e+00 -1.73795504e+01
-2.15790066e+01 -1.90924092e+00 -2.67844673e-01 -1.90924092e+00 -1.97477825e+01 6.20419905e+00 -2.67844673e-01 6.20419905e+00 -7.68965317e+01
-2.67124957e+00 -8.63836363e-01 -2.40344070e-02 -8.63836363e-01 -3.13806349e+00 -6.27939301e-02 -2.40344070e-02 -6.27939301e-02 -3.63670053e+01
-4.99471211e+00 -5.88433176e-01 -3.09780240e-01 -5.88433176e-01 -8.12608671e+00 1.53645325e+00 -3.09780240e-01 1.53645325e+00 -4.39731445e+01
-1.16468763e+01 -3.41920264e-01 1.36925784e+00 -3.41920264e-01 -5.18738651e+00 -2.71972811e+00 1.36925784e+00 -2.71972811e+00 -4.76075172e+01
-8.89002533e+01 -3.99425709e+00 -6.26799178e+00 -3.99425709e+00 -8.33795128e+01 4.81763721e+00 -6.26799178e+00 4.81763721e+00 -2.16366417e+02
-2.39581622e-01 -6.01176828e-01 -2.70406500e-01 -6.01176828e-01 3.11623229e-01 2.66514026e-01 -2.70406500e-01 2.66514026e-01 -4.55580443e-01
-4.31192994e-01 -4.10055108e-02 -9.47630405e-02 -4.10055108e-02 -1.12574011e-01 -2.38231108e-01 -9.47630405e-02 -2.38231108e-01 1.60352685e-01
6.95520371e-01 -1.57246053e-01 -1.20170746e-01 -1.57246053e-01 -1.06318593e-01 5.80173381e-01 -1.20170746e-01 5.80173381e-01 -9.72671747e-01
3.79301988e-01 -7.17626899e-01 2.28425264e-02 -7.17626899e-01 -1.89918200e-01 -5.19447774e-01 2.28425264e-02 -5.19447774e-01 -5.72971366e-01
1.25085235e+00 3.86352781e-02 1.69982575e-01 3.86352781e-02 2.01349068e+00 -1.97007088e-02 1.69982575e-01 -1.97007088e-02 -2.64945450e+01
1.95506603e+00 4.66457799e-01 4.76194370e-02 4.66457799e-01 1.92778400e+00 2.84023933e-01 4.76194370e-02 2.84023933e-01 -2.57666129e+01
6.32254275e+00 -2.14322569e-01 6.54159468e-02 -2.14322569e-01 6.91660067e+00 4.60464826e-01 6.54159468e-02 4.60464826e-01 -1.56423153e+01
1.76322621e+00 1.91319477e-01 1.71561800e-01 1.91319477e-01 3.18680471e+00 -2.05400027e-01 1.71561800e-01 -2.05400027e-01 -2.46234578e+01
6.96556580e+00 -8.11035082e-01 1.66082937e-01 -8.11035082e-01 6.21077740e+00 -4.99203708e-02 1.66082937e-01 -4.99203708e-02 -1.57270823e+01
6.04011810e+00 -5.08943253e-01 8.39854317e-01 -5.08943253e-01 6.00628060e+00 8.96762914e-01 8.39854317e-01 8.96762914e-01 -1.67421872e+01
6.64918581e+00 1.30523110e-01 2.74777465e-01 1.30523110e-01 5.64856589e+00 6.26818459e-01 2.74777465e-01 6.26818459e-01 -1.66052151e+01
1.12683017e+01 -4.75560669e-02 5.88377066e-02 -4.75560669e-02 9.80005041e+00 -5.56515551e-02 5.88377066e-02 -5.56515551e-02 -7.20861292e+00
9.15591292e+00 1.05872719e-01 -1.63654750e-01 1.05872719e-01 7.19390196e+00 4.63876354e-01 -1.63654750e-01 4.63876354e-01 -1.21893312e+01
5.60027862e+00 2.05892297e-02 -4.78691017e-01 2.05892297e-02 3.48081553e+00 1.11348753e-01 -4.78691017e-01 1.11348753e-01 -2.00828686e+01
1.23792619e+01 -1.89473948e-01 -2.54941513e-02 -1.89473948e-01 1.07724009e+01 1.61445588e-02 -2.54941513e-02 1.61445588e-02 -4.87332731e+00
9.79549897e+00 4.44632643e-02 -3.20368296e-01 4.44632643e-02 7.24301410e+00 8.62307763e-02 -3.20368296e-01 8.62307763e-02 -1.14688375e+01
1.32774475e+01 -1.02610421e-01 -1.07233886e-01 -1.02610421e-01 1.25506105e+01 -2.82787085e-01 -1.07233886e-01 -2.82787085e-01 -1.93500423e+00
1.76246346e+01 2.91477419e-01 -4.39654927e-01 2.91477419e-01 1.56405926e+01 5.27528822e-02 -4.39654927e-01 5.27528822e-02 5.95650482e+00
2.50528848e+00 -7.78513180e-01 1.37995733e+00 -7.78513180e-01 4.84869885e+00 2.73305029e-02 1.37995733e+00 2.73305029e-02 -2.15141258e+01
3.54803324e+00 -1.08023441e+00 9.33880594e-01 -1.08023441e+00 6.89927274e+00 -2.63507370e-01 9.33880594e-01 -2.63507370e-01 -1.83531712e+01
1.68588800e+01 2.83993647e+00 4.24217641e+00 2.83993647e+00 1.52902820e+01 3.49878700e+00 4.24217641e+00 3.49878700e+00 -2.03037017e+00
-8.12953667e+01 -6.89104342e+00 -1.77636321e+01 -6.89104342e+00 -8.21026390e+01 -2.11207578e+00 -1.77636321e+01 -2.11207578e+00 -1.86496623e+02
-5.21005468e+01 -1.32477028e+00 -4.02800116e+00 -1.32477028e+00 -4.74248805e+01 1.15026377e+00 -4.02800116e+00 1.15026377e+00 -1.37174711e+02
-3.46877260e+01 -1.65754011e+00 -1.25659220e-01 -1.65754011e+00 -3.02998443e+01 1.60697437e+00 -1.25659220e-01 1.60697437e+00 -1.00068222e+02
-2.90997686e+01 -2.62714863e+00 -7.72157639e-01 -2.62714863e+00 -2.01792421e+01 3.21140558e-01 -7.72157639e-01 3.21140558e-01 -8.24672699e+01
2.93319525e+00 1.18315520e-01 2.79193786e+00 1.18315520e-01 5.61616495e+00 5.98019877e-01 2.79193786e+00 5.98019877e-01 -1.99839065e+01
1.27770271e+01 9.19284290e-02 1.12713757e+00 9.19284290e-02 1.38704622e+01 -2.88450553e-01 1.12713757e+00 -2.88450553e-01 -1.02452898e+00
-1.10604336e+02 -1.21329926e+01 9.17933464e+00 -1.21329926e+01 -1.00829905e+02 -1.56941082e+01 9.17933464e+00 -1.56941082e+01 -2.31500423e+02
2.41429198e+01 -6.95724381e-02 -2.36439333e+00 -6.95724381e-02 2.42693175e+01 2.42529665e-01 -2.36439333e+00 2.42529665e-01 2.15818518e+01
1.37673007e+01 -3.86408314e-01 1.24122778e+00 -3.86408314e-01 1.40842222e+01 6.66938078e-01 1.24122778e+00 6.66938078e-01 5.07374048e-01
-5.84684559e+01 1.87427069e+00 6.10343083e+00 1.87427069e+00 -5.46878486e+01 1.91930610e+01 6.10343083e+00 1.91930610e+01 -1.32188616e+02
1.63096898e+01 6.87011005e-02 9.09751951e-01 6.87011005e-02 1.69915237e+01 -3.27784389e-01 9.09751951e-01 -3.27784389e-01 5.96981645e+00
1.46551465e+01 -4.58448324e-02 7.87519962e-02 -4.58448324e-02 1.46400743e+01 2.52118468e-01 7.87519962e-02 2.52118468e-01 1.73251426e+00
2.27920767e+01 -2.35115506e+00 3.15478773e+00 -2.35115506e+00 2.53883741e+01 3.41125454e-01 3.15478773e+00 3.41125454e-01 1.78956282e+01
4.30008392e+01 1.17364585e+00 1.04155979e+01 1.17364585e+00 4.58910446e+01 5.51155806e+00 1.04155979e+01 5.51155806e+00 8.89777756e+01
-7.38798647e+01 8.78977617e+00 -2.76357438e+01 8.78977617e+00 -7.81433237e+01 -2.16988603e+00 -2.76357438e+01 -2.16988603e+00 -1.74149855e+02
1.18566564e+01 -2.24998698e-01 3.76757277e-01 -2.24998698e-01 1.06013871e+01 5.55809516e-01 3.76757277e-01 5.55809516e-01 -6.08533716e+00
3.68145084e+00 -4.44695711e-01 -3.26841101e-01 -4.44695711e-01 5.77099133e+00 7.99991705e-01 -3.26841101e-01 7.99991705e-01 -1.97808800e+01
</DataArray>
<DataArray type="Float32" Name="Logarithmic_strain_components" NumberOfComponents="9" format="ascii">
4.23693433e-02 -1.58094190e-06 1.65742847e-06 -1.58094190e-06 7.27582276e-02 -1.50423002e-05 1.65742847e-06 -1.50423002e-05 -9.71878618e-02
4.42512464e-02 2.82185711e-03 3.96583368e-06 2.82185711e-03 7.52325989e-02 -7.20561715e-04 3.96583368e-06 -7.20561715e-04 -1.01340234e-01
4.52833427e-02 7.43705838e-03 -4.92951262e-03 7.43705838e-03 6.79587610e-02 -2.63054069e-03 -4.92951262e-03 -2.63054069e-03 -9.58392750e-02
4.49662805e-02 2.67793552e-03 -3.27817083e-03 2.67793552e-03 6.63901046e-02 3.53981159e-06 -3.27817083e-03 3.53981159e-06 -9.43811275e-02
4.13980186e-02 4.47487037e-06 3.05261172e-03 4.47487037e-06 6.92379810e-02 -3.85452120e-03 3.05261172e-03 -3.85452120e-03 -9.32906084e-02
4.35407246e-02 8.97952341e-04 4.92991100e-03 8.97952341e-04 7.06730727e-02 -5.63540874e-03 4.92991100e-03 -5.63540874e-03 -9.67007112e-02
4.43701507e-02 3.87717270e-03 7.58494000e-04 3.87717270e-03 6.55169375e-02 -6.00016210e-03 7.58494000e-04 -6.00016210e-03 -9.29258214e-02
4.33098795e-02 1.00655493e-03 9.78157117e-04 1.00655493e-03 6.46703616e-02 -2.08237430e-03 9.78157117e-04 -2.08237430e-03 -9.14188139e-02
4.69320286e-02 1.11312157e-03 6.54202586e-06 1.11312157e-03 8.06858018e-02 -2.17849424e-03 6.54202586e-06 -2.17849424e-03 -1.08426426e-01
4.76069152e-02 1.09705853e-02 -7.22219050e-03 1.09705853e-02 7.30639268e-02 -1.02482806e-03 -7.22219050e-03 -1.02482806e-03 -1.02787778e-01
4.90641026e-02 2.21421069e-03 5.72206755e-03 2.21421069e-03 7.25665018e-02 -4.41154401e-03 5.72206755e-03 -4.41154401e-03 -1.03222201e-01
4.74314108e-02 4.50423293e-03 -2.03851298e-03 4.50423293e-03 6.93037184e-02 -1.16635993e-02 -2.03851298e-03 -1.16635993e-02 -9.90072731e-02
5.25780339e-02 4.35126550e-03 -1.22710626e-05 4.35126550e-03 8.58390145e-02 5.28524723e-03 -1.22710626e-05 5.28524723e-03 -1.18005179e-01
5.06101083e-02 7.13714183e-03 -1.20820315e-02 7.13714183e-03 7.98224211e-02 -4.25546523e-03 -1.20820315e-02 -4.25546523e-03 -1.12003719e-01
5.63102765e-02 -5.25074615e-03 8.15631764e-04 -5.25074615e-03 7.43843354e-02 -3.60074779e-03 8.15631764e-04 -3.60074779e-03 -1.11017363e-01
5.20769749e-02 -3.71671043e-03 1.89886556e-03 -3.71671043e-03 7.39909532e-02 -6.87470988e-03 1.89886556e-03 -6.87470988e-03 -1.07215673e-01
5.88410050e-02 -1.15677603e-02 2.19822850e-05 -1.15677603e-02 9.08571072e-02 3.76971031e-03 2.19822850e-05 3.76971031e-03 -1.28127612e-01
5.26407491e-02 -8.29185965e-03 -1.70859802e-02 -8.29185965e-03 8.75618923e-02 2.31567572e-03 -1.70859802e-02 2.31567572e-03 -1.21082842e-01
6.25512302e-02 -1.29085539e-02 3.54550756e-03 -1.29085539e-02 7.70460311e-02 -3.34578019e-03 3.54550756e-03 -3.34578019e-03 -1.18691497e-01
5.99097293e-02 -1.32941843e-02 2.44530977e-03 -1.32941843e-02 7.25377137e-02 2.27535906e-03 2.44530977e-03 2.27535906e-03 -1.11884835e-01
6.21900372e-02 -1.38922613e-02 5.28022865e-05 -1.38922613e-02 9.77872424e-02 5.45263500e-03 5.28022865e-05 5.45263500e-03 -1.36934578e-01
5.44011490e-02 -1.86559628e-02 -2.06148890e-02 -1.86559628e-02 9.09295101e-02 8.85264529e-03 -2.06148890e-02 8.85264529e-03 -1.24447530e-01
6.38592821e-02 -1.03489482e-02 6.27409841e-03 -1.03489482e-02 8.19866043e-02 4.02174733e-03 6.27409841e-03 4.02174733e-03 -1.23335982e-01
6.40657921e-02 -1.62774184e-02 7.41266832e-03 -1.62774184e-02 7.53013473e-02 2.16868344e-03 7.41266832e-03 2.16868344e-03 -1.17425771e-01
5.77905029e-02 -3.85289490e-02 -4.21745935e-05 -3.85289490e-02 1.12764195e-01 -3.37439985e-03 -4.21745935e-05 -3.37439985e-03 -1.48610175e-01
4.83583026e-02 -2.91606318e-02 -2.14471295e-02 -2.91606318e-02 1.08385764e-01 2.55500935e-02 -2.14471295e-02 2.55500935e-02 -1.37214579e-01
5.64260930e-02 -9.42758750e-03 -5.46757597e-03 -9.42758750e-03 9.84307714e-02 1.23464083e-03 -5.46757597e-03 1.23464083e-03 -1.33352928e-01
5.95481498e-02 -1.60131545e-02 4.04705759e-04 -1.60131545e-02 8.86112619e-02 1.26846728e-02 4.04705759e-04 1.26846728e-02 -1.26485020e-01
4.91840122e-02 1.03903265e-02 -4.26484901e-03 1.03903265e-02 4.91342777e-02 -3.81544238e-03 -4.26484901e-03 -3.81544238e-03 -8.33532754e-02
4.91336118e-02 2.17481679e-03 -5.51109924e-03 2.17481679e-03 4.86493874e-02 8.25810275e-06 -5.51109924e-03 8.25810275e-06 -8.27918164e-02
4.54695658e-02 7.33644760e-03 4.78555539e-03 7.33644760e-03 5.24737025e-02 -7.57780077e-03 4.78555539e-03 -7.57780077e-03 -8.29636147e-02
4.49270559e-02 3.38484667e-03 8.47191515e-03 3.38484667e-03 5.11586387e-02 -9.54693664e-04 8.47191515e-03 -9.54693664e-04 -8.11852273e-02
4.67304662e-02 1.82932685e-02 -9.15004406e-03 1.82932685e-02 4.97689191e-02 -7.80399446e-03 -9.15004406e-03 -7.80399446e-03 -8.21007602e-02
4.52229460e-02 1.06812876e-02 9.30726252e-03 1.06812876e-02 5.37876501e-02 -4.19321712e-03 9.30726252e-03 -4.19321712e-03 -8.43910808e-02
3.85640552e-02 1.18376194e-02 -1.14991569e-02 1.18376194e-02 4.95578172e-02 -6.14293455e-03 -1.14991569e-02 -6.14293455e-03 -7.36724399e-02
4.35590004e-02 -7.85698649e-05 3.10739506e-02 -7.85698649e-05 5.64821932e-02 3.16776701e-04 3.10739506e-02 3.16776701e-04 -8.47452145e-02
3.37190572e-02 -1.26982326e-02 -3.19244117e-02 -1.26982326e-02 5.36319474e-02 2.59234605e-03 -3.19244117e-02 2.59234605e-03 -7.30349850e-02
4.30376505e-02 -2.25785715e-02 3.21600446e-02 -2.25785715e-02 6.09176327e-02 9.45900765e-03 3.21600446e-02 9.45900765e-03 -8.65616910e-02
3.44499727e-02 -2.71569490e-02 -2.83011468e-02 -2.71569490e-02 4.76203645e-02 1.49909284e-02 -2.83011468e-02 1.49909284e-02 -6.72096731e-02
4.45886881e-02 -3.04883181e-02 4.27698744e-02 -3.04883181e-02 5.60205427e-02 2.91600580e-02 4.27698744e-02 2.91600580e-02 -8.19501498e-02
3.62724746e-02 -3.07262773e-02 -3.04228514e-02 -3.07262773e-02 5.03850859e-02 2.51332019e-02 -3.04228514e-02 2.51332019e-02 -7.17891939e-02
4.51639270e-02 -4.16565277e-02 4.02313508e-02 -4.16565277e-02 6.52992167e-02 3.76156420e-02 4.02313508e-02 3.76156420e-02 -9.15603066e-02
5.21192010e-02 5.54106233e-03 1.14295507e-03 5.54106233e-03 2.87199263e-02 -5.13891724e-03 1.14295507e-03 -5.13891724e-03 -6.86329715e-02
5.07761389e-02 3.09781055e-03 2.40061234e-03 3.09781055e-03 3.07953218e-02 -6.68155553e-06 2.40061234e-03 -6.68155553e-06 -6.86599053e-02
4.81201541e-02 3.51905773e-03 1.06207170e-02 3.51905773e-03 3.26948087e-02 -3.45345646e-03 1.06207170e-02 -3.45345646e-03 -6.84039053e-02
4.54991879e-02 1.81025537e-03 1.20266397e-02 1.81025537e-03 3.51154930e-02 -1.26133699e-03 1.20266397e-02 -1.26133699e-03 -6.78448062e-02
4.16190363e-02 8.90079048e-03 1.21901196e-03 8.90079048e-03 2.18910477e-02 -9.29823797e-03 1.21901196e-03 -9.29823797e-03 -5.29346317e-02
4.29202293e-02 5.50990836e-03 1.99187279e-02 5.50990836e-03 2.62171458e-02 8.80264194e-03 1.99187279e-02 8.80264194e-03 -5.85152833e-02
1.54119796e-02 3.98625457e-03 -2.70498457e-03 3.98625457e-03 1.08583202e-02 -6.30950206e-03 -2.70498457e-03 -6.30950206e-03 -1.82824079e-02
1.35276611e-02 -1.53968139e-03 2.01250982e-02 -1.53968139e-03 8.20297298e-03 5.52694437e-03 2.01250982e-02 5.52694437e-03 -1.16508572e-02
4.20828493e-03 -2.26507677e-02 -1.13408780e-02 -2.26507677e-02 2.91068945e-03 -8.39939838e-03 -1.13408780e-02 -8.39939838e-03 5.33755093e-04
-6.49958927e-04 -3.61797825e-02 4.20778319e-02 -3.61797825e-02 1.34825717e-02 8.07098080e-03 4.20778319e-02 8.07098080e-03 -4.87744949e-03
3.06306019e-04 -1.09455672e-02 -2.03116443e-02 -1.09455672e-02 -7.35741322e-04 1.86902285e-03 -2.03116443e-02 1.86902285e-03 7.63372891e-03
4.74692206e-04 -1.29040368e-02 3.18814466e-02 -1.29040368e-02 5.41118206e-03 -3.82895318e-03 3.18814466e-02 -3.82895318e-03 2.91707487e-03
6.54516014e-03 -9.80153261e-03 -3.37454805e-03 -9.80153261e-03 -7.77880964e-03 6.70073507e-03 -3.37454805e-03 6.70073507e-03 7.38852436e-03
5.16235572e-03 -6.46060146e-03 3.18387193e-02 -6.46060146e-03 1.41040981e-03 -6.02930388e-03 3.18387193e-02 -6.02930388e-03 1.26891071e-03
5.14136143e-02 -3.94388297e-03 2.48341850e-03 -3.94388297e-03 1.94093604e-02 -6.69572805e-03 2.48341850e-03 -6.69572805e-03 -5.98861212e-02
5.19401412e-02 -4.24107816e-03 3.38127743e-03 -4.24107816e-03 2.37590522e-02 7.09402229e-06 3.38127743e-03 7.09402229e-06 -6.40175492e-02
4.56628855e-02 -6.51483535e-03 1.30823777e-02 -6.51483535e-03 2.20053596e-02 -2.08916434e-04 1.30823777e-02 -2.08916434e-04 -5.67571367e-02
4.71747294e-02 -5.13281999e-03 3.90881542e-03 -5.13281999e-03 2.53176671e-02 2.00971647e-03 3.90881542e-03 2.00971647e-03 -6.10994603e-02
3.79449069e-02 -6.14376960e-03 -3.75528389e-03 -6.14376960e-03 1.10367369e-02 -1.08849409e-02 -3.75528389e-03 -1.08849409e-02 -4.07375507e-02
3.69621085e-02 -1.09710242e-02 5.36368569e-03 -1.09710242e-02 1.16868928e-02 1.08592300e-02 5.36368569e-03 1.08592300e-02 -3.99433724e-02
1.11121139e-02 -6.64271018e-03 -1.41284606e-03 -6.64271018e-03 4.78054862e-04 -8.34202184e-03 -1.41284606e-03 -8.34202184e-03 -7.83401780e-03
1.87225098e-02 -6.41894942e-03 -5.12337203e-03 -6.41894942e-03 2.11955581e-03 1.05937460e-02 -5.12337203e-03 1.05937460e-02 -1.57008963e-02
-9.90335850e-04 -1.67464139e-03 -3.20887102e-06 -1.67464139e-03 7.69037200e-04 -3.98651910e-04 -3.20887102e-06 -3.98651910e-04 1.10031437e-03
1.40277149e-03 1.98347619e-03 -1.82669080e-03 1.98347619e-03 1.43151434e-03 4.76849689e-03 -1.82669080e-03 4.76849689e-03 -1.98068817e-03
5.53825702e-03 -1.49380872e-02 3.56021383e-05 -1.49380872e-02 -9.75041376e-03 1.12628957e-04 3.56021383e-05 1.12628957e-04 5.14388322e-03
-5.61247629e-04 -9.37716522e-03 -4.82504426e-05 -9.37716522e-03 1.97232536e-03 4.60869002e-05 -4.82504426e-05 4.60869002e-05 -5.96043440e-04
5.14328551e-03 -1.81322082e-02 -2.23186062e-03 -1.81322082e-02 -8.73230837e-03 -1.25847811e-04 -2.23186062e-03 -1.25847811e-04 4.59870087e-03
-2.66384851e-03 -1.00081300e-02 -4.97955526e-03 -1.00081300e-02 6.33097120e-03 -6.13085625e-05 -4.97955526e-03 -6.13085625e-05 -2.90271951e-03
4.95728832e-02 -1.06419435e-02 7.01020635e-03 -1.06419435e-02 2.52328757e-02 -3.00894055e-03 7.01020635e-03 -3.00894055e-03 -6.32120119e-02
5.31291123e-02 -9.44845704e-03 1.51916890e-03 -9.44845704e-03 2.75113862e-02 7.33790694e-06 1.51916890e-03 7.33790694e-06 -6.82641864e-02
4.42264690e-02 -9.33437643e-03 9.93310707e-04 -9.33437643e-03 2.66444618e-02 5.38652934e-03 9.93310707e-04 5.38652934e-03 -5.94103592e-02
4.87325443e-02 -3.94398347e-03 -2.40070134e-03 -3.94398347e-03 2.77136294e-02 7.51543173e-03 -2.40070134e-03 7.51543173e-03 -6.45157518e-02
3.69186066e-02 -1.11227230e-02 3.24489333e-03 -1.11227230e-02 1.69099935e-02 -1.48772143e-02 3.24489333e-03 -1.48772143e-02 -4.50467961e-02
3.30085754e-02 -1.71834778e-02 -2.52206475e-03 -1.71834778e-02 2.54900847e-02 8.86787318e-03 -2.52206475e-03 8.86787318e-03 -4.82175625e-02
1.08971311e-02 -5.03418047e-03 3.88330594e-03 -5.03418047e-03 5.39357954e-03 -6.43315900e-03 3.88330594e-03 -6.43315900e-03 -1.19639870e-02
2.12655185e-02 -7.72944333e-03 -4.04311336e-03 -7.72944333e-03 1.41139653e-02 2.48237329e-02 -4.04311336e-03 2.48237329e-02 -2.88496131e-02
1.14003766e-03 1.94500272e-03 1.83255038e-05 1.94500272e-03 -9.34524651e-05 -2.33076484e-04 1.83255038e-05 -2.33076484e-04 -2.17485967e-04
3.31343609e-03 -1.54871892e-04 3.30655988e-04 -1.54871892e-04 -1.18645846e-03 5.52443566e-03 3.30655988e-04 5.52443566e-03 -1.30553096e-03
1.27486413e-05 1.20693003e-05 -2.21761575e-05 1.20693003e-05 4.55481495e-06 9.53798262e-05 -2.21761575e-05 9.53798262e-05 5.41938152e-05
6.35338563e-05 2.39336019e-05 -4.13445237e-05 2.39336019e-05 6.38940401e-07 -1.43728601e-05 -4.13445237e-05 -1.43728601e-05 -1.00635236e-05
9.74250434e-05 2.15346226e-05 -6.52867420e-05 2.15346226e-05 -1.64947473e-04 1.75146315e-05 -6.52867420e-05 1.75146315e-05 -1.53456563e-05
4.27376053e-05 -5.15382465e-05 4.74955048e-05 -5.15382465e-05 -1.14857408e-04 -9.92482122e-06 4.74955048e-05 -9.92482122e-06 1.30682155e-05
5.41782845e-02 -9.56457807e-03 9.80954908e-04 -9.56457807e-03 3.31759397e-02 -5.84777934e-03 9.80954908e-04 -5.84777934e-03 -7.58562796e-02
6.09977245e-02 -4.31901123e-03 6.46694377e-03 -4.31901123e-03 3.07298768e-02 2.34987674e-05 6.46694377e-03 2.34987674e-05 -7.94657618e-02
4.98403599e-02 -6.76688622e-03 -1.19999563e-03 -6.76688622e-03 3.26700229e-02 -4.71347634e-03 -1.19999563e-03 -4.71347634e-03 -7.07917772e-02
5.43373637e-02 -9.67749022e-03 -3.05797713e-03 -9.67749022e-03 3.49248294e-02 6.64887764e-03 -3.05797713e-03 6.64887764e-03 -7.74272606e-02
4.07179808e-02 -1.79406344e-02 1.78413652e-02 -1.79406344e-02 2.92653581e-02 -1.95792289e-02 1.78413652e-02 -1.95792289e-02 -6.12081774e-02
3.71025000e-02 -1.56577639e-02 7.54887535e-03 -1.56577639e-02 4.07427205e-02 3.28951050e-03 7.54887535e-03 3.28951050e-03 -6.67873099e-02
1.26924866e-02 -8.98360425e-03 1.58621538e-02 -8.98360425e-03 1.63092357e-02 -6.67227176e-03 1.58621538e-02 -6.67227176e-03 -2.40879171e-02
2.70705290e-02 -1.89609242e-02 8.99467415e-03 -1.89609242e-02 2.93811150e-02 3.45424954e-02 8.99467415e-03 3.45424954e-02 -4.91439657e-02
-1.26371119e-03 -2.81727701e-03 4.42150022e-05 -2.81727701e-03 1.21959971e-03 -6.78977027e-04 4.42150022e-05 -6.78977027e-04 1.13154101e-03
8.83756366e-04 -1.12599337e-02 2.53547099e-04 -1.12599337e-02 1.15050600e-04 1.40869782e-02 2.53547099e-04 1.40869782e-02 8.39722343e-05
-2.71137576e-04 -1.69230319e-04 8.79736035e-05 -1.69230319e-04 1.04735420e-04 1.12881105e-04 8.79736035e-05 1.12881105e-04 2.18662210e-04
-7.32457435e-05 -5.54035699e-05 2.95087915e-05 -5.54035699e-05 4.47435317e-05 -1.30908149e-04 2.95087915e-05 -1.30908149e-04 5.95775333e-05
-2.61268469e-05 1.19932032e-04 -2.91650613e-05 1.19932032e-04 -3.27092093e-05 2.85589504e-05 -2.91650613e-05 2.85589504e-05 4.76707282e-06
-8.67482122e-05 1.32133446e-05 -1.13428614e-05 1.32133446e-05 2.76240571e-05 6.49128215e-05 -1.13428614e-05 6.49128215e-05 2.44174835e-05
4.33099791e-02 4.47742514e-06 1.35185226e-03 4.47742514e-06 6.15693200e-02 -7.81260361e-03 1.35185226e-03 -7.81260361e-03 -8.86541381e-02
4.65481719e-02 -5.99675375e-04 8.07570061e-03 -5.99675375e-04 5.93189821e-02 -5.26773941e-03 8.07570061e-03 -5.26773941e-03 -8.94767828e-02
4.33943816e-02 -6.49313914e-03 4.80379077e-03 -6.49313914e-03 5.98326442e-02 -2.55425170e-03 4.80379077e-03 -2.55425170e-03 -8.68593426e-02
4.12859488e-02 -7.61101168e-04 3.23022518e-03 -7.61101168e-04 6.13949858e-02 -1.02780203e-03 3.23022518e-03 -1.02780203e-03 -8.67715087e-02
5.33731524e-02 -9.37109697e-03 4.86173714e-03 -9.37109697e-03 5.51073998e-02 -8.09657504e-04 4.86173714e-03 -8.09657504e-04 -9.12674554e-02
5.13906707e-02 -9.44507989e-03 1.07413597e-03 -9.44507989e-03 5.76779265e-02 -1.20414282e-02 1.07413597e-03 -1.20414282e-02 -9.16488636e-02
6.04818286e-02 4.52587774e-05 -8.04094278e-04 4.52587774e-05 5.43861724e-02 -7.11151067e-03 -8.04094278e-04 -7.11151067e-03 -9.68297143e-02
5.94875934e-02 -7.17279969e-03 1.81646901e-03 -7.17279969e-03 5.85001442e-02 -9.88181273e-05 1.81646901e-03 -9.88181273e-05 -9.86243105e-02
6.72182292e-02 -5.11944725e-03 1.30637353e-02 -5.11944725e-03 5.32309972e-02 -6.73152102e-03 1.30637353e-02 -6.73152102e-03 -1.01441419e-01
6.24532471e-02 -6.39234134e-03 2.86774529e-03 -6.39234134e-03 6.54773456e-02 8.75085429e-03 2.86774529e-03 8.75085429e-03 -1.07650075e-01
6.43940754e-02 -6.69455412e-03 1.48633656e-02 -6.69455412e-03 5.81123885e-02 2.30222078e-03 1.48633656e-02 2.30222078e-03 -1.02560384e-01
6.67184759e-02 -3.11602168e-03 1.32280712e-02 -3.11602168e-03 6.50001373e-02 5.45664423e-03 1.32280712e-02 5.45664423e-03 -1.10961580e-01
5.83376419e-02 1.13360812e-02 9.23461420e-03 1.13360812e-02 6.58099875e-02 7.63428316e-03 9.23461420e-03 7.63428316e-03 -1.04074586e-01
6.62117619e-02 1.70537853e-03 -1.26413815e-03 1.70537853e-03 6.66364525e-02 5.99443307e-03 -1.26413815e-03 5.99443307e-03 -1.12023916e-01
4.15060553e-02 -8.24485789e-03 9.36998607e-03 -8.24485789e-03 5.60850138e-02 -1.05134347e-02 9.36998607e-03 -1.05134347e-02 -8.19359897e-02
3.74806812e-02 -6.03114103e-03 1.99857960e-02 -6.03114103e-03 5.74113531e-02 -5.49211458e-03 1.99857960e-02 -5.49211458e-03 -7.99930654e-02
4.78734672e-02 -5.48495628e-03 1.90306534e-02 -5.48495628e-03 6.02228322e-02 -4.32324276e-03 1.90306534e-02 -4.32324276e-03 -9.26439060e-02
6.23467237e-02 -1.66388018e-02 5.18734774e-02 -1.66388018e-02 6.40925243e-02 -3.74963888e-03 5.18734774e-02 -3.74963888e-03 -1.09418227e-01
6.65235743e-02 -1.84938166e-03 1.44411298e-02 -1.84938166e-03 7.98498280e-02 1.71639544e-02 1.44411298e-02 1.71639544e-02 -1.27558528e-01
6.52894787e-02 -2.93046189e-03 2.81416499e-02 -2.93046189e-03 8.14459864e-02 3.47531716e-02 2.81416499e-02 3.47531716e-02 -1.26986556e-01
6.28794134e-02 -1.26150418e-02 1.42046544e-02 -1.26150418e-02 8.58768336e-02 3.05115011e-02 1.42046544e-02 3.05115011e-02 -1.28630221e-01
3.41907800e-02 -1.57417736e-03 2.75294243e-02 -1.57417736e-03 4.75863377e-02 -2.41168985e-03 2.75294243e-02 -2.41168985e-03 -6.78644506e-02
3.47293378e-02 -2.64429912e-03 1.93213983e-02 -2.64429912e-03 4.53197034e-02 -5.24211209e-03 1.93213983e-02 -5.24211209e-03 -6.68019876e-02
3.27308476e-02 -1.07519479e-02 3.70658686e-02 -1.07519479e-02 5.00200264e-02 4.33184966e-02 3.70658686e-02 4.33184966e-02 -6.99824529e-02
-1.55909737e-02 -4.08513164e-02 3.13464701e-02 -4.08513164e-02 9.57918935e-03 5.61861172e-02 3.13464701e-02 5.61861172e-02 2.65650172e-02
3.69656901e-02 -1.55236473e-03 1.77520156e-02 -1.55236473e-03 3.04659582e-02 1.28091616e-02 1.77520156e-02 1.28091616e-02 -5.55511732e-02
3.48110413e-02 5.39976382e-03 1.28680325e-02 5.39976382e-03 3.39288367e-02 9.58244898e-03 1.28680325e-02 9.58244898e-03 -5.71844475e-02
3.19110929e-02 -2.41786689e-02 2.13522652e-02 -2.41786689e-02 2.39947002e-02 2.80001290e-02 2.13522652e-02 2.80001290e-02 -4.54097236e-02
7.05672490e-03 -4.27782241e-03 -2.15384252e-02 -4.27782241e-03 1.84368603e-02 2.55204675e-02 -2.15384252e-02 2.55204675e-02 -1.45755224e-02
3.76306358e-02 -7.96829084e-03 2.65867470e-03 -7.96829084e-03 3.23760947e-02 7.50925370e-03 2.65867470e-03 7.50925370e-03 -5.80447982e-02
4.10371767e-02 -7.07409205e-03 -1.65555975e-04 -7.07409205e-03 3.09554422e-02 7.51206756e-03 -1.65555975e-04 7.51206756e-03 -6.03630170e-02
3.65211156e-02 -1.54778147e-02 -4.62560478e-04 -1.54778147e-02 4.02538243e-02 1.65692073e-02 -4.62560478e-04 1.65692073e-02 -6.44099829e-02
4.97756284e-02 3.31399846e-04 -2.34784411e-02 3.31399846e-04 5.25602149e-02 2.21630302e-02 -2.34784411e-02 2.21630302e-02 -9.10540074e-02
3.84477889e-02 -1.57624972e-03 -3.01777414e-03 -1.57624972e-03 4.38243551e-02 -2.77555897e-04 -3.01777414e-03 -2.77555897e-04 -7.00150281e-02
4.26167101e-02 1.20704487e-03 -3.79624777e-03 1.20704487e-03 3.87510881e-02 5.57633606e-03 -3.79624777e-03 5.57633606e-03 -6.93016052e-02
4.25359076e-02 -2.07549601e-03 2.80393218e-03 -2.07549601e-03 5.57506066e-02 -7.03210360e-03 2.80393218e-03 -7.03210360e-03 -8.33155736e-02
6.33896124e-02 -4.28792322e-04 -1.92952920e-02 -4.28792322e-04 6.95530176e-02 2.43303194e-02 -1.92952920e-02 2.43303194e-02 -1.19514380e-01
-4.05027936e-06 -2.91871675e-05 -1.28490265e-05 -2.91871675e-05 9.27408780e-06 1.32011855e-05 -1.28490265e-05 1.32011855e-05 -9.13003214e-06
-9.23426194e-06 -1.65864026e-06 -4.49670006e-06 -1.65864026e-06 -1.74104775e-06 -1.15495006e-05 -4.49670006e-06 -1.15495006e-05 5.57053784e-06
1.83138072e-05 -7.25579389e-06 -5.06464016e-06 -7.25579389e-06 -1.07939894e-06 2.82993783e-05 -5.06464016e-06 2.82993783e-05 -2.16963026e-05
1.10700021e-05 -3.51396830e-05 8.02177965e-07 -3.51396830e-05 -2.73390242e-06 -2.50240701e-05 8.02177965e-07 -2.50240701e-05 -1.30489509e-05
5.18196933e-02 8.70186250e-06 9.87187913e-03 8.70186250e-06 5.44528160e-02 -2.17109092e-03 9.87187913e-03 -2.17109092e-03 -8.97021443e-02
5.34159150e-02 2.76142790e-03 6.42047671e-03 2.76142790e-03 5.27492594e-02 2.95379682e-03 6.42047671e-03 2.95379682e-03 -8.96366816e-02
5.15740020e-02 -8.88344541e-03 1.16950249e-02 -8.88344541e-03 5.36160790e-02 4.05211814e-03 1.16950249e-02 4.05211814e-03 -8.82723806e-02
5.01311542e-02 1.97221956e-03 1.03670821e-02 1.97221956e-03 5.59093868e-02 -5.60900220e-03 1.03670821e-02 -5.60900220e-03 -8.95130113e-02
5.74171357e-02 -1.12943004e-02 9.73228551e-03 -1.12943004e-02 4.70973970e-02 5.53741280e-04 9.73228551e-03 5.53741280e-04 -8.77191238e-02
5.61526786e-02 -1.17560409e-02 1.22050253e-02 -1.17560409e-02 5.21882013e-02 5.38620765e-03 1.22050253e-02 5.38620765e-03 -9.09573119e-02
6.10948578e-02 1.04450210e-03 4.06553480e-03 1.04450210e-03 4.42804005e-02 6.16022407e-03 4.06553480e-03 6.16022407e-03 -8.83842651e-02
6.17785794e-02 -5.75358717e-03 -5.70618547e-03 -5.75358717e-03 5.10622361e-02 -4.54577475e-03 -5.70618547e-03 -4.54577475e-03 -9.42424359e-02
6.41761804e-02 2.74415297e-03 -5.24914672e-03 2.74415297e-03 4.21761861e-02 -1.45900180e-04 -5.24914672e-03 -1.45900180e-04 -8.90940931e-02
6.23955629e-02 1.24188575e-03 -8.47274765e-03 1.24188575e-03 5.77015202e-02 5.14503918e-05 -8.47274765e-03 5.14503918e-05 -1.01108129e-01
6.20213151e-02 4.89256759e-04 2.57193373e-03 4.89256759e-04 4.36349334e-02 -3.12663957e-03 2.57193373e-03 -3.12663957e-03 -8.83895326e-02
6.25424488e-02 -6.56587828e-04 3.70264577e-04 -6.56587828e-04 5.66262687e-02 3.28015594e-03 3.70264577e-04 3.28015594e-03 -9.99254184e-02
5.97779192e-02 -4.17842108e-04 1.96786225e-03 -4.17842108e-04 4.44756690e-02 -2.74821557e-03 1.96786225e-03 -2.74821557e-03 -8.70724991e-02
5.83720868e-02 -5.02036426e-03 -2.94790603e-03 -5.02036426e-03 5.76474695e-02 -2.31124767e-03 -2.94790603e-03 -2.31124767e-03 -9.67028551e-02
4.76103690e-02 -1.53349567e-02 3.07837389e-02 -1.53349567e-02 5.87012824e-02 1.76071917e-03 3.07837389e-02 1.76071917e-03 -8.88967011e-02
4.01607603e-02 -1.35008299e-02 2.27107196e-02 -1.35008299e-02 6.25296636e-02 -3.46569176e-03 2.27107196e-02 -3.46569176e-03 -8.60056914e-02
5.99396623e-02 -5.78393761e-04 2.34379812e-02 -5.78393761e-04 5.52145296e-02 -3.54088677e-03 2.34379812e-02 -3.54088677e-03 -9.89188722e-02
6.84373058e-02 -1.63683435e-02 -6.44686537e-02 -1.63683435e-02 6.21062353e-02 -1.31172352e-03 -6.44686537e-02 -1.31172352e-03 -1.16462395e-01
6.78256545e-02 -2.39963818e-03 -1.89614010e-02 -2.39963818e-03 7.77706280e-02 1.21604704e-02 -1.89614010e-02 1.21604704e-02 -1.27704803e-01
6.66699614e-02 -5.21271478e-03 -1.60514819e-03 -5.21271478e-03 7.48768635e-02 1.13195762e-02 -1.60514819e-03 1.13195762e-02 -1.22376405e-01
5.98573908e-02 -4.37424541e-03 -4.31573973e-03 -4.37424541e-03 7.84643404e-02 3.68154480e-03 -4.31573973e-03 3.68154480e-03 -1.18918739e-01
4.11955323e-02 -9.28642687e-03 4.25761220e-02 -9.28642687e-03 5.75168489e-02 2.08944950e-03 4.25761220e-02 2.08944950e-03 -8.24322871e-02
3.63600682e-02 3.01513675e-03 3.33431712e-02 3.01513675e-03 5.70112886e-02 4.17826197e-03 3.33431712e-02 4.17826197e-03 -7.73700457e-02
5.13692342e-02 -2.85434779e-02 5.60111543e-02 -2.85434779e-02 6.96667992e-02 -6.46722422e-02 5.60111543e-02 -6.46722422e-02 -1.03658028e-01
3.55675604e-02 -3.50017239e-03 1.60466125e-02 -3.50017239e-03 4.48873581e-02 2.73308544e-02 1.60466125e-02 2.73308544e-02 -6.58045502e-02
3.51266423e-02 -7.90192001e-03 2.70671869e-02 -7.90192001e-03 4.70619742e-02 7.62615912e-03 2.70671869e-02 7.62615912e-03 -6.81981109e-02
3.45143150e-02 8.54552069e-03 1.84043569e-02 8.54552069e-03 4.97366088e-02 7.95032093e-02 1.84043569e-02 7.95032093e-02 -7.30066234e-02
3.78551818e-02 3.14314695e-03 1.21373789e-02 3.14314695e-03 4.69757896e-02 9.57202239e-03 1.21373789e-02 9.57202239e-03 -6.96663707e-02
3.69407875e-02 5.99253061e-03 -3.13678011e-03 5.99253061e-03 4.70134867e-02 4.38160228e-03 -3.13678011e-03 4.38160228e-03 -7.02258553e-02
3.79119303e-02 -1.28136889e-02 -1.51865580e-02 -1.28136889e-02 6.04126757e-02 1.48315792e-02 -1.51865580e-02 1.48315792e-02 -8.18424672e-02
-5.72715933e-03 8.15961882e-02 -9.74667668e-02 8.15961882e-02 -2.37063747e-02 1.41025215e-01 -9.74667668e-02 1.41025215e-01 6.06331415e-02
6.74321813e-02 3.13096841e-02 -9.96860340e-02 3.13096841e-02 6.10201880e-02 -1.85305452e-02 -9.96860340e-02 -1.85305452e-02 -1.11177653e-01
4.23959317e-02 1.68203286e-02 6.26438286e-03 1.68203286e-02 5.20427162e-02 1.59573590e-02 6.26438286e-03 1.59573590e-02 -7.93806966e-02
3.87821812e-02 -3.86304420e-03 7.08765490e-03 -3.86304420e-03 5.29345218e-02 1.21970717e-02 7.08765490e-03 1.21970717e-02 -7.64207467e-02
</DataArray>
<DataArray type="Float32" Name="Plastic_strain_components" NumberOfComponents="9" format="ascii">
4.23125923e-02 -4.53226676e-07 4.34967177e-07 -4.53226676e-07 7.26139769e-02 -1.20444747e-06 4.34967177e-07 -1.20444747e-06 -9.65306610e-02
4.43150997e-02 2.81264016e-03 1.55223609e-06 2.81264016e-03 7.51874782e-02 -7.04687904e-04 1.55223609e-06 -7.04687904e-04 -1.00389041e-01
4.52713780e-02 7.42241147e-03 -4.91863361e-03 7.42241147e-03 6.78731902e-02 -2.61566264e-03 -4.91863361e-03 -2.61566264e-03 -9.51105580e-02
4.49547023e-02 2.67340813e-03 -3.26287362e-03 2.67340813e-03 6.62953183e-02 1.93149754e-06 -3.26287362e-03 1.93149754e-06 -9.35489349e-02
4.12926972e-02 4.87354282e-06 3.06691346e-03 4.87354282e-06 6.90477155e-02 -3.88925453e-03 3.06691346e-03 -3.88925453e-03 -9.27049853e-02
4.35568467e-02 8.93149103e-04 4.91363357e-03 8.93149103e-04 7.06045870e-02 -5.60517964e-03 4.91363357e-03 -5.60517964e-03 -9.59384032e-02
4.43112985e-02 3.86623676e-03 7.75631359e-04 3.86623676e-03 6.53879512e-02 -5.99256516e-03 7.75631359e-04 -5.99256516e-03 -9.22348220e-02
4.33142111e-02 1.00384597e-03 1.00929187e-03 1.00384597e-03 6.46194825e-02 -2.05603690e-03 1.00929187e-03 -2.05603690e-03 -9.07447543e-02
4.70760707e-02 1.10581832e-03 3.45400485e-06 1.10581832e-03 8.07034522e-02 -2.14975094e-03 3.45400485e-06 -2.14975094e-03 -1.07349358e-01
4.77792239e-02 1.09335065e-02 -7.20271410e-03 1.09335065e-02 7.31143691e-02 -9.96362389e-04 -7.20271410e-03 -9.96362389e-04 -1.01600951e-01
4.90626665e-02 2.21114297e-03 5.70699968e-03 2.21114297e-03 7.24789593e-02 -4.42050626e-03 5.70699968e-03 -4.42050626e-03 -1.02225330e-01
4.74906359e-02 4.49975699e-03 -1.97706446e-03 4.49975699e-03 6.92824787e-02 -1.16093503e-02 -1.97706446e-03 -1.16093503e-02 -9.81905386e-02
5.26969619e-02 4.31701657e-03 -4.60572483e-06 4.31701657e-03 8.57628882e-02 5.27973543e-03 -4.60572483e-06 5.27973543e-03 -1.16370887e-01
5.33632236e-02 7.76457565e-03 -1.27883363e-02 7.76457565e-03 8.47578570e-02 -4.59565467e-03 -1.27883363e-02 -4.59565467e-03 -1.17294058e-01
5.62588256e-02 -5.21427847e-03 8.78684019e-04 -5.21427847e-03 7.42670428e-02 -3.58571226e-03 8.78684019e-04 -3.58571226e-03 -1.09871302e-01
5.30950590e-02 -3.90516943e-03 2.26826197e-03 -3.90516943e-03 7.53691019e-02 -7.03887499e-03 2.26826197e-03 -7.03887499e-03 -1.08371698e-01
5.90722486e-02 -1.14608193e-02 2.87419862e-05 -1.14608193e-02 9.08916630e-02 3.76620085e-03 2.87419862e-05 3.76620085e-03 -1.26089409e-01
5.49830990e-02 -9.35563759e-03 -1.93350776e-02 -9.35563759e-03 9.36191771e-02 2.52952892e-03 -1.93350776e-02 2.52952892e-03 -1.26101486e-01
6.26673521e-02 -1.28474764e-02 3.56945297e-03 -1.28474764e-02 7.71595016e-02 -3.34797543e-03 3.56945297e-03 -3.34797543e-03 -1.17727220e-01
6.13299944e-02 -1.37887619e-02 2.11456197e-03 -1.37887619e-02 7.48586617e-02 2.38714472e-03 2.11456197e-03 2.38714472e-03 -1.15288356e-01
6.20737076e-02 -1.39174103e-02 2.13953634e-04 -1.39174103e-02 9.72096510e-02 5.29088383e-03 2.13953634e-04 5.29088383e-03 -1.33717857e-01
5.90738645e-02 -2.25404052e-02 -2.37604221e-02 -2.25404052e-02 1.01191157e-01 1.05939177e-02 -2.37604221e-02 1.05939177e-02 -1.37046251e-01
6.48722779e-02 -1.02455679e-02 6.04438875e-03 -1.02455679e-02 8.34980421e-02 4.07281425e-03 6.04438875e-03 4.07281425e-03 -1.25239486e-01
6.41068630e-02 -1.77158060e-02 8.45430361e-03 -1.77158060e-02 7.57103804e-02 2.49868078e-03 8.45430361e-03 2.49868078e-03 -1.17817351e-01
5.88720255e-02 -3.79697494e-02 -5.83756482e-05 -3.79697494e-02 1.13103174e-01 -3.39851761e-03 -5.83756482e-05 -3.39851761e-03 -1.44305602e-01
5.27115334e-02 -3.27426586e-02 -2.42539691e-02 -3.27426586e-02 1.19076315e-01 2.81823305e-02 -2.42539691e-02 2.81823305e-02 -1.45803340e-01
5.65458722e-02 -9.46770282e-03 -5.19939489e-03 -9.46770282e-03 9.80559997e-02 9.42291925e-04 -5.19939489e-03 9.42291925e-04 -1.29731506e-01
6.21086899e-02 -1.71903586e-02 7.93599058e-04 -1.71903586e-02 9.25453808e-02 1.34475778e-02 7.93599058e-04 1.34475778e-02 -1.30775807e-01
4.91211442e-02 1.03510499e-02 -4.23844904e-03 1.03510499e-02 4.90856934e-02 -3.80004628e-03 -4.23844904e-03 -3.80004628e-03 -8.26357938e-02
4.90227584e-02 2.16583768e-03 -5.48288389e-03 2.16583768e-03 4.85438183e-02 8.13243969e-06 -5.48288389e-03 8.13243969e-06 -8.21288899e-02
4.54164245e-02 7.31448387e-03 4.80489724e-03 7.31448387e-03 5.24087390e-02 -7.54388171e-03 4.80489724e-03 -7.54388171e-03 -8.23166212e-02
4.47647423e-02 3.37485538e-03 8.43850290e-03 3.37485538e-03 5.09903338e-02 -9.56456672e-04 8.43850290e-03 -9.56456672e-04 -8.06095917e-02
4.77448395e-02 1.86190424e-02 -8.93348176e-03 1.86190424e-02 5.07823192e-02 -7.65553652e-03 -8.93348176e-03 -7.65553652e-03 -8.30279738e-02
4.62402352e-02 1.06128547e-02 9.51555881e-03 1.06128547e-02 5.52858803e-02 -3.27405128e-03 9.51555881e-03 -3.27405128e-03 -8.56732270e-02
3.23706559e-02 1.02732538e-02 -8.27981454e-03 1.02732538e-02 3.56573720e-02 -5.28169796e-03 -8.27981454e-03 -5.28169796e-03 -5.42913941e-02
4.13240915e-02 9.90526252e-05 3.53886172e-02 9.90526252e-05 5.30243654e-02 1.88044173e-03 3.53886172e-02 1.88044173e-03 -7.87166527e-02
2.89811925e-02 -1.32679433e-02 -2.34893147e-02 -1.32679433e-02 3.43476688e-02 9.64935374e-04 -2.34893147e-02 9.64935374e-04 -4.98073949e-02
3.53094276e-02 -2.09554760e-02 3.67243673e-02 -2.09554760e-02 4.93218970e-02 8.99652415e-03 3.67243673e-02 8.99652415e-03 -6.73015673e-02
2.36972420e-02 -1.59401307e-02 -1.94880728e-02 -1.59401307e-02 1.65181087e-02 9.97695955e-03 -1.94880728e-02 9.97695955e-03 -2.64478046e-02
3.52237955e-02 -2.45936231e-02 4.38589277e-02 -2.45936231e-02 4.08765560e-02 2.56847367e-02 4.38589277e-02 2.56847367e-02 -5.85140046e-02
2.62313475e-02 -2.20579978e-02 -1.77404261e-02 -2.20579978e-02 1.47753283e-02 1.54890424e-02 -1.77404261e-02 1.54890424e-02 -2.64372239e-02
3.77171511e-02 -3.43033280e-02 3.79459814e-02 -3.43033280e-02 5.23688210e-02 3.30009268e-02 3.79459814e-02 3.30009268e-02 -7.08887422e-02
5.19737769e-02 5.50396112e-03 1.13535378e-03 5.50396112e-03 2.87780287e-02 -5.09962742e-03 1.13535378e-03 -5.09962742e-03 -6.77950773e-02
5.04521243e-02 3.07799666e-03 2.38768547e-03 3.07799666e-03 3.06102689e-02 -5.28072087e-06 2.38768547e-03 -5.28072087e-06 -6.81395084e-02
4.78681535e-02 3.53256552e-03 1.05261143e-02 3.53256552e-03 3.26475364e-02 -3.41563436e-03 1.05261143e-02 -3.41563436e-03 -6.76439945e-02
4.51983921e-02 1.80096080e-03 1.19553003e-02 1.80096080e-03 3.48792640e-02 -1.23247213e-03 1.19553003e-02 -1.23247213e-03 -6.73516858e-02
3.77391572e-02 7.51618121e-03 5.25397627e-04 7.51618121e-03 1.85350324e-02 -9.64333513e-03 5.25397627e-04 -9.64333513e-03 -4.62032654e-02
4.08212285e-02 5.45162398e-03 1.79086934e-02 5.45162398e-03 2.13625467e-02 5.41152386e-03 1.79086934e-02 5.41152386e-03 -5.13083457e-02
7.29504274e-03 1.41814817e-04 -4.00496228e-03 1.41814817e-04 -1.86310004e-03 -3.85149078e-03 -4.00496228e-03 -3.85149078e-03 5.99540770e-04
3.78263858e-03 1.05075309e-03 2.25435950e-03 1.05075309e-03 -6.72291693e-05 2.13019961e-03 2.25435950e-03 2.13019961e-03 3.54694637e-03
-2.74819594e-03 9.10250315e-04 -8.87666844e-03 9.10250315e-04 -5.38459886e-03 -3.65187757e-03 -8.87666844e-03 -3.65187757e-03 1.41498100e-02
-1.05073664e-03 -2.61224271e-02 2.13739748e-02 -2.61224271e-02 7.56931903e-03 5.84655325e-03 2.13739748e-02 5.84655325e-03 -9.87291593e-04
-5.12133151e-03 7.74431780e-03 -5.61508546e-03 7.74431780e-03 -2.31785917e-03 -2.57974192e-03 -5.61508546e-03 -2.57974192e-03 1.32414375e-02
-2.56559051e-03 -6.94688456e-03 5.63946118e-03 -6.94688456e-03 2.25075521e-03 -2.74336074e-03 5.63946118e-03 -2.74336074e-03 6.07633907e-03
2.25788401e-03 8.61461973e-03 -9.11144121e-03 8.61461973e-03 -1.47881368e-02 2.01949407e-03 -9.11144121e-03 2.01949407e-03 1.75398919e-02
5.31713990e-03 -7.80949462e-03 2.95516602e-02 -7.80949462e-03 -8.10242258e-04 -5.18689037e-03 2.95516602e-02 -5.18689037e-03 -4.13110480e-04
5.11974916e-02 -3.90287521e-03 2.47023418e-03 -3.90287521e-03 1.94862010e-02 -6.63599710e-03 2.47023418e-03 -6.63599710e-03 -5.91276707e-02
5.16353939e-02 -4.19013412e-03 3.36104271e-03 -4.19013412e-03 2.37194225e-02 9.93438152e-06 3.36104271e-03 9.93438152e-06 -6.31603748e-02
4.57055685e-02 -6.54313259e-03 1.31919850e-02 -6.54313259e-03 2.19737755e-02 -2.12627405e-04 1.31919850e-02 -2.12627405e-04 -5.67522538e-02
4.69401618e-02 -5.09894418e-03 3.88828735e-03 -5.09894418e-03 2.52097566e-02 2.01440521e-03 3.88828735e-03 2.01440521e-03 -6.05698545e-02
3.96147585e-02 -7.01296423e-03 -3.77441617e-03 -7.01296423e-03 1.06446634e-02 -1.09050204e-02 -3.77441617e-03 -1.09050204e-02 -4.23506526e-02
3.64802941e-02 -1.09359117e-02 4.23434251e-03 -1.09359117e-02 1.15590512e-02 1.17039343e-02 4.23434251e-03 1.17039343e-02 -3.99064340e-02
3.36863672e-03 -2.98936530e-03 -1.21359815e-03 -2.98936530e-03 9.65382933e-04 -7.71863328e-03 -1.21359815e-03 -7.71863328e-03 -1.53688429e-03
1.24208941e-02 -4.69801112e-03 -2.82911320e-03 -4.69801112e-03 -4.41175633e-04 6.03680811e-03 -2.82911320e-03 6.03680811e-03 -8.14996761e-03
-1.19760378e-03 -1.74955021e-03 -4.07337882e-05 -1.74955021e-03 4.56992793e-04 -2.86811913e-04 -4.07337882e-05 -2.86811913e-04 7.82338829e-04
1.18326450e-03 1.82726772e-03 -1.82944802e-03 1.82726772e-03 1.30065668e-03 4.65200216e-03 -1.82944802e-03 4.65200216e-03 -1.93824465e-03
5.84069639e-03 -1.47531936e-02 4.73570952e-04 -1.47531936e-02 -9.12012253e-03 1.29300643e-05 4.73570952e-04 1.29300643e-05 5.34449238e-03
-8.12038018e-04 -9.41082567e-03 -1.12654960e-03 -9.41082567e-03 1.70096116e-03 8.73791440e-05 -1.12654960e-03 8.73791440e-05 -3.79948885e-04
5.15863439e-03 -1.79963112e-02 -2.45737168e-03 -1.79963112e-02 -8.24801810e-03 -2.83629779e-05 -2.45737168e-03 -2.83629779e-05 4.80133062e-03
-2.54211561e-03 -9.77885403e-03 -4.54233196e-03 -9.77885403e-03 6.25914553e-03 -4.84845062e-05 -4.54233196e-03 -4.84845062e-05 -2.78018201e-03
4.93099364e-02 -1.05230535e-02 6.95193803e-03 -1.05230535e-02 2.52121221e-02 -2.99458305e-03 6.95193803e-03 -2.99458305e-03 -6.24739425e-02
5.30007258e-02 -9.37874243e-03 1.49935676e-03 -9.37874243e-03 2.75633764e-02 5.91370372e-06 1.49935676e-03 5.91370372e-06 -6.76063821e-02
4.39709439e-02 -9.28603318e-03 9.55453026e-04 -9.28603318e-03 2.64906350e-02 5.38070639e-03 9.55453026e-04 5.38070639e-03 -5.91604393e-02
4.85014031e-02 -3.90431471e-03 -2.40365302e-03 -3.90431471e-03 2.76445067e-02 7.47459871e-03 -2.40365302e-03 7.47459871e-03 -6.39214171e-02
3.86101119e-02 -1.22775312e-02 3.66895989e-03 -1.22775312e-02 1.77525210e-02 -1.50625776e-02 3.66895989e-03 -1.50625776e-02 -4.78163753e-02
2.82822056e-02 -1.52462423e-02 -2.33984385e-03 -1.52462423e-02 2.01754472e-02 6.32119380e-03 -2.33984385e-03 6.32119380e-03 -3.86950092e-02
3.43654345e-03 -4.50106279e-04 2.04284709e-03 -4.50106279e-04 1.57642347e-03 -5.13874053e-03 2.04284709e-03 -5.13874053e-03 -1.33289036e-03
2.27813671e-02 -8.57497104e-03 -3.38286272e-03 -8.57497104e-03 1.52127145e-02 2.43352398e-02 -3.38286272e-03 2.43352398e-02 -3.19904067e-02
7.60743412e-04 1.66885648e-03 -1.70495115e-05 1.66885648e-03 -4.40379894e-04 -2.84489615e-04 -1.70495115e-05 -2.84489615e-04 -1.62988402e-04
3.18047505e-03 -2.54421024e-04 1.84794099e-04 -2.54421024e-04 -1.21738242e-03 5.57559493e-03 1.84794099e-04 5.57559493e-03 -1.47540271e-03
4.23973366e-05 -2.46083004e-05 -3.78084412e-06 -2.46083004e-05 -2.75659007e-05 1.17721440e-05 -3.78084412e-06 1.17721440e-05 -2.47411467e-05
2.35999960e-07 -4.76861301e-06 -4.89944567e-06 -4.76861301e-06 -3.41929490e-06 1.82869703e-05 -4.89944567e-06 1.82869703e-05 1.77770305e-06
0.00000000e+00 0.00000000e+00 0.00000000e+00 0.00000000e+00 0.00000000e+00 0.00000000e+00 0.00000000e+00 0.00000000e+00 0.00000000e+00
0.00000000e+00 0.00000000e+00 0.00000000e+00 0.00000000e+00 0.00000000e+00 0.00000000e+00 0.00000000e+00 0.00000000e+00 0.00000000e+00
5.43850884e-02 -9.43599187e-03 9.27936635e-04 -9.43599187e-03 3.36681586e-02 -5.78083354e-03 9.27936635e-04 -5.78083354e-03 -7.39636309e-02
6.13471270e-02 -4.26623318e-03 6.39517140e-03 -4.26623318e-03 3.13737616e-02 2.14745087e-05 6.39517140e-03 2.14745087e-05 -7.78066814e-02
5.01190135e-02 -6.73104823e-03 -1.20800780e-03 -6.73104823e-03 3.30568533e-02 -4.67713780e-03 -1.20800780e-03 -4.67713780e-03 -6.99115209e-02
5.46467416e-02 -9.61562013e-03 -3.07244874e-03 -9.61562013e-03 3.54610141e-02 6.62305066e-03 -3.07244874e-03 6.62305066e-03 -7.57542625e-02
4.20592250e-02 -1.82045307e-02 1.80382412e-02 -1.82045307e-02 3.05284550e-02 -1.94958122e-02 1.80382412e-02 -1.94958122e-02 -6.08912893e-02
3.92289730e-02 -1.62934661e-02 7.39172788e-03 -1.62934661e-02 4.34076553e-02 4.58814693e-03 7.39172788e-03 4.58814693e-03 -7.03273257e-02
9.58825392e-03 -7.28654271e-03 1.41678583e-02 -7.28654271e-03 1.40329059e-02 -6.16394170e-03 1.41678583e-02 -6.16394170e-03 -1.89601835e-02
2.84586611e-02 -1.90681095e-02 8.90025139e-03 -1.90681095e-02 3.01018984e-02 3.45438663e-02 8.90025139e-03 3.45438663e-02 -4.88093439e-02
-1.29811454e-03 -2.86640862e-03 1.18868698e-04 -2.86640862e-03 8.60678629e-04 -3.37630103e-04 1.18868698e-04 -3.37630103e-04 3.29039525e-04
1.00603901e-03 -1.07932209e-02 1.59813128e-04 -1.07932209e-02 2.38293134e-04 1.36485132e-02 1.59813128e-04 1.36485132e-02 3.42857726e-04
-1.33282680e-04 -1.24697413e-04 2.27734163e-05 -1.24697413e-04 6.17329279e-05 2.41788202e-05 2.27734163e-05 2.41788202e-05 9.69516332e-05
2.55649841e-05 -2.73839541e-05 -7.09845638e-06 -2.73839541e-05 -1.33793001e-05 -3.12737211e-06 -7.09845638e-06 -3.12737211e-06 -1.58897249e-05
0.00000000e+00 0.00000000e+00 0.00000000e+00 0.00000000e+00 0.00000000e+00 0.00000000e+00 0.00000000e+00 0.00000000e+00 0.00000000e+00
0.00000000e+00 0.00000000e+00 0.00000000e+00 0.00000000e+00 0.00000000e+00 0.00000000e+00 0.00000000e+00 0.00000000e+00 0.00000000e+00
4.32856958e-02 4.51272899e-06 1.36788987e-03 4.51272899e-06 6.15034420e-02 -7.78912799e-03 1.36788987e-03 -7.78912799e-03 -8.81552920e-02
4.64279372e-02 -5.99669307e-04 8.06112424e-03 -5.99669307e-04 5.91604533e-02 -5.24869742e-03 8.06112424e-03 -5.24869742e-03 -8.88697729e-02
4.32647397e-02 -6.48610247e-03 4.82494340e-03 -6.48610247e-03 5.96761047e-02 -2.58176398e-03 4.82494340e-03 -2.58176398e-03 -8.65693577e-02
4.12074197e-02 -7.59890201e-04 3.24780040e-03 -7.59890201e-04 6.12346623e-02 -1.07807948e-03 3.24780040e-03 -1.07807948e-03 -8.61263648e-02
5.32157142e-02 -9.34081874e-03 4.84527450e-03 -9.34081874e-03 5.49591519e-02 -8.40624241e-04 4.84527450e-03 -8.40624241e-04 -9.11167674e-02
5.11226067e-02 -9.42937806e-03 1.07647022e-03 -9.42937806e-03 5.73982354e-02 -1.20138728e-02 1.07647022e-03 -1.20138728e-02 -9.12421262e-02
6.03504805e-02 4.23277224e-05 -7.85928118e-04 4.23277224e-05 5.42893792e-02 -7.14182528e-03 -7.85928118e-04 -7.14182528e-03 -9.65415332e-02
5.44640138e-02 -6.28421669e-03 8.82995082e-04 -6.28421669e-03 5.32352591e-02 -8.05792064e-04 8.82995082e-04 -8.05792064e-04 -8.89874473e-02
6.69905525e-02 -5.10928279e-03 1.30934273e-02 -5.10928279e-03 5.30629447e-02 -6.75450318e-03 1.30934273e-02 -6.75450318e-03 -1.01030316e-01
6.33008424e-02 -6.57919518e-03 3.09510872e-03 -6.57919518e-03 6.63535697e-02 8.88871565e-03 3.09510872e-03 8.88871565e-03 -1.09582152e-01
6.42268062e-02 -6.68449188e-03 1.49393247e-02 -6.68449188e-03 5.79799870e-02 2.25787147e-03 1.49393247e-02 2.25787147e-03 -1.02824137e-01
6.63000504e-02 -3.07544965e-03 1.31325616e-02 -3.07544965e-03 6.45708540e-02 5.38276701e-03 1.31325616e-02 5.38276701e-03 -1.10134222e-01
5.82685638e-02 1.13459099e-02 9.27607110e-03 1.13459099e-02 6.57805856e-02 7.50979560e-03 9.27607110e-03 7.50979560e-03 -1.04397442e-01
6.56080507e-02 1.75069878e-03 -1.33057532e-03 1.75069878e-03 6.60147667e-02 5.87249384e-03 -1.33057532e-03 5.87249384e-03 -1.10707728e-01
4.20474941e-02 -8.33951758e-03 9.81713826e-03 -8.33951758e-03 5.68334879e-02 -1.04246983e-02 9.81713826e-03 -1.04246983e-02 -8.34264997e-02
3.74398893e-02 -6.01142412e-03 1.99790967e-02 -6.01142412e-03 5.73258521e-02 -5.50843787e-03 1.99790967e-02 -5.50843787e-03 -7.95136541e-02
4.76027658e-02 -5.46270030e-03 1.87368644e-02 -5.46270030e-03 5.96420004e-02 -4.70474376e-03 1.87368644e-02 -4.70474376e-03 -9.01318576e-02
6.52507879e-02 -1.64752761e-02 5.07816056e-02 -1.64752761e-02 6.70414530e-02 -3.26217194e-03 5.07816056e-02 -3.26217194e-03 -1.10646254e-01
6.68331161e-02 -1.68356439e-03 1.42657850e-02 -1.68356439e-03 8.00007321e-02 1.69216924e-02 1.42657850e-02 1.69216924e-02 -1.23316752e-01
6.62210155e-02 -2.83064527e-03 2.80820024e-02 -2.83064527e-03 8.22123848e-02 3.44362013e-02 2.80820024e-02 3.44362013e-02 -1.24580039e-01
6.38750121e-02 -1.24190180e-02 1.41180828e-02 -1.24190180e-02 8.66313130e-02 3.01655694e-02 1.41180828e-02 3.01655694e-02 -1.26327582e-01
3.22954463e-02 -1.55842265e-03 2.69711181e-02 -1.55842265e-03 4.47385332e-02 -1.83537723e-03 2.69711181e-02 -1.83537723e-03 -6.38929857e-02
3.45326872e-02 -2.63293192e-03 1.93375337e-02 -2.63293192e-03 4.51439992e-02 -5.25896554e-03 1.93375337e-02 -5.25896554e-03 -6.69144671e-02
3.50406573e-02 -1.06324758e-02 3.86532508e-02 -1.06324758e-02 5.36926022e-02 4.44821540e-02 3.86532508e-02 4.44821540e-02 -7.39835134e-02
-1.50079560e-02 -4.30147070e-02 3.63532677e-02 -4.30147070e-02 7.25964340e-03 5.45100737e-02 3.63532677e-02 5.45100737e-02 1.60054304e-02
3.18468137e-02 -3.59372352e-05 1.35563004e-02 -3.59372352e-05 2.57892795e-02 9.79116687e-03 1.35563004e-02 9.79116687e-03 -4.65358328e-02
3.44960568e-02 5.35712857e-03 1.28816474e-02 5.35712857e-03 3.36160427e-02 9.57179139e-03 1.28816474e-02 9.57179139e-03 -5.72832907e-02
2.84706108e-02 -2.13780156e-02 2.21329308e-02 -2.13780156e-02 1.96788660e-02 1.86865952e-02 2.21329308e-02 1.86865952e-02 -3.85050819e-02
9.65278689e-03 -7.54666034e-03 -3.37494438e-02 -7.54666034e-03 1.45474877e-02 -1.46118924e-04 -3.37494438e-02 -1.46118924e-04 -1.56121440e-02
3.73257021e-02 -7.97941989e-03 2.69380899e-03 -7.97941989e-03 3.21202795e-02 7.54825569e-03 2.69380899e-03 7.54825569e-03 -5.82781187e-02
4.07383824e-02 -7.03953195e-03 -1.86110614e-04 -7.03953195e-03 3.07173794e-02 7.48866750e-03 -1.86110614e-04 7.48866750e-03 -6.00964157e-02
3.20576535e-02 -1.48507744e-02 6.94394577e-04 -1.48507744e-02 3.43760578e-02 1.61146658e-02 6.94394577e-04 1.61146658e-02 -5.36087202e-02
5.32107670e-02 3.38342739e-04 -2.13011263e-02 3.38342739e-04 5.79156280e-02 2.86475681e-02 -2.13011263e-02 2.86475681e-02 -9.59373992e-02
3.85089042e-02 -1.54460993e-03 -3.05053807e-03 -1.54460993e-03 4.39158129e-02 -2.74781138e-04 -3.05053807e-03 -2.74781138e-04 -6.94300104e-02
4.28006500e-02 1.22484885e-03 -3.83186527e-03 1.22484885e-03 3.89870778e-02 5.53463073e-03 -3.83186527e-03 5.53463073e-03 -6.88493289e-02
3.57022653e-02 4.29679290e-04 2.07386632e-03 4.29679290e-04 4.87789996e-02 -5.18881646e-03 2.07386632e-03 -5.18881646e-03 -6.89397780e-02
6.90532662e-02 -1.50150317e-03 -1.89241976e-02 -1.50150317e-03 7.50778094e-02 2.31881579e-02 -1.89241976e-02 2.31881579e-02 -1.22655395e-01
0.00000000e+00 0.00000000e+00 0.00000000e+00 0.00000000e+00 0.00000000e+00 0.00000000e+00 0.00000000e+00 0.00000000e+00 0.00000000e+00
0.00000000e+00 0.00000000e+00 0.00000000e+00 0.00000000e+00 0.00000000e+00 0.00000000e+00 0.00000000e+00 0.00000000e+00 0.00000000e+00
0.00000000e+00 0.00000000e+00 0.00000000e+00 0.00000000e+00 0.00000000e+00 0.00000000e+00 0.00000000e+00 0.00000000e+00 0.00000000e+00
0.00000000e+00 0.00000000e+00 0.00000000e+00 0.00000000e+00 0.00000000e+00 0.00000000e+00 0.00000000e+00 0.00000000e+00 0.00000000e+00
5.18146176e-02 8.65506854e-06 9.90988221e-03 8.65506854e-06 5.44265732e-02 -2.17893184e-03 9.90988221e-03 -2.17893184e-03 -8.94650668e-02
5.32073239e-02 2.74259940e-03 6.42394170e-03 2.74259940e-03 5.25427181e-02 2.95317540e-03 6.42394170e-03 2.95317540e-03 -8.90392475e-02
5.14649223e-02 -8.89147964e-03 1.17616843e-02 -8.89147964e-03 5.34879696e-02 4.02424761e-03 1.17616843e-02 4.02424761e-03 -8.83032912e-02
4.99184746e-02 1.97525957e-03 1.03485061e-02 1.97525957e-03 5.56334602e-02 -5.60458482e-03 1.03485061e-02 -5.60458482e-03 -8.88586789e-02
5.71854822e-02 -1.12578480e-02 9.74436803e-03 -1.12578480e-02 4.68736039e-02 5.41201720e-04 9.74436803e-03 5.41201720e-04 -8.75639394e-02
5.59227564e-02 -1.17430552e-02 1.21835359e-02 -1.17430552e-02 5.19697429e-02 5.37249358e-03 1.21835359e-02 5.37249358e-03 -9.07164309e-02
6.09471267e-02 1.03495305e-03 4.06392652e-03 1.03495305e-03 4.41249879e-02 6.12559461e-03 4.06392652e-03 6.12559461e-03 -8.83933641e-02
5.68282895e-02 -5.35999442e-03 -4.62142465e-03 -5.35999442e-03 4.60995249e-02 -4.51478921e-03 -4.62142465e-03 -4.51478921e-03 -8.50987199e-02
6.37677554e-02 2.73356063e-03 -5.23008022e-03 2.73356063e-03 4.18385332e-02 -1.83966680e-04 -5.23008022e-03 -1.83966680e-04 -8.88047218e-02
6.35986039e-02 1.09728531e-03 -8.86963573e-03 1.09728531e-03 5.89215350e-02 4.72873799e-05 -8.86963573e-03 4.72873799e-05 -1.03655382e-01
6.15170430e-02 4.95083470e-04 2.59159977e-03 4.95083470e-04 4.32122694e-02 -3.13201646e-03 2.59159977e-03 -3.13201646e-03 -8.81142952e-02
6.20446219e-02 -6.36711091e-04 4.39092837e-04 -6.36711091e-04 5.61614498e-02 3.27361147e-03 4.39092837e-04 3.27361147e-03 -9.94839165e-02
5.92839252e-02 -4.19323231e-04 1.99354801e-03 -4.19323231e-04 4.40290514e-02 -2.70531606e-03 1.99354801e-03 -2.70531606e-03 -8.68930109e-02
5.77453813e-02 -5.00716212e-03 -2.92078039e-03 -5.00716212e-03 5.70232244e-02 -2.33213940e-03 -2.92078039e-03 -2.33213940e-03 -9.65994745e-02
4.71474142e-02 -1.52819337e-02 3.05950252e-02 -1.52819337e-02 5.81035689e-02 1.78880291e-03 3.05950252e-02 1.78880291e-03 -8.79755467e-02
4.00924142e-02 -1.34695619e-02 2.28044011e-02 -1.34695619e-02 6.24278802e-02 -3.46676575e-03 2.28044011e-02 -3.46676575e-03 -8.60380605e-02
6.05845105e-02 -6.99830591e-04 2.30380623e-02 -6.99830591e-04 5.58083680e-02 -3.67713294e-03 2.30380623e-02 -3.67713294e-03 -9.86729850e-02
7.21287429e-02 -1.61756686e-02 -6.28529895e-02 -1.61756686e-02 6.60335746e-02 -8.63101892e-04 -6.28529895e-02 -8.63101892e-04 -1.14783123e-01
6.81997761e-02 -2.24330602e-03 -1.84582949e-02 -2.24330602e-03 7.80431200e-02 1.21486557e-02 -1.84582949e-02 1.21486557e-02 -1.22790817e-01
6.78871544e-02 -5.17258456e-03 -1.61115872e-03 -5.17258456e-03 7.60573670e-02 1.13177201e-02 -1.61115872e-03 1.13177201e-02 -1.21214699e-01
6.06827289e-02 -4.28626360e-03 -4.27290366e-03 -4.28626360e-03 7.91546181e-02 3.67184321e-03 -4.27290366e-03 3.67184321e-03 -1.17677219e-01
4.26716467e-02 -9.40257720e-03 4.39152526e-02 -9.40257720e-03 5.92881548e-02 2.74332240e-03 4.39152526e-02 2.74332240e-03 -8.56624767e-02
3.55515182e-02 3.09382577e-03 3.28409616e-02 3.09382577e-03 5.61881289e-02 3.85165738e-03 3.28409616e-02 3.85165738e-03 -7.66039155e-02
5.16621490e-02 -2.81738723e-02 5.81842186e-02 -2.81738723e-02 7.03164414e-02 -6.49866981e-02 5.81842186e-02 -6.49866981e-02 -9.92049240e-02
3.19431649e-02 -3.33241836e-03 1.24546008e-02 -3.33241836e-03 4.07570590e-02 2.53790254e-02 1.24546008e-02 2.53790254e-02 -5.95829132e-02
3.69719118e-02 -8.19630106e-03 2.93931976e-02 -8.19630106e-03 4.91032703e-02 8.93043436e-03 2.93931976e-02 8.93043436e-03 -7.27285370e-02
3.73505889e-02 7.30408673e-03 1.74804290e-02 7.30408673e-03 5.28517487e-02 8.30101501e-02 1.74804290e-02 8.30101501e-02 -7.33086867e-02
2.04242300e-02 7.38914125e-04 1.44910409e-02 7.38914125e-04 2.60588459e-02 5.98575396e-04 1.44910409e-02 5.98575396e-04 -3.25773424e-02
4.05033343e-02 6.90728554e-03 -3.36800539e-03 6.90728554e-03 5.11437291e-02 5.74059784e-03 -3.36800539e-03 5.74059784e-03 -7.84002952e-02
2.56087842e-02 -8.82626145e-03 -6.62195542e-03 -8.82626145e-03 3.89567248e-02 2.33121754e-02 -6.62195542e-03 2.33121754e-02 -4.87540396e-02
-1.25846975e-02 8.23453367e-02 -8.69151056e-02 8.23453367e-02 -2.68414207e-02 1.61304861e-01 -8.69151056e-02 1.61304861e-01 5.01426905e-02
7.90595040e-02 2.92154681e-02 -1.07691302e-01 2.92154681e-02 7.82534077e-02 -2.48067255e-02 -1.07691302e-01 -2.48067255e-02 -1.34842905e-01
5.17667606e-02 1.83049217e-02 4.94957791e-03 1.83049217e-02 6.34525102e-02 2.10061964e-02 4.94957791e-03 2.10061964e-02 -1.00229731e-01
3.64070274e-02 -4.34154831e-03 7.26688746e-03 -4.34154831e-03 5.02893403e-02 1.13797430e-02 7.26688746e-03 1.13797430e-02 -7.21756071e-02
</DataArray>
<DataArray type="Float32" Name="Spatial_displacement" NumberOfComponents="3" format="ascii">
0.00000000e+00 0.00000000e+00 0.00000000e+00
4.33262140e-02 0.00000000e+00 0.00000000e+00
4.62808162e-02 7.83803388e-02 0.00000000e+00
0.00000000e+00 7.55170584e-02 0.00000000e+00
0.00000000e+00 0.00000000e+00 -9.25691575e-02
4.25718874e-02 0.00000000e+00 -9.61310565e-02
4.35010642e-02 7.30711445e-02 -9.16398317e-02
0.00000000e+00 7.19965100e-02 -8.97747129e-02
9.09759030e-02 0.00000000e+00 0.00000000e+00
9.21456963e-02 8.42131227e-02 0.00000000e+00
8.86904448e-02 0.00000000e+00 -1.02573693e-01
9.10215527e-02 7.63969719e-02 -9.73921567e-02
1.39786288e-01 0.00000000e+00 0.00000000e+00
1.44395009e-01 9.25175250e-02 0.00000000e+00
1.45403773e-01 0.00000000e+00 -1.08422965e-01
1.39848903e-01 7.93538541e-02 -1.07672259e-01
2.04737335e-01 0.00000000e+00 0.00000000e+00
1.92473128e-01 9.86174718e-02 0.00000000e+00
2.08772898e-01 0.00000000e+00 -1.16801664e-01
1.95021674e-01 7.98258036e-02 -1.13617763e-01
2.67852813e-01 0.00000000e+00 0.00000000e+00
2.53030390e-01 1.05628826e-01 0.00000000e+00
2.73739874e-01 0.00000000e+00 -1.25149012e-01
2.62707472e-01 8.28162879e-02 -1.19619668e-01
3.38621438e-01 0.00000000e+00 0.00000000e+00
2.97640771e-01 1.31321445e-01 0.00000000e+00
3.35138738e-01 0.00000000e+00 -1.26563653e-01
3.25043470e-01 1.06795743e-01 -1.31487310e-01
5.03866971e-02 1.40144616e-01 0.00000000e+00
0.00000000e+00 1.37861460e-01 0.00000000e+00
4.63457033e-02 1.35633141e-01 -8.02859962e-02
0.00000000e+00 1.32063165e-01 -7.94235021e-02
1.00230023e-01 1.52167335e-01 0.00000000e+00
9.19370502e-02 1.42460942e-01 -8.14745873e-02
1.40774533e-01 1.62594751e-01 0.00000000e+00
1.34332597e-01 1.50496423e-01 -7.31006861e-02
1.74653381e-01 1.83524445e-01 0.00000000e+00
1.77531928e-01 1.49870500e-01 -7.60672539e-02
1.97093278e-01 1.84774250e-01 0.00000000e+00
2.12974995e-01 1.54903993e-01 -7.14990944e-02
2.29456037e-01 2.21514851e-01 0.00000000e+00
2.55934417e-01 1.89167321e-01 -7.13131130e-02
5.37832677e-02 1.78493485e-01 0.00000000e+00
0.00000000e+00 1.75297618e-01 0.00000000e+00
4.83593792e-02 1.79659009e-01 -6.58214390e-02
0.00000000e+00 1.77783296e-01 -6.46594763e-02
1.07991613e-01 1.81023419e-01 0.00000000e+00
9.82949138e-02 1.82231516e-01 -5.19742668e-02
1.37879342e-01 1.89757004e-01 0.00000000e+00
1.31491065e-01 1.87005550e-01 -1.54306889e-02
1.44342050e-01 1.96674883e-01 0.00000000e+00
1.35999650e-01 1.85485259e-01 6.06557727e-03
1.59858152e-01 1.89351618e-01 0.00000000e+00
1.61723986e-01 1.69100255e-01 1.47829950e-02
1.62360191e-01 2.28935897e-01 0.00000000e+00
1.68939605e-01 2.25650251e-01 4.66722250e-03
5.61824515e-02 1.99445814e-01 0.00000000e+00
0.00000000e+00 2.03788996e-01 0.00000000e+00
4.91136238e-02 2.01981708e-01 -5.72632402e-02
0.00000000e+00 2.07256526e-01 -5.91445714e-02
1.07196674e-01 1.95548773e-01 0.00000000e+00
9.58939195e-02 1.91779837e-01 -4.01772410e-02
1.32922783e-01 1.89687595e-01 0.00000000e+00
1.24503002e-01 1.88311934e-01 -7.69932568e-03
1.29732355e-01 1.95409030e-01 0.00000000e+00
1.29342899e-01 1.95403099e-01 -2.70009041e-05
1.29640475e-01 1.99215844e-01 0.00000000e+00
1.29695699e-01 1.97133243e-01 0.00000000e+00
1.29761308e-01 1.99242130e-01 -2.73525715e-04
1.29764155e-01 1.97073892e-01 1.75535679e-05
5.40072024e-02 2.19388396e-01 0.00000000e+00
0.00000000e+00 2.29096830e-01 0.00000000e+00
5.07945791e-02 2.26609960e-01 -5.94964474e-02
0.00000000e+00 2.30666921e-01 -6.65633827e-02
1.05181694e-01 2.02615425e-01 0.00000000e+00
8.97521079e-02 2.05989629e-01 -4.62935716e-02
1.24607913e-01 1.90882504e-01 0.00000000e+00
1.18128031e-01 1.94783658e-01 -1.14446431e-02
1.27961278e-01 1.95501760e-01 0.00000000e+00
1.27731055e-01 1.95517510e-01 2.43902206e-04
1.27813920e-01 1.97237402e-01 0.00000000e+00
1.27909318e-01 1.97215647e-01 2.86698341e-05
1.27933070e-01 1.98972940e-01 0.00000000e+00
1.27950877e-01 1.98907763e-01 7.95722008e-06
6.09855950e-02 2.53935724e-01 0.00000000e+00
0.00000000e+00 2.58373737e-01 0.00000000e+00
5.47964275e-02 2.55022764e-01 -7.21004456e-02
0.00000000e+00 2.65057355e-01 -7.82919526e-02
1.13310456e-01 2.24916309e-01 0.00000000e+00
9.27986652e-02 2.43484259e-01 -6.62554502e-02
1.29985914e-01 2.01349184e-01 0.00000000e+00
1.23201773e-01 2.17424557e-01 -2.95350403e-02
1.27262101e-01 1.96136773e-01 0.00000000e+00
1.26588270e-01 1.96145892e-01 5.37067652e-04
1.26248375e-01 1.97088704e-01 0.00000000e+00
1.26361161e-01 1.97176576e-01 -3.34382057e-05
1.26212031e-01 1.98929846e-01 0.00000000e+00
1.26240015e-01 1.98900789e-01 -4.88758087e-06
0.00000000e+00 0.00000000e+00 -1.77546799e-01
4.30383161e-02 0.00000000e+00 -1.84701771e-01
4.23927307e-02 6.14613444e-02 -1.77284852e-01
0.00000000e+00 6.22672141e-02 -1.76306367e-01
9.59608853e-02 0.00000000e+00 -1.93951815e-01
8.60936791e-02 5.49138859e-02 -1.89497381e-01
1.48975685e-01 0.00000000e+00 -2.05983996e-01
1.49019122e-01 5.44487387e-02 -2.06715271e-01
2.17689991e-01 0.00000000e+00 -2.24581897e-01
2.12163761e-01 5.49391434e-02 -2.12706327e-01
2.88367450e-01 0.00000000e+00 -2.37480804e-01
2.81236351e-01 5.69844767e-02 -2.24031433e-01
3.44733357e-01 0.00000000e+00 -2.43118912e-01
3.56751144e-01 6.44561574e-02 -2.34771118e-01
3.67782563e-02 1.20669916e-01 -1.60440952e-01
0.00000000e+00 1.27099320e-01 -1.55307546e-01
8.30625072e-02 1.19714834e-01 -1.66879952e-01
1.34148702e-01 1.24070048e-01 -1.71324909e-01
2.02201068e-01 1.38822392e-01 -1.89572781e-01
2.72875726e-01 1.41096056e-01 -1.83744371e-01
3.34635437e-01 1.51676819e-01 -1.96042985e-01
3.22654173e-02 1.74941003e-01 -1.32571578e-01
0.00000000e+00 1.77757174e-01 -1.27625391e-01
7.04417378e-02 1.76496208e-01 -1.18706077e-01
6.30388409e-02 1.52229443e-01 1.01689398e-02
3.46450433e-02 2.19534352e-01 -1.07873008e-01
0.00000000e+00 2.13895410e-01 -1.16960838e-01
7.62841702e-02 2.00602859e-01 -7.87809044e-02
9.80819687e-02 1.69395149e-01 -3.46069485e-02
4.28566039e-02 2.37853184e-01 -1.16285175e-01
0.00000000e+00 2.45172545e-01 -1.23373225e-01
7.14872256e-02 2.26119086e-01 -9.46955085e-02
1.21499643e-01 2.09149495e-01 -7.34439641e-02
3.76228988e-02 2.79587209e-01 -1.46127701e-01
0.00000000e+00 2.78354824e-01 -1.51337504e-01
7.29655847e-02 2.85937965e-01 -1.37204558e-01
1.31871268e-01 2.73522496e-01 -1.34256244e-01
1.27948329e-01 1.97262511e-01 3.39150429e-05
1.27948448e-01 1.98925078e-01 3.19778919e-05
1.26283914e-01 1.98932856e-01 -1.73449516e-05
1.26256898e-01 1.97275907e-01 -3.43918800e-05
0.00000000e+00 0.00000000e+00 -2.64741361e-01
5.02941608e-02 0.00000000e+00 -2.66728044e-01
5.32214418e-02 5.51673695e-02 -2.60833025e-01
0.00000000e+00 5.30902073e-02 -2.55688608e-01
1.11600809e-01 0.00000000e+00 -2.80711532e-01
9.96535271e-02 4.72282097e-02 -2.71779358e-01
1.66066661e-01 0.00000000e+00 -2.96124041e-01
1.67177767e-01 4.25483957e-02 -2.92393267e-01
2.31639400e-01 0.00000000e+00 -3.09594125e-01
2.34557599e-01 4.42572460e-02 -3.14396828e-01
3.00703138e-01 0.00000000e+00 -3.26101452e-01
3.01216602e-01 4.70966250e-02 -3.23724270e-01
3.64553511e-01 0.00000000e+00 -3.31542075e-01
3.64133418e-01 4.77810577e-02 -3.29719841e-01
3.75696942e-02 1.04274720e-01 -2.39837840e-01
0.00000000e+00 1.18650861e-01 -2.36493304e-01
9.92703736e-02 1.06149465e-01 -2.61447906e-01
1.56881675e-01 1.12617470e-01 -3.03594649e-01
2.29975015e-01 1.24492615e-01 -3.14398170e-01
2.95988739e-01 1.17175087e-01 -3.12260360e-01
3.52700114e-01 1.24301083e-01 -3.17653686e-01
3.33886966e-02 1.78624660e-01 -1.96393654e-01
0.00000000e+00 1.75387308e-01 -2.00292006e-01
8.91638175e-02 1.56836331e-01 -2.27208912e-01
3.37854326e-02 2.21070558e-01 -1.64826050e-01
0.00000000e+00 2.29245558e-01 -1.71887606e-01
7.95909092e-02 2.21670598e-01 -1.30849376e-01
3.48341763e-02 2.74286747e-01 -1.78106830e-01
0.00000000e+00 2.68037677e-01 -1.82220042e-01
7.66978934e-02 2.70174146e-01 -1.68177813e-01
9.34706330e-02 2.72954136e-01 2.04988122e-02
1.17138296e-01 2.61541098e-01 -1.90010697e-01
3.81004810e-02 3.15393776e-01 -2.13551730e-01
0.00000000e+00 3.19427431e-01 -2.24814221e-01
</DataArray>
<DataArray type="Float32" Name="Spatial_acceleration" NumberOfComponents="3" format="ascii">
0.00000000e+00 0.00000000e+00 0.00000000e+00
-3.16818557e-07 0.00000000e+00 0.00000000e+00
-3.30746161e-07 -4.75982830e-07 0.00000000e+00
0.00000000e+00 -5.05546723e-07 0.00000000e+00
0.00000000e+00 0.00000000e+00 5.97635903e-07
-3.05930769e-07 0.00000000e+00 6.21795664e-07
-3.26171516e-07 -4.48413488e-07 5.72522481e-07
0.00000000e+00 -4.78168317e-07 5.90006493e-07
-6.68327004e-07 0.00000000e+00 0.00000000e+00
-6.69042265e-07 -4.98573002e-07 0.00000000e+00
-6.38743245e-07 0.00000000e+00 5.82377083e-07
-6.75817319e-07 -4.86751389e-07 5.89688625e-07
-9.77118816e-07 0.00000000e+00 0.00000000e+00
-1.02972979e-06 -5.11725716e-07 0.00000000e+00
-1.01463991e-06 0.00000000e+00 5.81105553e-07
-9.78549338e-07 -4.39365692e-07 6.32921854e-07
-1.40539430e-06 0.00000000e+00 0.00000000e+00
-1.34702520e-06 -5.21610161e-07 0.00000000e+00
-1.41068301e-06 0.00000000e+00 6.19252489e-07
-1.34126344e-06 -4.73300616e-07 6.25928237e-07
-1.77825484e-06 0.00000000e+00 0.00000000e+00
-1.69960651e-06 -5.39223322e-07 0.00000000e+00
-1.81221958e-06 0.00000000e+00 6.12576798e-07
-1.77164873e-06 -4.76479528e-07 6.28630289e-07
-2.15117143e-06 0.00000000e+00 0.00000000e+00
-1.95678081e-06 -6.42458588e-07 0.00000000e+00
-2.18389437e-06 0.00000000e+00 5.92549611e-07
-2.11588531e-06 -6.10868142e-07 6.52313247e-07
-3.82184965e-07 -9.16600243e-07 0.00000000e+00
0.00000000e+00 -9.07679407e-07 0.00000000e+00
-3.42845908e-07 -8.80156961e-07 5.37236531e-07
0.00000000e+00 -8.63462674e-07 5.13712564e-07
-6.98725387e-07 -9.54310053e-07 0.00000000e+00
-6.53455629e-07 -8.99255269e-07 5.89370700e-07
-1.03886919e-06 -9.90152330e-07 0.00000000e+00
-9.86967734e-07 -9.60577040e-07 5.22068547e-07
-1.25145914e-06 -1.11142788e-06 0.00000000e+00
-1.26144619e-06 -8.63764058e-07 5.48892558e-07
-1.43810109e-06 -1.04260448e-06 0.00000000e+00
-1.50609685e-06 -8.70201347e-07 4.48862721e-07
-1.56672797e-06 -1.28809609e-06 0.00000000e+00
-1.72699822e-06 -1.08782456e-06 4.76413305e-07
-3.88622283e-07 -1.19918582e-06 0.00000000e+00
0.00000000e+00 -1.18883452e-06 0.00000000e+00
-3.47177178e-07 -1.21849769e-06 4.87645480e-07
0.00000000e+00 -1.18601326e-06 4.13258874e-07
-7.91867592e-07 -1.19566914e-06 0.00000000e+00
-7.41958615e-07 -1.17949639e-06 3.98953745e-07
-1.02249783e-06 -1.16976105e-06 0.00000000e+00
-1.00199384e-06 -1.23160419e-06 1.88085764e-07
-1.30271917e-06 -1.30918295e-06 0.00000000e+00
-9.50283493e-07 -1.04268395e-06 -8.68903260e-09
-1.19802689e-06 -1.18056937e-06 0.00000000e+00
-1.16984052e-06 -9.94576340e-07 -1.36481390e-07
-1.12501777e-06 -1.33895878e-06 0.00000000e+00
-1.27283727e-06 -1.37788061e-06 1.14440919e-08
-3.82026030e-07 -1.34007132e-06 0.00000000e+00
0.00000000e+00 -1.38958296e-06 0.00000000e+00
-3.32454846e-07 -1.34126344e-06 4.32650239e-07
0.00000000e+00 -1.41384703e-06 4.15484095e-07
-7.81695064e-07 -1.32757668e-06 0.00000000e+00
-7.35918661e-07 -1.28289059e-06 3.35375461e-07
-1.05818117e-06 -1.27855935e-06 0.00000000e+00
-9.68933136e-07 -1.15990645e-06 9.68509255e-08
-1.05272397e-06 -1.24401515e-06 0.00000000e+00
-1.02424622e-06 -1.24178996e-06 -9.11288822e-09
-9.73701503e-07 -1.18033086e-06 0.00000000e+00
-9.79436777e-07 -1.16897957e-06 0.00000000e+00
-1.02551780e-06 -1.09386440e-06 6.00814829e-08
-1.02117326e-06 -1.23475820e-06 -6.15649753e-08
-3.85880469e-07 -1.48197012e-06 0.00000000e+00
0.00000000e+00 -1.58423188e-06 0.00000000e+00
-3.86228152e-07 -1.56086685e-06 4.37418606e-07
0.00000000e+00 -1.58502655e-06 4.89234935e-07
-8.35458422e-07 -1.38195355e-06 0.00000000e+00
-7.19626712e-07 -1.39617919e-06 3.84807578e-07
-9.31024545e-07 -1.19328502e-06 0.00000000e+00
-9.44137582e-07 -1.29275850e-06 1.25037303e-07
-1.06358527e-06 -1.19956337e-06 0.00000000e+00
-1.06394293e-06 -1.27410885e-06 1.73250836e-08
-1.03982291e-06 -1.25837323e-06 0.00000000e+00
-1.02348326e-06 -1.18360128e-06 -2.25752594e-09
-1.07169149e-06 -1.10340113e-06 0.00000000e+00
-9.58760552e-07 -1.23280950e-06 -1.60038471e-08
-5.30083980e-07 -1.75317132e-06 0.00000000e+00
0.00000000e+00 -1.75464902e-06 0.00000000e+00
-4.32491305e-07 -1.79604683e-06 5.27381872e-07
0.00000000e+00 -1.83366728e-06 5.55674205e-07
-8.26994551e-07 -1.53477981e-06 0.00000000e+00
-7.56422651e-07 -1.62998833e-06 5.20706180e-07
-1.03743866e-06 -1.36852259e-06 0.00000000e+00
-1.01810031e-06 -1.43941247e-06 3.47561297e-07
-1.02901458e-06 -1.19209290e-06 0.00000000e+00
-1.04272362e-06 -1.24613439e-06 -1.49408983e-08
-1.05754532e-06 -1.23405459e-06 0.00000000e+00
-1.10546750e-06 -1.21280880e-06 -2.19121574e-08
-1.02825959e-06 -1.22767688e-06 0.00000000e+00
-1.08464553e-06 -1.22644508e-06 2.20440945e-08
0.00000000e+00 0.00000000e+00 1.13169347e-06
-2.88387128e-07 0.00000000e+00 1.15076705e-06
-3.07957322e-07 -4.06881156e-07 1.14409124e-06
0.00000000e+00 -4.22805556e-07 1.13169347e-06
-6.84509644e-07 0.00000000e+00 1.18223829e-06
-5.94456992e-07 -3.74237686e-07 1.17047625e-06
-9.93589538e-07 0.00000000e+00 1.22706092e-06
-1.02003412e-06 -3.76204639e-07 1.20194750e-06
-1.43583611e-06 0.00000000e+00 1.22674305e-06
-1.40074883e-06 -3.79045787e-07 1.23119355e-06
-1.91805748e-06 0.00000000e+00 1.23786924e-06
-1.84452529e-06 -3.71317071e-07 1.22578933e-06
-2.22722679e-06 0.00000000e+00 1.23914083e-06
-2.35088669e-06 -4.22875075e-07 1.24359133e-06
-2.91943536e-07 -7.68820428e-07 1.07510880e-06
0.00000000e+00 -8.37485004e-07 1.08718871e-06
-6.07672177e-07 -7.73679631e-07 1.10008602e-06
-9.46585374e-07 -8.11417920e-07 1.17034915e-06
-1.36868152e-06 -8.62409649e-07 1.16157526e-06
-1.75857542e-06 -8.62836828e-07 1.11770623e-06
-2.08405640e-06 -9.66290600e-07 1.10753376e-06
-2.70962715e-07 -1.17194656e-06 9.43183863e-07
0.00000000e+00 -1.19916592e-06 9.22520940e-07
-5.39726670e-07 -1.18133755e-06 9.24852145e-07
-4.18027241e-07 -8.31286115e-07 -1.25964476e-07
-2.65975785e-07 -1.48508695e-06 8.10464201e-07
0.00000000e+00 -1.43616398e-06 8.63075229e-07
-6.22953678e-07 -1.33078436e-06 6.39052587e-07
-8.12530516e-07 -1.05794277e-06 3.13229037e-07
-3.44991690e-07 -1.63710115e-06 8.87076055e-07
0.00000000e+00 -1.67376800e-06 8.95500193e-07
-5.82814209e-07 -1.51928259e-06 7.52925871e-07
-8.86201860e-07 -1.40949089e-06 5.76655054e-07
-3.15546998e-07 -1.94485983e-06 1.10022222e-06
0.00000000e+00 -2.00355043e-06 1.14822387e-06
-6.12179406e-07 -1.94327026e-06 1.05222068e-06
-1.02905426e-06 -1.86443322e-06 1.01470948e-06
-1.03467448e-06 -1.21268283e-06 -4.90099197e-08
-1.03738898e-06 -1.17241336e-06 1.37935077e-08
-1.12132227e-06 -1.20532263e-06 -2.34941644e-09
-1.09211601e-06 -1.15874411e-06 4.38938521e-08
0.00000000e+00 0.00000000e+00 1.66956579e-06
-3.18050382e-07 0.00000000e+00 1.65112806e-06
-3.53058169e-07 -3.72360148e-07 1.66861219e-06
0.00000000e+00 -3.41494882e-07 1.66066491e-06
-7.22487755e-07 0.00000000e+00 1.72424313e-06
-6.63399703e-07 -3.31126159e-07 1.71120962e-06
-1.05680522e-06 0.00000000e+00 1.79417930e-06
-1.09124187e-06 -3.50276622e-07 1.78146365e-06
-1.50945289e-06 0.00000000e+00 1.82278950e-06
-1.49885807e-06 -3.38832535e-07 1.84090925e-06
-1.96547808e-06 0.00000000e+00 1.85648594e-06
-1.94915128e-06 -3.39150432e-07 1.84122723e-06
-2.43254499e-06 0.00000000e+00 1.83105465e-06
-2.40349777e-06 -3.71674702e-07 1.85298916e-06
-2.82287601e-07 -6.94513290e-07 1.61075593e-06
0.00000000e+00 -7.82529526e-07 1.61806736e-06
-7.19115860e-07 -7.61395427e-07 1.65121889e-06
-1.03429159e-06 -7.55691531e-07 1.78070070e-06
-1.43094860e-06 -8.08556877e-07 1.85966485e-06
-1.84150531e-06 -8.01205601e-07 1.78464256e-06
-2.18284117e-06 -9.50892741e-07 1.83868406e-06
-2.97637200e-07 -1.19890490e-06 1.42124725e-06
0.00000000e+00 -1.18505955e-06 1.41874943e-06
-6.34988169e-07 -1.04618073e-06 1.50489802e-06
-2.85557348e-07 -1.49717789e-06 1.22833251e-06
0.00000000e+00 -1.57683098e-06 1.30780541e-06
-6.13689394e-07 -1.51235861e-06 1.03505454e-06
-2.87274503e-07 -1.90877904e-06 1.32306411e-06
0.00000000e+00 -1.85531371e-06 1.35930372e-06
-5.76291768e-07 -1.84558689e-06 1.20871402e-06
-7.90039678e-07 -2.01416015e-06 -1.83105470e-07
-7.98967164e-07 -1.79481503e-06 1.39024519e-06
-2.97864261e-07 -2.18431160e-06 1.58500666e-06
0.00000000e+00 -2.25377084e-06 1.62506103e-06
</DataArray>
<DataArray type="Float32" Name="Spatial_velocity" NumberOfComponents="3" format="ascii">
0.00000000e+00 0.00000000e+00 0.00000000e+00
4.58320283e-05 0.00000000e+00 0.00000000e+00
4.76755195e-05 6.54590112e-05 0.00000000e+00
0.00000000e+00 6.44933461e-05 0.00000000e+00
0.00000000e+00 0.00000000e+00 -7.80667033e-05
4.40773438e-05 0.00000000e+00 -8.00555717e-05
4.51535234e-05 6.24464810e-05 -7.72734275e-05
0.00000000e+00 6.16092148e-05 -7.88315810e-05
9.20424354e-05 0.00000000e+00 0.00000000e+00
9.34431882e-05 6.77021308e-05 0.00000000e+00
8.93765100e-05 0.00000000e+00 -8.02842842e-05
9.09121154e-05 6.33813979e-05 -7.78613321e-05
1.37753537e-04 0.00000000e+00 0.00000000e+00
1.41753553e-04 7.03040423e-05 0.00000000e+00
1.40959339e-04 0.00000000e+00 -7.86689779e-05
1.35867958e-04 6.27457339e-05 -8.36092950e-05
1.95014014e-04 0.00000000e+00 0.00000000e+00
1.84593810e-04 7.08306761e-05 0.00000000e+00
1.96347042e-04 0.00000000e+00 -8.12074795e-05
1.84579723e-04 6.09426897e-05 -8.29070486e-05
2.42332491e-04 0.00000000e+00 0.00000000e+00
2.36662105e-04 7.37475420e-05 0.00000000e+00
2.48191995e-04 0.00000000e+00 -7.99797272e-05
2.42304319e-04 6.14656819e-05 -8.29019336e-05
2.95348698e-04 0.00000000e+00 0.00000000e+00
2.69174314e-04 8.54792379e-05 0.00000000e+00
2.95845064e-04 0.00000000e+00 -7.52094493e-05
2.89468298e-04 7.78337417e-05 -8.56075349e-05
5.04182462e-05 1.21970552e-04 0.00000000e+00
0.00000000e+00 1.20432822e-04 0.00000000e+00
4.76363748e-05 1.17840907e-04 -7.25080972e-05
0.00000000e+00 1.15865034e-04 -7.31713808e-05
9.91053676e-05 1.28520202e-04 0.00000000e+00
9.24183769e-05 1.22438258e-04 -7.51396365e-05
1.40448450e-04 1.35177033e-04 0.00000000e+00
1.34537186e-04 1.27077787e-04 -7.16206050e-05
1.73972992e-04 1.52393462e-04 0.00000000e+00
1.74399291e-04 1.19324373e-04 -7.20231983e-05
1.95327564e-04 1.43615034e-04 0.00000000e+00
2.06552955e-04 1.20152166e-04 -6.87507199e-05
2.24461895e-04 1.71886568e-04 0.00000000e+00
2.41063171e-04 1.41675846e-04 -6.63711398e-05
5.36385778e-05 1.60677431e-04 0.00000000e+00
0.00000000e+00 1.57870207e-04 0.00000000e+00
4.88333899e-05 1.61331409e-04 -6.46628323e-05
0.00000000e+00 1.59769625e-04 -6.14531673e-05
1.10787900e-04 1.61239543e-04 0.00000000e+00
1.04160623e-04 1.61128250e-04 -5.72712306e-05
1.44498306e-04 1.64025536e-04 0.00000000e+00
1.37555733e-04 1.63375415e-04 -1.21323328e-05
1.50467022e-04 1.65062214e-04 0.00000000e+00
1.42170175e-04 1.57600967e-04 7.07181880e-06
1.62140786e-04 1.57479342e-04 0.00000000e+00
1.66166603e-04 1.28276399e-04 1.47525852e-05
1.62441254e-04 1.81174270e-04 0.00000000e+00
1.70724117e-04 1.82724631e-04 4.15642535e-06
5.65075643e-05 1.83351178e-04 0.00000000e+00
0.00000000e+00 1.89292405e-04 0.00000000e+00
5.00680362e-05 1.85450219e-04 -5.76685306e-05
0.00000000e+00 1.91306885e-04 -5.70747179e-05
1.14318369e-04 1.76757050e-04 0.00000000e+00
1.01354264e-04 1.71091626e-04 -4.32334855e-05
1.43795900e-04 1.62484168e-04 0.00000000e+00
1.37518233e-04 1.62984026e-04 -6.95097287e-06
1.40341581e-04 1.65261386e-04 0.00000000e+00
1.40409727e-04 1.65283767e-04 -2.08472713e-07
1.40386939e-04 1.55700880e-04 0.00000000e+00
1.40410382e-04 1.60515439e-04 0.00000000e+00
1.40423028e-04 1.55771020e-04 -1.97445971e-09
1.40367920e-04 1.60453579e-04 5.84559281e-08
5.63172616e-05 2.03399468e-04 0.00000000e+00
0.00000000e+00 2.14425731e-04 0.00000000e+00
5.45590447e-05 2.11295395e-04 -5.83783731e-05
0.00000000e+00 2.17397581e-04 -6.42971208e-05
1.14317467e-04 1.82541800e-04 0.00000000e+00
9.82294296e-05 1.87166253e-04 -5.25991272e-05
1.37778872e-04 1.63247460e-04 0.00000000e+00
1.31796303e-04 1.70945641e-04 -1.60625077e-05
1.45219296e-04 1.65263220e-04 0.00000000e+00
1.45098340e-04 1.65238453e-04 -2.54101025e-08
1.45135375e-04 1.60520780e-04 0.00000000e+00
1.45140584e-04 1.60564436e-04 5.44960577e-10
1.45127196e-04 1.55728630e-04 0.00000000e+00
1.45164391e-04 1.55739777e-04 -1.84282190e-08
6.41069637e-05 2.38048509e-04 0.00000000e+00
0.00000000e+00 2.43308386e-04 0.00000000e+00
5.83409237e-05 2.43032977e-04 -7.21763063e-05
0.00000000e+00 2.50568381e-04 -7.56960872e-05
1.20037548e-04 2.08381840e-04 0.00000000e+00
1.03494793e-04 2.27392753e-04 -7.23413250e-05
1.51172557e-04 1.79915209e-04 0.00000000e+00
1.39871889e-04 1.97901609e-04 -4.24293685e-05
1.49813757e-04 1.65274978e-04 0.00000000e+00
1.49911823e-04 1.65538848e-04 -3.44717783e-08
1.49910164e-04 1.60529729e-04 0.00000000e+00
1.49900181e-04 1.60519703e-04 -3.86368555e-08
1.49944841e-04 1.55768605e-04 0.00000000e+00
1.49901563e-04 1.55771166e-04 2.19425420e-08
0.00000000e+00 0.00000000e+00 -1.51289554e-04
4.10906214e-05 0.00000000e+00 -1.54671419e-04
4.18759591e-05 5.47625641e-05 -1.50915119e-04
0.00000000e+00 5.46038791e-05 -1.52607434e-04
9.14646225e-05 0.00000000e+00 -1.57230941e-04
8.34365128e-05 5.05441276e-05 -1.52828972e-04
1.39731987e-04 0.00000000e+00 -1.57075381e-04
1.39136551e-04 5.18011075e-05 -1.61268297e-04
1.97841247e-04 0.00000000e+00 -1.61613338e-04
1.93377549e-04 5.06046163e-05 -1.60967364e-04
2.58801825e-04 0.00000000e+00 -1.61501201e-04
2.52379454e-04 5.07497280e-05 -1.62550001e-04
3.07919196e-04 0.00000000e+00 -1.56333699e-04
3.15623940e-04 6.07666152e-05 -1.63533885e-04
4.07441003e-05 1.06533596e-04 -1.43672514e-04
0.00000000e+00 1.11294299e-04 -1.44095975e-04
8.58241401e-05 1.06800129e-04 -1.47431478e-04
1.27897176e-04 1.06664331e-04 -1.50354215e-04
1.85874000e-04 1.17018157e-04 -1.55132759e-04
2.40749374e-04 1.18117328e-04 -1.48213308e-04
2.84060545e-04 1.31062829e-04 -1.48532970e-04
3.77483411e-05 1.55544127e-04 -1.27152816e-04
0.00000000e+00 1.59371339e-04 -1.26290935e-04
7.49772007e-05 1.57753253e-04 -1.24507264e-04
6.23059022e-05 1.16540992e-04 1.31583229e-05
3.80027814e-05 2.02639261e-04 -1.09226858e-04
0.00000000e+00 1.95353568e-04 -1.16475247e-04
8.82707609e-05 1.78791015e-04 -8.83473040e-05
1.10694302e-04 1.47355677e-04 -4.00840690e-05
4.99601192e-05 2.23934985e-04 -1.19631673e-04
0.00000000e+00 2.32472696e-04 -1.24726415e-04
8.03552175e-05 2.08349622e-04 -1.04181629e-04
1.28701417e-04 1.91720246e-04 -7.53364729e-05
4.76140012e-05 2.66140793e-04 -1.43291807e-04
0.00000000e+00 2.69343582e-04 -1.52951630e-04
8.41990623e-05 2.68100470e-04 -1.43771031e-04
1.39557684e-04 2.49091536e-04 -1.37348834e-04
1.45104234e-04 1.60524360e-04 -5.52818982e-08
1.45097903e-04 1.55748421e-04 4.79432209e-08
1.49907704e-04 1.55767673e-04 -3.31733112e-08
1.49897591e-04 1.60528842e-04 4.29206075e-08
0.00000000e+00 0.00000000e+00 -2.22591101e-04
4.37261515e-05 0.00000000e+00 -2.22645423e-04
4.84584707e-05 4.95756976e-05 -2.22759758e-04
0.00000000e+00 4.70034975e-05 -2.21044131e-04
9.83629288e-05 0.00000000e+00 -2.29036363e-04
8.94011173e-05 4.64264849e-05 -2.26774500e-04
1.45864513e-04 0.00000000e+00 -2.35563333e-04
1.47094921e-04 4.63467441e-05 -2.32693725e-04
2.03125863e-04 0.00000000e+00 -2.38319903e-04
2.04797732e-04 4.64400291e-05 -2.40748181e-04
2.67007155e-04 0.00000000e+00 -2.41215428e-04
2.64516217e-04 4.74135231e-05 -2.42341179e-04
3.27849790e-04 0.00000000e+00 -2.38229812e-04
3.24861758e-04 5.21672009e-05 -2.42440554e-04
3.77329234e-05 9.57769516e-05 -2.15841719e-04
0.00000000e+00 1.06671570e-04 -2.14141124e-04
9.59613681e-05 1.01152014e-04 -2.18857720e-04
1.40669057e-04 1.02591235e-04 -2.37071683e-04
1.96707930e-04 1.11055328e-04 -2.44157854e-04
2.49622972e-04 1.09599394e-04 -2.38415159e-04
2.94706144e-04 1.26898347e-04 -2.41179834e-04
4.00059471e-05 1.60033567e-04 -1.93201427e-04
0.00000000e+00 1.58851195e-04 -1.93112181e-04
8.76457852e-05 1.41836645e-04 -2.02713301e-04
4.24665996e-05 2.02606228e-04 -1.67349135e-04
0.00000000e+00 2.09914739e-04 -1.78737348e-04
8.67633207e-05 2.02192154e-04 -1.45038692e-04
4.03136728e-05 2.57054257e-04 -1.85476994e-04
0.00000000e+00 2.53162230e-04 -1.90224993e-04
8.25179086e-05 2.47349031e-04 -1.68102619e-04
9.70249457e-05 2.75987695e-04 2.27811688e-05
1.10077046e-04 2.43043207e-04 -1.85616824e-04
4.42460732e-05 3.00046609e-04 -2.19142050e-04
0.00000000e+00 3.06843489e-04 -2.24021380e-04
</DataArray>
<DataArray type="Float32" Name="Reaction_force" NumberOfComponents="3" format="ascii">
4.44704860e-01 -1.88435093e-01 8.82259560e+00
0.00000000e+00 -5.87429225e-01 1.80605049e+01
0.00000000e+00 0.00000000e+00 3.44525490e+01
4.47128594e-01 0.00000000e+00 1.74206047e+01
9.18586850e-01 -4.15656149e-01 0.00000000e+00
0.00000000e+00 -7.84361660e-01 0.00000000e+00
0.00000000e+00 0.00000000e+00 0.00000000e+00
9.17194784e-01 0.00000000e+00 0.00000000e+00
0.00000000e+00 -7.77323842e-01 1.81944275e+01
0.00000000e+00 0.00000000e+00 3.61865082e+01
0.00000000e+00 -5.04222870e-01 0.00000000e+00
0.00000000e+00 0.00000000e+00 0.00000000e+00
0.00000000e+00 -5.52382767e-01 1.92600651e+01
0.00000000e+00 0.00000000e+00 3.57114067e+01
0.00000000e+00 -1.66736826e-01 0.00000000e+00
0.00000000e+00 0.00000000e+00 0.00000000e+00
0.00000000e+00 -8.07978630e-01 1.89711666e+01
0.00000000e+00 0.00000000e+00 3.49805298e+01
0.00000000e+00 -4.59046304e-01 0.00000000e+00
0.00000000e+00 0.00000000e+00 0.00000000e+00
0.00000000e+00 -1.24880469e+00 1.67620621e+01
0.00000000e+00 0.00000000e+00 3.14602623e+01
0.00000000e+00 -1.63925982e+00 0.00000000e+00
0.00000000e+00 0.00000000e+00 0.00000000e+00
0.00000000e+00 -2.32082748e+00 1.06468105e+01
0.00000000e+00 0.00000000e+00 1.98319359e+01
0.00000000e+00 -3.15350580e+00 0.00000000e+00
0.00000000e+00 0.00000000e+00 0.00000000e+00
0.00000000e+00 0.00000000e+00 3.23781357e+01
-4.94485557e-01 0.00000000e+00 1.59752121e+01
0.00000000e+00 0.00000000e+00 0.00000000e+00
-3.90318781e-01 0.00000000e+00 0.00000000e+00
0.00000000e+00 0.00000000e+00 2.94382324e+01
0.00000000e+00 0.00000000e+00 0.00000000e+00
0.00000000e+00 0.00000000e+00 2.34455566e+01
0.00000000e+00 0.00000000e+00 0.00000000e+00
0.00000000e+00 0.00000000e+00 1.91641579e+01
0.00000000e+00 0.00000000e+00 0.00000000e+00
0.00000000e+00 0.00000000e+00 1.87889214e+01
0.00000000e+00 0.00000000e+00 0.00000000e+00
0.00000000e+00 0.00000000e+00 1.53001318e+01
0.00000000e+00 0.00000000e+00 0.00000000e+00
0.00000000e+00 0.00000000e+00 2.91220379e+01
-1.01896000e+00 0.00000000e+00 1.46616373e+01
0.00000000e+00 0.00000000e+00 0.00000000e+00
-1.49632311e+00 0.00000000e+00 0.00000000e+00
0.00000000e+00 0.00000000e+00 2.13161888e+01
0.00000000e+00 0.00000000e+00 0.00000000e+00
0.00000000e+00 0.00000000e+00 1.24970245e+01
0.00000000e+00 0.00000000e+00 0.00000000e+00
0.00000000e+00 0.00000000e+00 4.86364269e+00
0.00000000e+00 0.00000000e+00 0.00000000e+00
0.00000000e+00 0.00000000e+00 3.78349590e+00
0.00000000e+00 0.00000000e+00 0.00000000e+00
0.00000000e+00 0.00000000e+00 3.23298907e+00
0.00000000e+00 0.00000000e+00 0.00000000e+00
0.00000000e+00 0.00000000e+00 2.65605526e+01
-1.65496743e+00 0.00000000e+00 1.45238457e+01
0.00000000e+00 0.00000000e+00 0.00000000e+00
-2.60398769e+00 0.00000000e+00 0.00000000e+00
0.00000000e+00 0.00000000e+00 1.94996357e+01
0.00000000e+00 0.00000000e+00 0.00000000e+00
0.00000000e+00 0.00000000e+00 9.47506523e+00
0.00000000e+00 0.00000000e+00 0.00000000e+00
0.00000000e+00 0.00000000e+00 3.42525601e-01
0.00000000e+00 0.00000000e+00 0.00000000e+00
0.00000000e+00 0.00000000e+00 -2.35322285e+00
0.00000000e+00 0.00000000e+00 -3.31628776e+00
0.00000000e+00 0.00000000e+00 0.00000000e+00
0.00000000e+00 0.00000000e+00 0.00000000e+00
0.00000000e+00 0.00000000e+00 2.71372852e+01
-2.26802230e+00 0.00000000e+00 1.41989012e+01
0.00000000e+00 0.00000000e+00 0.00000000e+00
-3.26433969e+00 0.00000000e+00 0.00000000e+00
0.00000000e+00 0.00000000e+00 2.26175194e+01
0.00000000e+00 0.00000000e+00 0.00000000e+00
0.00000000e+00 0.00000000e+00 1.79773750e+01
0.00000000e+00 0.00000000e+00 0.00000000e+00
0.00000000e+00 0.00000000e+00 7.15071964e+00
0.00000000e+00 0.00000000e+00 0.00000000e+00
0.00000000e+00 0.00000000e+00 -4.23748350e+00
0.00000000e+00 0.00000000e+00 0.00000000e+00
0.00000000e+00 0.00000000e+00 1.84397471e+00
0.00000000e+00 0.00000000e+00 0.00000000e+00
0.00000000e+00 0.00000000e+00 1.81595268e+01
-2.13946176e+00 0.00000000e+00 8.97012520e+00
0.00000000e+00 0.00000000e+00 0.00000000e+00
-3.76106668e+00 0.00000000e+00 0.00000000e+00
0.00000000e+00 0.00000000e+00 1.88408966e+01
0.00000000e+00 0.00000000e+00 0.00000000e+00
0.00000000e+00 0.00000000e+00 1.45777969e+01
0.00000000e+00 0.00000000e+00 0.00000000e+00
0.00000000e+00 0.00000000e+00 6.34623957e+00
0.00000000e+00 0.00000000e+00 0.00000000e+00
0.00000000e+00 0.00000000e+00 -2.95873260e+00
0.00000000e+00 0.00000000e+00 0.00000000e+00
0.00000000e+00 0.00000000e+00 3.86611760e-01
0.00000000e+00 0.00000000e+00 0.00000000e+00
4.46064442e-01 -5.15867412e-01 0.00000000e+00
0.00000000e+00 2.34980658e-01 0.00000000e+00
0.00000000e+00 0.00000000e+00 0.00000000e+00
1.44828296e+00 0.00000000e+00 0.00000000e+00
0.00000000e+00 9.13917303e-01 0.00000000e+00
0.00000000e+00 0.00000000e+00 0.00000000e+00
0.00000000e+00 1.19107509e+00 0.00000000e+00
0.00000000e+00 0.00000000e+00 0.00000000e+00
0.00000000e+00 1.68330026e+00 0.00000000e+00
0.00000000e+00 0.00000000e+00 0.00000000e+00
0.00000000e+00 -1.50087386e-01 0.00000000e+00
0.00000000e+00 0.00000000e+00 0.00000000e+00
0.00000000e+00 -1.09654403e+00 0.00000000e+00
0.00000000e+00 0.00000000e+00 0.00000000e+00
0.00000000e+00 0.00000000e+00 0.00000000e+00
5.05967259e-01 0.00000000e+00 0.00000000e+00
0.00000000e+00 0.00000000e+00 0.00000000e+00
0.00000000e+00 0.00000000e+00 0.00000000e+00
0.00000000e+00 0.00000000e+00 0.00000000e+00
0.00000000e+00 0.00000000e+00 0.00000000e+00
0.00000000e+00 0.00000000e+00 0.00000000e+00
0.00000000e+00 0.00000000e+00 0.00000000e+00
-7.95760632e-01 0.00000000e+00 0.00000000e+00
0.00000000e+00 0.00000000e+00 0.00000000e+00
0.00000000e+00 0.00000000e+00 0.00000000e+00
0.00000000e+00 0.00000000e+00 0.00000000e+00
-4.13589269e-01 0.00000000e+00 0.00000000e+00
0.00000000e+00 0.00000000e+00 0.00000000e+00
0.00000000e+00 0.00000000e+00 0.00000000e+00
0.00000000e+00 0.00000000e+00 0.00000000e+00
-1.10024095e+00 0.00000000e+00 0.00000000e+00
0.00000000e+00 0.00000000e+00 0.00000000e+00
0.00000000e+00 0.00000000e+00 0.00000000e+00
0.00000000e+00 0.00000000e+00 0.00000000e+00
-2.10356355e+00 0.00000000e+00 0.00000000e+00
0.00000000e+00 0.00000000e+00 0.00000000e+00
0.00000000e+00 0.00000000e+00 0.00000000e+00
0.00000000e+00 0.00000000e+00 0.00000000e+00
0.00000000e+00 0.00000000e+00 0.00000000e+00
0.00000000e+00 0.00000000e+00 0.00000000e+00
0.00000000e+00 0.00000000e+00 0.00000000e+00
7.37978369e-02 -1.50279075e-01 0.00000000e+00
0.00000000e+00 9.50471759e-01 0.00000000e+00
0.00000000e+00 0.00000000e+00 0.00000000e+00
1.79837584e+00 0.00000000e+00 0.00000000e+00
0.00000000e+00 1.55546367e+00 0.00000000e+00
0.00000000e+00 0.00000000e+00 0.00000000e+00
0.00000000e+00 2.00507450e+00 0.00000000e+00
0.00000000e+00 0.00000000e+00 0.00000000e+00
0.00000000e+00 2.78115463e+00 0.00000000e+00
0.00000000e+00 0.00000000e+00 0.00000000e+00
0.00000000e+00 1.12149656e+00 0.00000000e+00
0.00000000e+00 0.00000000e+00 0.00000000e+00
0.00000000e+00 9.02923644e-02 0.00000000e+00
0.00000000e+00 0.00000000e+00 0.00000000e+00
0.00000000e+00 0.00000000e+00 0.00000000e+00
1.48020113e+00 0.00000000e+00 0.00000000e+00
0.00000000e+00 0.00000000e+00 0.00000000e+00
0.00000000e+00 0.00000000e+00 0.00000000e+00
0.00000000e+00 0.00000000e+00 0.00000000e+00
0.00000000e+00 0.00000000e+00 0.00000000e+00
0.00000000e+00 0.00000000e+00 0.00000000e+00
0.00000000e+00 0.00000000e+00 0.00000000e+00
1.86056942e-02 0.00000000e+00 0.00000000e+00
0.00000000e+00 0.00000000e+00 0.00000000e+00
0.00000000e+00 0.00000000e+00 0.00000000e+00
8.77426028e-01 0.00000000e+00 0.00000000e+00
0.00000000e+00 0.00000000e+00 0.00000000e+00
0.00000000e+00 0.00000000e+00 0.00000000e+00
4.57346737e-01 0.00000000e+00 0.00000000e+00
0.00000000e+00 0.00000000e+00 0.00000000e+00
0.00000000e+00 0.00000000e+00 0.00000000e+00
0.00000000e+00 0.00000000e+00 0.00000000e+00
0.00000000e+00 0.00000000e+00 0.00000000e+00
-6.69236839e-01 0.00000000e+00 0.00000000e+00
</DataArray>
<DataArray type="Float32" Name="Equivalent_plastic_strain" format="ascii">
9.81929675e-02
1.02032874e-01
9.62561816e-02
9.44914967e-02
9.41589922e-02
9.72878449e-02
9.32117254e-02
9.17416364e-02
1.09046608e-01
1.02966091e-01
1.03121661e-01
9.91977593e-02
1.17903609e-01
1.16734460e-01
1.10260492e-01
1.08956124e-01
1.27414919e-01
1.25940334e-01
1.18008712e-01
1.14932317e-01
1.35433823e-01
1.36027720e-01
1.25162184e-01
1.18762284e-01
1.48217589e-01
1.48878627e-01
1.31906822e-01
1.32588746e-01
8.31015669e-02
8.23807567e-02
8.27817116e-02
8.08390025e-02
8.39505550e-02
8.60078810e-02
5.92984352e-02
8.20735720e-02
5.70784099e-02
7.67696671e-02
4.10655369e-02
7.35020203e-02
4.27614739e-02
8.45533609e-02
6.91677257e-02
6.89846948e-02
6.86116181e-02
6.79290630e-02
4.89588901e-02
5.46396308e-02
8.24103138e-03
5.96215793e-03
-1.41350025e-03
2.15276017e-02
-3.13862229e-03
1.88441379e-02
4.30840999e-03
2.49449792e-02
6.16714712e-02
6.50641136e-02
5.86984293e-02
6.18140502e-02
4.45882929e-02
4.33773384e-02
6.09562034e-03
1.34822447e-02
2.22940399e-04
2.91321472e-03
1.07432576e-02
3.41439399e-03
9.21295211e-03
4.81406913e-03
6.43064296e-02
6.91757575e-02
6.03352007e-02
6.52477182e-02
4.91134906e-02
4.36042874e-02
6.80245110e-03
3.48040718e-02
7.22848281e-05
2.80884972e-03
-5.29005075e-05
-7.50179533e-06
0.00000000e+00
0.00000000e+00
7.52254538e-02
7.95677453e-02
7.07950741e-02
7.66475908e-02
6.32940903e-02
6.97836187e-02
2.15497483e-02
5.29866231e-02
-1.66644197e-04
8.36148110e-03
1.35587834e-04
-1.97772485e-05
0.00000000e+00
0.00000000e+00
8.87895562e-02
8.92587919e-02
8.73765042e-02
8.71017277e-02
9.10562538e-02
9.22302473e-02
9.65961851e-02
9.24084312e-02
1.01572929e-01
1.09157115e-01
1.03457602e-01
1.10690258e-01
1.04908142e-01
1.11642117e-01
8.38506008e-02
8.14129040e-02
9.02952392e-02
1.17371139e-01
1.24469323e-01
1.27334028e-01
1.29082397e-01
6.71419306e-02
6.81192055e-02
8.19349407e-02
6.28338680e-02
5.16765702e-02
5.77919194e-02
4.52203896e-02
1.96383055e-02
5.96160996e-02
6.06305869e-02
5.96794441e-02
9.25058257e-02
6.93647079e-02
6.90587685e-02
7.24932775e-02
1.20233487e-01
0.00000000e+00
0.00000000e+00
0.00000000e+00
0.00000000e+00
8.95611383e-02
8.92101601e-02
8.88682082e-02
8.91110506e-02
8.80552847e-02
9.16929999e-02
8.90742261e-02
8.82345154e-02
8.96751639e-02
1.03253054e-01
8.86842739e-02
9.97490259e-02
8.76535065e-02
9.70008299e-02
9.18604461e-02
8.79783444e-02
9.51763668e-02
1.25339945e-01
1.23820376e-01
1.21408496e-01
1.18281081e-01
9.00152666e-02
7.98115600e-02
1.18092243e-01
6.44843552e-02
7.49150477e-02
9.31067448e-02
4.35671904e-02
7.69593641e-02
5.66194286e-02
8.14178213e-02
1.38335640e-01
9.64528266e-02
7.41435029e-02
</DataArray>
<DataArray type="Float32" Name="Stress_Mises" format="ascii">
3.15209084e+01
3.76590395e+01
3.33966174e+01
3.46457548e+01
2.93828173e+01
3.46181021e+01
3.17761725e+01
3.36414008e+01
4.03517818e+01
4.22382967e+01
3.66035333e+01
3.65641857e+01
4.41190300e+01
5.02625422e+01
3.67415774e+01
4.16223605e+01
4.95951891e+01
5.77504377e+01
3.91036689e+01
2.94385507e+01
4.89868717e+01
4.32582669e+01
3.55961504e+01
3.22372291e+01
7.77995834e+01
8.72157478e+01
5.60370741e+01
5.48027716e+01
3.28655790e+01
3.07909479e+01
3.17584468e+01
2.81513524e+01
3.83917790e+01
3.69343076e+01
2.67761445e+01
3.85875019e+01
2.59330325e+01
5.53799014e+01
1.97724005e+01
4.72819090e+01
4.73644466e+01
8.88704154e+01
3.45876706e+01
2.45025918e+01
3.04951790e+01
2.31645012e+01
4.00681090e+01
3.06697562e+01
2.18832279e+01
2.16575166e+01
1.41526783e+01
3.36944396e+01
8.53232582e+00
2.68442993e+01
2.50998325e+01
3.55471163e+01
3.24442496e+01
3.11475468e+01
2.40737017e+01
2.64943471e+01
2.13845441e+01
2.58610489e+01
1.47952114e+01
2.27323766e+01
1.17112338e+01
2.07631464e+01
3.39465590e+01
9.49599171e+00
3.32942791e+01
2.18124955e+01
3.03168213e+01
3.23798809e+01
2.37163264e+01
2.79010348e+01
2.19941534e+01
2.81691212e+01
2.39039814e+01
4.21098142e+01
1.60744290e+01
2.30455248e+01
1.23909600e+01
8.59209728e+00
1.00613084e+01
7.63308557e+00
6.04434376e+01
5.97518883e+01
4.48241444e+01
5.83286152e+01
7.06257668e+01
5.37424936e+01
5.49286785e+01
7.38609587e+01
2.41576338e+01
3.92011261e+01
1.84304161e+01
1.44377823e+01
4.78418350e+00
5.43312502e+00
3.03376760e+01
2.93790140e+01
2.57941509e+01
3.07852454e+01
2.41662820e+01
2.54404637e+01
2.65006614e+01
2.90202651e+01
2.61274869e+01
2.57336041e+01
1.92790517e+01
2.58733578e+01
1.97433434e+01
2.52941630e+01
2.47478127e+01
3.00808275e+01
4.21805555e+01
9.87085045e+01
7.78873501e+01
7.27070389e+01
7.74681702e+01
3.00852845e+01
1.69097561e+01
6.68383751e+01
4.18857708e+01
1.64158715e+01
1.35785026e+01
2.11579069e+01
1.24871202e+01
1.88136876e+01
1.86653657e+01
2.90660535e+01
6.01485136e+01
3.41623158e+01
3.77296963e+01
6.27124062e+01
1.31349487e+02
1.71037769e+00
1.27048963e+00
2.09793055e+00
2.95713210e+00
2.81367645e+01
2.77676017e+01
2.30057152e+01
2.71713591e+01
2.23847935e+01
2.45363752e+01
2.28471308e+01
2.47671295e+01
2.07010091e+01
2.66886691e+01
1.65207845e+01
3.08026101e+01
1.49859843e+01
2.51303420e+01
2.57437131e+01
2.47936240e+01
4.40958244e+01
1.18575668e+02
8.79450359e+01
6.78854160e+01
5.85583000e+01
2.51806889e+01
2.87421837e+01
1.45320225e+02
2.62469750e+01
1.73911878e+01
9.07557135e+01
2.38163484e+01
2.25046911e+01
3.85406568e+01
4.90924377e+01
1.19137380e+02
2.77508487e+01
3.82768960e+01
</DataArray>
<DataArray type="Float32" Name="Stress_Max_Principal" format="ascii">
4.62258011e-01
-4.41831255e+00
-1.52548987e+00
-2.77742815e+00
2.15790373e+00
-2.05680126e+00
-1.75608292e-01
-1.81111598e+00
-6.40207982e+00
-8.17136931e+00
-3.94944990e+00
-3.44287287e+00
-9.52352977e+00
-1.42294259e+01
-4.63358724e+00
-7.56423800e+00
-1.42317689e+01
-1.80849082e+01
-6.28763855e+00
1.96022630e+00
-1.30439672e+01
-3.82677817e+00
1.80211502e+00
8.94550388e+00
-3.31951218e+01
-3.61934099e+01
-1.81496481e+01
-1.62162566e+01
-9.13675070e-01
6.08519077e-01
-6.86158776e-01
2.10943079e+00
-4.02686334e+00
-1.22230171e+00
2.86124859e+01
1.51509287e+01
3.94822659e+01
1.77065214e+00
3.80804743e+01
6.18370795e+00
3.14646120e+01
-1.23619245e+01
3.22210610e-01
6.97445154e+00
2.97946025e+00
7.28299895e+00
3.07089536e+01
2.04800314e+01
4.38711088e+01
4.13627851e+01
3.28552545e+01
6.05638796e+01
4.02559535e+01
5.34560026e+01
3.21453497e+01
6.43680649e+01
3.20083628e+00
2.80286694e+00
8.62297565e+00
5.58885348e+00
1.89210533e+01
2.71785066e+01
2.87642777e+01
4.51426853e+01
2.81119382e+01
2.13124777e+01
-1.39841270e+00
2.04126842e+01
7.36403370e+00
1.68998834e+01
4.45038646e+00
2.03915977e+00
1.22860666e+01
4.87627161e+00
1.86296228e+01
1.49968005e+01
2.36800419e+01
3.39008045e+01
2.78467336e+01
2.22724500e+01
8.59293956e+00
6.65668840e+00
2.96576643e+00
1.41905511e+00
-1.97995625e+01
-1.85148277e+01
-8.81959214e+00
-1.91070223e+01
-2.58423777e+01
-9.40253103e+00
3.31024733e+01
-2.37610213e+01
4.42192554e+01
7.32273453e+00
8.64868331e+00
7.92326951e+00
4.69854742e-01
1.44881916e+00
1.14006424e+00
1.46118569e+00
4.68886350e+00
8.60714346e-01
5.89740694e+00
5.86731300e+00
3.46706378e+00
1.03608601e+01
4.22189462e+00
6.87017334e+00
1.09517220e+01
5.57577130e+00
9.67299461e+00
5.75643015e+00
8.18448642e+00
1.29322012e+00
-5.08738285e+00
-4.90845724e+01
-3.87241011e+01
-3.28031605e+01
-3.44186039e+01
2.43182559e+01
1.17143883e+01
-2.45358224e+01
9.23536530e+01
1.71465644e+01
1.69965137e+01
4.25670941e+01
3.32744242e+01
2.06022965e+01
1.12744150e+01
1.12512868e+01
-1.61461233e+01
-1.53843185e+00
-4.81933105e+00
7.17661381e+00
-8.07663612e+01
9.55617785e-01
6.86887980e-01
1.08312002e+00
1.75870138e+00
2.01725006e+00
2.69259206e+00
7.75696808e+00
3.35224611e+00
7.55072522e+00
7.98874301e+00
6.78524452e+00
1.48116428e+01
9.26861033e+00
6.60345155e+00
1.24095047e+01
1.49965838e+01
1.33699496e+01
2.42926096e+01
5.77061641e+00
7.67931336e+00
3.08472647e+01
-7.11112236e+01
-4.67734308e+01
-2.92702789e+01
-1.94512048e+01
6.48438866e+00
2.13403730e+01
-8.87245321e+01
3.65179071e+01
1.64053593e+01
-4.68290741e+01
2.39925510e+01
1.98566675e+01
4.24446016e+01
9.20112686e+01
-6.01812483e+01
1.66190101e+01
1.28619547e+01
</DataArray>
<DataArray type="Float32" Name="Stress_Mid_Principal" format="ascii">
-3.17368078e+00
-8.85605514e+00
-4.35805118e+00
-5.23520428e+00
-1.17274523e+00
-5.96144080e+00
-2.91325172e+00
-4.47825694e+00
-1.15190639e+01
-1.29500277e+01
-7.37545013e+00
-7.18896395e+00
-1.47673147e+01
-2.05932181e+01
-6.87743640e+00
-1.23835602e+01
-1.94640988e+01
-2.98021405e+01
-9.30482888e+00
-7.92826533e-01
-1.96196986e+01
-1.41810932e+01
-1.97270370e+00
1.94015431e+00
-4.92691116e+01
-6.34892979e+01
-2.66207844e+01
-2.61871243e+01
-4.01350427e+00
-1.95922756e+00
-2.24087598e+00
1.14712524e+00
-1.03169857e+01
-6.65042350e+00
1.73244550e+01
5.13850948e+00
2.70883162e+01
-1.87168455e+01
2.89985567e+01
-9.48018281e+00
6.75775337e+00
-4.61454328e+01
-8.68342829e+00
2.34501791e+00
-3.76313165e+00
4.45868182e+00
1.01131970e+01
5.38263953e+00
2.94629440e+01
2.67512287e+01
2.57288189e+01
3.25303402e+01
3.38264116e+01
3.09041843e+01
2.02760193e+01
4.38611345e+01
-8.16366559e+00
-5.22969627e+00
1.65688567e+00
4.02779818e-01
8.94269013e+00
1.33362127e+01
2.24975950e+01
3.20364709e+01
2.55951440e+01
8.33062545e+00
-1.42439547e+01
1.42892195e+01
-2.40552497e+00
-1.30003126e+00
-5.66223732e+00
-6.62834501e+00
5.28259432e+00
-1.56181073e+00
7.83321682e+00
4.55805734e+00
1.19074991e+01
1.05457452e+01
1.75961657e+01
8.42005289e+00
3.42970312e+00
7.99962670e-01
-1.35690379e+00
3.09740166e-01
-3.29613619e+01
-3.33235054e+01
-1.66638577e+01
-2.98282232e+01
-4.34261150e+01
-2.02870574e+01
5.37819672e+00
-4.48222694e+01
3.31563053e+01
-1.56477511e+01
4.57254982e+00
3.14122635e+00
-4.58116382e-01
1.85037524e-01
-1.74359608e+00
-3.64026621e-01
2.54860994e+00
-2.24215448e+00
4.32431929e+00
3.41943989e+00
2.60425127e+00
5.89046711e+00
2.49142712e+00
4.42133260e+00
9.07420308e+00
3.44167617e+00
8.24619222e+00
2.67907405e+00
5.56297943e+00
-1.42652863e+00
-9.77389189e+00
-6.67601782e+01
-4.33373442e+01
-4.03259747e+01
-4.73220253e+01
1.45674244e+01
1.09047229e+01
-3.30818805e+01
5.50736980e+01
1.31078918e+01
1.50300159e+01
2.94356374e+01
2.46597123e+01
1.46209884e+01
8.83580041e+00
1.55893481e+00
-2.27857373e+01
-3.90690154e+00
-8.16529298e+00
-1.18692627e+01
-9.09680557e+01
-3.61828968e-01
-3.62220716e-01
-1.27386514e-01
-6.26198351e-01
1.24812555e+00
1.20941254e+00
5.88846401e+00
1.61229770e+00
5.62800097e+00
4.94082049e+00
5.55328131e+00
9.76594025e+00
7.22789165e+00
3.59378326e+00
1.07467347e+01
7.61511266e+00
1.25339203e+01
1.67734224e+01
1.75886112e+00
3.31405711e+00
1.47173844e+01
-8.37185463e+01
-5.24944925e+01
-3.56624036e+01
-2.98008614e+01
2.45461798e+00
1.27501860e+01
-1.10533092e+02
2.39812220e+01
1.35775720e+01
-5.66129614e+01
1.63449514e+01
1.46493108e+01
2.27798781e+01
4.35116997e+01
-7.88665187e+01
1.16533554e+01
3.68090820e+00
</DataArray>
<DataArray type="Float32" Name="Stress_Min_Principal" format="ascii">
-3.27189484e+01
-4.40995827e+01
-3.62408458e+01
-3.85785675e+01
-2.87482586e+01
-3.84613557e+01
-3.32274038e+01
-3.66996875e+01
-4.90682793e+01
-5.25934654e+01
-4.21404233e+01
-4.16893928e+01
-5.60154266e+01
-6.73651853e+01
-4.24438810e+01
-5.13841559e+01
-6.62265511e+01
-8.07580009e+01
-4.68119667e+01
-2.87448610e+01
-6.49827824e+01
-5.11039982e+01
-3.48977528e+01
-2.52497574e+01
-1.17776192e+02
-1.33736141e+02
-7.79397888e+01
-7.52953885e+01
-3.52140939e+01
-3.13744459e+01
-3.31908441e+01
-2.65105855e+01
-4.51389599e+01
-4.02249538e+01
-1.04541838e-01
-2.56446010e+01
1.13333359e+01
-5.95086559e+01
1.68252120e+01
-4.55905983e+01
-2.24281387e+01
-1.11549672e+02
-3.78420296e+01
-1.95124030e+01
-3.02479855e+01
-1.71485640e+01
-1.35646043e+01
-1.39130152e+01
1.91134362e+01
1.75584030e+01
1.73314281e+01
2.33194459e+01
3.08593012e+01
2.39702559e+01
3.77699947e+00
2.42814069e+01
-3.33887069e+01
-3.15641031e+01
-1.81348448e+01
-2.31102479e+01
-5.39678288e+00
-2.21598577e+00
1.22464802e+01
1.93508770e+01
1.55049669e+01
-2.43045982e+00
-3.84138823e+01
9.52105951e+00
-2.95746365e+01
-7.03789477e+00
-2.95660214e+01
-3.37872005e+01
-1.37993765e+01
-2.56723642e+01
-6.31116128e+00
-1.60178051e+01
-3.65128708e+00
-1.28820772e+01
9.45192116e+00
-3.32885808e+00
-5.30316569e+00
-2.83068995e+00
-8.44377828e+00
-6.62878823e+00
-8.57374210e+01
-8.42785339e+01
-5.70373764e+01
-8.20521164e+01
-1.03561867e+02
-6.70359840e+01
-2.82066231e+01
-1.05292027e+02
1.80286465e+01
-3.75483928e+01
-1.09789152e+01
-8.19275141e+00
-4.71033287e+00
-4.49835396e+00
-3.05364609e+01
-2.87759390e+01
-2.21073210e+01
-3.13576608e+01
-1.90075541e+01
-2.05998424e+01
-2.34524251e+01
-1.93089262e+01
-2.27261422e+01
-1.96615015e+01
-9.16067219e+00
-2.11714881e+01
-1.07450147e+01
-2.09159242e+01
-1.73208382e+01
-3.00480534e+01
-4.93570154e+01
-1.54793646e+02
-1.18809381e+02
-1.08971143e+02
-1.17526905e+02
-7.07636404e+00
-5.57706594e+00
-9.52112545e+01
4.71872787e+01
-6.61191642e-01
2.66525123e+00
1.98394237e+01
1.92088159e+01
2.84863412e-01
-8.47051048e+00
-2.07156703e+01
-7.92914597e+01
-3.67309842e+01
-4.41093197e+01
-5.97491302e+01
-2.16911774e+02
-9.77327675e-01
-7.08081603e-01
-1.33920345e+00
-1.51609063e+00
-2.64955778e+01
-2.57857671e+01
-1.60486041e+01
-2.46379709e+01
-1.57294647e+01
-1.76253518e+01
-1.66459889e+01
-1.07178440e+01
-1.23360178e+01
-2.11990090e+01
-4.87790409e+00
-1.70420196e+01
-2.01081610e+00
-1.84430027e+00
-2.16896171e+01
-1.88992360e+01
-1.54458588e+01
-1.95064861e+02
-1.37432217e+02
-1.00123110e+02
-8.24942131e+01
-2.03735523e+01
-8.46760011e+00
-2.43677036e+02
9.49496099e+00
-1.62403464e+00
-1.41902885e+02
-1.06647384e+00
-3.47824299e+00
8.51597922e-01
4.23466949e+01
-1.87125274e+02
-1.18996568e+01
-2.68712997e+01
</DataArray>
<DataArray type="Float32" Name="Stress_Pressure" format="ascii">
1.18101234e+01
1.91246500e+01
1.40414627e+01
1.55304005e+01
9.25436687e+00
1.54931995e+01
1.21054212e+01
1.43296868e+01
2.23298076e+01
2.45716202e+01
1.78217748e+01
1.74404101e+01
2.67687569e+01
3.40626093e+01
1.79849675e+01
2.37773185e+01
3.33074741e+01
4.28816818e+01
2.08014779e+01
9.19248691e+00
3.25488157e+01
2.30372887e+01
1.16894469e+01
4.78803311e+00
6.67468109e+01
7.78062820e+01
4.09034042e+01
3.92329228e+01
1.33804244e+01
1.09083842e+01
1.20392932e+01
7.75134301e+00
1.98276032e+01
1.60325605e+01
-1.52774668e+01
1.78505353e+00
-2.59679723e+01
2.54849501e+01
-2.79680809e+01
1.62956907e+01
-5.26474190e+00
5.66856740e+01
1.54010832e+01
3.39764404e+00
1.03438860e+01
1.80229402e+00
-9.08584929e+00
-3.98321831e+00
-3.08158295e+01
-2.85574719e+01
-2.53051675e+01
-3.88045564e+01
-3.49805559e+01
-3.61101470e+01
-1.87327890e+01
-4.41702046e+01
1.27838455e+01
1.13303108e+01
2.61832792e+00
5.70620509e+00
-7.48898697e+00
-1.27662446e+01
-2.11694502e+01
-3.21766783e+01
-2.30706832e+01
-9.07088105e+00
1.80187504e+01
-1.47409878e+01
8.20537627e+00
-2.85398547e+00
1.02592908e+01
1.27921286e+01
-1.25642858e+00
7.45263445e+00
-6.71722695e+00
-1.17901701e+00
-1.06454182e+01
-1.05214911e+01
-1.82982736e+01
-9.12121511e+00
-2.23982573e+00
-1.54198701e+00
2.27830517e+00
1.63333094e+00
4.61661148e+01
4.53722878e+01
2.75069423e+01
4.36624527e+01
5.76101208e+01
3.22418585e+01
-3.42468262e+00
5.79584401e+01
-3.18014024e+01
1.52911366e+01
-7.47439444e-01
-9.57248151e-01
1.56619823e+00
9.54832420e-01
1.03799978e+01
9.22625983e+00
4.95661575e+00
1.09130337e+01
2.92860937e+00
3.77102978e+00
5.79370368e+00
1.01919964e+00
5.33760674e+00
2.78999862e+00
-3.62175119e+00
4.05134714e+00
-2.39139074e+00
4.16013987e+00
1.19112419e+00
1.00604537e+01
2.14060967e+01
9.02127983e+01
6.69569426e+01
6.07000923e+01
6.64225121e+01
-1.06031047e+01
-5.68068212e+00
5.09429882e+01
-6.48715420e+01
-9.86442170e+00
-1.15639268e+01
-3.06140521e+01
-2.57143170e+01
-1.18360492e+01
-3.87990212e+00
2.63514996e+00
3.94077740e+01
1.40587733e+01
1.90313139e+01
2.14805937e+01
1.29548725e+02
1.27846275e-01
1.27804779e-01
1.27823327e-01
1.27862524e-01
7.74340057e+00
7.29458785e+00
8.01057279e-01
6.55780900e+00
8.50246269e-01
1.56526265e+00
1.43582118e+00
-4.61991289e+00
-1.38682771e+00
3.66725791e+00
-6.09277838e+00
-1.85655808e+00
-7.96435094e+00
-1.30739117e+01
4.72004633e+00
2.63528848e+00
-1.00395969e+01
1.16631543e+02
7.89000454e+01
5.50185976e+01
4.39154263e+01
3.81151540e+00
-8.54098666e+00
1.47644890e+02
-2.33313632e+01
-9.45296580e+00
8.17816429e+01
-1.30903427e+01
-1.03425779e+01
-2.20253596e+01
-5.92898865e+01
1.08724349e+02
-5.45756888e+00
3.44281387e+00
</DataArray>
<DataArray type="Float32" Name="Stress_Tresca" format="ascii">
3.31812057e+01
3.96812696e+01
3.47153559e+01
3.58011398e+01
3.09061623e+01
3.64045544e+01
3.30517958e+01
3.48885708e+01
4.26661997e+01
4.44220963e+01
3.81909733e+01
3.82465196e+01
4.64918976e+01
5.31357594e+01
3.78102937e+01
4.38199173e+01
5.19947815e+01
6.26730919e+01
4.05243285e+01
3.07050869e+01
5.19388161e+01
4.72772198e+01
3.66998682e+01
3.41952611e+01
8.45810699e+01
9.75427322e+01
5.97901402e+01
5.90791299e+01
3.43004193e+01
3.19829655e+01
3.25046852e+01
2.86200163e+01
4.11120968e+01
3.90026523e+01
2.87170281e+01
4.07955295e+01
2.81489296e+01
6.12793096e+01
2.12552624e+01
5.17743066e+01
5.38927498e+01
9.91877518e+01
3.81642401e+01
2.64868550e+01
3.32274456e+01
2.44315629e+01
4.42735586e+01
3.43930464e+01
2.47576728e+01
2.38043823e+01
1.55238266e+01
3.72444344e+01
9.39665222e+00
2.94857470e+01
2.83683510e+01
4.00866585e+01
3.65895433e+01
3.43669701e+01
2.67578207e+01
2.86991010e+01
2.43178363e+01
2.93944924e+01
1.65177972e+01
2.57918078e+01
1.26069711e+01
2.37429377e+01
3.70154705e+01
1.08916245e+01
3.69386711e+01
2.39377791e+01
3.40164084e+01
3.58263607e+01
2.60854434e+01
3.05486360e+01
2.49407845e+01
3.10146053e+01
2.73313284e+01
4.67828811e+01
1.83948121e+01
2.56013074e+01
1.38961055e+01
9.48737841e+00
1.14095449e+01
8.04784354e+00
6.59378586e+01
6.57637024e+01
4.82177839e+01
6.29450951e+01
7.77194901e+01
5.76334515e+01
6.13090973e+01
8.15310059e+01
2.61906090e+01
4.48711271e+01
1.96275988e+01
1.61160212e+01
5.18018770e+00
5.94717312e+00
3.16765251e+01
3.02371249e+01
2.67961848e+01
3.22183757e+01
2.49049616e+01
2.64671557e+01
2.69194894e+01
2.96697866e+01
2.69480364e+01
2.65316746e+01
2.01123943e+01
2.67472594e+01
2.04180088e+01
2.66723545e+01
2.55053241e+01
3.13412726e+01
4.42696315e+01
1.05709071e+02
8.00852833e+01
7.61679840e+01
8.31082993e+01
3.13946195e+01
1.72914548e+01
7.06754347e+01
4.51663742e+01
1.78077561e+01
1.43312626e+01
2.27276705e+01
1.40656083e+01
2.03174331e+01
1.97449260e+01
3.19669567e+01
6.31453366e+01
3.51925526e+01
3.92899895e+01
6.69257450e+01
1.36145412e+02
1.93294549e+00
1.39496958e+00
2.42232347e+00
3.27479208e+00
2.85128269e+01
2.84783590e+01
2.38055724e+01
2.79902172e+01
2.32801893e+01
2.56140949e+01
2.34312339e+01
2.55294867e+01
2.16046283e+01
2.78024602e+01
1.72874088e+01
3.20386031e+01
1.53807659e+01
2.61369100e+01
2.74602332e+01
2.65785494e+01
4.62931232e+01
1.23953636e+02
9.06587868e+01
7.08528290e+01
6.30430088e+01
2.68579403e+01
2.98079724e+01
1.54952503e+02
2.70229459e+01
1.80293939e+01
9.50738115e+01
2.50590252e+01
2.33349104e+01
4.15930040e+01
4.96645737e+01
1.26944026e+02
2.85186672e+01
3.97332535e+01
</DataArray>
<DataArray type="Float32" Name="Stress_Third_Invariant" format="ascii">
-3.10438576e+01
-3.70638590e+01
-3.31020877e+01
-3.44240904e+01
-2.89533634e+01
-3.41164083e+01
-3.14948965e+01
-3.33807058e+01
-3.96119661e+01
-4.16163347e+01
-3.62243614e+01
-3.58686989e+01
-4.33632622e+01
-4.93259168e+01
-3.65815237e+01
-4.09803043e+01
-4.89397020e+01
-5.48504157e+01
-3.88388360e+01
-2.91038245e+01
-4.79667063e+01
-3.83649424e+01
-3.14233953e+01
-2.49930297e+01
-7.39237976e+01
-7.64172935e+01
-5.45679073e+01
-5.26197283e+01
-3.25180629e+01
-3.05135574e+01
-3.16648354e+01
-2.81138592e+01
-3.68914126e+01
-3.42252272e+01
-9.43827295e+00
-2.28555606e+01
-3.86571121e+00
-3.79318918e+01
5.37835598e-01
-3.20277529e+01
-1.47138910e+01
-5.97742246e+01
-3.16478181e+01
-2.34874368e+01
-2.84791537e+01
-2.27234285e+01
-1.10654340e+01
-1.41755140e+01
3.97884661e+00
4.31549247e+00
-2.96747891e+00
3.02614841e+01
5.16113035e+00
2.40569197e+01
-6.82455730e+00
4.81086254e+00
-2.73513098e+01
-2.86344442e+01
-2.14726188e+01
-2.52974133e+01
-1.18923282e+01
-7.10525551e+00
-5.79207659e+00
1.44906338e+00
-1.00965969e+01
5.63432852e-01
-1.63531623e+01
2.81041416e+00
-2.90482521e+01
1.90841538e+01
-2.57802606e+01
-2.95754719e+01
-1.90114622e+01
-2.61183238e+01
-9.93469703e+00
-1.80468730e+01
-9.53443992e+00
-9.07450477e+00
5.64378357e+00
-9.05970335e-02
-7.03065801e+00
3.18464789e+00
-4.13700175e+00
-6.47137729e+00
-5.70768490e+01
-5.53928604e+01
-4.32030725e+01
-5.60457706e+01
-6.52757778e+01
-4.73028576e+01
-1.64277143e+01
-6.18937057e+01
-1.17976475e+00
9.57013226e+00
-1.07158879e+01
-1.19686200e+01
-4.57507849e+00
-5.06189394e+00
-3.00269508e+01
-2.92146258e+01
-2.55888758e+01
-3.04279532e+01
-2.40194867e+01
-2.45869634e+01
-2.64628727e+01
-2.24496332e+01
-2.59929872e+01
-2.39145132e+01
-1.86607138e+01
-2.49543772e+01
-1.96267509e+01
-2.48039742e+01
-2.25201687e+01
-2.97803667e+01
-4.13758849e+01
-9.27691021e+01
-7.75603466e+01
-7.17986040e+01
-7.49884872e+01
-1.29106283e+01
-1.68396356e+01
-6.55119406e+01
3.98137302e+01
-1.32552458e+01
-1.20094010e+01
3.38608476e+00
2.73054965e+00
-1.11843173e+01
-1.82317248e+01
-2.11265319e+01
-5.91655555e+01
-3.31570593e+01
-3.73898487e+01
-3.85198917e+01
-1.30430756e+02
1.42723399e+00
1.09758738e+00
-1.45728827e-01
2.51698422e+00
-2.81112480e+01
-2.76749036e+01
-2.22349503e+01
-2.70173287e+01
-2.21855745e+01
-2.27195843e+01
-2.27511735e+01
-1.76771544e+01
-2.01835809e+01
-2.45846679e+01
-1.63250643e+01
-1.96811006e+01
-1.49158792e+01
-1.08372966e+01
-2.48240899e+01
-2.31037478e+01
-1.50798584e+01
-1.15701282e+02
-8.75032043e+01
-6.71953878e+01
-5.64449768e+01
-2.40936847e+01
-1.43757898e+01
-1.41438755e+02
-2.19757938e+00
-1.36664099e+01
-8.89906206e+01
-1.08173535e+01
-1.30737844e+01
-2.84298522e+00
4.90613213e+01
-1.14134001e+02
-1.89073049e+01
-2.43450274e+01
</DataArray>
<DataArray type="Float32" Name="Logarithmic_strain_Max_Principal" format="ascii">
7.27582276e-02
7.52969868e-02
6.87133688e-02
6.64977860e-02
6.92523308e-02
7.07155149e-02
6.57899813e-02
6.47250125e-02
8.06949809e-02
7.46637098e-02
7.26642516e-02
6.96620150e-02
8.59881863e-02
8.04897323e-02
7.47707542e-02
7.47222574e-02
9.18709859e-02
8.85259937e-02
7.95327146e-02
7.62757752e-02
9.91057083e-02
9.71963573e-02
8.34008567e-02
8.38181050e-02
1.18843794e-01
1.13950614e-01
9.89872217e-02
9.75926742e-02
5.70205282e-02
5.49458656e-02
5.52470251e-02
5.23518780e-02
6.16475493e-02
5.87576269e-02
5.68499202e-02
6.04349348e-02
6.48956997e-02
7.05091705e-02
6.59969095e-02
7.21411481e-02
7.08711650e-02
8.13490152e-02
5.25610028e-02
5.09010255e-02
4.87413262e-02
4.56849551e-02
4.41696616e-02
4.69053327e-02
2.13972365e-02
2.98976713e-02
1.65400455e-02
3.93093908e-02
1.93307341e-02
3.84758885e-02
1.68746868e-02
3.41414697e-02
5.16740028e-02
5.20993713e-02
4.63709952e-02
4.74834461e-02
3.87782035e-02
3.88307278e-02
1.41349923e-02
2.11182542e-02
2.31290407e-03
4.37482152e-03
8.72396253e-03
5.63879866e-03
9.81890164e-03
9.15062958e-03
5.08842962e-02
5.39765768e-02
4.66372888e-02
4.90610935e-02
3.98153835e-02
4.06419998e-02
1.53374320e-02
2.83481933e-02
1.90023790e-03
4.90343638e-03
1.57874150e-04
1.34753610e-04
9.83681130e-05
5.33384194e-05
5.68779483e-02
6.11513592e-02
5.08447597e-02
5.55740669e-02
4.93052807e-02
4.74858377e-02
2.37867627e-02
4.09193983e-02
2.10054946e-03
1.01253394e-02
2.94333353e-04
1.84539359e-04
3.06435541e-05
4.60571609e-05
6.15723729e-02
5.94413616e-02
6.07514395e-02
6.16137143e-02
5.90473255e-02
6.19220487e-02
6.12488585e-02
6.52028029e-02
6.78134114e-02
7.16257608e-02
6.66537192e-02
7.30587943e-02
6.90774880e-02
7.63769485e-02
5.74994180e-02
5.87155530e-02
6.23417353e-02
7.88256362e-02
8.06880109e-02
8.26410074e-02
8.77181254e-02
4.96387384e-02
4.65993118e-02
5.82239168e-02
7.82410912e-02
4.42768796e-02
3.81976068e-02
4.33599837e-02
4.17531865e-02
4.37680781e-02
4.23288243e-02
5.11145596e-02
5.96811641e-02
4.42926418e-02
4.27785069e-02
5.84341930e-02
7.01880231e-02
2.50130197e-05
1.77584479e-05
2.77374247e-05
4.42237051e-05
5.46220299e-02
5.61347334e-02
5.90757099e-02
5.66815455e-02
6.00309661e-02
6.27073338e-02
6.12401310e-02
6.53551230e-02
6.42828457e-02
6.88039996e-02
6.21133661e-02
6.53804168e-02
6.02014493e-02
6.57244241e-02
6.70378669e-02
6.54470613e-02
6.18372613e-02
8.35655674e-02
8.00225735e-02
7.72284288e-02
7.88267888e-02
6.56759563e-02
5.92096429e-02
9.28475261e-02
4.79115019e-02
5.06123183e-02
6.51678285e-02
4.85595246e-02
4.87200599e-02
6.33357215e-02
1.08780250e-01
9.48249077e-02
5.79778636e-02
5.36221862e-02
</DataArray>
<DataArray type="Float32" Name="Logarithmic_strain_Min_Principal" format="ascii">
-9.71878618e-02
-1.01341125e-01
-9.58877038e-02
-9.43978727e-02
-9.33325365e-02
-9.67982430e-02
-9.30369450e-02
-9.14691314e-02
-1.08434062e-01
-1.02863165e-01
-1.03333246e-01
-9.93699227e-02
-1.18046235e-01
-1.12219663e-01
-1.11041903e-01
-1.07885404e-01
-1.28146634e-01
-1.21438114e-01
-1.18728835e-01
-1.12474788e-01
-1.36971988e-01
-1.25032056e-01
-1.23452444e-01
-1.18297973e-01
-1.48624092e-01
-1.38474651e-01
-1.33436240e-01
-1.28419120e-01
-8.34130421e-02
-8.28501955e-02
-8.31853906e-02
-8.13380033e-02
-8.23632535e-02
-8.48277602e-02
-7.40186591e-02
-8.71738621e-02
-7.52090532e-02
-8.97038380e-02
-6.94833174e-02
-8.90670829e-02
-7.49107562e-02
-9.81839423e-02
-6.86917342e-02
-6.86744303e-02
-6.89322967e-02
-6.82404321e-02
-5.31766023e-02
-6.05515884e-02
-1.86752179e-02
-2.61173545e-02
-1.22231757e-02
-2.99829226e-02
-1.31866885e-02
-3.01846502e-02
-1.60507690e-02
-2.77054859e-02
-6.00044057e-02
-6.40501305e-02
-5.77781382e-02
-6.12913044e-02
-4.12077252e-02
-4.13862127e-02
-9.51163657e-03
-1.82874892e-02
-2.57310930e-03
-3.75638408e-03
-1.29337380e-02
-4.22943392e-03
-1.34783742e-02
-5.55391781e-03
-6.33665724e-02
-6.82702251e-02
-5.96285015e-02
-6.47731284e-02
-4.57645813e-02
-4.93088169e-02
-1.26565187e-02
-3.25749979e-02
-8.20769561e-04
-2.87362855e-03
-1.20805948e-04
-8.90052586e-05
-1.75756875e-04
-1.39565057e-04
-7.59236477e-02
-7.95606002e-02
-7.11992383e-02
-7.75506049e-02
-6.28781822e-02
-6.79226425e-02
-2.58070352e-02
-5.39456134e-02
-2.17059033e-03
-9.17481506e-03
-4.24815909e-04
-2.06061566e-04
-9.37033619e-05
-9.62679005e-05
-8.87727179e-02
-8.96565765e-02
-8.70992439e-02
-8.69849157e-02
-9.13399141e-02
-9.22785532e-02
-9.69905276e-02
-9.94075825e-02
-1.01802040e-01
-1.07921151e-01
-1.02942480e-01
-1.11618691e-01
-1.04331031e-01
-1.12873480e-01
-8.24222397e-02
-8.08133036e-02
-9.38178929e-02
-1.19525312e-01
-1.28431803e-01
-1.30067211e-01
-1.31088436e-01
-6.99281422e-02
-6.78319894e-02
-8.52704433e-02
-6.93723056e-02
-5.81379011e-02
-5.81146609e-02
-5.26605004e-02
-4.24285171e-02
-5.91590167e-02
-6.09012675e-02
-6.61713812e-02
-9.38642956e-02
-7.02747609e-02
-6.98149130e-02
-8.36295784e-02
-1.20978717e-01
-2.18201885e-05
-1.56084852e-05
-3.07291566e-05
-3.54916028e-05
-8.98792818e-02
-8.98408201e-02
-8.87154741e-02
-8.98193475e-02
-8.79032388e-02
-9.16246222e-02
-8.85395296e-02
-9.46045974e-02
-8.91673099e-02
-1.01357909e-01
-8.84910785e-02
-1.00066751e-01
-8.75001438e-02
-9.68344826e-02
-9.14590554e-02
-8.70394576e-02
-1.00781787e-01
-1.33669984e-01
-1.28525253e-01
-1.22716853e-01
-1.19091220e-01
-8.67572576e-02
-7.94646200e-02
-1.31733414e-01
-6.99147050e-02
-7.06624538e-02
-9.88165215e-02
-7.06761004e-02
-7.09558958e-02
-8.40292690e-02
-9.98294875e-02
-1.32713810e-01
-8.04974809e-02
-7.72067532e-02
</DataArray>
<DataArray type="Float32" Name="Plastic_strain_Max_Principal" format="ascii">
7.26139769e-02
7.52516724e-02
6.86271470e-02
6.64029773e-02
6.90622665e-02
7.06469212e-02
6.56605856e-02
6.46740487e-02
8.07125457e-02
7.47114308e-02
7.25767966e-02
6.96410304e-02
8.59105699e-02
8.54716152e-02
7.46498127e-02
7.61299543e-02
9.18931849e-02
9.47312899e-02
7.96267353e-02
7.85164135e-02
9.85516980e-02
1.08184643e-01
8.48611277e-02
8.44100956e-02
1.19089544e-01
1.25060428e-01
9.86202471e-02
1.01733340e-01
5.69284540e-02
5.48096262e-02
5.51673719e-02
5.21718329e-02
6.27717068e-02
5.99943972e-02
4.81003858e-02
5.70736897e-02
4.73498590e-02
5.94882108e-02
4.17431239e-02
5.76012908e-02
3.82357286e-02
6.68824042e-02
5.24129514e-02
5.05762808e-02
4.84905853e-02
4.53832028e-02
3.96733549e-02
4.63460232e-02
1.99939022e-02
2.71349108e-02
1.60724676e-02
2.55831986e-02
1.50463187e-02
2.63134552e-02
1.92389982e-02
3.11192526e-02
5.14555499e-02
5.17922956e-02
4.64140172e-02
4.72467467e-02
4.05129930e-02
3.84415770e-02
6.96865364e-03
1.42155304e-02
1.94720184e-03
3.97872270e-03
8.86803120e-03
5.35538220e-03
9.73533094e-03
8.80701856e-03
5.06065823e-02
5.38416337e-02
4.63712756e-02
4.88272160e-02
4.16740403e-02
3.86865626e-02
1.21129111e-02
2.96625099e-02
1.27831968e-03
4.53176684e-03
4.53416892e-05
1.16734477e-05
0.00000000e+00
0.00000000e+00
5.70578407e-02
6.14985079e-02
5.11188563e-02
5.58820143e-02
5.06702829e-02
5.02465721e-02
2.00440567e-02
4.20499357e-02
1.77314952e-03
9.75040445e-03
1.00575846e-04
2.99008122e-05
0.00000000e+00
0.00000000e+00
6.15065824e-02
5.92829874e-02
6.05948810e-02
6.14541797e-02
5.88806188e-02
6.16314169e-02
6.11225823e-02
5.97050232e-02
6.75872443e-02
7.25294556e-02
6.64900169e-02
7.25939730e-02
6.90427795e-02
7.56643359e-02
5.82724302e-02
5.86307775e-02
6.18262983e-02
8.13466787e-02
8.08511712e-02
8.33990779e-02
8.84402208e-02
4.68570925e-02
4.64206459e-02
6.18873903e-02
7.97433332e-02
3.94464857e-02
3.78679363e-02
4.11925529e-02
4.15589859e-02
4.34750002e-02
4.20252578e-02
5.17733870e-02
6.49719341e-02
4.43779277e-02
4.29662094e-02
5.03558414e-02
7.58789927e-02
0.00000000e+00
0.00000000e+00
0.00000000e+00
0.00000000e+00
5.45974132e-02
5.59099326e-02
5.89497718e-02
5.64060863e-02
5.97873675e-02
6.24614363e-02
6.10910077e-02
6.01937321e-02
6.38738154e-02
7.00196363e-02
6.16093436e-02
6.48802500e-02
5.97047284e-02
6.50782026e-02
6.64266688e-02
6.53471667e-02
6.24757696e-02
8.71213406e-02
8.02984629e-02
7.83978533e-02
7.95099922e-02
6.74236193e-02
5.83566083e-02
9.44670532e-02
4.36531827e-02
5.28570618e-02
6.77333800e-02
5.59640485e-02
5.29734166e-02
6.11846415e-02
1.06713407e-01
1.11279483e-01
6.93985969e-02
5.10932002e-02
</DataArray>
<DataArray type="Float32" Name="Plastic_strain_Min_Principal" format="ascii">
-9.65306610e-02
-1.00389902e-01
-9.51589327e-02
-9.35656205e-02
-9.27477591e-02
-9.60356742e-02
-9.23462491e-02
-9.07948799e-02
-1.07356839e-01
-1.01676354e-01
-1.02336744e-01
-9.85521888e-02
-1.16412204e-01
-1.17525043e-01
-1.09895820e-01
-1.09050290e-01
-1.26108579e-01
-1.26536429e-01
-1.17764985e-01
-1.15833585e-01
-1.33753836e-01
-1.37757197e-01
-1.25352554e-01
-1.18678489e-01
-1.44319952e-01
-1.47253849e-01
-1.29811764e-01
-1.32720094e-01
-8.26952718e-02
-8.21870044e-02
-8.25385749e-02
-8.07620939e-02
-8.32744725e-02
-8.61171018e-02
-6.11769740e-02
-8.20293464e-02
-5.42502363e-02
-7.15850774e-02
-3.61303372e-02
-6.84231175e-02
-3.37331157e-02
-7.78511409e-02
-6.78534284e-02
-6.81539811e-02
-6.81697512e-02
-6.77451044e-02
-4.65432135e-02
-5.66221867e-02
-1.20926095e-02
-1.73917327e-02
-8.92473074e-03
-1.88991334e-02
-8.44273825e-03
-1.94627186e-02
-1.72063960e-02
-2.82073254e-02
-5.92450136e-02
-6.31929003e-02
-5.77835240e-02
-6.07606638e-02
-4.28034477e-02
-4.13005948e-02
-5.17716852e-03
-1.12507962e-02
-2.68889676e-03
-3.57834148e-03
-1.21482648e-02
-4.45086406e-03
-1.28344875e-02
-5.15534853e-03
-6.26273593e-02
-6.76123016e-02
-5.93777583e-02
-6.41777329e-02
-4.85092606e-02
-4.40825603e-02
-8.08680407e-03
-3.52642744e-02
-9.43789799e-04
-2.83145571e-03
-3.01270095e-05
-8.82671864e-06
0.00000000e+00
0.00000000e+00
-7.40301982e-02
-7.79002905e-02
-7.03178272e-02
-7.58776367e-02
-6.25478122e-02
-7.14590242e-02
-2.06350479e-02
-5.35678255e-02
-2.20918932e-03
-8.47332284e-03
-1.52391440e-04
-2.07635215e-05
0.00000000e+00
0.00000000e+00
-8.82737115e-02
-8.90495367e-02
-8.68103467e-02
-8.63407794e-02
-9.11891274e-02
-9.18724407e-02
-9.67030302e-02
-8.98977017e-02
-1.01394024e-01
-1.09857952e-01
-1.03209373e-01
-1.10788656e-01
-1.04651693e-01
-1.11554444e-01
-8.39271350e-02
-8.03368241e-02
-9.13248882e-02
-1.20361085e-01
-1.24185003e-01
-1.27643393e-01
-1.28760792e-01
-6.61919289e-02
-6.79464787e-02
-8.86467906e-02
-7.84185566e-02
-4.99566097e-02
-5.82149727e-02
-4.97990430e-02
-4.37436240e-02
-5.93943149e-02
-6.06328929e-02
-6.21097024e-02
-9.93313845e-02
-6.96911942e-02
-6.93616197e-02
-6.92943744e-02
-1.23899058e-01
0.00000000e+00
0.00000000e+00
0.00000000e+00
0.00000000e+00
-8.96438919e-02
-8.92437659e-02
-8.87492448e-02
-8.91656559e-02
-8.77489392e-02
-9.13826339e-02
-8.85477159e-02
-8.55065922e-02
-8.88775736e-02
-1.03910798e-01
-8.82162731e-02
-9.96262152e-02
-8.73180740e-02
-9.67306029e-02
-9.05404640e-02
-8.70796945e-02
-1.00469942e-01
-1.31660394e-01
-1.23599721e-01
-1.21555835e-01
-1.17850527e-01
-9.01064426e-02
-7.86606222e-02
-1.28375515e-01
-6.36109003e-02
-7.54405670e-02
-9.87761524e-02
-6.21025858e-02
-7.91341607e-02
-7.21951927e-02
-1.09540284e-01
-1.57466556e-01
-1.01421164e-01
-7.30005391e-02
</DataArray>
</PointData>
<Cells>
<DataArray type="Int32" Name="connectivity" format="ascii">
0 1 2 3 4 5 6 7
1 8 9 2 5 10 11 6
8 12 13 9 10 14 15 11
12 16 17 13 14 18 19 15
16 20 21 17 18 22 23 19
20 24 25 21 22 26 27 23
3 2 28 29 7 6 30 31
2 9 32 28 6 11 33 30
9 13 34 32 11 15 35 33
13 17 36 34 15 19 37 35
17 21 38 36 19 23 39 37
21 25 40 38 23 27 41 39
29 28 42 43 31 30 44 45
28 32 46 42 30 33 47 44
32 34 48 46 33 35 49 47
34 36 50 48 35 37 51 49
36 38 52 50 37 39 53 51
38 40 54 52 39 41 55 53
43 42 56 57 45 44 58 59
42 46 60 56 44 47 61 58
46 48 62 60 47 49 63 61
48 50 64 62 49 51 65 63
52 54 66 67 53 55 68 69
57 56 70 71 59 58 72 73
56 60 74 70 58 61 75 72
60 62 76 74 61 63 77 75
62 64 78 76 63 65 79 77
64 67 80 78 65 69 81 79
67 66 82 80 69 68 83 81
71 70 84 85 73 72 86 87
70 74 88 84 72 75 89 86
74 76 90 88 75 77 91 89
76 78 92 90 77 79 93 91
78 80 94 92 79 81 95 93
80 82 96 94 81 83 97 95
4 5 6 7 98 99 100 101
5 10 11 6 99 102 103 100
10 14 15 11 102 104 105 103
14 18 19 15 104 106 107 105
18 22 23 19 106 108 109 107
22 26 27 23 108 110 111 109
7 6 30 31 101 100 112 113
6 11 33 30 100 103 114 112
11 15 35 33 103 105 115 114
15 19 37 35 105 107 116 115
19 23 39 37 107 109 117 116
23 27 41 39 109 111 118 117
31 30 44 45 113 112 119 120
30 33 47 44 112 114 121 119
33 35 49 47 114 115 122 121
45 44 58 59 120 119 123 124
44 47 61 58 119 121 125 123
47 49 63 61 121 122 126 125
59 58 72 73 124 123 127 128
58 61 75 72 123 125 129 127
61 63 77 75 125 126 130 129
73 72 86 87 128 127 131 132
72 75 89 86 127 129 133 131
75 77 91 89 129 130 134 133
81 83 97 95 135 136 137 138
98 99 100 101 139 140 141 142
99 102 103 100 140 143 144 141
102 104 105 103 143 145 146 144
104 106 107 105 145 147 148 146
106 108 109 107 147 149 150 148
108 110 111 109 149 151 152 150
101 100 112 113 142 141 153 154
100 103 114 112 141 144 155 153
103 105 115 114 144 146 156 155
105 107 116 115 146 148 157 156
107 109 117 116 148 150 158 157
109 111 118 117 150 152 159 158
113 112 119 120 154 153 160 161
112 114 121 119 153 155 162 160
120 119 123 124 161 160 163 164
119 121 125 123 160 162 165 163
124 123 127 128 164 163 166 167
123 125 129 127 163 165 168 166
125 126 130 129 165 169 170 168
128 127 131 132 167 166 171 172
</DataArray>
<DataArray type="Int32" Name="offsets" format="ascii">
8
16
24
32
40
48
56
64
72
80
88
96
104
112
120
128
136
144
152
160
168
176
184
192
200
208
216
224
232
240
248
256
264
272
280
288
296
304
312
320
328
336
344
352
360
368
376
384
392
400
408
416
424
432
440
448
456
464
472
480
488
496
504
512
520
528
536
544
552
560
568
576
584
592
600
608
616
624
632
640
</DataArray>
<DataArray type="UInt8" Name="types" format="ascii">
12
12
12
12
12
12
12
12
12
12
12
12
12
12
12
12
12
12
12
12
12
12
12
12
12
12
12
12
12
12
12
12
12
12
12
12
12
12
12
12
12
12
12
12
12
12
12
12
12
12
12
12
12
12
12
12
12
12
12
12
12
12
12
12
12
12
12
12
12
12
12
12
12
12
12
12
12
12
12
12
</DataArray>
</Cells>
</Piece>
</UnstructuredGrid>
</VTKFile>
