<VTKFile type="UnstructuredGrid" version="0.1" byte_order="LittleEndian">
<UnstructuredGrid>
<Piece NumberOfPoints="191" NumberOfCells="79">
<Points>
<DataArray type="Float64" NumberOfComponents="3" format="ascii">
 1.00895488e+00  5.07056761e+00  1.97006655e+00
 2.01643109e+00  5.06794500e+00  1.97880864e+00
 2.01585937e+00  6.08365536e+00  1.96703637e+00
 1.00649774e+00  6.08089399e+00  1.96139514e+00
 1.00721312e+00  5.07992792e+00  2.95529199e+00
 2.01794910e+00  5.08085585e+00  2.95593691e+00
 2.01379013e+00  6.10174322e+00  2.94099855e+00
 1.00730753e+00  6.08921671e+00  2.94814205e+00
 3.02934504e+00  5.06358862e+00  1.98301196e+00
 3.03205204e+00  6.08181715e+00  1.96764266e+00
 3.03328586e+00  5.07573366e+00  2.95141602e+00
 3.05005622e+00  6.10326052e+00  2.91195989e+00
 5.02888918e+00  5.06804037e+00  2.00001121e+00
 6.02889633e+00  5.07096052e+00  1.99996459e+00
 6.02595663e+00  6.07097530e+00  2.00001073e+00
 5.02593994e+00  6.06804466e+00  2.00003219e+00
 5.02892637e+00  5.06800795e+00  2.99999619e+00
 6.02891254e+00  5.07094765e+00  2.99997592e+00
 6.02597952e+00  6.07093191e+00  2.99999857e+00
 5.02599621e+00  6.06799555e+00  3.00004339e+00
 0.00000000e+00  0.00000000e+00  2.91310954e+00
 1.01634991e+00  0.00000000e+00  2.91177130e+00
 1.01648581e+00  1.01731884e+00  2.91595316e+00
 0.00000000e+00  1.01702917e+00  2.91872334e+00
 0.00000000e+00  0.00000000e+00  3.88346934e+00
 1.02300346e+00  0.00000000e+00  3.88305306e+00
 1.02331913e+00  1.01615477e+00  3.88438940e+00
 0.00000000e+00  1.01553035e+00  3.88774037e+00
 2.03595233e+00  0.00000000e+00  2.90451980e+00
 2.03151107e+00  1.01340115e+00  2.91059947e+00
 2.04436421e+00  0.00000000e+00  3.87899280e+00
 2.04551697e+00  1.01682961e+00  3.87788296e+00
 3.05358124e+00  0.00000000e+00  2.89716196e+00
 3.05382514e+00  1.01036274e+00  2.89938831e+00
 3.06550789e+00  0.00000000e+00  3.87110186e+00
 3.06404352e+00  1.01494145e+00  3.87053680e+00
 4.07487822e+00  0.00000000e+00  2.89013743e+00
 4.07549810e+00  1.01111388e+00  2.88730931e+00
 4.08308506e+00  0.00000000e+00  3.86461782e+00
 4.08278704e+00  1.01188993e+00  3.86087275e+00
 5.09484196e+00  0.00000000e+00  2.88042331e+00
 5.09611082e+00  1.01244426e+00  2.88230991e+00
 5.09869289e+00  0.00000000e+00  3.86123252e+00
 5.09895658e+00  1.01029825e+00  3.85439658e+00
 6.11168480e+00  0.00000000e+00  2.87618756e+00
 6.11375332e+00  1.01088238e+00  2.87858772e+00
 6.11029959e+00  0.00000000e+00  3.85996485e+00
 6.11471844e+00  1.00853062e+00  3.85448623e+00
 1.01046419e+00  2.03186679e+00  2.92713881e+00
 0.00000000e+00  2.03720951e+00  2.92872667e+00
 1.02302015e+00  2.03447866e+00  3.89797068e+00
 0.00000000e+00  2.03484130e+00  3.89959860e+00
 2.02890015e+00  2.03096032e+00  2.91295099e+00
 2.04863262e+00  2.03556466e+00  3.88157392e+00
 3.04916525e+00  2.03456879e+00  2.89257312e+00
 3.06696510e+00  2.03259349e+00  3.85359120e+00
 4.07612371e+00  2.03902936e+00  2.88967657e+00
 4.08001614e+00  2.02718401e+00  3.84596181e+00
 5.09883785e+00  2.03412986e+00  2.88766670e+00
 5.09972572e+00  2.03108120e+00  3.84875727e+00
 6.11770344e+00  2.03078485e+00  2.88545871e+00
 6.11923456e+00  2.02803040e+00  3.84870505e+00
 1.00695086e+00  3.05534744e+00  2.94735909e+00
 0.00000000e+00  3.05430937e+00  2.94296265e+00
 1.01913297e+00  3.05457664e+00  3.91167641e+00
 0.00000000e+00  3.05235982e+00  3.92291307e+00
 2.02564025e+00  3.04927254e+00  2.93003774e+00
 2.05390000e+00  3.05758166e+00  3.87478685e+00
 3.02258968e+00  3.04317212e+00  2.81199527e+00
 3.08037758e+00  3.04713416e+00  3.83240461e+00
 1.00624406e+00  4.06716537e+00  2.95725203e+00
 0.00000000e+00  4.06991196e+00  2.95618415e+00
 1.01219177e+00  4.07356834e+00  3.93973160e+00
 0.00000000e+00  4.07384443e+00  3.93708205e+00
 0.00000000e+00  5.07709408e+00  2.95583797e+00
 1.01303935e+00  5.09191942e+00  3.93907166e+00
 0.00000000e+00  5.08618450e+00  3.93381882e+00
 2.01744032e+00  4.06705046e+00  2.97148728e+00
 2.03479648e+00  4.07789564e+00  3.92525339e+00
 2.03550315e+00  5.08887625e+00  3.93213868e+00
 0.00000000e+00  6.08966780e+00  2.94267607e+00
 1.02010584e+00  6.11374998e+00  3.90840554e+00
 0.00000000e+00  6.11747551e+00  3.91743207e+00
 2.03807306e+00  6.12170553e+00  3.90274549e+00
 3.05597138e+00  5.07940197e+00  3.86805081e+00
 3.08263397e+00  6.09828568e+00  3.87557626e+00
 0.00000000e+00  0.00000000e+00  4.84915781e+00
 1.02923238e+00  0.00000000e+00  4.84735012e+00
 1.03093648e+00  1.01681638e+00  4.85015297e+00
 0.00000000e+00  1.01561069e+00  4.85088825e+00
 2.05343866e+00  0.00000000e+00  4.84522676e+00
 2.05722260e+00  1.02018368e+00  4.84551096e+00
 3.07268548e+00  0.00000000e+00  4.84231901e+00
 3.07511806e+00  1.02178109e+00  4.83992338e+00
 4.08808661e+00  0.00000000e+00  4.83783102e+00
 4.08737183e+00  1.01963592e+00  4.83641624e+00
 5.10079336e+00  0.00000000e+00  4.83684254e+00
 5.09897947e+00  1.01649427e+00  4.83418608e+00
 6.11135721e+00  0.00000000e+00  4.83710623e+00
 6.11211061e+00  1.01702392e+00  4.83522177e+00
 1.03718197e+00  2.03807449e+00  4.85261440e+00
 0.00000000e+00  2.03333402e+00  4.85871077e+00
 2.06534743e+00  2.04210854e+00  4.84251022e+00
 3.08223987e+00  2.04058266e+00  4.83119965e+00
 4.09067392e+00  2.03567219e+00  4.82214403e+00
 5.09665346e+00  2.03032255e+00  4.81653929e+00
 6.10365963e+00  2.03010654e+00  4.81733036e+00
 1.03874886e+00  3.05088449e+00  4.87609863e+00
 0.00000000e+00  3.05854368e+00  4.88697433e+00
 2.07493591e+00  3.05313611e+00  4.83822155e+00
 3.09400821e+00  3.04936981e+00  4.81567574e+00
 4.08658838e+00  3.02049375e+00  3.79438972e+00
 4.09960604e+00  3.04271746e+00  4.80983162e+00
 1.03901350e+00  4.06838274e+00  4.91203737e+00
 0.00000000e+00  4.06128836e+00  4.89750957e+00
 2.08334994e+00  4.07102108e+00  4.84860039e+00
 1.03452206e+00  5.10824966e+00  4.88039541e+00
 0.00000000e+00  5.11043358e+00  4.88291550e+00
 1.03974903e+00  6.15008068e+00  4.86665440e+00
 0.00000000e+00  6.14826965e+00  4.87121058e+00
 2.06153178e+00  5.09615088e+00  4.87081909e+00
 2.09184265e+00  6.12743187e+00  4.86173391e+00
 3.09089136e+00  5.06793737e+00  4.82426691e+00
 3.12369299e+00  6.07778740e+00  4.83535862e+00
 4.04367256e+00  5.05776405e+00  3.77306318e+00
 4.08036661e+00  6.06047916e+00  3.79845810e+00
 4.11303806e+00  5.04302406e+00  4.80923223e+00
 4.12134314e+00  6.04450178e+00  4.80966187e+00
 5.11352015e+00  5.03618288e+00  3.80939198e+00
 6.11349010e+00  5.02912474e+00  3.80940366e+00
 6.12053871e+00  6.02911282e+00  3.80941272e+00
 5.12052679e+00  6.03619432e+00  3.80945778e+00
 5.11347437e+00  5.03617859e+00  4.80939054e+00
 6.11349916e+00  5.02913380e+00  4.80942249e+00
 6.12052250e+00  6.02910423e+00  4.80940580e+00
 5.12062979e+00  6.03607368e+00  4.80945635e+00
 0.00000000e+00  0.00000000e+00  5.80942583e+00
 1.03130960e+00  0.00000000e+00  5.80942583e+00
 1.03483319e+00  1.01923931e+00  5.80942583e+00
 0.00000000e+00  1.01639533e+00  5.80942583e+00
 2.05788922e+00  0.00000000e+00  5.80942583e+00
 2.06063509e+00  1.02298772e+00  5.80942583e+00
 3.07565022e+00  0.00000000e+00  5.80942583e+00
 3.07915020e+00  1.02464998e+00  5.80942583e+00
 4.08881521e+00  0.00000000e+00  5.80942583e+00
 4.09040737e+00  1.02475452e+00  5.80942583e+00
 5.10145950e+00  0.00000000e+00  5.80942583e+00
 5.09926367e+00  1.02252543e+00  5.80942583e+00
 6.11479187e+00  0.00000000e+00  5.80942583e+00
 6.10786104e+00  1.02551258e+00  5.80942583e+00
 1.04331648e+00  2.03332973e+00  5.80942583e+00
 0.00000000e+00  2.03102088e+00  5.80942583e+00
 2.07340431e+00  2.04177189e+00  5.80942583e+00
 3.08728600e+00  2.04424024e+00  5.80942583e+00
 4.09543037e+00  2.04054022e+00  5.80942583e+00
 5.09653950e+00  2.03514051e+00  5.80942583e+00
 6.09916925e+00  2.03285074e+00  5.80942583e+00
 1.05200541e+00  3.07210541e+00  5.80942583e+00
 0.00000000e+00  3.07677412e+00  5.80942583e+00
 2.08719802e+00  3.05984378e+00  5.80942583e+00
 3.09978485e+00  3.05203509e+00  5.80942583e+00
 4.09981632e+00  3.04310441e+00  5.80942583e+00
 5.09991217e+00  3.03571820e+00  4.80899429e+00
 5.10027552e+00  3.03594017e+00  5.80942583e+00
 6.10071468e+00  3.03022742e+00  4.80878210e+00
 6.10084534e+00  3.03113866e+00  5.80942583e+00
 3.10686350e+00  4.05064726e+00  4.80505180e+00
 3.10935521e+00  4.05296612e+00  5.80942583e+00
 2.10809374e+00  4.06687546e+00  5.80942583e+00
 4.10670519e+00  4.04266214e+00  4.80962420e+00
 4.10677910e+00  4.04283810e+00  5.80942583e+00
 5.10650921e+00  4.03622389e+00  4.80941200e+00
 5.10656404e+00  4.03613424e+00  5.80942583e+00
 6.10645914e+00  4.02950859e+00  4.80940390e+00
 6.10640526e+00  4.02932405e+00  5.80942583e+00
 0.00000000e+00  4.04566050e+00  5.80942583e+00
 1.06553805e+00  4.05594254e+00  5.80942583e+00
 1.04953814e+00  5.12257767e+00  5.80942583e+00
 0.00000000e+00  5.12563515e+00  5.80942583e+00
 5.11342669e+00  5.03616905e+00  5.80942583e+00
 4.11341810e+00  5.04313517e+00  5.80942583e+00
 6.11352396e+00  5.02916479e+00  5.80942583e+00
 1.05305278e+00  6.15811872e+00  5.80942583e+00
 0.00000000e+00  6.16180182e+00  5.80942583e+00
 2.07484007e+00  5.09917402e+00  5.80942583e+00
 2.11267638e+00  6.12485361e+00  5.80942583e+00
 3.10044551e+00  5.05972290e+00  5.80942583e+00
 3.13088918e+00  6.07169008e+00  5.80942583e+00
 4.12193632e+00  6.04371834e+00  5.80942583e+00
 5.12063789e+00  6.03599501e+00  5.80942583e+00
 6.12050486e+00  6.02912235e+00  5.80942583e+00
</DataArray>
</Points>
<PointData Tensors="Stress_Components,Plastic_strain_components" Vevtors="Spatial_displacement,Reaction_force" Scalars="Equivalent_plastic_strain,Stress_Mises,Stress_Max_Principal,Stress_Mid_Principal,Stress_Min_Principal,Stress_Pressure,Stress_Tresca,Stress_Third_Invariant,Plastic_strain_Max_Principal,Plastic_strain_Min_Principal">
<DataArray type="Float32" Name="Stress_Components" NumberOfComponents="9" format="ascii">
5.89577819e+00 -9.43176971e-01 4.10666317e-01 -9.43176971e-01 4.24256027e+00 9.19525300e-01 4.10666317e-01 9.19525300e-01 -1.82457330e+01
1.11770388e+00 -2.29440660e+00 7.07915209e-01 -2.29440660e+00 5.79872668e-01 2.29629846e+00 7.07915209e-01 2.29629846e+00 -2.63039877e+01
-4.42910981e+00 4.69715584e-01 1.05578642e+00 4.69715584e-01 -5.75675964e-02 -4.93655775e-01 1.05578642e+00 -4.93655775e-01 -3.46872854e+01
1.35469609e+00 -2.23345431e-01 -5.77366493e-01 -2.23345431e-01 3.19572353e+00 -4.07963499e-01 -5.77366493e-01 -4.07963499e-01 -2.51728973e+01
1.49697088e+01 4.50613933e-01 1.59577054e+00 4.50613933e-01 1.65608069e+01 -4.06940350e-01 1.59577054e+00 -4.06940350e-01 4.28854218e+00
1.41300498e+01 -9.20854300e-01 8.81833230e-01 -9.20854300e-01 1.65700111e+01 1.53092313e+00 8.81833230e-01 1.53092313e+00 1.45496505e+00
-1.22578666e+01 5.43950945e-01 7.60663383e-01 5.43950945e-01 -4.61931515e+00 -1.13385133e+00 7.60663383e-01 -1.13385133e+00 -4.64029224e+01
1.61979789e+00 1.46023588e+00 1.68200117e+00 1.46023588e+00 3.08176005e+00 2.46260162e+00 1.68200117e+00 2.46260162e+00 -2.39585187e+01
-6.56860518e+00 4.55719054e-01 -2.73220291e+00 4.55719054e-01 -7.26733470e+00 4.38767748e+00 -2.73220291e+00 4.38767748e+00 -4.45011170e+01
-4.25616398e+01 4.01745439e-02 -4.82639335e-01 4.01745439e-02 -3.79377346e+01 4.29246140e+00 -4.82639335e-01 4.29246140e+00 -1.18014473e+02
-4.60637496e+01 4.85315704e+00 -1.85964319e+01 4.85315704e+00 -4.69156148e+01 -1.73537902e+00 -1.85964319e+01 -1.73537902e+00 -1.24382493e+02
-3.48609536e+01 3.21651983e+00 -8.83564711e+00 3.21651983e+00 -4.93499222e+01 -2.40405980e+00 -8.83564711e+00 -2.40405980e+00 -1.17846846e+02
1.13254353e-01 -6.14845991e-01 -1.51817426e-02 -6.14845991e-01 -1.22439861e-02 -1.01974970e-01 -1.51817426e-02 -1.01974970e-01 -5.26243076e-01
-2.22802147e-01 -4.10948709e-01 -2.34554231e-01 -4.10948709e-01 1.04316872e-01 -7.78023899e-02 -2.34554231e-01 -7.78023899e-02 -3.06764979e-01
2.88358385e-01 -1.84602737e-01 2.51367025e-01 -1.84602737e-01 2.07579341e-01 2.97566226e-01 2.51367025e-01 2.97566226e-01 -9.21159744e-01
1.98605032e-01 -3.88568938e-01 -1.53775424e-01 -3.88568938e-01 -3.34778804e-01 -2.88192540e-01 -1.53775424e-01 -2.88192540e-01 -2.89132297e-01
1.64232373e-01 1.95640489e-01 3.07539612e-01 1.95640489e-01 2.02227727e-01 3.45767379e-01 3.07539612e-01 3.45767379e-01 -7.39128813e-02
-1.56309798e-01 1.34785339e-01 2.10896298e-01 1.34785339e-01 -2.49081045e-01 -8.03822204e-02 2.10896298e-01 -8.03822204e-02 6.98014021e-01
8.54544044e-02 6.93631992e-02 -4.29766417e-01 6.93631992e-02 1.14483967e-01 -4.51458246e-01 -4.29766417e-01 -4.51458246e-01 9.26238596e-02
-2.78150469e-01 1.30213648e-01 -4.22552675e-02 1.30213648e-01 -1.18399277e-01 2.40413278e-01 -4.22552675e-02 2.40413278e-01 6.89087629e-01
-2.29286671e-01 6.14376366e-03 1.22359782e+00 6.14376366e-03 3.57996345e-01 -1.67765521e-01 1.22359782e+00 -1.67765521e-01 -2.98292103e+01
2.55466849e-01 1.84652667e-01 7.36265019e-01 1.84652667e-01 4.05545533e-02 3.70847553e-01 7.36265019e-01 3.70847553e-01 -2.96316953e+01
1.43778840e+00 -1.10716575e+00 1.20726372e+00 -1.10716575e+00 1.88682706e+00 4.49153131e-01 1.20726372e+00 4.49153131e-01 -2.61757467e+01
-6.41637981e-01 1.41696084e-01 1.23892360e+00 1.41696084e-01 8.07313517e-01 -6.90804332e-01 1.23892360e+00 -6.90804332e-01 -2.97461910e+01
3.38736989e+00 -9.79567040e-03 1.10708874e+00 -9.79567040e-03 6.47252440e-01 -4.66875210e-02 1.10708874e+00 -4.66875210e-02 -2.54726105e+01
8.35734859e-01 1.38457472e-01 4.99158159e-01 1.38457472e-01 -1.15207906e+00 1.11830524e+00 4.99158159e-01 1.11830524e+00 -3.01826878e+01
1.82950152e+00 2.33634869e-01 1.37813095e+00 2.33634869e-01 -2.17153192e-01 6.82216916e-01 1.37813095e+00 6.82216916e-01 -2.80258347e+01
1.82163656e-01 3.22260581e-01 1.52182248e+00 3.22260581e-01 -2.36971036e+00 -7.13728748e-01 1.52182248e+00 -7.13728748e-01 -3.21116829e+01
3.26496306e+00 -1.25069778e+00 7.91382492e-01 -1.25069778e+00 9.15867805e-01 1.37462283e-01 7.91382492e-01 1.37462283e-01 -2.53210673e+01
3.79815562e+00 -1.53649100e+00 1.37400567e+00 -1.53649100e+00 2.56346035e+00 9.22213938e-01 1.37400567e+00 9.22213938e-01 -2.26062669e+01
1.55229759e+00 2.36012228e-01 1.76842391e-01 2.36012228e-01 1.03744864e-01 7.51400873e-01 1.76842391e-01 7.51400873e-01 -2.81824932e+01
-8.34226757e-01 1.82174804e-01 1.36505601e+00 1.82174804e-01 -1.22316646e+00 1.89398505e+00 1.36505601e+00 1.89398505e+00 -3.19998032e+01
5.58203578e+00 1.35694671e-01 2.62311801e-01 1.35694671e-01 1.75514260e+00 8.33218455e-01 2.62311801e-01 8.33218455e-01 -2.17402468e+01
6.27931380e+00 -5.63020539e-01 -1.00572897e-01 -5.63020539e-01 3.37615494e+00 -1.95367164e-01 -1.00572897e-01 -1.95367164e-01 -1.92462018e+01
2.99956648e+00 -5.97932339e-01 4.48780200e-02 -5.97932339e-01 9.35638867e-01 1.03428248e+00 4.48780200e-02 1.03428248e+00 -2.56399550e+01
1.65076934e-01 -7.56041478e-01 -2.60839224e-01 -7.56041478e-01 -7.08823532e-01 7.20373506e-01 -2.60839224e-01 7.20373506e-01 -3.03834354e+01
7.89431652e+00 3.05868160e-01 -4.28462312e-01 3.05868160e-01 3.67749339e+00 8.68663508e-02 -4.28462312e-01 8.68663508e-02 -1.71146389e+01
9.35548648e-01 3.66623877e-01 -9.74382028e-01 3.66623877e-01 -1.63218051e+00 1.03983620e-01 -9.74382028e-01 1.03983620e-01 -3.04103016e+01
3.40833372e+00 -2.47534502e-01 -9.96082574e-01 -2.47534502e-01 4.44910318e-01 7.71789595e-01 -9.96082574e-01 7.71789595e-01 -2.56954112e+01
7.22402471e+00 -9.65810016e-01 -5.75264961e-01 -9.65810016e-01 5.22003890e+00 -5.79115366e-01 -5.75264961e-01 -5.79115366e-01 -1.64004900e+01
1.04622391e+01 1.15375883e-01 3.32088396e-01 1.15375883e-01 7.43296584e+00 -4.39712752e-01 3.32088396e-01 -4.39712752e-01 -1.04317212e+01
4.12186489e+00 2.02429140e-01 -2.14121515e-01 2.02429140e-01 1.76515138e+00 8.44549462e-02 -2.14121515e-01 8.44549462e-02 -2.34989958e+01
8.11925638e+00 2.73764487e-02 -1.43850416e+00 2.73764487e-02 6.54935654e+00 -3.24214566e-02 -1.43850416e+00 -3.24214566e-02 -1.40234661e+01
4.45419969e+00 -3.36676186e-01 -1.10631424e+00 -3.36676186e-01 3.31056714e+00 -5.15641497e-01 -1.10631424e+00 -5.15641497e-01 -2.12788539e+01
1.45851860e+01 2.43826173e-02 3.10013473e-01 2.43826173e-02 1.24063954e+01 -6.56350076e-01 3.10013473e-01 -6.56350076e-01 -5.39735317e-01
1.15555536e+01 -6.98736170e-02 -3.93645508e-01 -6.98736170e-02 9.66903539e+00 -4.56156429e-01 -3.93645508e-01 -4.56156429e-01 -6.92447019e+00
1.26181593e+01 1.16844851e+00 -8.87769043e-01 1.16844851e+00 1.19102137e+01 -7.89066881e-01 -8.87769043e-01 -7.89066881e-01 -3.37470531e+00
9.36173955e+00 6.22475600e-01 -4.38524246e-01 6.22475600e-01 7.80151939e+00 -5.10801010e-01 -4.38524246e-01 -5.10801010e-01 -1.11383390e+01
8.61822784e-01 -1.78146409e+00 2.95704536e+00 -1.78146409e+00 4.20314541e+00 1.93983948e-01 2.95704536e+00 1.93983948e-01 -2.29447643e+01
2.28809595e-01 -1.37238969e+00 2.20841791e+00 -1.37238969e+00 5.05804638e+00 -3.75155631e-01 2.20841791e+00 -3.75155631e-01 -2.34652007e+01
-4.35375950e+00 -6.29431382e-03 4.21666256e+00 -6.29431382e-03 -6.68039215e+00 1.75694542e+00 4.21666256e+00 1.75694542e+00 -4.07700450e+01
1.30677849e-01 -1.34284284e-01 2.72701898e+00 -1.34284284e-01 -7.74457633e-01 -3.13536949e-01 2.72701898e+00 -3.13536949e-01 -3.02976925e+01
4.49287844e+00 1.25374465e-01 2.76740759e+00 1.25374465e-01 3.08400597e+00 8.83423396e-01 2.76740759e+00 8.83423396e-01 -2.45526069e+01
-2.00351856e+00 1.05777087e+00 9.74398199e-01 1.05777087e+00 -2.34489176e+00 -7.06814423e-01 9.74398199e-01 -7.06814423e-01 -3.41712034e+01
-3.88828934e+01 -2.24933665e+00 -9.94302604e+00 -2.24933665e+00 -3.92221909e+01 -1.00908597e+00 -9.94302604e+00 -1.00908597e+00 -1.08015962e+02
2.64449229e+00 1.11963577e+00 -3.34370893e+00 1.11963577e+00 4.37708507e+00 6.11515288e-01 -3.34370893e+00 6.11515288e-01 -2.28619605e+01
-2.91042686e+01 -1.59679323e-01 -3.40174121e+00 -1.59679323e-01 -2.58818655e+01 2.03481343e+00 -3.40174121e+00 2.03481343e+00 -8.90271540e+01
-1.55574742e+01 -9.14883995e-01 -1.13961316e+01 -9.14883995e-01 -2.01397048e+01 1.24907975e+00 -1.13961316e+01 1.24907975e+00 -5.99455372e+01
-1.69724841e+01 -3.64796784e-01 -2.69667193e-01 -3.64796784e-01 -1.54126611e+01 1.63595144e+00 -2.69667193e-01 1.63595144e+00 -6.49584379e+01
-2.25772936e+01 3.37414600e-01 -3.80336690e+00 3.37414600e-01 -1.97416449e+01 -5.75537488e-01 -3.80336690e+00 -5.75537488e-01 -7.55437145e+01
-7.42437977e+00 3.85990385e-02 -4.78903741e-01 3.85990385e-02 -4.62018043e+00 3.74451980e-01 -4.78903741e-01 3.74451980e-01 -4.29472256e+01
-2.09147005e+01 -3.37762624e-01 -3.55556703e+00 -3.37762624e-01 -1.72260075e+01 -3.62226246e+00 -3.55556703e+00 -3.62226246e+00 -6.99560471e+01
-4.27124773e+00 -9.43439814e-01 4.82815668e+00 -9.43439814e-01 4.29208108e-01 8.28680911e-01 4.82815668e+00 8.28680911e-01 -3.15467419e+01
7.35834000e+00 5.27291819e-01 2.76858161e+00 5.27291819e-01 1.14224219e+01 -1.80700533e-01 2.76858161e+00 -1.80700533e-01 -8.64757085e+00
-1.53458132e+00 -5.76789583e-01 4.23564270e+00 -5.76789583e-01 -2.70697062e+00 4.17152215e-01 4.23564270e+00 4.17152215e-01 -3.29637538e+01
7.49832183e+00 2.22649489e-01 2.70581099e+00 2.22649489e-01 9.13352263e+00 -5.88524304e-01 2.70581099e+00 -5.88524304e-01 -1.15386733e+01
-5.77100668e+01 -7.16220272e+00 1.18486822e+01 -7.16220272e+00 -5.25527401e+01 -1.26381271e+01 1.18486822e+01 -1.26381271e+01 -1.35359478e+02
-1.69255670e+01 1.26304098e+00 7.18944931e-01 1.26304098e+00 -2.30044155e+01 -4.54122517e+00 7.18944931e-01 -4.54122517e+00 -7.22513985e+01
-8.50618935e+00 -7.19146967e+00 -2.35166340e+01 -7.19146967e+00 -6.00564623e+00 -1.02797165e+01 -2.35166340e+01 -1.02797165e+01 1.41340466e+01
1.77249866e+01 -1.57339795e+00 -3.09189701e+00 -1.57339795e+00 1.83584857e+01 -4.43388033e+00 -3.09189701e+00 -4.43388033e+00 8.28403187e+00
9.45273827e+00 -2.40606959e-01 7.87212423e-01 -2.40606959e-01 1.15730239e+01 1.55994933e+00 7.87212423e-01 1.55994933e+00 -6.85067599e+00
7.36839449e+00 -8.66102040e-01 2.63028521e+00 -8.66102040e-01 1.03702464e+01 -1.01589952e-02 2.63028521e+00 -1.01589952e-02 -9.37747899e+00
1.76044881e+01 -4.38266192e-01 1.27325976e+00 -4.38266192e-01 2.03656170e+01 1.20248926e+00 1.27325976e+00 1.20248926e+00 1.24868390e+01
1.52437214e+01 -5.58529735e-01 1.78722177e+00 -5.58529735e-01 1.67604958e+01 7.62199432e-01 1.78722177e+00 7.62199432e-01 4.84058011e+00
9.11106524e+00 5.82921844e-01 -3.30658928e-02 5.82921844e-01 1.07249696e+01 5.79991635e-01 -3.30658928e-02 5.79991635e-01 -8.29274940e+00
4.89164206e+00 1.13516576e+00 2.93758942e-01 1.13516576e+00 6.39666889e+00 2.33992652e+00 2.93758942e-01 2.33992652e+00 -1.69175610e+01
5.95278704e+00 1.47904173e+00 3.79456792e-01 1.47904173e+00 8.90176690e+00 6.67164143e-01 3.79456792e-01 6.67164143e-01 -1.34179118e+01
-2.36145900e+01 3.56651917e-01 4.18179336e+00 3.56651917e-01 -2.02877183e+01 1.39785581e+01 4.18179336e+00 1.39785581e+01 -6.54647031e+01
-6.02265816e+01 -2.26677877e+00 1.40262399e+01 -2.26677877e+00 -6.62469273e+01 6.19684410e+00 1.40262399e+01 6.19684410e+00 -1.63304375e+02
-1.20329263e+01 -2.33790832e+00 -3.00528259e+00 -2.33790832e+00 -6.98912745e+00 7.75539094e-01 -3.00528259e+00 7.75539094e-01 -4.85587471e+01
-2.45491171e+00 -4.90755811e-02 6.47011101e-01 -4.90755811e-02 1.57628822e+00 1.60472137e+00 6.47011101e-01 1.60472137e+00 -3.04982861e+01
8.99129868e+00 1.26858829e+00 -7.06991337e-01 1.26858829e+00 9.22221994e+00 6.50262818e-01 -7.06991337e-01 6.50262818e-01 -1.07487860e+01
-5.23799181e+00 -1.45957178e+00 2.59257916e+00 -1.45957178e+00 7.02066422e-01 -8.83669347e-01 2.59257916e+00 -8.83669347e-01 -3.44342996e+01
-1.32512586e+01 -2.37472042e+00 -3.43214393e+00 -2.37472042e+00 -1.15390897e+01 5.68894824e+00 -3.43214393e+00 5.68894824e+00 -5.33004272e+01
-5.23186671e+01 6.45296780e+00 -4.59290942e-02 6.45296780e+00 -3.65157560e+01 -2.57307030e+01 -4.59290942e-02 -2.57307030e+01 -9.64535077e+01
-1.36841695e+01 -2.03060921e+00 -2.42089278e+00 -2.03060921e+00 -1.35871142e+01 -8.89398162e+00 -2.42089278e+00 -8.89398162e+00 -4.72648872e+01
2.39015251e+00 -1.22000966e-02 3.13796982e-01 -1.22000966e-02 -2.74569812e+00 -2.85736978e-01 3.13796982e-01 -2.85736978e-01 -2.99448223e+01
6.61883831e-01 3.62657420e-01 2.86672719e-01 3.62657420e-01 -2.84909141e+00 7.47888800e-01 2.86672719e-01 7.47888800e-01 -3.21043906e+01
6.53900847e-01 1.20867415e+00 8.24445121e-01 1.20867415e+00 -2.87572330e+00 5.79983255e-01 8.24445121e-01 5.79983255e-01 -3.20198581e+01
2.00464723e+00 3.01156092e-01 8.51392999e-01 3.01156092e-01 -3.11288258e+00 -2.62492094e-01 8.51392999e-01 -2.62492094e-01 -3.07156370e+01
-3.34846455e+00 1.00884061e+00 -2.78911904e-01 1.00884061e+00 -3.04314375e+00 1.21603085e+00 -2.78911904e-01 1.21603085e+00 -3.67542348e+01
-3.30985337e+00 1.94255832e+00 5.39671905e-01 1.94255832e+00 -2.81384563e+00 1.02530780e+00 5.39671905e-01 1.02530780e+00 -3.62038271e+01
-4.60958588e+00 6.85933486e-01 -3.04779876e-01 6.85933486e-01 -1.92040294e+00 3.90703584e-01 -3.04779876e-01 3.90703584e-01 -3.70050998e+01
-6.42478635e+00 1.09712131e+00 -1.14047885e-01 1.09712131e+00 -2.15096001e+00 1.47640653e+00 -1.14047885e-01 1.47640653e+00 -3.86947311e+01
-3.21961507e+00 -5.97646043e-01 -1.19998212e-01 -5.97646043e-01 -5.59026226e-02 3.19102410e-01 -1.19998212e-01 3.19102410e-01 -3.34562116e+01
-2.69045470e+00 -5.42265811e-01 -7.09544301e-01 -5.42265811e-01 1.32912628e+00 2.11075193e-01 -7.09544301e-01 2.11075193e-01 -3.10375333e+01
-4.89685357e-01 -7.30457321e-01 -5.95196612e-01 -7.30457321e-01 2.94669908e+00 8.39839799e-02 -5.95196612e-01 8.39839799e-02 -2.71689324e+01
1.73246199e+00 -1.26716701e+00 -1.68327057e+00 -1.26716701e+00 3.44792584e+00 -2.47996962e-01 -1.68327057e+00 -2.47996962e-01 -2.39362742e+01
-1.21969974e+00 2.75959119e-01 -2.37649992e-01 2.75959119e-01 3.90937835e+00 9.98158455e-02 -2.37649992e-01 9.98158455e-02 -2.68235817e+01
-3.39054823e-01 -1.44784912e+00 -8.22285369e-01 -1.44784912e+00 1.56488121e+00 -1.44517577e+00 -8.22285369e-01 -1.44517577e+00 -2.80272915e+01
-2.13687968e+00 1.90934837e+00 1.78173677e+00 1.90934837e+00 -7.66681004e+00 1.38843639e+00 1.78173677e+00 1.38843639e+00 -3.96981788e+01
-1.63185573e+00 9.35671642e-01 2.10501441e+00 9.35671642e-01 -7.60782051e+00 -5.77739120e-01 2.10501441e+00 -5.77739120e-01 -3.91986103e+01
2.18685031e-01 2.19378603e+00 2.63064953e-01 2.19378603e+00 -6.18927896e-01 3.90065255e-01 2.63064953e-01 3.90065255e-01 -3.00592712e+01
4.98150250e+00 1.97592445e+00 -3.05307568e+00 1.97592445e+00 5.72737107e+00 -3.57431605e-01 -3.05307568e+00 -3.57431605e-01 -1.67150505e+01
5.84477370e+00 6.08640943e-01 -3.21387325e+00 6.08640943e-01 8.62567500e+00 -2.98181870e-01 -3.21387325e+00 -2.98181870e-01 -1.42616639e+01
-7.92987506e-01 -1.26380980e+00 -4.72593045e+00 -1.26380980e+00 2.62347886e+00 -1.97218745e+00 -4.72593045e+00 -1.97218745e+00 -2.73031270e+01
-2.49926694e+00 -4.09956090e+00 -7.00579786e+00 -4.09956090e+00 -5.17050902e+00 -4.38440315e+00 -7.00579786e+00 -4.38440315e+00 -3.44923264e+01
-1.03308887e+01 1.55793875e-02 6.27476758e+00 1.55793875e-02 -2.04011046e+01 -1.36289093e+00 6.27476758e+00 -1.36289093e+00 -6.03436963e+01
-2.04770250e+01 -1.99049791e+00 7.70831434e+00 -1.99049791e+00 -3.00510941e+01 -2.51455339e+00 7.70831434e+00 -2.51455339e+00 -8.17602857e+01
4.98482943e+00 1.88197954e+00 3.64792933e-01 1.88197954e+00 -1.49063579e+00 -3.20814348e+00 3.64792933e-01 -3.20814348e+00 -2.47694529e+01
1.93013890e+01 2.70709466e+00 -4.32737803e+00 2.70709466e+00 1.68069332e+01 4.77556338e-01 -4.32737803e+00 4.77556338e-01 1.08674088e+01
1.28699458e+00 -7.17855692e+00 -1.00496244e+01 -7.17855692e+00 -7.81687641e+00 -1.12103786e+01 -1.00496244e+01 -1.12103786e+01 1.44267368e+01
1.69779051e+01 9.77515712e-01 -1.80788900e+00 9.77515712e-01 1.53768171e+01 -4.56516696e+00 -1.80788900e+00 -4.56516696e+00 9.79644108e+00
-1.21319064e+01 3.92814949e-02 9.19995546e-01 3.92814949e-02 -1.42794311e+01 6.24988341e+00 9.19995546e-01 6.24988341e+00 -5.36020370e+01
-6.35999163e+00 9.86539185e-01 -2.87361145e+00 9.86539185e-01 -9.21915690e+00 3.56013529e+00 -2.87361145e+00 3.56013529e+00 -4.60376937e+01
-5.05087910e+01 -4.05722073e+00 5.13056362e+00 -4.05722073e+00 -7.52323341e+01 -1.05992436e+01 5.13056362e+00 -1.05992436e+01 -1.64203423e+02
-1.37618713e+01 -3.00378636e-01 -8.82412861e-01 -3.00378636e-01 -1.01760443e+01 3.95536910e+00 -8.82412861e-01 3.95536910e+00 -5.52976583e+01
-3.06526470e+00 -2.05583377e-01 2.82458686e+00 -2.05583377e-01 -8.61710906e-01 1.38206702e-01 2.82458686e+00 1.38206702e-01 -3.42251453e+01
-1.26219130e+00 -6.07965752e-01 1.28104338e+00 -6.07965752e-01 -3.96847510e+00 2.19870051e+00 1.28104338e+00 2.19870051e+00 -3.51741753e+01
2.48058128e+00 1.05282567e-01 2.17899334e+00 1.05282567e-01 1.39532375e+00 -1.45736906e+00 2.17899334e+00 -1.45736906e+00 -2.53131917e+01
-2.15643425e+01 1.48128685e+00 -1.22004645e+00 1.48128685e+00 -2.55022593e+01 -4.97858688e+00 -1.22004645e+00 -4.97858688e+00 -7.92618625e+01
-7.30352211e+00 -1.85623556e+00 -2.14296788e+00 -1.85623556e+00 -1.59825940e+01 5.56927548e+00 -2.14296788e+00 5.56927548e+00 -5.19728687e+01
1.96191424e+01 1.65318349e+00 2.07843870e-01 1.65318349e+00 8.15150070e+00 4.70725477e+00 2.07843870e-01 4.70725477e+00 -8.29388332e+00
6.51510501e+00 -1.89055155e+00 9.69873503e-01 -1.89055155e+00 1.51768346e+01 -7.76614983e-01 9.69873503e-01 -7.76614983e-01 -6.13874722e+00
6.13072205e+01 -2.43012965e-01 1.42125487e+00 -2.43012965e-01 4.97746277e+01 1.22316580e+01 1.42125487e+00 1.22316580e+01 6.35532417e+01
5.00579109e+01 1.28316331e+00 1.16691053e+00 1.28316331e+00 4.21733513e+01 1.02400837e+01 1.16691053e+00 1.02400837e+01 6.17983780e+01
6.21062016e+00 -4.41996861e+00 -1.51667983e+00 -4.41996861e+00 3.24965203e+00 1.11857605e+00 -1.51667983e+00 1.11857605e+00 9.04972002e-01
4.66800372e+00 -5.96133578e+00 -7.64339864e-01 -5.96133578e+00 1.44330794e+01 -6.04519765e+00 -7.64339864e-01 -6.04519765e+00 8.32235813e+00
-8.28905582e-01 -1.07695031e+00 1.27544832e+00 -1.07695031e+00 9.17460620e-01 -6.98836088e-01 1.27544832e+00 -6.98836088e-01 -6.64673805e-01
-7.74905622e-01 -2.06591487e-01 3.79693687e-01 -2.06591487e-01 -2.31996346e-02 4.34025347e-01 3.79693687e-01 4.34025347e-01 2.22032860e-01
7.43446350e-01 -7.03821123e-01 1.74854696e-02 -7.03821123e-01 -2.45807618e-01 -1.26187491e+00 1.74854696e-02 -1.26187491e+00 -1.07369089e+00
3.32868099e-01 -1.57450104e+00 -1.13514447e+00 -1.57450104e+00 3.38447899e-01 1.22631228e+00 -1.13514447e+00 1.22631228e+00 -1.24741566e+00
6.63545711e+00 2.94656429e+00 9.77560437e-01 2.94656429e+00 -2.19107041e+00 1.45375095e+00 9.77560437e-01 1.45375095e+00 -6.67912614e-01
1.45292427e+00 -3.48158787e-01 3.86960795e-01 -3.48158787e-01 -5.60760562e+00 1.07005441e+00 3.86960795e-01 1.07005441e+00 -2.56710202e-01
-3.24248493e+00 1.12794322e+00 -2.33067203e-01 1.12794322e+00 -3.82244885e-02 -1.40042305e+00 -2.33067203e-01 -1.40042305e+00 4.60481893e-01
-5.07342982e+00 -3.00407950e+00 -8.28722298e-01 -3.00407950e+00 1.97296953e+00 -1.38120914e+00 -8.28722298e-01 -1.38120914e+00 3.16843442e+00
1.52476704e+00 -1.42206289e-02 -6.49870187e-03 -1.42206289e-02 -3.82693815e+00 1.16777886e-03 -6.49870187e-03 1.16777886e-03 -3.20282440e+01
5.64835668e-01 5.97013324e-01 -1.22913904e-02 5.97013324e-01 -2.88041538e+00 4.69074920e-01 -1.22913904e-02 4.69074920e-01 -3.22777510e+01
-5.67609191e-01 1.76285833e+00 4.58924115e-01 1.76285833e+00 -5.24198353e+00 7.68383048e-01 4.58924115e-01 7.68383048e-01 -3.56836581e+01
1.84399271e+00 4.30425286e-01 3.20476294e-01 4.30425286e-01 -4.68681240e+00 -1.00422725e-02 3.20476294e-01 -1.00422725e-02 -3.23967867e+01
-4.39782780e+00 6.30976230e-01 -1.00102187e-02 6.30976230e-01 -3.23378193e+00 1.18040633e+00 -1.00102187e-02 1.18040633e+00 -3.80964966e+01
-4.81234044e+00 2.79237956e+00 5.74588694e-01 2.79237956e+00 -4.41714185e+00 8.77507582e-01 5.74588694e-01 8.77507582e-01 -3.93589535e+01
-8.78818393e+00 1.12946832e+00 2.24269973e-02 1.12946832e+00 -2.97211355e+00 9.33543712e-01 2.24269973e-02 9.33543712e-01 -4.21652317e+01
-7.90737754e+00 2.08116549e+00 1.06405279e+00 2.08116549e+00 -2.61256747e+00 1.41865993e+00 1.06405279e+00 1.41865993e+00 -4.05356126e+01
-8.43906569e+00 2.51071706e-01 3.35348733e-02 2.51071706e-01 -8.93222332e-01 2.64066279e-01 3.35348733e-02 2.64066279e-01 -3.93464823e+01
-9.44474190e+00 3.59535404e-01 2.12579727e+00 3.59535404e-01 -1.91368842e+00 1.39136104e+00 2.12579727e+00 1.39136104e+00 -4.13915677e+01
-7.32135439e+00 -6.64750040e-01 4.36185785e-02 -6.64750040e-01 -4.64496627e-01 8.68672095e-02 4.36185785e-02 8.68672095e-02 -3.77841339e+01
-7.50235955e+00 -1.60273315e+00 2.43192446e+00 -1.60273315e+00 6.11721754e-01 2.08558325e-01 2.43192446e+00 2.08558325e-01 -3.64022398e+01
-1.49659739e+01 -2.74010444e+00 5.36813438e-02 -2.74010444e+00 -4.51684475e+00 9.91619289e-01 5.36813438e-02 9.91619289e-01 -4.95194206e+01
-1.22516484e+01 -2.60571206e+00 3.52336109e+00 -2.60571206e+00 -3.64437950e+00 -2.59845424e+00 3.52336109e+00 -2.59845424e+00 -4.51459389e+01
1.79325032e+00 3.03007752e+00 -1.00387135e+00 3.03007752e+00 -3.16805100e+00 1.21694475e+00 -1.00387135e+00 1.21694475e+00 -3.04021769e+01
-2.66886950e+00 8.73000264e-01 -7.18476087e-01 8.73000264e-01 -1.11954355e+01 7.52912946e-02 -7.18476087e-01 7.52912946e-02 -4.38355494e+01
-5.05119443e-01 3.91279523e+00 2.52253339e-01 3.91279523e+00 -4.23247278e-01 2.15476860e+00 2.52253339e-01 2.15476860e+00 -2.96442270e+01
2.33637708e+00 3.32484795e+00 1.54556475e+00 3.32484795e+00 3.70765650e+00 2.02562987e+00 1.54556475e+00 2.02562987e+00 -2.23481159e+01
9.71032250e+00 -5.10751963e-01 2.09161740e+00 -5.10751963e-01 1.18274457e+01 1.86407371e+00 2.09161740e+00 1.86407371e+00 -6.34356260e+00
1.71315898e+01 1.00412905e-01 3.32924397e+00 1.00412905e-01 1.58560765e+01 -4.09186952e-01 3.32924397e+00 -4.09186952e-01 6.30642128e+00
1.67050896e+01 -5.24703346e-01 2.63326389e+00 -5.24703346e-01 1.02266831e+01 -3.32196108e+00 2.63326389e+00 -3.32196108e+00 -7.10096359e-01
-5.16740856e+01 -1.77640855e-01 6.18914533e+00 -1.77640855e-01 -5.99202423e+01 4.57459962e+00 6.18914533e+00 4.57459962e+00 -1.50006096e+02
-6.54593658e+01 -8.75530362e-01 4.62629986e+00 -8.75530362e-01 -7.14711456e+01 9.03674662e-02 4.62629986e+00 9.03674662e-02 -1.78121078e+02
4.98113441e+00 4.25311148e+00 1.01764524e+00 4.25311148e+00 -1.40205129e+00 3.41584864e+00 1.01764524e+00 3.41584864e+00 -2.43158913e+01
2.63824623e+01 -8.80130619e-01 1.16799548e+00 -8.80130619e-01 3.18106327e+01 2.32404414e+00 1.16799548e+00 2.32404414e+00 3.03280798e+01
2.82487879e+01 -2.95686901e+00 2.28057469e+00 -2.95686901e+00 2.26381940e+01 8.55784353e-01 2.28057469e+00 8.55784353e-01 2.28053112e+01
9.78312373e-01 -6.67647362e-01 -1.66542041e+00 -6.67647362e-01 6.79578900e+00 -2.07393360e+00 -1.66542041e+00 -2.07393360e+00 -9.98517588e-01
1.48102100e+01 -8.26898515e-01 1.62587751e+00 -8.26898515e-01 1.08622898e+01 2.40052727e+00 1.62587751e+00 2.40052727e+00 1.01783124e+01
-2.00036764e+00 -7.36651373e+00 -3.19727230e+00 -7.36651373e+00 -1.04404626e+01 -6.24325231e-01 -3.19727230e+00 -6.24325231e-01 -3.27269578e+00
1.20319512e+01 -5.57318395e+00 2.67476943e+00 -5.57318395e+00 -7.12635708e+00 3.69915038e-01 2.67476943e+00 3.69915038e-01 7.60984421e+00
1.25606298e+00 4.33853546e+00 -9.78527570e+00 4.33853546e+00 -6.80803227e+00 -1.19351435e+00 -9.78527570e+00 -1.19351435e+00 2.85675432e+00
2.18480854e+01 -1.03728929e+00 3.19578797e+00 -1.03728929e+00 3.20054045e+01 4.70841989e+00 3.19578797e+00 4.70841989e+00 4.56386948e+01
-1.88221836e+01 5.23381948e+00 -8.58480573e-01 5.23381948e+00 -1.46537151e+01 1.46818571e+01 -8.58480573e-01 1.46818571e+01 -6.42820816e+01
9.11204395e+00 3.68967976e+00 -2.31256296e+00 3.68967976e+00 1.57050718e+01 1.71781500e+00 -2.31256296e+00 1.71781500e+00 5.87021478e+00
2.95478225e+00 -1.91670501e+00 2.83493642e+00 -1.91670501e+00 1.10870025e+01 1.25431678e+00 2.83493642e+00 1.25431678e+00 6.73768780e+00
-2.24261063e+00 4.24595356e+00 3.29477787e+00 4.24595356e+00 1.07186963e+01 -1.00377542e+00 3.29477787e+00 -1.00377542e+00 1.92683804e+00
-1.61124917e+00 -4.21504122e+00 -1.53596443e+00 -4.21504122e+00 6.76620236e+00 1.53774989e+00 -1.53596443e+00 1.53774989e+00 6.36941528e+00
5.23158562e+00 -1.41494727e+00 3.61606598e-01 -1.41494727e+00 -1.16984997e+01 -1.01138967e+00 3.61606598e-01 -1.01138967e+00 6.98898637e+00
1.00824189e+00 1.25939608e-01 -2.30397913e+00 1.25939608e-01 -9.98579144e+00 -9.69720542e-01 -2.30397913e+00 -9.69720542e-01 4.86068004e+00
-6.10113678e+01 2.28464937e+00 -1.87294471e+00 2.28464937e+00 -4.67990952e+01 5.34999013e-01 -1.87294471e+00 5.34999013e-01 -1.45676010e+02
-8.10092621e+01 1.00093460e+00 -1.32683361e+00 1.00093460e+00 -7.47023926e+01 2.97478247e+00 -1.32683361e+00 2.97478247e+00 -1.98657135e+02
-3.39504719e+00 -1.30159322e+00 1.56408364e+00 -1.30159322e+00 -3.25778929e+00 2.08993673e+00 1.56408364e+00 2.08993673e+00 -3.69861256e+01
-1.36617861e+01 -1.39922148e+00 3.03405440e+00 -1.39922148e+00 -1.47326716e+01 1.77912995e-01 3.03405440e+00 1.77912995e-01 -5.98168831e+01
1.87756490e+00 2.41785300e+00 -2.09053315e-01 2.41785300e+00 -1.79014325e-01 -7.16504566e-01 -2.09053315e-01 -7.16504566e-01 3.07718024e+00
1.09194776e+01 8.74484658e-01 8.49257131e-01 8.74484658e-01 2.05978505e+01 4.77405445e+00 8.49257131e-01 4.77405445e+00 1.64140976e+01
2.29719383e+00 9.15052444e-01 6.40049249e-01 9.15052444e-01 -5.96754169e+00 5.10273248e-01 6.40049249e-01 5.10273248e-01 -2.65815175e+00
-8.09569836e-01 -2.49653500e+00 1.43288240e+00 -2.49653500e+00 -7.63512087e+00 1.22411853e+00 1.43288240e+00 1.22411853e+00 -3.79013638e+01
3.26302004e+00 8.74471962e-01 5.64990461e-01 8.74471962e-01 -2.25010538e+00 -6.34117872e-02 5.64990461e-01 -6.34117872e-02 -2.84365902e+01
-4.34014225e+00 -1.81678635e+00 4.04672419e-01 -1.81678635e+00 -4.41679478e+00 3.62033357e+00 4.04672419e-01 3.62033357e+00 -3.98395548e+01
-6.90596604e+00 -2.55790544e+00 -1.58454619e-01 -2.55790544e+00 -1.34744854e+01 4.61697221e+00 -1.58454619e-01 4.61697221e+00 -4.98070650e+01
1.75741122e+01 4.62386030e+00 -2.88180555e+00 4.62386030e+00 1.07512808e+01 6.58867180e-01 -2.88180555e+00 6.58867180e-01 7.96611786e-01
2.70500183e+00 -1.66206539e-01 -1.73277977e+00 -1.66206539e-01 2.11621575e+01 9.25555646e-01 -1.73277977e+00 9.25555646e-01 -2.29097366e+00
1.18188658e+01 1.56562924e-01 -2.20308080e+00 1.56562924e-01 2.16160083e+01 3.54211235e+00 -2.20308080e+00 3.54211235e+00 1.89566271e+01
-8.74744630e+00 8.01949978e-01 -1.52815020e+00 8.01949978e-01 2.39582896e+00 4.60211553e-01 -1.52815020e+00 4.60211553e-01 5.43521792e+00
-4.71832848e+00 2.27744746e+00 3.83608431e-01 2.27744746e+00 -9.69410658e-01 -3.73815328e-01 3.83608431e-01 -3.73815328e-01 6.23358727e-01
</DataArray>
<DataArray type="Float32" Name="Logarithmic_strain_components" NumberOfComponents="9" format="ascii">
8.67569854e-03 -3.13619136e-03 8.33583923e-04 -3.13619136e-03 7.84055522e-03 3.18483281e-03 8.33583923e-04 3.18483281e-03 -1.39484188e-02
9.99703264e-03 -4.33153388e-03 1.06019507e-03 -4.33153388e-03 1.03021949e-02 4.82332806e-03 1.06019507e-03 4.82332806e-03 -1.72799767e-02
1.20295689e-02 -1.61102391e-04 2.65299224e-03 -1.61102391e-04 1.50158461e-02 -6.46821108e-04 2.65299224e-03 -6.46821108e-04 -2.33085309e-02
8.30488571e-03 -6.57637938e-05 -1.66148660e-03 -6.57637938e-05 1.06918905e-02 -5.38837758e-04 -1.66148660e-03 -5.38837758e-04 -1.62764923e-02
8.71847849e-03 2.40192060e-03 5.95095279e-03 2.40192060e-03 1.07981332e-02 2.07118748e-03 5.95095279e-03 2.07118748e-03 -1.58459629e-02
1.19779135e-02 -3.66850889e-03 -4.88662477e-03 -3.66850889e-03 1.70571265e-02 6.76597485e-03 -4.88662477e-03 6.76597485e-03 -2.42289600e-02
1.98980423e-02 2.98677845e-03 3.17488413e-03 2.98677845e-03 1.96042394e-02 -7.77012331e-03 3.17488413e-03 -7.77012331e-03 -3.37515962e-02
1.16511702e-02 6.16187554e-03 8.84149133e-03 6.16187554e-03 1.41737799e-02 5.82964625e-03 8.84149133e-03 5.82964625e-03 -2.19443319e-02
1.31768484e-02 8.06927506e-04 -6.74369902e-03 8.06927506e-04 1.34770835e-02 7.22025800e-03 -6.74369902e-03 7.22025800e-03 -2.34035798e-02
2.02609901e-02 1.09389253e-03 2.04933120e-03 1.09389253e-03 2.23818254e-02 1.18956084e-02 2.04933120e-03 1.18956084e-02 -3.86736970e-02
2.22276924e-02 1.02955696e-02 -3.70708245e-02 1.02955696e-02 2.51707394e-02 4.80809668e-03 -3.70708245e-02 4.80809668e-03 -4.23649593e-02
3.27448882e-02 1.78032517e-02 -3.33443973e-02 1.78032517e-02 2.37311581e-02 -6.37784950e-03 -3.33443973e-02 -6.37784950e-03 -4.97085080e-02
4.55541203e-06 -2.92838276e-05 -9.33150659e-07 -2.92838276e-05 1.46376442e-06 -4.75555075e-06 -9.33150659e-07 -4.75555075e-06 -1.09465504e-05
-3.43840327e-06 -1.94807126e-05 -1.16615684e-05 -1.94807126e-05 4.31663955e-06 -3.73265175e-06 -1.16615684e-05 -3.73265175e-06 -5.50856862e-06
8.72880514e-06 -9.22419122e-06 1.25707925e-05 -9.22419122e-06 6.62232958e-06 1.49648299e-05 1.25707925e-05 1.49648299e-05 -2.02235769e-05
6.57386863e-06 -1.85819181e-05 -7.59913519e-06 -1.85819181e-05 -6.17236287e-06 -1.38769792e-05 -7.59913519e-06 -1.38769792e-05 -5.13370031e-06
2.39991959e-06 9.24811138e-06 1.45303829e-05 9.24811138e-06 3.21998300e-06 1.63434288e-05 1.45303829e-05 1.63434288e-05 -3.36230255e-06
-4.50995958e-06 6.26265819e-06 9.83268092e-06 6.26265819e-06 -6.95237668e-06 -4.18996433e-06 9.83268092e-06 -4.18996433e-06 1.57118029e-05
6.49557137e-07 2.94676283e-06 -2.04925818e-05 2.94676283e-06 1.75042896e-06 -2.15913515e-05 -2.04925818e-05 -2.15913515e-05 9.58108444e-07
-7.67378697e-06 6.23213464e-06 -2.32663592e-06 6.23213464e-06 -4.17956926e-06 1.13906526e-05 -2.32663592e-06 1.13906526e-05 1.57931063e-05
1.68744037e-02 3.71665806e-06 5.77947707e-03 3.71665806e-06 1.75343361e-02 -1.37898204e-03 5.77947707e-03 -1.37898204e-03 -2.93604480e-02
1.73360705e-02 1.31216872e-04 4.30333533e-03 1.31216872e-04 1.66752236e-02 7.01764162e-04 4.30333533e-03 7.01764162e-04 -2.90184040e-02
1.67240371e-02 -4.69282846e-03 6.23235398e-03 -4.69282846e-03 1.68679437e-02 1.48258379e-03 6.23235398e-03 1.48258379e-03 -2.85342752e-02
1.59505161e-02 2.90141288e-04 5.73282421e-03 2.90141288e-04 1.80294639e-02 -2.84984044e-03 5.73282421e-03 -2.84984044e-03 -2.89912480e-02
2.27968218e-02 -1.99052010e-07 4.41148668e-03 -1.99052010e-07 1.54613447e-02 -4.29179228e-04 4.41148668e-03 -4.29179228e-04 -3.24359601e-02
2.20985184e-02 3.05429261e-04 1.37968260e-03 3.05429261e-04 1.61703026e-02 3.98690594e-03 1.37968260e-03 3.98690594e-03 -3.25903292e-02
2.24608907e-02 6.35221597e-04 7.46180179e-03 6.35221597e-04 1.70063670e-02 1.96784033e-03 7.46180179e-03 1.96784033e-03 -3.34857944e-02
2.31128517e-02 6.25426037e-04 7.64668034e-03 6.25426037e-04 1.73183787e-02 -3.46951658e-03 7.64668034e-03 -3.46951658e-03 -3.44107999e-02
1.89029612e-02 -4.36102564e-03 6.25144504e-03 -4.36102564e-03 1.37264407e-02 3.72745730e-04 6.25144504e-03 3.72745730e-04 -2.76868986e-02
1.86344406e-02 -6.88108162e-03 4.47561837e-03 -6.88108162e-03 1.54479811e-02 1.70083193e-03 4.47561837e-03 1.70083193e-03 -2.88291690e-02
2.03144765e-02 1.12886282e-03 -1.14351412e-03 1.12886282e-03 1.59392015e-02 2.40381032e-03 -1.14351412e-03 2.40381032e-03 -3.08654211e-02
2.04999733e-02 1.52187826e-03 4.66339287e-03 1.52187826e-03 1.78984499e-02 5.44092868e-03 4.66339287e-03 5.44092868e-03 -3.28032388e-02
2.03760029e-02 2.37367971e-04 2.28647754e-03 2.37367971e-04 1.13669166e-02 2.83254319e-03 2.28647754e-03 2.83254319e-03 -2.68268832e-02
2.02001256e-02 -3.29327100e-03 -2.76994202e-03 -3.29327100e-03 1.55260524e-02 -2.59789625e-03 -2.76994202e-03 -2.59789625e-03 -3.00839066e-02
1.87952854e-02 -1.43916730e-03 -5.78720210e-04 -1.43916730e-03 1.44050338e-02 1.98057319e-03 -5.78720210e-04 1.98057319e-03 -2.82228179e-02
1.87184198e-02 -1.65096360e-03 -3.38720897e-03 -1.65096360e-03 1.63684202e-02 1.66903846e-03 -3.38720897e-03 1.66903846e-03 -2.98916064e-02
2.00280021e-02 6.06389309e-04 -2.90508772e-03 6.06389309e-04 1.06265778e-02 -8.33601720e-04 -2.90508772e-03 -8.33601720e-04 -2.57835435e-02
2.00362152e-02 1.60831210e-03 -2.56374918e-03 1.60831210e-03 1.83956067e-02 -2.62243586e-04 -2.56374918e-03 -2.62243586e-04 -3.26965698e-02
1.73522169e-02 -2.89656266e-04 -3.84403003e-03 -2.89656266e-04 1.26948988e-02 1.42737216e-03 -3.84403003e-03 1.42737216e-03 -2.55719782e-02
1.72575264e-02 -3.78725243e-03 -5.35968287e-03 -3.78725243e-03 1.34366847e-02 -2.44212503e-03 -5.35968287e-03 -2.44212503e-03 -2.57639557e-02
1.71436239e-02 1.24713194e-03 1.92905639e-03 1.24713194e-03 1.12628408e-02 -2.68443729e-03 1.92905639e-03 -2.68443729e-03 -2.37632198e-02
1.92128555e-02 1.82190500e-03 1.53235214e-04 1.82190500e-03 1.71752925e-02 9.66470572e-04 1.53235214e-04 9.66470572e-04 -3.08312378e-02
1.42805013e-02 2.61464942e-04 -6.98656647e-03 2.61464942e-04 1.09999508e-02 5.56402323e-04 -6.98656647e-03 5.56402323e-04 -2.12280024e-02
1.50662558e-02 -1.15239726e-03 -4.39573485e-03 -1.15239726e-03 1.46489555e-02 -1.87445758e-03 -4.39573485e-03 -1.87445758e-03 -2.51455307e-02
1.58113730e-02 2.03577650e-03 2.44968047e-03 2.03577650e-03 9.92465112e-03 -2.84481540e-03 2.44968047e-03 -2.84481540e-03 -2.12542014e-02
1.75537313e-02 1.41002735e-03 4.96929388e-05 1.41002735e-03 1.53471623e-02 -2.59374076e-03 4.96929388e-05 -2.59374076e-03 -2.74492796e-02
1.27169853e-02 4.36062925e-03 -5.58187463e-03 4.36062925e-03 9.66065563e-03 -1.46508767e-03 -5.58187463e-03 -1.46508767e-03 -1.85153997e-02
1.46037163e-02 2.64748727e-03 -2.72797939e-03 2.64748727e-03 1.28831682e-02 -7.46816688e-04 -2.72797939e-03 -7.46816688e-04 -2.29937849e-02
1.39657785e-02 -7.76252337e-03 1.40538751e-02 -7.76252337e-03 1.83846459e-02 -1.09027147e-03 1.40538751e-02 -1.09027147e-03 -2.71013901e-02
1.16591810e-02 -5.23369655e-03 9.58275481e-03 -5.23369655e-03 1.97015572e-02 -1.59995450e-03 9.58275481e-03 -1.59995450e-03 -2.65113725e-02
2.44902947e-02 -1.68313092e-03 1.72000455e-02 -1.68313092e-03 1.93647509e-02 3.66361442e-03 1.72000455e-02 3.66361442e-03 -3.74998692e-02
2.30712881e-02 -3.57775411e-04 1.63033328e-02 -3.57775411e-04 1.84893433e-02 -1.68457159e-03 1.63033328e-02 -1.68457159e-03 -3.51970894e-02
1.99187015e-02 -1.80155065e-03 8.57103809e-03 -1.80155065e-03 1.85051983e-02 -3.49949066e-03 8.57103809e-03 -3.49949066e-03 -3.29346231e-02
2.17376288e-02 3.28601124e-03 3.88234229e-03 3.28601124e-03 2.00399603e-02 -5.12302054e-03 3.88234229e-03 -5.12302054e-03 -3.57647142e-02
2.53389090e-02 -5.05125018e-03 -2.60476852e-02 -5.05125018e-03 2.31349465e-02 1.96394697e-04 -2.60476852e-02 1.96394697e-04 -4.31697845e-02
1.68416910e-02 3.36507287e-03 -1.55853575e-02 3.36507287e-03 1.69672621e-02 -3.92507655e-03 -1.55853575e-02 -3.92507655e-03 -2.88050358e-02
2.45625004e-02 3.33910109e-04 -6.66498591e-03 3.33910109e-04 2.75676548e-02 6.24560463e-03 -6.66498591e-03 6.24560463e-03 -4.60239425e-02
1.89981824e-02 -2.51231741e-03 -2.24030301e-02 -2.51231741e-03 1.41024341e-02 4.16128892e-03 -2.24030301e-02 4.16128892e-03 -2.85941537e-02
2.34912732e-02 -1.42105228e-03 -2.14229536e-03 -1.42105228e-03 2.43852139e-02 4.11348231e-03 -2.14229536e-03 4.11348231e-03 -4.16918276e-02
1.97243444e-02 1.16688217e-03 -7.72046903e-03 1.16688217e-03 2.08671093e-02 3.32504485e-04 -7.72046903e-03 3.32504485e-04 -3.58851766e-02
2.13372298e-02 5.48189739e-04 -2.67466996e-03 5.48189739e-04 2.24057976e-02 1.47068826e-03 -2.67466996e-03 1.47068826e-03 -3.75602003e-02
1.95966484e-02 1.40992540e-03 -6.31562946e-03 1.40992540e-03 1.95587864e-02 -6.98149781e-03 -6.31562946e-03 -6.98149781e-03 -3.44166774e-02
1.14285875e-02 -4.26844074e-03 1.58691953e-02 -4.26844074e-03 1.77629377e-02 -3.37915761e-05 1.58691953e-02 -3.37915761e-05 -2.46346099e-02
7.81762123e-03 9.91739187e-04 1.23947861e-02 9.91739187e-04 1.70654831e-02 4.49321454e-03 1.23947861e-02 4.49321454e-03 -2.05685762e-02
2.48507099e-02 -2.53978701e-03 1.81324032e-02 -2.53978701e-03 1.86044507e-02 -7.12872016e-03 1.81324032e-02 -7.12872016e-03 -3.66449335e-02
1.77103011e-02 2.30364833e-03 2.13390104e-02 2.30364833e-03 1.79920718e-02 -1.15796239e-02 2.13390104e-02 -1.15796239e-02 -2.95720492e-02
2.02369171e-02 -1.00091654e-02 2.48171827e-02 -1.00091654e-02 2.52552559e-02 -2.65554169e-02 2.48171827e-02 -2.65554169e-02 -4.02166191e-02
3.06071837e-02 -1.87328039e-03 5.53833905e-03 -1.87328039e-03 2.07513198e-02 -1.77923866e-02 5.53833905e-03 -1.77923866e-02 -4.48162608e-02
-8.95811059e-03 -3.46602090e-02 -7.62613267e-02 -3.46602090e-02 6.16526231e-04 -5.83949387e-02 -7.62613267e-02 -5.83949387e-02 2.03002654e-02
1.17101887e-02 -2.31949294e-03 -1.81943979e-02 -2.31949294e-03 6.11547753e-03 -1.38679066e-02 -1.81943979e-02 -1.38679066e-02 -1.21505063e-02
7.91839138e-03 -1.36340138e-03 6.43527386e-03 -1.36340138e-03 1.18782285e-02 8.02975906e-03 6.43527386e-03 8.02975906e-03 -1.63127995e-02
6.72392279e-03 -2.72303866e-03 1.08085641e-02 -2.72303866e-03 1.17924695e-02 1.09509041e-03 1.08085641e-02 1.09509041e-03 -1.52250277e-02
1.40428546e-02 -1.89282400e-03 1.46486313e-02 -1.89282400e-03 1.68044354e-02 1.29369235e-02 1.46486313e-02 1.29369235e-02 -2.44918593e-02
1.43910293e-02 -2.75191647e-04 1.43912071e-03 -2.75191647e-04 1.90367596e-02 2.70638085e-03 1.43912071e-03 2.70638085e-03 -2.73585897e-02
8.16220557e-03 2.80724437e-03 8.67031049e-05 2.80724437e-03 1.08163020e-02 -5.63434514e-04 8.67031049e-05 -5.63434514e-04 -1.58201314e-02
1.83768291e-02 6.43730759e-03 -4.94010201e-03 6.43730759e-03 2.15668590e-02 1.22072862e-02 -4.94010201e-03 1.22072862e-02 -3.34111311e-02
1.58753942e-02 5.57623326e-03 6.05508010e-03 5.57623326e-03 2.46025694e-02 5.43201051e-03 6.05508010e-03 5.43201051e-03 -3.39985047e-02
8.62112772e-03 8.14719169e-05 4.44932096e-03 8.14719169e-05 1.42596399e-02 2.37606952e-02 4.44932096e-03 2.37606952e-02 -1.96112702e-02
3.27502936e-02 -4.95259487e-03 3.23676886e-02 -4.95259487e-03 2.51284121e-02 1.62969442e-02 3.23676886e-02 1.62969442e-02 -5.24380151e-02
2.03080904e-02 -3.22314902e-03 -1.54262653e-02 -3.22314902e-03 2.68204236e-02 -1.07212879e-02 -1.54262653e-02 -1.07212879e-02 -3.99888359e-02
9.31214914e-03 -4.53369896e-04 5.60007419e-03 -4.53369896e-04 1.47054689e-02 5.58965537e-03 5.60007419e-03 5.58965537e-03 -2.04418441e-02
2.16090586e-02 9.47413407e-03 -2.25565804e-03 9.47413407e-03 2.46542348e-02 8.03992647e-03 -2.25565804e-03 8.03992647e-03 -3.82461101e-02
1.72973913e-02 -3.59720632e-03 1.14323553e-02 -3.59720632e-03 2.86228051e-02 -9.33559146e-03 1.14323553e-02 -9.33559146e-03 -3.90012935e-02
2.61765933e-02 -4.41574724e-03 -1.79445790e-02 -4.41574724e-03 2.71839024e-02 2.05236955e-02 -1.79445790e-02 2.05236955e-02 -4.56036013e-02
2.10721093e-02 1.28425827e-02 3.09262747e-03 1.28425827e-02 3.00447376e-02 -4.72472335e-02 3.09262747e-03 -4.72472335e-02 -4.42799286e-02
2.84010802e-02 -2.33041060e-03 -5.71808211e-03 -2.33041060e-03 1.81913959e-02 -8.10814750e-03 -5.71808211e-03 -8.10814750e-03 -3.97175085e-02
2.88713165e-02 2.00002069e-06 1.79671420e-03 2.00002069e-06 1.55491778e-02 -1.87652663e-03 1.79671420e-03 -1.87652663e-03 -3.76595408e-02
2.67007397e-02 1.65561176e-03 2.90713884e-03 1.65561176e-03 1.70012740e-02 2.00623351e-03 2.90713884e-03 2.00623351e-03 -3.71604692e-02
2.75729215e-02 6.11303249e-03 4.23538114e-03 6.11303249e-03 1.81944458e-02 2.81047943e-03 4.23538114e-03 2.81047943e-03 -3.88961243e-02
3.05076330e-02 1.18520271e-03 5.39608125e-03 1.18520271e-03 1.65615983e-02 -7.66456928e-04 5.39608125e-03 -7.66456928e-04 -3.98953827e-02
2.14803824e-02 3.70192865e-03 2.87426657e-04 3.70192865e-03 1.99436182e-02 4.01193579e-03 2.87426657e-04 4.01193579e-03 -3.54431299e-02
2.12746814e-02 8.28381348e-03 1.58695310e-03 8.28381348e-03 2.02212653e-02 2.08704699e-03 1.58695310e-03 2.08704699e-03 -3.54593354e-02
1.64968786e-02 2.39169109e-03 -2.47199537e-03 2.39169109e-03 2.08554361e-02 1.16787539e-03 -2.47199537e-03 1.16787539e-03 -3.20431511e-02
1.53149231e-02 4.47780972e-03 -9.83003905e-04 4.47780972e-03 2.04108045e-02 2.71361414e-03 -9.83003905e-04 2.71361414e-03 -3.06755751e-02
1.37233105e-02 -7.05292274e-04 -1.45478873e-03 -7.05292274e-04 1.92091106e-02 8.04063893e-06 -1.45478873e-03 8.04063893e-06 -2.82255937e-02
1.21454501e-02 -1.29245813e-03 -1.71844507e-03 -1.29245813e-03 1.79677065e-02 7.97953246e-04 -1.71844507e-03 7.97953246e-04 -2.57268935e-02
1.24514452e-02 -1.78868699e-03 -2.72586825e-03 -1.78868699e-03 1.72346253e-02 9.95751172e-04 -2.72586825e-03 9.95751172e-04 -2.53264750e-02
1.21090014e-02 -3.32952973e-03 -4.36075297e-03 -3.32952973e-03 1.48680583e-02 -4.44224323e-04 -4.36075297e-03 -4.44224323e-04 -2.28674395e-02
1.13170715e-02 7.52891501e-04 -1.93576817e-03 7.52891501e-04 1.76864723e-02 2.48882553e-03 -1.93576817e-03 2.48882553e-03 -2.47510783e-02
1.26425021e-02 -3.30307681e-03 -1.75014918e-03 -3.30307681e-03 1.45458526e-02 -2.27287016e-03 -1.75014918e-03 -2.27287016e-03 -2.31472710e-02
3.35047918e-02 8.06447660e-03 1.29288955e-02 8.06447660e-03 1.81584880e-02 1.36014495e-03 1.29288955e-02 1.36014495e-03 -4.37780609e-02
3.54756946e-02 4.67884948e-03 1.70418011e-02 4.67884948e-03 2.01158272e-02 -6.41772395e-03 1.70418011e-02 -6.41772395e-03 -4.70954441e-02
2.37271793e-02 9.92924685e-03 -7.66293218e-04 9.92924685e-03 1.76969845e-02 9.78901691e-04 -7.66293218e-04 9.78901691e-04 -3.52678935e-02
1.27147856e-02 6.22153780e-03 -6.61996576e-03 6.22153780e-03 1.37382126e-02 -4.83651209e-04 -6.61996576e-03 -4.83651209e-04 -2.21786094e-02
7.78295027e-03 6.80935918e-04 -7.29268623e-03 6.80935918e-04 1.25154399e-02 -5.58575399e-04 -7.29268623e-03 -5.58575399e-04 -1.71337623e-02
6.76407875e-03 -3.22997846e-03 -1.15754592e-02 -3.22997846e-03 1.12137494e-02 -3.53888073e-03 -1.15754592e-02 -3.53888073e-03 -1.52468920e-02
7.92989088e-03 -6.84475705e-03 -1.25476581e-02 -6.84475705e-03 9.57240713e-03 -7.24881872e-03 -1.25476581e-02 -7.24881872e-03 -1.48787070e-02
3.80884515e-02 -1.40532925e-03 3.33908579e-02 -1.40532925e-03 1.53316843e-02 -8.57795967e-03 3.33908579e-02 -8.57795967e-03 -4.52938695e-02
3.91575955e-02 -7.33423326e-03 3.35435706e-02 -7.33423326e-03 1.84833361e-02 -1.13157043e-02 3.35435706e-02 -1.13157043e-02 -4.98950779e-02
2.68637224e-02 8.22718178e-03 1.78997215e-03 8.22718178e-03 1.27651842e-02 -1.49875638e-02 1.78997215e-03 -1.49875638e-02 -3.33240411e-02
1.04284716e-02 6.82685152e-03 -1.14841053e-02 6.82685152e-03 4.30904313e-03 -6.18993619e-03 -1.14841053e-02 -6.18993619e-03 -1.15864015e-02
1.98469940e-03 -2.02938356e-02 -2.80824769e-02 -2.02938356e-02 -1.05816172e-02 -2.53505241e-02 -2.80824769e-02 -2.53505241e-02 1.27796791e-02
4.48181108e-04 1.48540546e-03 -2.69975662e-03 1.48540546e-03 1.17612134e-03 -1.10790705e-03 -2.69975662e-03 -1.10790705e-03 -2.99853133e-04
3.62011297e-02 3.96216015e-03 -5.04682679e-03 3.96216015e-03 2.45428856e-02 2.09293421e-02 -5.04682679e-03 2.09293421e-02 -5.09172454e-02
3.70774716e-02 6.94376991e-03 -1.98379511e-02 6.94376991e-03 3.17611208e-02 1.54121043e-02 -1.98379511e-02 1.54121043e-02 -5.87019275e-02
3.78777646e-02 -6.44092914e-04 5.86406328e-03 -6.44092914e-04 2.19269572e-02 -2.10845741e-02 5.86406328e-03 -2.10845741e-02 -5.38681224e-02
3.34947553e-02 -3.02518415e-03 -6.26799437e-03 -3.02518415e-03 4.23174625e-02 1.24112757e-02 -6.26799437e-03 1.24112757e-02 -6.47444439e-02
3.36231836e-02 -2.12132756e-03 4.88815480e-03 -2.12132756e-03 4.24326789e-02 -2.68409477e-03 4.88815480e-03 -2.68409477e-03 -6.44332590e-02
3.68842678e-02 -4.69701272e-03 6.99561124e-03 -4.69701272e-03 3.32160755e-02 1.07404183e-02 6.99561124e-03 1.07404183e-02 -5.96006857e-02
3.57039608e-02 1.76568021e-03 9.01782379e-03 1.76568021e-03 3.40991570e-02 -4.84833540e-03 9.01782379e-03 -4.84833540e-03 -5.90537544e-02
3.21865538e-02 1.00303073e-02 -3.81818257e-03 1.00303073e-02 3.49127501e-02 -1.09800904e-02 -3.81818257e-03 -1.09800904e-02 -5.84872151e-02
3.67950019e-02 -5.71799872e-03 -7.23028352e-03 -5.71799872e-03 2.61057504e-02 1.91596067e-02 -7.23028352e-03 1.91596067e-02 -5.34779774e-02
2.56213946e-02 5.49339195e-03 2.63667307e-03 5.49339195e-03 9.59726155e-03 -9.81911772e-03 2.63667307e-03 -9.81911772e-03 -2.98760301e-02
1.96851352e-02 -9.09597477e-03 -5.62557369e-04 -9.09597477e-03 1.49726276e-02 -2.81979912e-03 -5.62557369e-04 -2.81979912e-03 -2.88983556e-02
-1.80199705e-02 1.44893760e-02 1.21761812e-02 1.44893760e-02 -5.59628801e-03 -2.10369639e-02 1.21761812e-02 -2.10369639e-02 3.15734819e-02
-4.78078984e-03 -1.52420509e-03 1.20644262e-02 -1.52420509e-03 -1.22429832e-04 -3.44109908e-02 1.20644262e-02 -3.44109908e-02 1.03384275e-02
4.68852119e-03 -8.45767489e-03 -3.24042857e-03 -8.45767489e-03 -5.67222956e-03 1.00447091e-02 -3.24042857e-03 1.00447091e-02 1.98711374e-03
-2.48269401e-03 -1.68498394e-02 -4.98486095e-03 -1.68498394e-02 9.86563275e-04 -3.07473068e-03 -4.98486095e-03 -3.07473068e-03 2.85793119e-03
-1.76473004e-05 -5.16296386e-05 6.14040764e-05 -5.16296386e-05 2.37288441e-05 -3.34851393e-05 6.14040764e-05 -3.34851393e-05 -1.39287094e-05
-1.61577955e-05 -1.01928817e-05 1.84381461e-05 -1.01928817e-05 2.29889429e-06 2.03864147e-05 1.84381461e-05 2.03864147e-05 7.54220946e-06
1.99416409e-05 -3.30934490e-05 5.51738481e-07 -3.30934490e-05 -3.45590183e-06 -6.03261869e-05 5.51738481e-07 -6.03261869e-05 -2.33085921e-05
1.06450270e-05 -7.55244328e-05 -5.50464683e-05 -7.55244328e-05 1.09276507e-05 5.89837800e-05 -5.50464683e-05 5.89837800e-05 -2.74475915e-05
1.63431306e-04 1.12771390e-04 2.19278510e-05 1.12771390e-04 -1.07492614e-04 3.51394818e-05 2.19278510e-05 3.51394818e-05 -2.29028538e-05
5.27379286e-05 -1.66352570e-05 1.85809420e-05 -1.66352570e-05 -1.17062829e-04 5.11717905e-05 1.85809420e-05 5.11717905e-05 1.15604874e-05
-6.66727010e-05 5.40518340e-05 -1.08809334e-05 5.40518340e-05 1.00880145e-05 -6.75342562e-05 -1.08809334e-05 -6.75342562e-05 2.24154383e-05
-1.52217472e-04 -2.99220303e-04 -2.66055916e-05 -2.99220303e-04 5.44681613e-05 -6.18325794e-05 -2.66055916e-05 -6.18325794e-05 1.10413687e-04
3.10433730e-02 -8.37739208e-07 1.32698915e-06 -8.37739208e-07 1.64783057e-02 -1.16382580e-06 1.32698915e-06 -1.16382580e-06 -4.03140448e-02
2.78892359e-02 3.42570955e-03 -1.48073741e-06 3.42570955e-03 1.84000190e-02 2.01864203e-03 -1.48073741e-06 2.01864203e-03 -3.93551625e-02
3.06456503e-02 9.06281965e-03 2.36507930e-03 9.06281965e-03 1.73022673e-02 3.76708381e-03 2.36507930e-03 3.76708381e-03 -4.07459112e-02
3.43519803e-02 2.79798941e-03 7.74292974e-04 2.79798941e-03 1.55104548e-02 -1.18918570e-06 7.74292974e-04 -1.18918570e-06 -4.22232915e-02
2.12968262e-02 2.68858741e-03 -6.24319000e-06 2.68858741e-03 2.20909975e-02 4.35418775e-03 -6.24319000e-06 4.35418775e-03 -3.71353216e-02
2.20500939e-02 1.02418305e-02 2.72957492e-03 1.02418305e-02 2.07686513e-02 3.32069158e-03 2.72957492e-03 3.32069158e-03 -3.66253043e-02
1.51078082e-02 3.44773824e-03 -5.27049269e-06 3.44773824e-03 2.41085989e-02 2.91914796e-03 -5.27049269e-06 2.91914796e-03 -3.37029472e-02
1.45986953e-02 6.60579483e-03 2.79224443e-03 6.60579483e-03 2.16838964e-02 3.96169582e-03 2.79224443e-03 3.96169582e-03 -3.11739845e-02
1.16603654e-02 1.57217123e-03 5.07223376e-07 1.57217123e-03 2.33032089e-02 7.14722439e-04 5.07223376e-07 7.14722439e-04 -3.00278915e-02
1.05293852e-02 2.24074032e-03 5.01007191e-03 2.24074032e-03 2.05826620e-02 2.99514149e-03 5.01007191e-03 2.99514149e-03 -2.68343305e-02
1.20180915e-02 -2.16919975e-03 -4.12371662e-07 -2.16919975e-03 2.13941792e-02 6.58783305e-04 -4.12371662e-07 6.58783305e-04 -2.87224827e-02
9.63263260e-03 -2.06018566e-03 5.92425640e-03 -2.06018566e-03 1.83604904e-02 2.88834606e-04 5.92425640e-03 2.88834606e-04 -2.41071898e-02
1.13508003e-02 -6.84531126e-03 9.15909732e-06 -6.84531126e-03 2.33007092e-02 3.40277865e-03 9.15909732e-06 3.40277865e-03 -3.00513692e-02
1.02545798e-02 -4.80502797e-03 8.33398057e-03 -4.80502797e-03 1.79505711e-02 -4.17888048e-03 8.33398057e-03 -4.17888048e-03 -2.44289525e-02
3.29990890e-02 1.35180778e-02 -4.64609498e-03 1.35180778e-02 2.29746376e-02 5.95344475e-03 -4.64609498e-03 5.95344475e-03 -4.74331966e-02
3.85096967e-02 2.23623309e-03 -2.20922101e-03 2.23623309e-03 2.57616933e-02 -6.44627016e-06 -2.20922101e-03 -6.44627016e-06 -5.48071451e-02
2.17065145e-02 1.83645808e-02 -4.17122545e-04 1.83645808e-02 1.81466462e-02 7.87714939e-03 -4.17122545e-04 7.87714939e-03 -3.37043190e-02
1.14405870e-02 9.61601920e-03 3.57833039e-03 9.61601920e-03 1.40286777e-02 4.97205136e-03 3.57833039e-03 4.97205136e-03 -2.15588063e-02
5.17946731e-03 1.96850786e-04 4.82436700e-03 1.96850786e-04 9.69139428e-03 4.73723863e-03 4.82436700e-03 4.73723863e-03 -1.22536344e-02
2.05768111e-03 -3.31421426e-03 4.79264103e-03 -3.31421426e-03 6.87911536e-03 -1.05161178e-04 4.79264103e-03 -1.05161178e-04 -6.95294922e-03
4.05112014e-03 -5.78618364e-03 2.72998190e-03 -5.78618364e-03 4.21391297e-03 -4.46857885e-03 2.72998190e-03 -4.46857885e-03 -6.51121256e-03
4.15825360e-02 2.19411100e-04 2.05372842e-02 2.19411100e-04 3.70170288e-02 1.26544111e-02 2.05372842e-02 1.26544111e-02 -7.04193376e-02
4.88266274e-02 -4.50622197e-03 1.75041761e-02 -4.50622197e-03 4.29656990e-02 -4.43597401e-07 1.75041761e-02 -4.43597401e-07 -8.28998461e-02
2.01330269e-02 6.72383808e-03 6.61422561e-03 6.72383808e-03 1.43886770e-02 1.19858018e-02 6.61422561e-03 1.19858018e-02 -2.91946940e-02
5.75633116e-03 2.66194028e-03 2.66506436e-03 2.66194028e-03 3.79033232e-03 5.74627647e-03 2.66506436e-03 5.74627647e-03 -6.88680250e-03
2.23854317e-04 -2.36406181e-03 3.92886883e-04 -2.36406181e-03 1.14500269e-03 2.17731988e-04 3.92886883e-04 2.17731988e-04 -4.41152489e-04
-6.07865649e-04 -1.30480227e-03 -3.34294327e-03 -1.30480227e-03 1.78544642e-03 -1.76356336e-04 -3.34294327e-03 -1.76356336e-04 -7.36643051e-04
1.82945856e-04 -9.69643399e-04 2.23816260e-04 -9.69643399e-04 1.70961595e-04 3.63493178e-04 2.23816260e-04 3.63493178e-04 8.72085202e-05
5.10326747e-04 -4.09494815e-03 -3.05074826e-03 -4.09494815e-03 -5.91983015e-04 -8.78387473e-05 -3.05074826e-03 -8.78387473e-05 3.61225262e-04
8.47910298e-04 -1.19266694e-03 9.12647753e-04 -1.19266694e-03 -1.48035871e-03 1.28399079e-04 9.12647753e-04 1.28399079e-04 9.15133307e-04
6.42870343e-03 -1.49413850e-03 -8.06010445e-03 -1.49413850e-03 -3.71806104e-03 -1.71899642e-02 -8.06010445e-03 -1.71899642e-02 -4.44027013e-04
-1.44900856e-03 -2.39090569e-03 2.31629913e-03 -2.39090569e-03 1.40399930e-04 2.54745013e-03 2.31629913e-03 2.54745013e-03 3.50209535e-03
1.30473869e-02 6.89341500e-03 -4.16162051e-03 6.89341500e-03 1.84273254e-02 2.45445706e-02 -4.16162051e-03 2.45445706e-02 -2.82463245e-02
3.92774903e-05 -1.09640469e-04 -1.04811489e-04 -1.09640469e-04 3.08452164e-04 1.45662507e-03 -1.04811489e-04 1.45662507e-03 -9.63810445e-07
-4.53214210e-04 -9.83829547e-04 1.75653748e-04 -9.83829547e-04 4.78566975e-04 7.32266829e-05 1.75653748e-04 7.32266829e-05 3.27667384e-04
-1.15676270e-04 2.06556444e-04 1.09112949e-04 2.06556444e-04 2.36145594e-04 -5.42468069e-05 1.09112949e-04 -5.42468069e-05 -1.82549297e-06
-1.21225177e-04 -1.79470899e-04 -8.98379221e-05 -1.79470899e-04 1.81377703e-04 5.49290517e-05 -8.98379221e-05 5.49290517e-05 5.81241538e-05
1.57332190e-04 -3.26199020e-04 1.35071081e-04 -3.26199020e-04 -3.37328354e-04 -6.03775079e-05 1.35071081e-04 -6.03775079e-05 2.09021884e-04
2.31084850e-04 -4.76177142e-04 -1.85043042e-04 -4.76177142e-04 -5.94616547e-04 -5.40383407e-05 -1.85043042e-04 -5.40383407e-05 3.91352190e-04
5.24021573e-02 9.58220754e-03 -1.46443341e-02 9.58220754e-03 6.60909265e-02 1.29113032e-04 -1.46443341e-02 1.29113032e-04 -1.05089948e-01
6.14862591e-02 -5.59470616e-03 -1.16971554e-02 -5.59470616e-03 6.23314977e-02 2.49200761e-02 -1.16971554e-02 2.49200761e-02 -1.11075312e-01
4.10070146e-02 -1.21562124e-02 1.37281911e-02 -1.21562124e-02 4.53244671e-02 1.44677674e-02 1.37281911e-02 1.44677674e-02 -7.33040671e-02
4.35926020e-02 -2.90439813e-03 1.43608456e-02 -2.90439813e-03 5.16976733e-02 7.35875801e-07 1.43608456e-02 7.35875801e-07 -8.17318521e-02
6.93387824e-05 5.02532257e-05 -9.20337743e-06 5.02532257e-05 -5.35658801e-05 -4.79360087e-05 -9.20337743e-06 -4.79360087e-05 2.70044027e-05
2.89250913e-03 -2.32349887e-03 1.07912305e-04 -2.32349887e-03 -9.02979004e-04 3.77989549e-04 1.07912305e-04 3.77989549e-04 -1.25645525e-03
8.01415117e-05 4.37182689e-05 3.03434335e-05 4.37182689e-05 -1.17881926e-04 2.44248913e-05 3.03434335e-05 2.44248913e-05 -3.85234380e-05
4.85800691e-02 -1.45295546e-02 7.92356720e-03 -1.45295546e-02 2.88429260e-02 1.26800146e-02 7.92356720e-03 1.26800146e-02 -6.59040511e-02
4.81259897e-02 -3.55142611e-03 1.30850263e-02 -3.55142611e-03 3.19623426e-02 1.07807500e-05 1.30850263e-02 1.07807500e-05 -6.78165630e-02
3.26695703e-02 6.26484968e-03 2.95715511e-03 6.26484968e-03 3.26611996e-02 1.28614362e-02 2.95715511e-03 1.28614362e-02 -5.59575614e-02
3.83252837e-02 -5.62954915e-03 -2.40700936e-03 -5.62954915e-03 2.57695522e-02 2.00285902e-02 -2.40700936e-03 2.00285902e-02 -5.43802828e-02
1.56925074e-02 2.10194010e-03 -8.12042784e-03 2.10194010e-03 8.44508433e-03 9.42024495e-03 -8.12042784e-03 9.42024495e-03 -1.90055091e-02
9.59119314e-03 -9.81568359e-03 -5.95683977e-03 -9.81568359e-03 1.73044996e-02 7.11313426e-03 -5.95683977e-03 7.11313426e-03 -2.15556277e-02
-3.23997324e-03 -9.23598127e-03 -7.86998047e-04 -9.23598127e-03 2.64756024e-03 5.94901328e-04 -7.86998047e-04 5.94901328e-04 1.65647034e-03
-3.94171766e-04 -8.28389893e-05 -7.85746706e-05 -8.28389893e-05 1.48029845e-04 7.81676999e-06 -7.85746706e-05 7.81676999e-06 2.65278964e-04
-9.33897463e-05 1.09444234e-04 1.88929080e-05 1.09444234e-04 -3.08831068e-06 -1.76879930e-05 1.88929080e-05 -1.76879930e-05 3.49883048e-05
</DataArray>
<DataArray type="Float32" Name="Plastic_strain_components" NumberOfComponents="9" format="ascii">
8.49662250e-03 -3.09097186e-03 8.17728051e-04 -3.09097186e-03 7.69913662e-03 3.14264762e-03 8.17728051e-04 3.14264762e-03 -1.35589162e-02
9.39363375e-03 -4.11289008e-03 1.03360450e-03 -4.11289008e-03 9.60256704e-03 4.53750385e-03 1.03360450e-03 4.53750385e-03 -1.56578426e-02
1.22137726e-02 -2.46549200e-04 2.60267441e-03 -2.46549200e-04 1.51427516e-02 -5.92213910e-04 2.60267441e-03 -5.92213910e-04 -2.31899344e-02
8.18928541e-03 -5.64312650e-05 -1.63692418e-03 -5.64312650e-05 1.05335244e-02 -5.22652421e-04 -1.63692418e-03 -5.22652421e-04 -1.57660735e-02
6.67943066e-03 1.98565950e-03 5.87145356e-03 1.98565950e-03 8.36626720e-03 9.50106973e-04 5.87145356e-03 9.50106973e-04 -1.19009286e-02
1.24284014e-02 -3.54107651e-03 -4.91065033e-03 -3.54107651e-03 1.75817836e-02 7.07825024e-03 -4.91065033e-03 7.07825024e-03 -2.56605563e-02
1.95627643e-02 2.93061527e-03 3.13348667e-03 2.93061527e-03 1.90733988e-02 -7.81756837e-03 3.13348667e-03 -7.81756837e-03 -3.21272002e-02
1.25919944e-02 6.33295095e-03 8.80611033e-03 6.33295095e-03 1.52834705e-02 6.36786479e-03 8.80611033e-03 6.36786479e-03 -2.36747318e-02
1.34997636e-02 7.95858010e-04 -6.59415463e-03 7.95858010e-04 1.39262266e-02 7.78870378e-03 -6.59415463e-03 7.78870378e-03 -2.33322219e-02
2.06133006e-02 1.14424553e-03 2.05376674e-03 1.14424553e-03 2.25999244e-02 1.16955647e-02 2.05376674e-03 1.16955647e-02 -3.63730323e-02
2.27251764e-02 1.01244951e-02 -3.64401030e-02 1.01244951e-02 2.56571045e-02 4.69942829e-03 -3.64401030e-02 4.69942829e-03 -4.00843310e-02
3.28077180e-02 1.75977042e-02 -3.27863712e-02 1.75977042e-02 2.41350401e-02 -6.31281731e-03 -3.27863712e-02 -6.31281731e-03 -4.74756714e-02
0.00000000e+00 0.00000000e+00 0.00000000e+00 0.00000000e+00 0.00000000e+00 0.00000000e+00 0.00000000e+00 0.00000000e+00 0.00000000e+00
0.00000000e+00 0.00000000e+00 0.00000000e+00 0.00000000e+00 0.00000000e+00 0.00000000e+00 0.00000000e+00 0.00000000e+00 0.00000000e+00
0.00000000e+00 0.00000000e+00 0.00000000e+00 0.00000000e+00 0.00000000e+00 0.00000000e+00 0.00000000e+00 0.00000000e+00 0.00000000e+00
0.00000000e+00 0.00000000e+00 0.00000000e+00 0.00000000e+00 0.00000000e+00 0.00000000e+00 0.00000000e+00 0.00000000e+00 0.00000000e+00
0.00000000e+00 0.00000000e+00 0.00000000e+00 0.00000000e+00 0.00000000e+00 0.00000000e+00 0.00000000e+00 0.00000000e+00 0.00000000e+00
0.00000000e+00 0.00000000e+00 0.00000000e+00 0.00000000e+00 0.00000000e+00 0.00000000e+00 0.00000000e+00 0.00000000e+00 0.00000000e+00
0.00000000e+00 0.00000000e+00 0.00000000e+00 0.00000000e+00 0.00000000e+00 0.00000000e+00 0.00000000e+00 0.00000000e+00 0.00000000e+00
0.00000000e+00 0.00000000e+00 0.00000000e+00 0.00000000e+00 0.00000000e+00 0.00000000e+00 0.00000000e+00 0.00000000e+00 0.00000000e+00
1.67740416e-02 3.57229646e-06 5.72410366e-03 3.57229646e-06 1.74194342e-02 -1.37127709e-03 5.72410366e-03 -1.37127709e-03 -2.87820557e-02
1.72041706e-02 1.23283298e-04 4.26594308e-03 1.23283298e-04 1.65480571e-02 6.85616222e-04 4.26594308e-03 6.85616222e-04 -2.84102676e-02
1.66113056e-02 -4.64366235e-03 6.18355398e-03 -4.64366235e-03 1.67430720e-02 1.46131048e-03 6.18355398e-03 1.46131048e-03 -2.80384091e-02
1.58451444e-02 2.85081718e-04 5.67087170e-03 2.85081718e-04 1.78863816e-02 -2.81707593e-03 5.67087170e-03 -2.81707593e-03 -2.83840625e-02
2.26175403e-02 1.22753590e-07 4.35784832e-03 1.22753590e-07 1.53455525e-02 -4.26489278e-04 4.35784832e-03 -4.26489278e-04 -3.19297593e-02
2.19597281e-02 2.98898536e-04 1.35541797e-03 2.98898536e-04 1.60775913e-02 3.93367518e-03 1.35541797e-03 3.93367518e-03 -3.19982199e-02
2.22998378e-02 6.26544574e-04 7.39303363e-03 6.26544574e-04 1.68931275e-02 1.93527616e-03 7.39303363e-03 1.93527616e-03 -3.29287788e-02
2.29722918e-02 6.10085335e-04 7.57325772e-03 6.10085335e-04 1.72350162e-02 -3.43485060e-03 7.57325772e-03 -3.43485060e-03 -3.37860836e-02
1.87350879e-02 -4.30150446e-03 6.21435663e-03 -4.30150446e-03 1.36132364e-02 3.64057434e-04 6.21435663e-03 3.64057434e-04 -2.71891765e-02
1.84656313e-02 -6.80834660e-03 4.41399092e-03 -6.80834660e-03 1.53111664e-02 1.66536069e-03 4.41399092e-03 1.66536069e-03 -2.83702952e-02
2.01531504e-02 1.11818692e-03 -1.15354441e-03 1.11818692e-03 1.58164408e-02 2.36638829e-03 -1.15354441e-03 2.36638829e-03 -3.02795512e-02
2.04034799e-02 1.51485015e-03 4.59652368e-03 1.51485015e-03 1.78106278e-02 5.35145760e-03 4.59652368e-03 5.35145760e-03 -3.21654025e-02
2.01865574e-02 2.30309324e-04 2.27508886e-03 2.30309324e-04 1.12616511e-02 2.79565522e-03 2.27508886e-03 2.79565522e-03 -2.64127627e-02
1.99385798e-02 -3.25971487e-03 -2.74931319e-03 -3.25971487e-03 1.53304173e-02 -2.58472006e-03 -2.74931319e-03 -2.58472006e-03 -2.96383938e-02
1.86159178e-02 -1.40922834e-03 -5.82271896e-04 -1.40922834e-03 1.42799455e-02 1.92988695e-03 -5.82271896e-04 1.92988695e-03 -2.76936218e-02
1.85834519e-02 -1.61612703e-03 -3.37077634e-03 -1.61612703e-03 1.62530118e-02 1.63332172e-03 -3.37077634e-03 1.63332172e-03 -2.93024222e-02
1.97759657e-02 5.90785639e-04 -2.87941413e-03 5.90785639e-04 1.04807052e-02 -8.48584627e-04 -2.87941413e-03 -8.48584627e-04 -2.54110438e-02
1.98632663e-02 1.59076726e-03 -2.51816530e-03 1.59076726e-03 1.82695078e-02 -2.64226401e-04 -2.51816530e-03 -2.64226401e-04 -3.20704342e-02
1.71914138e-02 -2.78198495e-04 -3.79889319e-03 -2.78198495e-04 1.26022880e-02 1.39106257e-03 -3.79889319e-03 1.39106257e-03 -2.50726147e-02
1.70186544e-02 -3.73869951e-03 -5.32288372e-03 -3.73869951e-03 1.32473548e-02 -2.41454767e-03 -5.32288372e-03 -2.41454767e-03 -2.54299799e-02
1.68662064e-02 1.24012338e-03 1.91592096e-03 1.24012338e-03 1.10667178e-02 -2.66102242e-03 1.91592096e-03 -2.66102242e-03 -2.34930920e-02
1.90255770e-02 1.81200269e-03 1.66873202e-04 1.81200269e-03 1.70405774e-02 9.62922946e-04 1.66873202e-04 9.62922946e-04 -3.03659595e-02
1.40743689e-02 2.60581808e-04 -6.91995095e-03 2.60581808e-04 1.08302184e-02 5.57470041e-04 -6.91995095e-03 5.57470041e-04 -2.09291959e-02
1.48775707e-02 -1.13510527e-03 -4.34065086e-03 -1.13510527e-03 1.44819613e-02 -1.84785702e-03 -4.34065086e-03 -1.84785702e-03 -2.46871999e-02
1.55079085e-02 2.03379651e-03 2.43727549e-03 2.03379651e-03 9.68019525e-03 -2.80824224e-03 2.43727549e-03 -2.80824224e-03 -2.11655023e-02
1.72853563e-02 1.41370839e-03 7.04487247e-05 1.41370839e-03 1.51203268e-02 -2.57504883e-03 7.04487247e-05 -2.57504883e-03 -2.72782189e-02
1.24782985e-02 4.30808845e-03 -5.54150739e-03 4.30808845e-03 9.43637686e-03 -1.42913238e-03 -5.54150739e-03 -1.42913238e-03 -1.84115581e-02
1.43501421e-02 2.61614448e-03 -2.70400906e-03 2.61614448e-03 1.26631032e-02 -7.18930125e-04 -2.70400906e-03 -7.18930125e-04 -2.27122391e-02
1.38404781e-02 -7.67665403e-03 1.39083901e-02 -7.67665403e-03 1.81747173e-02 -1.08848643e-03 1.39083901e-02 -1.08848643e-03 -2.66383495e-02
1.15875991e-02 -5.17171167e-03 9.49416205e-03 -5.17171167e-03 1.95199978e-02 -1.58337865e-03 9.49416205e-03 -1.58337865e-03 -2.60693659e-02
2.44535357e-02 -1.67872581e-03 1.70030331e-02 -1.67872581e-03 1.93762038e-02 3.58165542e-03 1.70030331e-02 3.58165542e-03 -3.67157785e-02
2.29540574e-02 -3.46913592e-04 1.61856462e-02 -3.46913592e-04 1.83832846e-02 -1.67482585e-03 1.61856462e-02 -1.67482585e-03 -3.46269789e-02
1.98639679e-02 -1.80950717e-03 8.36132181e-03 -1.80950717e-03 1.84591476e-02 -3.55149064e-03 8.36132181e-03 -3.55149064e-03 -3.24294429e-02
2.15616401e-02 3.25887848e-03 4.12751528e-03 3.25887848e-03 1.99354771e-02 -5.00423668e-03 4.12751528e-03 -5.00423668e-03 -3.48510761e-02
2.56732054e-02 -4.92871967e-03 -2.51796763e-02 -4.92871967e-03 2.35707955e-02 3.53067555e-04 -2.51796763e-02 3.53067555e-04 -4.08252373e-02
1.73009210e-02 3.20103790e-03 -1.67129171e-02 3.20103790e-03 1.71355717e-02 -4.37036469e-03 -1.67129171e-02 -4.37036469e-03 -2.91036921e-02
2.48454125e-02 3.43275606e-04 -6.48262515e-03 3.43275606e-04 2.77790101e-02 6.15140707e-03 -6.48262515e-03 6.15140707e-03 -4.42969194e-02
1.90611929e-02 -2.47894654e-03 -2.18569131e-02 -2.47894654e-03 1.42740774e-02 4.09337888e-03 -2.18569131e-02 4.09337888e-03 -2.75322089e-02
2.36604260e-02 -1.40552016e-03 -2.13516050e-03 -1.40552016e-03 2.45225113e-02 4.05259759e-03 -2.13516050e-03 4.05259759e-03 -4.05656174e-02
1.99126513e-02 1.15349167e-03 -7.53060449e-03 1.15349167e-03 2.09865165e-02 3.63829382e-04 -7.53060449e-03 3.63829382e-04 -3.44478432e-02
2.13709027e-02 5.48788958e-04 -2.65746051e-03 5.48788958e-04 2.23773504e-02 1.45199546e-03 -2.65746051e-03 1.45199546e-03 -3.68316025e-02
1.97550477e-02 1.43271883e-03 -6.14015572e-03 1.43271883e-03 1.96277620e-02 -6.79715304e-03 -6.14015572e-03 -6.79715304e-03 -3.30961132e-02
1.13937138e-02 -4.21223038e-03 1.56237571e-02 -4.21223038e-03 1.76167770e-02 -4.28506173e-05 1.56237571e-02 -4.28506173e-05 -2.40062135e-02
7.65094510e-03 9.67870874e-04 1.22771552e-02 9.67870874e-04 1.68080372e-02 4.49577614e-03 1.22771552e-02 4.49577614e-03 -2.03720736e-02
2.46765403e-02 -2.51323753e-03 1.79223563e-02 -2.51323753e-03 1.84701415e-02 -7.12111162e-03 1.79223563e-02 -7.12111162e-03 -3.60039909e-02
1.75132595e-02 2.29090167e-03 2.12025689e-02 2.29090167e-03 1.77432126e-02 -1.15553716e-02 2.12025689e-02 -1.15553716e-02 -2.92861513e-02
2.05274136e-02 -9.68944374e-03 2.49156458e-02 -9.68944374e-03 2.55813552e-02 -2.60211185e-02 2.49156458e-02 -2.60211185e-02 -3.77918165e-02
3.13792430e-02 -2.07336247e-03 3.69571312e-03 -2.07336247e-03 2.13172980e-02 -1.81401679e-02 3.69571312e-03 -1.81401679e-02 -4.44688462e-02
-7.02135684e-03 -3.48752737e-02 -8.36369172e-02 -3.48752737e-02 6.80067460e-04 -6.03270382e-02 -8.36369172e-02 -6.03270382e-02 1.26011809e-02
6.48585986e-03 -1.29775672e-03 -6.78585532e-03 -1.29775672e-03 3.10228113e-03 -9.89852101e-03 -6.78585532e-03 -9.89852101e-03 -5.29909569e-03
7.71734305e-03 -1.35302152e-03 6.40674717e-03 -1.35302152e-03 1.16272706e-02 7.94153642e-03 6.40674717e-03 7.94153642e-03 -1.61078622e-02
6.56970765e-03 -2.68235110e-03 1.06798423e-02 -2.68235110e-03 1.15652159e-02 1.09727753e-03 1.06798423e-02 1.09727753e-03 -1.49940744e-02
1.14334597e-02 -1.74747531e-03 1.56896367e-02 -1.74747531e-03 1.34142067e-02 9.17968938e-03 1.56896367e-02 9.17968938e-03 -1.94316751e-02
1.06259478e-02 -3.57495835e-04 2.68931911e-03 -3.57495835e-04 1.50569207e-02 1.58152319e-03 2.68931911e-03 1.58152319e-03 -2.02978072e-02
7.99000415e-03 2.78420834e-03 9.31461109e-05 2.78420834e-03 1.06112462e-02 -5.88262817e-04 9.31461109e-05 -5.88262817e-04 -1.56111231e-02
1.93539994e-02 6.49020731e-03 -5.24252493e-03 6.49020731e-03 2.28026379e-02 1.33778511e-02 -5.24252493e-03 1.33778511e-02 -3.56199749e-02
1.67488682e-02 5.53940656e-03 5.73340454e-03 5.53940656e-03 2.54656295e-02 5.70111186e-03 5.73340454e-03 5.70111186e-03 -3.58063751e-02
8.80878628e-03 5.94873563e-05 4.19840519e-03 5.94873563e-05 1.43473018e-02 2.29250358e-02 4.19840519e-03 2.29250358e-02 -1.83761877e-02
3.36583490e-02 -4.91145696e-03 3.20494212e-02 -4.91145696e-03 2.60885339e-02 1.60744527e-02 3.20494212e-02 1.60744527e-02 -4.98597249e-02
2.01504877e-02 -3.17696312e-03 -1.53020611e-02 -3.17696312e-03 2.64923764e-02 -1.08443679e-02 -1.53020611e-02 -1.08443679e-02 -3.86012573e-02
9.23072081e-03 -4.53736706e-04 5.58138941e-03 -4.53736706e-04 1.45469215e-02 5.50544262e-03 5.58138941e-03 5.50544262e-03 -1.99189344e-02
2.09667734e-02 9.36199643e-03 -2.21590727e-03 9.36199643e-03 2.39618924e-02 7.86201638e-03 -2.21590727e-03 7.86201638e-03 -3.77734546e-02
1.72196701e-02 -3.52539774e-03 1.13039259e-02 -3.52539774e-03 2.83722281e-02 -9.29571269e-03 1.13039259e-02 -9.29571269e-03 -3.82988127e-02
2.61803004e-02 -4.21988382e-03 -1.76989795e-02 -4.21988382e-03 2.71858689e-02 2.03178681e-02 -1.76989795e-02 2.03178681e-02 -4.44545122e-02
2.17907227e-02 1.25071464e-02 3.03310416e-03 1.25071464e-02 3.03897200e-02 -4.62415578e-02 3.03310416e-03 -4.62415578e-02 -4.32078441e-02
2.81518140e-02 -1.85627300e-03 -5.22742382e-03 -1.85627300e-03 1.81884853e-02 -8.52305559e-03 -5.22742382e-03 -8.52305559e-03 -3.86967584e-02
2.86842054e-02 2.63896436e-06 1.78139663e-03 2.63896436e-06 1.54826264e-02 -1.86295831e-03 1.78139663e-03 -1.86295831e-03 -3.70814893e-02
2.65485658e-02 1.63966994e-03 2.89428380e-03 1.63966994e-03 1.69331208e-02 1.97043304e-03 2.89428380e-03 1.97043304e-03 -3.65461549e-02
2.74021912e-02 6.05209864e-03 4.19181786e-03 6.05209864e-03 1.81150328e-02 2.77887881e-03 4.19181786e-03 2.77887881e-03 -3.82408104e-02
3.03235510e-02 1.17175427e-03 5.35482509e-03 1.17175427e-03 1.64979442e-02 -7.51475178e-04 5.35482509e-03 -7.51475178e-04 -3.93017679e-02
2.13974635e-02 3.65375326e-03 3.00597480e-04 3.65375326e-03 1.98560292e-02 3.95292748e-03 3.00597480e-04 3.95292748e-03 -3.47201182e-02
2.11859671e-02 8.18506529e-03 1.55880845e-03 8.18506529e-03 2.01262496e-02 2.03383515e-03 1.55880845e-03 2.03383515e-03 -3.47197042e-02
1.64383145e-02 2.35727918e-03 -2.45747279e-03 2.35727918e-03 2.07315125e-02 1.14646352e-03 -2.45747279e-03 1.14646352e-03 -3.12902825e-02
1.53024554e-02 4.42564593e-03 -9.80127556e-04 4.42564593e-03 2.02992000e-02 2.64323611e-03 -9.80127556e-04 2.64323611e-03 -2.99242584e-02
1.36607396e-02 -6.76223674e-04 -1.44868417e-03 -6.76223674e-04 1.90720372e-02 -7.31847103e-06 -1.44868417e-03 -7.31847103e-06 -2.75522294e-02
1.20803143e-02 -1.26718026e-03 -1.68925861e-03 -1.26718026e-03 1.78073111e-02 7.86432742e-04 -1.68925861e-03 7.86432742e-04 -2.51202749e-02
1.23768225e-02 -1.75544780e-03 -2.69723759e-03 -1.75544780e-03 1.70840141e-02 9.92669804e-04 -2.69723759e-03 9.92669804e-04 -2.47948761e-02
1.19666411e-02 -3.26842132e-03 -4.27873491e-03 -3.26842132e-03 1.46843035e-02 -4.32490226e-04 -4.27873491e-03 -4.32490226e-04 -2.23835742e-02
1.12650958e-02 7.37796945e-04 -1.92240364e-03 7.37796945e-04 1.75194973e-02 2.48647970e-03 -1.92240364e-03 2.48647970e-03 -2.42216475e-02
1.25144550e-02 -3.23334953e-03 -1.71280047e-03 -3.23334953e-03 1.43717646e-02 -2.20062333e-03 -1.71280047e-03 -2.20062333e-03 -2.25933744e-02
3.18560756e-02 7.87338708e-03 1.23008598e-02 7.87338708e-03 1.73067422e-02 1.19750918e-03 1.23008598e-02 1.19750918e-03 -4.06817775e-02
3.60920420e-02 4.69420489e-03 1.71960799e-02 4.69420489e-03 2.05292813e-02 -6.33606128e-03 1.71960799e-02 -6.33606128e-03 -4.76035485e-02
2.36614216e-02 9.84050898e-03 -7.83202151e-04 9.84050898e-03 1.76366603e-02 9.59436089e-04 -7.83202151e-04 9.59436089e-04 -3.46981108e-02
1.24938425e-02 6.10950499e-03 -6.42519041e-03 6.10950499e-03 1.35215716e-02 -4.71707725e-04 -6.42519041e-03 -4.71707725e-04 -2.17339767e-02
7.72685558e-03 6.49834068e-04 -7.38616740e-03 6.49834068e-04 1.23451507e-02 -5.45213922e-04 -7.38616740e-03 -5.45213922e-04 -1.69795565e-02
6.68985955e-03 -3.17080026e-03 -1.13639371e-02 -3.17080026e-03 1.10605316e-02 -3.44809833e-03 -1.13639371e-02 -3.44809833e-03 -1.47339008e-02
7.82623887e-03 -6.65131087e-03 -1.22256409e-02 -6.65131087e-03 9.53467441e-03 -7.05637131e-03 -1.22256409e-02 -7.05637131e-03 -1.42692590e-02
3.86387228e-02 -1.35795582e-03 3.33517271e-02 -1.35795582e-03 1.58521971e-02 -8.50113064e-03 3.33517271e-02 -8.50113064e-03 -4.51344897e-02
3.91474254e-02 -7.26824316e-03 3.31372178e-02 -7.26824316e-03 1.88148567e-02 -1.12233581e-02 3.31372178e-02 -1.12233581e-02 -4.79140691e-02
2.65338294e-02 8.08180209e-03 1.73794921e-03 8.08180209e-03 1.26577693e-02 -1.48327064e-02 1.73794921e-03 -1.48327064e-02 -3.27224759e-02
1.04589612e-02 6.84576513e-03 -1.15345755e-02 6.84576513e-03 4.18215014e-03 -6.14692338e-03 -1.15345755e-02 -6.14692338e-03 -1.21463517e-02
2.22733081e-03 -1.99176576e-02 -2.92111747e-02 -1.99176576e-02 -1.03911078e-02 -2.47793496e-02 -2.92111747e-02 -2.47793496e-02 1.08737051e-02
-3.56728649e-04 1.45338255e-03 -1.28477678e-03 1.45338255e-03 6.53825545e-04 -8.55080728e-04 -1.28477678e-03 -8.55080728e-04 4.85420635e-04
3.80250658e-02 3.71024082e-03 -6.01883698e-03 3.71024082e-03 2.70209739e-02 2.24815197e-02 -6.01883698e-03 2.24815197e-02 -5.41241141e-02
3.83500413e-02 6.98141040e-03 -2.00522464e-02 6.98141040e-03 3.32044725e-02 1.55610613e-02 -2.00522464e-02 1.55610613e-02 -6.03879765e-02
3.78675181e-02 -3.71999573e-04 5.62891574e-03 -3.71999573e-04 2.26096036e-02 -2.07455875e-02 5.62891574e-03 -2.07455875e-02 -5.09828217e-02
3.11869569e-02 -2.56207259e-03 -5.35088067e-03 -2.56207259e-03 3.92829822e-02 1.11169552e-02 -5.35088067e-03 1.11169552e-02 -5.83703412e-02
3.33370273e-02 -2.24055833e-03 4.56709744e-03 -2.24055833e-03 4.19148728e-02 -2.62051460e-03 4.56709744e-03 -2.62051460e-03 -6.33035330e-02
3.65266972e-02 -4.64088924e-03 6.88912405e-03 -4.64088924e-03 3.29264724e-02 1.05500347e-02 6.88912405e-03 1.05500347e-02 -5.83806196e-02
3.54575105e-02 1.76231179e-03 8.86623701e-03 1.76231179e-03 3.38661913e-02 -4.74603823e-03 8.86623701e-03 -4.74603823e-03 -5.83521426e-02
3.28705851e-02 1.00657194e-02 -3.68551657e-03 1.00657194e-02 3.54068223e-02 -1.12985140e-02 -3.68551657e-03 -1.12985140e-02 -5.74955931e-02
3.61081176e-02 -5.53696544e-03 -7.07854034e-03 -5.53696544e-03 2.58466895e-02 1.88814651e-02 -7.07854034e-03 1.88814651e-02 -5.17861284e-02
2.41025016e-02 5.42638899e-03 2.46438786e-03 5.42638899e-03 9.27671720e-03 -8.06410657e-03 2.46438786e-03 -8.06410657e-03 -2.81107700e-02
2.06225102e-02 -1.06926031e-02 -1.31155981e-03 -1.06926031e-02 1.51766930e-02 -2.34109862e-03 -1.31155981e-03 -2.34109862e-03 -3.04834321e-02
-2.04364974e-02 1.56806819e-02 1.31459460e-02 1.56806819e-02 -7.50354119e-03 -2.35778950e-02 1.31459460e-02 -2.35778950e-02 2.95218527e-02
-4.63212095e-03 -6.45120349e-03 7.66631169e-03 -6.45120349e-03 -1.45150593e-03 -2.58478299e-02 7.66631169e-03 -2.58478299e-02 7.91264512e-03
4.57005261e-03 -9.38000492e-03 -3.79222894e-03 -9.38000492e-03 -5.53264030e-03 1.07053253e-02 -3.79222894e-03 1.07053253e-02 2.38797672e-03
-1.54812176e-03 -1.04605437e-02 -1.63630612e-03 -1.04605437e-02 1.21090445e-03 -7.05550705e-03 -1.63630612e-03 -7.05550705e-03 1.99900830e-03
0.00000000e+00 0.00000000e+00 0.00000000e+00 0.00000000e+00 0.00000000e+00 0.00000000e+00 0.00000000e+00 0.00000000e+00 0.00000000e+00
0.00000000e+00 0.00000000e+00 0.00000000e+00 0.00000000e+00 0.00000000e+00 0.00000000e+00 0.00000000e+00 0.00000000e+00 0.00000000e+00
0.00000000e+00 0.00000000e+00 0.00000000e+00 0.00000000e+00 0.00000000e+00 0.00000000e+00 0.00000000e+00 0.00000000e+00 0.00000000e+00
0.00000000e+00 0.00000000e+00 0.00000000e+00 0.00000000e+00 0.00000000e+00 0.00000000e+00 0.00000000e+00 0.00000000e+00 0.00000000e+00
1.97587771e-05 -2.89875710e-05 -2.49657756e-05 -2.89875710e-05 -3.95690626e-05 -3.46877478e-05 -2.49657756e-05 -3.46877478e-05 8.55912622e-06
0.00000000e+00 0.00000000e+00 0.00000000e+00 0.00000000e+00 0.00000000e+00 0.00000000e+00 0.00000000e+00 0.00000000e+00 0.00000000e+00
0.00000000e+00 0.00000000e+00 0.00000000e+00 0.00000000e+00 0.00000000e+00 0.00000000e+00 0.00000000e+00 0.00000000e+00 0.00000000e+00
-3.07285566e-05 -1.54852072e-04 1.34248427e-05 -1.54852072e-04 7.18990729e-06 4.26612769e-06 1.34248427e-05 4.26612769e-06 3.43139691e-05
3.08646318e-02 4.58720024e-07 8.93996912e-07 4.58720024e-07 1.64271034e-02 9.30258466e-08 8.93996912e-07 9.30258466e-08 -3.97026278e-02
2.77122818e-02 3.39551328e-03 -1.94429958e-06 3.39551328e-03 1.83136212e-02 1.99628074e-03 -1.94429958e-06 1.99628074e-03 -3.86982244e-02
3.05168936e-02 8.98842246e-03 2.34456250e-03 8.98842246e-03 1.72806785e-02 3.73326591e-03 2.34456250e-03 3.73326591e-03 -4.00830954e-02
3.41613274e-02 2.77849066e-03 7.58574955e-04 2.77849066e-03 1.54734026e-02 -2.79943379e-07 7.58574955e-04 -2.79943379e-07 -4.16023172e-02
2.12168982e-02 2.65619881e-03 -6.03323679e-06 2.65619881e-03 2.19892059e-02 4.29559639e-03 -6.03323679e-06 4.29559639e-03 -3.63625083e-02
2.19914853e-02 1.01113954e-02 2.70195946e-03 1.01113954e-02 2.07035947e-02 3.27965076e-03 2.70195946e-03 3.27965076e-03 -3.58569641e-02
1.51248099e-02 3.39267310e-03 -5.65342998e-06 3.39267310e-03 2.39860434e-02 2.87355669e-03 -5.65342998e-06 2.87355669e-03 -3.28692533e-02
1.46071827e-02 6.50492543e-03 2.74101150e-03 6.50492543e-03 2.15663118e-02 3.89378052e-03 2.74101150e-03 3.89378052e-03 -3.03678047e-02
1.16792438e-02 1.55884092e-03 -1.67141297e-06 1.55884092e-03 2.31286194e-02 7.04587990e-04 -1.67141297e-06 7.04587990e-04 -2.92162457e-02
1.05799818e-02 2.22575697e-03 4.90965589e-03 2.22575697e-03 2.04543001e-02 2.93001632e-03 4.90965589e-03 2.93001632e-03 -2.60323873e-02
1.20267705e-02 -2.13577366e-03 -1.96483961e-06 -2.13577366e-03 2.12322762e-02 6.53828203e-04 -1.96483961e-06 6.53828203e-04 -2.79467097e-02
9.66821378e-03 -1.98645402e-03 5.81036648e-03 -1.98645402e-03 1.82061247e-02 2.79465494e-04 5.81036648e-03 2.79465494e-04 -2.34025111e-02
1.14684170e-02 -6.70646131e-03 6.38295569e-06 -6.70646131e-03 2.31488030e-02 3.35057545e-03 6.38295569e-06 3.35057545e-03 -2.90250070e-02
1.03543913e-02 -4.69251687e-03 8.17150995e-03 -4.69251687e-03 1.78370439e-02 -4.06005839e-03 8.17150995e-03 -4.06005839e-03 -2.35915650e-02
3.35495388e-02 1.34084984e-02 -4.31557663e-03 1.34084984e-02 2.33025590e-02 5.93167404e-03 -4.31557663e-03 5.93167404e-03 -4.79452657e-02
3.77903637e-02 2.15575448e-03 -2.36148085e-03 2.15575448e-03 2.54408186e-02 -3.12601551e-05 -2.36148085e-03 -3.12601551e-05 -5.30104097e-02
2.15344327e-02 1.81307045e-02 -4.26209415e-04 1.81307045e-02 1.80218741e-02 7.76566321e-03 -4.26209415e-04 7.76566321e-03 -3.30177606e-02
1.15303828e-02 9.59423126e-03 3.51338135e-03 9.59423126e-03 1.39696964e-02 4.91357408e-03 3.51338135e-03 4.91357408e-03 -2.14029504e-02
4.98982676e-03 2.18191082e-04 4.72205435e-03 2.18191082e-04 9.44672758e-03 4.64764028e-03 4.72205435e-03 4.64764028e-03 -1.20546543e-02
1.78264368e-03 -3.31649350e-03 4.62781370e-03 -3.31649350e-03 6.62895327e-03 -8.64770245e-05 4.62781370e-03 -8.64770245e-05 -6.96199562e-03
3.73839517e-03 -5.76437751e-03 2.59917881e-03 -5.76437751e-03 4.05551979e-03 -4.31368127e-03 2.59917881e-03 -4.31368127e-03 -6.41291006e-03
4.17051986e-02 2.06643716e-04 1.99877340e-02 2.06643716e-04 3.75796482e-02 1.24331350e-02 1.99877340e-02 1.24331350e-02 -6.66175671e-02
4.99742478e-02 -4.42558574e-03 1.72619913e-02 -4.42558574e-03 4.41868715e-02 3.44378932e-05 1.72619913e-02 3.44378932e-05 -7.93656036e-02
2.03680486e-02 6.87458816e-03 6.61004133e-03 6.87458816e-03 1.44206944e-02 1.19299234e-02 6.61004133e-03 1.19299234e-02 -2.92996578e-02
4.06115337e-03 1.73288718e-03 2.49367440e-03 1.73288718e-03 2.98554570e-03 5.30644623e-03 2.49367440e-03 5.30644623e-03 -5.57345827e-03
-1.66210521e-04 -2.22134622e-03 2.79604727e-04 -2.22134622e-03 8.89292310e-04 1.73964037e-04 2.79604727e-04 1.73964037e-04 -6.98173870e-04
-6.05605597e-04 -1.26983618e-03 -3.25758014e-03 -1.26983618e-03 1.64501077e-03 -7.65923614e-05 -3.25758014e-03 -7.65923614e-05 -6.85965882e-04
-3.20993120e-05 -9.30041446e-04 1.43759871e-04 -9.30041446e-04 5.17132657e-05 2.48174556e-04 1.43759871e-04 2.48174556e-04 -1.50748001e-05
4.95559871e-04 -3.73991500e-03 -2.89628253e-03 -3.73991500e-03 -4.02748177e-04 -5.81836193e-05 -2.89628253e-03 -5.81836193e-05 3.77876859e-04
6.08563219e-04 -9.26145556e-04 7.83768803e-04 -9.26145556e-04 -1.26022409e-03 1.11354639e-04 7.83768803e-04 1.11354639e-04 7.83598574e-04
7.21573608e-03 -1.84139051e-03 -7.47810723e-03 -1.84139051e-03 -3.50879210e-03 -1.71535476e-02 -7.47810723e-03 -1.71535476e-02 -1.61431718e-03
-5.16959117e-03 -1.73052866e-03 1.80161296e-03 -1.73052866e-03 -7.23753066e-04 2.81764625e-03 1.80161296e-03 2.81764625e-03 6.75971922e-03
1.52252270e-02 6.34100474e-03 -3.93200107e-03 6.34100474e-03 1.88485328e-02 2.36868449e-02 -3.93200107e-03 2.36868449e-02 -2.94357035e-02
-5.29141398e-05 -2.86135006e-04 5.31068993e-06 -2.86135006e-04 5.74562813e-05 1.37415519e-03 5.31068993e-06 1.37415519e-03 -1.56259921e-05
-4.40186771e-04 -8.92463998e-04 3.99380497e-05 -8.92463998e-04 2.97163300e-04 1.36431381e-05 3.99380497e-05 1.36431381e-05 2.50832307e-04
-2.06244422e-05 3.00815884e-06 -4.94364444e-05 3.00815884e-06 2.01568387e-05 -5.98183556e-06 -4.94364444e-05 -5.98183556e-06 -6.71752878e-06
-3.65622600e-05 2.27742838e-05 -1.62468064e-05 2.27742838e-05 6.49770402e-05 -1.90074639e-05 -1.62468064e-05 -1.90074639e-05 -4.90565211e-05
3.32376112e-05 -2.58585496e-04 1.18091608e-04 -2.58585496e-04 -5.50820369e-05 -1.13862525e-05 1.18091608e-04 -1.13862525e-05 4.29236425e-05
1.90225051e-04 -4.82709147e-04 -7.43256023e-05 -4.82709147e-04 -3.71913513e-04 -7.22234381e-06 -7.43256023e-05 -7.22234381e-06 2.58431712e-04
5.31125739e-02 9.36486386e-03 -1.44468257e-02 9.36486386e-03 6.62887618e-02 5.91625576e-05 -1.44468257e-02 5.91625576e-05 -1.00548550e-01
6.19116426e-02 -5.43800555e-03 -1.11573087e-02 -5.43800555e-03 6.23826459e-02 2.43155435e-02 -1.11573087e-02 2.43155435e-02 -1.04231313e-01
4.21819886e-02 -1.23679343e-02 1.32727235e-02 -1.23679343e-02 4.67865032e-02 1.48177979e-02 1.32727235e-02 1.48177979e-02 -7.52635002e-02
4.35555074e-02 -2.75883509e-03 1.43162766e-02 -2.75883509e-03 5.16273659e-02 -9.43609120e-05 1.43162766e-02 -9.43609120e-05 -8.00312422e-02
4.38223720e-05 -6.54823356e-05 6.96795496e-07 -6.54823356e-05 -2.96341570e-05 -1.37087970e-05 6.96795496e-07 -1.37087970e-05 -2.71843521e-05
2.85420172e-03 -2.35282202e-03 6.78391849e-05 -2.35282202e-03 -1.16904214e-03 1.44524191e-04 6.78391849e-05 1.44524191e-04 -1.41971383e-03
0.00000000e+00 0.00000000e+00 0.00000000e+00 0.00000000e+00 0.00000000e+00 0.00000000e+00 0.00000000e+00 0.00000000e+00 0.00000000e+00
4.82604317e-02 -1.43175325e-02 7.79572828e-03 -1.43175325e-02 2.87669366e-02 1.25500388e-02 7.79572828e-03 1.25500388e-02 -6.46025874e-02
4.78100702e-02 -3.58446804e-03 1.30241364e-02 -3.58446804e-03 3.18242498e-02 2.07115445e-05 1.30241364e-02 2.07115445e-05 -6.69363290e-02
3.47530264e-02 5.44351328e-03 2.39500595e-03 5.44351328e-03 3.39953490e-02 1.30331158e-02 2.39500595e-03 1.30331158e-02 -5.87013047e-02
3.93429203e-02 -6.38281240e-03 -2.48106965e-03 -6.38281240e-03 2.64504738e-02 1.99719602e-02 -2.48106965e-03 1.99719602e-02 -5.54863680e-02
8.07958608e-03 5.40069677e-03 -5.92838856e-03 5.40069677e-03 3.61024146e-03 8.33392399e-03 -5.92838856e-03 8.33392399e-03 -7.16029806e-03
4.67137033e-03 -6.77698734e-03 -5.62299322e-03 -6.77698734e-03 1.41166910e-02 6.39949180e-03 -5.62299322e-03 6.39949180e-03 -1.41678602e-02
-3.28984307e-03 -9.27932619e-03 -6.78927114e-04 -9.27932619e-03 2.36182797e-03 4.17758609e-04 -6.78927114e-04 4.17758609e-04 1.44686917e-03
-1.87466780e-04 -1.21242927e-04 -5.78365598e-06 -1.21242927e-04 8.75681799e-05 -1.43172574e-05 -5.78365598e-06 -1.43172574e-05 1.31740628e-04
0.00000000e+00 0.00000000e+00 0.00000000e+00 0.00000000e+00 0.00000000e+00 0.00000000e+00 0.00000000e+00 0.00000000e+00 0.00000000e+00
</DataArray>
<DataArray type="Float32" Name="Spatial_displacement" NumberOfComponents="3" format="ascii">
8.95491615e-03 7.05674812e-02 -2.99334675e-02
1.64310336e-02 6.79450333e-02 -2.11913586e-02
1.58593915e-02 8.36551934e-02 -3.29636000e-02
6.49773329e-03 8.08937773e-02 -3.86048481e-02
7.21308216e-03 7.99277425e-02 -4.47079502e-02
1.79490224e-02 8.08556527e-02 -4.40630615e-02
1.37901139e-02 1.01743251e-01 -5.90013787e-02
7.30756298e-03 8.92168730e-02 -5.18578365e-02
2.93451250e-02 6.35884255e-02 -1.69880949e-02
3.20520923e-02 8.18169191e-02 -3.23573351e-02
3.32859457e-02 7.57335201e-02 -4.85839024e-02
5.00563309e-02 1.03260346e-01 -8.80401134e-02
2.88891830e-02 6.80404902e-02 1.11535192e-05
2.88961679e-02 7.09603578e-02 -3.53828073e-05
2.59565841e-02 7.09752440e-02 1.07213855e-05
2.59397477e-02 6.80444837e-02 3.22759151e-05
2.89263278e-02 6.80080578e-02 -3.74019146e-06
2.89127827e-02 7.09476098e-02 -2.41920352e-05
2.59796884e-02 7.09318221e-02 -1.33365393e-06
2.59961709e-02 6.79954290e-02 4.34145331e-05
0.00000000e+00 0.00000000e+00 -8.68903995e-02
1.63499396e-02 0.00000000e+00 -8.82287771e-02
1.64858047e-02 1.73187871e-02 -8.40468109e-02
0.00000000e+00 1.70291271e-02 -8.12766328e-02
0.00000000e+00 0.00000000e+00 -1.16530627e-01
2.30034813e-02 0.00000000e+00 -1.16946876e-01
2.33190749e-02 1.61547158e-02 -1.15610495e-01
0.00000000e+00 1.55304018e-02 -1.12259537e-01
3.59523147e-02 0.00000000e+00 -9.54803005e-02
3.15111689e-02 1.34011079e-02 -8.94005001e-02
4.43641655e-02 0.00000000e+00 -1.21007159e-01
4.55168672e-02 1.68296546e-02 -1.22116938e-01
5.35812043e-02 0.00000000e+00 -1.02837980e-01
5.38250729e-02 1.03627425e-02 -1.00611731e-01
6.55079633e-02 0.00000000e+00 -1.28898084e-01
6.40435219e-02 1.49414632e-02 -1.29463285e-01
7.48781338e-02 0.00000000e+00 -1.09862514e-01
7.54979104e-02 1.11138225e-02 -1.12690628e-01
8.30850154e-02 0.00000000e+00 -1.35382161e-01
8.27870667e-02 1.18898861e-02 -1.39127135e-01
9.48420167e-02 0.00000000e+00 -1.19576752e-01
9.61107835e-02 1.24442074e-02 -1.17690064e-01
9.86929238e-02 0.00000000e+00 -1.38767511e-01
9.89565179e-02 1.02982037e-02 -1.45603389e-01
1.11684605e-01 0.00000000e+00 -1.23812422e-01
1.13753513e-01 1.08823664e-02 -1.21412322e-01
1.10299528e-01 0.00000000e+00 -1.40035093e-01
1.14718348e-01 8.53060931e-03 -1.45513743e-01
1.04641430e-02 3.18667367e-02 -7.28612468e-02
0.00000000e+00 3.72095071e-02 -7.12732449e-02
2.30201669e-02 3.44785862e-02 -1.02029294e-01
0.00000000e+00 3.48412544e-02 -1.00401491e-01
2.89002359e-02 3.09604220e-02 -8.70490745e-02
4.86325100e-02 3.55645865e-02 -1.18426159e-01
4.91652526e-02 3.45687047e-02 -1.07426919e-01
6.69649839e-02 3.25934403e-02 -1.46408871e-01
7.61235431e-02 3.90293226e-02 -1.10323414e-01
8.00163299e-02 2.71840394e-02 -1.54038265e-01
9.88379568e-02 3.41299251e-02 -1.12333179e-01
9.97257084e-02 3.10812518e-02 -1.51242733e-01
1.17703632e-01 3.07848230e-02 -1.14541233e-01
1.19234681e-01 2.80304030e-02 -1.51294857e-01
6.95084780e-03 5.53474352e-02 -5.26409745e-02
0.00000000e+00 5.43093905e-02 -5.70373237e-02
1.91329401e-02 5.45766354e-02 -8.83235037e-02
0.00000000e+00 5.23598269e-02 -7.70869032e-02
2.56402604e-02 4.92724702e-02 -6.99623376e-02
5.38999476e-02 5.75815812e-02 -1.25213131e-01
2.25896128e-02 4.31720801e-02 -1.88004643e-01
8.03776383e-02 4.71342169e-02 -1.67595506e-01
6.24408945e-03 6.71655536e-02 -4.27478664e-02
0.00000000e+00 6.99117333e-02 -4.38159108e-02
1.21917892e-02 7.35681131e-02 -6.02683648e-02
0.00000000e+00 7.38445520e-02 -6.29180372e-02
0.00000000e+00 7.70940334e-02 -4.41620760e-02
1.30393114e-02 9.19193774e-02 -6.09284341e-02
0.00000000e+00 8.61846954e-02 -6.61812797e-02
1.74404029e-02 6.70505166e-02 -2.85126194e-02
3.47963795e-02 7.78958499e-02 -7.47465640e-02
3.55031788e-02 8.88760239e-02 -6.78613707e-02
0.00000000e+00 8.96677375e-02 -5.73238619e-02
2.01058295e-02 1.13749906e-01 -9.15944949e-02
0.00000000e+00 1.17475688e-01 -8.25678557e-02
3.80731076e-02 1.21705756e-01 -9.72545296e-02
5.59714176e-02 7.94021487e-02 -1.31949216e-01
8.26340765e-02 9.82856378e-02 -1.24423802e-01
0.00000000e+00 0.00000000e+00 -1.50841966e-01
2.92324126e-02 0.00000000e+00 -1.52649850e-01
3.09364609e-02 1.68163572e-02 -1.49847120e-01
0.00000000e+00 1.56107284e-02 -1.49111986e-01
5.34386113e-02 0.00000000e+00 -1.54773340e-01
5.72227016e-02 2.01837271e-02 -1.54488862e-01
7.26855695e-02 0.00000000e+00 -1.57680780e-01
7.51180351e-02 2.17810664e-02 -1.60076693e-01
8.80864263e-02 0.00000000e+00 -1.62168801e-01
8.73717517e-02 1.96358580e-02 -1.63583845e-01
1.00793310e-01 0.00000000e+00 -1.63157374e-01
9.89793986e-02 1.64942611e-02 -1.65813908e-01
1.11357227e-01 0.00000000e+00 -1.62893921e-01
1.12110481e-01 1.70238633e-02 -1.64778382e-01
3.71819250e-02 3.80744524e-02 -1.47385538e-01
0.00000000e+00 3.33340466e-02 -1.41289055e-01
6.53473362e-02 4.21086140e-02 -1.57489955e-01
8.22398067e-02 4.05826159e-02 -1.68800429e-01
9.06739160e-02 3.56722996e-02 -1.77856117e-01
9.66536105e-02 3.03226225e-02 -1.83460712e-01
1.03659637e-01 3.01065706e-02 -1.82669610e-01
3.87488455e-02 5.08844927e-02 -1.23901382e-01
0.00000000e+00 5.85437007e-02 -1.13025725e-01
7.49359876e-02 5.31359985e-02 -1.61778629e-01
9.40081924e-02 4.93699051e-02 -1.84324488e-01
8.65883380e-02 2.04936527e-02 -2.05610186e-01
9.96060595e-02 4.27175686e-02 -1.90168291e-01
3.90134640e-02 6.83829337e-02 -8.79624188e-02
0.00000000e+00 6.12881854e-02 -1.02490440e-01
8.33498836e-02 7.10212886e-02 -1.51399434e-01
3.45219970e-02 1.08249784e-01 -1.19604498e-01
0.00000000e+00 1.10433608e-01 -1.17084660e-01
3.97489816e-02 1.50080740e-01 -1.33345395e-01
0.00000000e+00 1.48269594e-01 -1.28789246e-01
6.15318678e-02 9.61507410e-02 -1.29180849e-01
9.18425545e-02 1.27431676e-01 -1.38266310e-01
9.08913165e-02 6.79372028e-02 -1.75732970e-01
1.23693034e-01 7.77873844e-02 -1.64641500e-01
4.36726436e-02 5.77639490e-02 -2.26936892e-01
8.03668052e-02 6.04791716e-02 -2.01541990e-01
1.13038257e-01 4.30238508e-02 -1.90767795e-01
1.21343091e-01 4.45016846e-02 -1.90337896e-01
1.13520369e-01 3.61829773e-02 -1.90608010e-01
1.13490313e-01 2.91247331e-02 -1.90596342e-01
1.20538607e-01 2.91126817e-02 -1.90587223e-01
1.20526642e-01 3.61944959e-02 -1.90542340e-01
1.13474533e-01 3.61784808e-02 -1.90609664e-01
1.13499328e-01 2.91338749e-02 -1.90577641e-01
1.20522708e-01 2.91040260e-02 -1.90594047e-01
1.20629802e-01 3.60738821e-02 -1.90543860e-01
0.00000000e+00 0.00000000e+00 -1.90574318e-01
3.13096605e-02 0.00000000e+00 -1.90574318e-01
3.48332189e-02 1.92392636e-02 -1.90574318e-01
0.00000000e+00 1.63953211e-02 -1.90574318e-01
5.78891113e-02 0.00000000e+00 -1.90574318e-01
6.06350675e-02 2.29877699e-02 -1.90574318e-01
7.56502301e-02 0.00000000e+00 -1.90574318e-01
7.91502893e-02 2.46499293e-02 -1.90574318e-01
8.88150036e-02 0.00000000e+00 -1.90574318e-01
9.04073268e-02 2.47545131e-02 -1.90574318e-01
1.01459429e-01 0.00000000e+00 -1.90574318e-01
9.92635339e-02 2.25254763e-02 -1.90574318e-01
1.14792094e-01 0.00000000e+00 -1.90574318e-01
1.07860938e-01 2.55126189e-02 -1.90574318e-01
4.33164909e-02 3.33297811e-02 -1.90574318e-01
0.00000000e+00 3.10208350e-02 -1.90574318e-01
7.34044090e-02 4.17718440e-02 -1.90574318e-01
8.72860327e-02 4.42401916e-02 -1.90574318e-01
9.54304636e-02 4.05402370e-02 -1.90574318e-01
9.65393633e-02 3.51404585e-02 -1.90574318e-01
9.91690233e-02 3.28507982e-02 -1.90574318e-01
5.20054102e-02 7.21053481e-02 -1.90574318e-01
0.00000000e+00 7.67741203e-02 -1.90574318e-01
8.71979296e-02 5.98437563e-02 -1.90574318e-01
9.97847319e-02 5.20352088e-02 -1.90574318e-01
9.98163372e-02 4.31043953e-02 -1.90574318e-01
9.99120176e-02 3.57182659e-02 -1.91005617e-01
1.00275382e-01 3.59401479e-02 -1.90574318e-01
1.00714579e-01 3.02275382e-02 -1.91217989e-01
1.00845218e-01 3.11386883e-02 -1.90574318e-01
1.06863528e-01 5.06473333e-02 -1.94947988e-01
1.09355152e-01 5.29663339e-02 -1.90574318e-01
1.08093724e-01 6.68755621e-02 -1.90574318e-01
1.06705308e-01 4.26622033e-02 -1.90375596e-01
1.06779054e-01 4.28381152e-02 -1.90574318e-01
1.06509387e-01 3.62241119e-02 -1.90588206e-01
1.06564105e-01 3.61341015e-02 -1.90574318e-01
1.06458992e-01 2.95085944e-02 -1.90596253e-01
1.06405094e-01 2.93238368e-02 -1.90574318e-01
0.00000000e+00 4.56604734e-02 -1.90574318e-01
6.55380934e-02 5.59427477e-02 -1.90574318e-01
4.95381840e-02 1.22577578e-01 -1.90574318e-01
0.00000000e+00 1.25635162e-01 -1.90574318e-01
1.13426492e-01 3.61691229e-02 -1.90574318e-01
1.13418326e-01 4.31352891e-02 -1.90574318e-01
1.13523841e-01 2.91645881e-02 -1.90574318e-01
5.30528016e-02 1.58118516e-01 -1.90574318e-01
0.00000000e+00 1.61801755e-01 -1.90574318e-01
7.48401284e-02 9.91740376e-02 -1.90574318e-01
1.12676367e-01 1.24853745e-01 -1.90574318e-01
1.00445583e-01 5.97230867e-02 -1.90574318e-01
1.30889118e-01 7.16900900e-02 -1.90574318e-01
1.21936262e-01 4.37182114e-02 -1.90574318e-01
1.20637730e-01 3.59947719e-02 -1.90574318e-01
1.20504826e-01 2.91224495e-02 -1.90574318e-01
</DataArray>
<DataArray type="Float32" Name="Spatial_acceleration" NumberOfComponents="3" format="ascii">
2.73307165e-07 9.54031975e-07 -6.84738154e-07
4.62174398e-07 9.36269771e-07 -8.00450607e-07
4.63843350e-07 1.32838886e-06 -7.94092784e-07
1.73171358e-07 1.22419988e-06 -6.15119916e-07
1.29421551e-07 1.14576017e-06 -9.97225470e-07
4.26428642e-07 1.06121240e-06 -8.51949039e-07
2.87850696e-07 1.45896274e-06 -1.12978614e-06
2.55743657e-07 1.37428447e-06 -1.31511683e-06
7.72794067e-07 8.81393760e-07 -5.33421826e-07
8.26875350e-07 1.10483165e-06 -4.87009686e-07
4.59353146e-07 1.17386708e-06 -1.06811524e-06
6.22272466e-07 1.29632156e-06 -9.07897913e-07
1.50491292e-06 1.30879130e-06 -9.57931093e-07
7.67111771e-07 1.14822387e-06 1.92548328e-06
1.62202116e-06 1.85285387e-06 -2.47845537e-06
1.31605066e-06 -2.13086597e-08 1.19963784e-06
2.43159047e-06 1.41996452e-06 3.59639580e-06
2.43690351e-06 1.49287030e-06 -3.08797757e-06
1.37943528e-06 1.40021245e-06 1.69441842e-06
1.79374342e-06 2.82813471e-06 -2.28663043e-06
0.00000000e+00 0.00000000e+00 -7.38779704e-07
1.24573702e-07 0.00000000e+00 -8.51949039e-07
1.76131721e-07 2.05457212e-07 -9.61780529e-07
0.00000000e+00 1.30395094e-07 -9.39051290e-07
0.00000000e+00 0.00000000e+00 -1.16348269e-06
1.21712688e-07 0.00000000e+00 -1.11262000e-06
1.83324019e-07 2.43072719e-07 -1.12517671e-06
0.00000000e+00 2.05755228e-07 -1.15203852e-06
3.65535413e-07 0.00000000e+00 -8.37643938e-07
3.77317264e-07 2.18649703e-07 -9.70681526e-07
4.08629575e-07 0.00000000e+00 -1.21943151e-06
3.77158329e-07 2.83618760e-07 -1.15521743e-06
4.35034423e-07 0.00000000e+00 -7.62939464e-07
5.11169446e-07 2.33491264e-07 -8.37008145e-07
5.61560171e-07 0.00000000e+00 -1.22706092e-06
5.70009149e-07 1.91544487e-07 -1.13296505e-06
7.31825821e-07 0.00000000e+00 -7.01904298e-07
7.70568818e-07 2.86360574e-07 -7.96953827e-07
7.50501954e-07 0.00000000e+00 -1.12533564e-06
7.66277310e-07 1.97172156e-07 -1.06652578e-06
1.03202956e-06 0.00000000e+00 -6.82512905e-07
1.03058414e-06 2.37007939e-07 -8.50359584e-07
1.04391574e-06 0.00000000e+00 -1.19558968e-06
1.01534522e-06 2.15808555e-07 -1.04490914e-06
1.39373537e-06 0.00000000e+00 -7.71840405e-07
1.38310588e-06 3.10887884e-07 -8.28107204e-07
1.30546096e-06 0.00000000e+00 -1.22960409e-06
1.30538149e-06 2.70803753e-07 -1.09545385e-06
2.69412993e-07 4.68810384e-07 -9.06308458e-07
0.00000000e+00 4.48336209e-07 -1.00072225e-06
2.21848481e-07 4.08013648e-07 -1.25567112e-06
0.00000000e+00 4.29908425e-07 -1.29540763e-06
4.58490263e-07 4.94502842e-07 -8.37416849e-07
4.54346321e-07 4.53829756e-07 -1.10117594e-06
6.28089936e-07 3.51333625e-07 -7.78706863e-07
5.80038318e-07 4.88008766e-07 -1.01216631e-06
6.62247317e-07 4.93208574e-07 -7.78834021e-07
7.17035959e-07 4.15293385e-07 -9.67915867e-07
8.52217283e-07 5.83132078e-07 -6.75837214e-07
9.14017335e-07 4.74929806e-07 -9.99450663e-07
1.14147861e-06 8.04503770e-07 -6.34511309e-07
1.03280945e-06 6.59863133e-07 -1.02996830e-06
2.52564746e-07 6.97907922e-07 -9.83828613e-07
0.00000000e+00 6.82989764e-07 -9.33011336e-07
2.82287601e-07 6.68571090e-07 -1.25449048e-06
0.00000000e+00 6.88433659e-07 -1.41334533e-06
4.02132656e-07 6.19967750e-07 -8.16345221e-07
5.28081273e-07 6.25356051e-07 -1.13169358e-06
1.22308734e-07 4.17987508e-07 -1.29890441e-06
5.12864858e-07 6.94062976e-07 -1.22833251e-06
3.20979524e-07 8.28152622e-07 -8.25427833e-07
0.00000000e+00 8.65221011e-07 -9.88324473e-07
3.71932998e-07 8.95110304e-07 -1.17768184e-06
0.00000000e+00 9.59744057e-07 -1.43369039e-06
0.00000000e+00 1.11422071e-06 -1.11230213e-06
2.55743657e-07 1.42597014e-06 -1.49826769e-06
0.00000000e+00 1.35093433e-06 -1.48391723e-06
5.38825986e-07 9.52561663e-07 -8.95182268e-07
5.08864730e-07 9.64482638e-07 -1.00326542e-06
3.44912223e-07 1.32497155e-06 -1.23443601e-06
0.00000000e+00 1.50163964e-06 -1.15203852e-06
1.82270995e-07 1.44823389e-06 -1.50235496e-06
0.00000000e+00 1.47279104e-06 -1.74967442e-06
2.50577926e-07 1.62061053e-06 -1.32211051e-06
2.53253518e-07 1.38770213e-06 -7.96000165e-07
5.72628437e-07 1.26923453e-06 -1.19230481e-06
0.00000000e+00 0.00000000e+00 -1.44195553e-06
2.34375392e-07 0.00000000e+00 -1.44322712e-06
2.04443936e-07 2.43991622e-07 -1.45594277e-06
0.00000000e+00 2.77519234e-07 -1.39045710e-06
4.21126686e-07 0.00000000e+00 -1.50616961e-06
4.02073056e-07 2.34524407e-07 -1.49504342e-06
5.97894200e-07 0.00000000e+00 -1.55067437e-06
6.58432612e-07 2.55584723e-07 -1.45562490e-06
8.77499588e-07 0.00000000e+00 -1.43877662e-06
7.74939849e-07 2.44617468e-07 -1.41048429e-06
1.04665753e-06 0.00000000e+00 -1.43146508e-06
1.02758406e-06 2.21093487e-07 -1.38219195e-06
1.10254689e-06 0.00000000e+00 -1.53477981e-06
1.18462242e-06 2.66710913e-07 -1.41143801e-06
9.09169486e-08 4.30345523e-07 -1.48105619e-06
0.00000000e+00 4.67061994e-07 -1.46420791e-06
4.25020858e-07 4.39862418e-07 -1.39109295e-06
6.75737851e-07 5.42442024e-07 -1.44704177e-06
7.95228118e-07 5.23703420e-07 -1.39145618e-06
8.50518575e-07 3.72356851e-07 -1.30038791e-06
1.08973188e-06 5.72416525e-07 -1.35464143e-06
1.36163507e-07 5.99331315e-07 -1.69372561e-06
0.00000000e+00 5.92337699e-07 -1.82596841e-06
3.61204144e-07 6.95652432e-07 -1.30632191e-06
8.25749510e-07 6.21583752e-07 -1.64455844e-06
7.41124154e-07 5.20606818e-07 -1.82056431e-06
7.92376227e-07 6.01069132e-07 -1.53706867e-06
2.36670175e-07 1.09243388e-06 -1.73568719e-06
0.00000000e+00 1.17725801e-06 -1.78951689e-06
1.80721287e-07 6.66538881e-07 -9.62575314e-07
3.34845645e-08 1.34393906e-06 -1.75984701e-06
0.00000000e+00 1.30844114e-06 -1.73950195e-06
1.88986462e-07 1.42351780e-06 -1.84186297e-06
0.00000000e+00 1.47620835e-06 -1.63841241e-06
3.34143635e-07 1.42103431e-06 -1.42796830e-06
2.69730890e-07 1.49623554e-06 -1.49154664e-06
4.90983325e-07 1.29437444e-06 -1.48582455e-06
9.07580045e-07 1.41700104e-06 -1.41652424e-06
-8.54810082e-07 1.07858580e-06 -2.26910902e-06
3.45905619e-07 9.58581722e-07 -1.32179264e-06
9.38057894e-07 6.31848991e-07 -1.69897078e-06
8.49988737e-07 5.81211509e-07 -1.61658397e-06
9.70635597e-07 7.76073648e-07 -3.38777545e-06
1.47469837e-06 5.10796895e-07 -7.26054111e-07
5.37375627e-07 2.42625674e-07 -2.77544314e-06
1.19069216e-06 1.04374442e-06 -7.82125937e-07
8.73788224e-07 4.29399819e-07 -1.32179855e-06
5.37673657e-07 5.34190065e-07 -2.29833518e-06
1.00318584e-06 7.75426599e-07 -1.45903971e-06
8.04503770e-07 1.90205043e-07 -2.27122678e-06
0.00000000e+00 0.00000000e+00 -1.72624186e-06
1.66058541e-07 0.00000000e+00 -1.72624186e-06
1.79251032e-07 2.46708595e-07 -1.72624186e-06
0.00000000e+00 2.17596693e-07 -1.72624186e-06
4.58796819e-07 0.00000000e+00 -1.72624186e-06
4.52955561e-07 2.58445738e-07 -1.72624186e-06
6.70671454e-07 0.00000000e+00 -1.72624186e-06
6.64432832e-07 2.60273623e-07 -1.72624186e-06
9.62734248e-07 0.00000000e+00 -1.72624186e-06
8.29676765e-07 1.94390608e-07 -1.72624186e-06
1.05230015e-06 0.00000000e+00 -1.72624186e-06
9.96708877e-07 2.58604672e-07 -1.72624186e-06
1.25969950e-06 0.00000000e+00 -1.72624186e-06
1.09887117e-06 2.40166969e-07 -1.72624186e-06
2.01066328e-07 4.11510456e-07 -1.72624186e-06
0.00000000e+00 4.45048016e-07 -1.72624186e-06
4.32968136e-07 4.80106735e-07 -1.72624186e-06
6.92288097e-07 5.31355511e-07 -1.72624186e-06
7.08500522e-07 4.78426614e-07 -1.72624186e-06
8.93175581e-07 5.02228716e-07 -1.72624186e-06
9.52720654e-07 6.39398877e-07 -1.72624186e-06
7.86781307e-09 4.28040806e-07 -1.72624186e-06
0.00000000e+00 4.11093225e-07 -1.72624186e-06
4.96546420e-07 5.94430503e-07 -1.72624186e-06
6.88632326e-07 6.90301249e-07 -1.72624186e-06
7.72158273e-07 7.15851797e-07 -1.72624186e-06
8.18252545e-07 7.82330801e-07 -1.64794915e-06
7.92185460e-07 6.45319631e-07 -1.72624186e-06
8.59896318e-07 5.06877882e-07 -1.72519685e-06
8.24610368e-07 6.19888283e-07 -1.72624186e-06
8.67525728e-07 6.16709372e-07 -1.80816653e-06
7.15732540e-07 6.35941831e-07 -1.72624186e-06
7.77562434e-07 7.45375928e-07 -1.72624186e-06
7.80529433e-07 6.63757305e-07 -1.73287924e-06
7.25507732e-07 7.23308972e-07 -1.72624186e-06
7.67002518e-07 6.38365748e-07 -1.77391371e-06
9.19679792e-07 5.52897632e-07 -1.72624186e-06
9.56773761e-07 5.69025644e-07 -1.78198013e-06
6.84102361e-07 7.01586373e-07 -1.72624186e-06
0.00000000e+00 9.53243386e-07 -1.72624186e-06
-1.02271635e-07 1.16736942e-06 -1.72624186e-06
7.38567749e-08 1.27715532e-06 -1.72624186e-06
0.00000000e+00 1.50398409e-06 -1.72624186e-06
8.73804083e-07 7.36614084e-07 -1.72624186e-06
9.75343937e-07 6.95546476e-07 -1.72624186e-06
1.28793715e-06 6.19729349e-07 -1.72624186e-06
1.44640609e-07 1.49468087e-06 -1.72624186e-06
0.00000000e+00 1.26445298e-06 -1.72624186e-06
5.10175994e-07 1.45538650e-06 -1.72624186e-06
3.26792389e-07 1.46897628e-06 -1.72624186e-06
3.48647433e-07 1.28046668e-06 -1.72624186e-06
1.03267030e-06 1.33562082e-06 -1.72624186e-06
6.77744538e-07 6.91731771e-07 -1.72624186e-06
8.08080017e-07 1.05730692e-06 -1.72624186e-06
3.73075409e-07 3.90688569e-07 -1.72624186e-06
</DataArray>
<DataArray type="Float32" Name="Spatial_velocity" NumberOfComponents="3" format="ascii">
7.06529754e-05 4.18166775e-04 -2.02412630e-04
1.18418597e-04 4.01099824e-04 -1.58217983e-04
1.21031808e-04 5.08037512e-04 -2.37902743e-04
5.93662808e-05 4.92514169e-04 -2.62641843e-04
5.70607917e-05 4.87277372e-04 -3.07585375e-04
1.33798530e-04 4.84288699e-04 -2.98630446e-04
1.14652692e-04 6.26436260e-04 -3.99815384e-04
6.41028964e-05 5.63165988e-04 -3.78330442e-04
2.14254949e-04 3.68288485e-04 -1.31422974e-04
2.30917634e-04 4.96028049e-04 -2.42650131e-04
2.16467321e-04 4.71664040e-04 -3.49882495e-04
3.02778935e-04 5.81498782e-04 -5.02044859e-04
2.12363113e-04 3.59267055e-04 3.34849744e-07
2.12273037e-04 3.64448875e-04 3.80538495e-07
2.07366771e-04 3.64417967e-04 -8.25253494e-07
2.07372053e-04 3.59356025e-04 -2.07399239e-07
2.12761472e-04 3.60379228e-04 9.45422414e-07
2.12804080e-04 3.65168729e-04 -3.68118947e-07
2.07733130e-04 3.65156215e-04 -2.14981469e-07
2.07679215e-04 3.60164762e-04 -6.73224633e-07
0.00000000e+00 0.00000000e+00 -4.80651710e-04
9.09767405e-05 0.00000000e+00 -4.83528391e-04
9.47038279e-05 9.89387117e-05 -4.71411651e-04
0.00000000e+00 9.56704971e-05 -4.59842937e-04
0.00000000e+00 0.00000000e+00 -6.45605731e-04
1.23029371e-04 0.00000000e+00 -6.46638859e-04
1.25852122e-04 9.88702232e-05 -6.37445715e-04
0.00000000e+00 9.24929263e-05 -6.23769767e-04
2.00496055e-04 0.00000000e+00 -5.10559534e-04
1.77522466e-04 8.13367660e-05 -4.95342072e-04
2.38635082e-04 0.00000000e+00 -6.65546570e-04
2.43982155e-04 1.02834951e-04 -6.61319413e-04
2.97338207e-04 0.00000000e+00 -5.43250237e-04
2.99384032e-04 6.97872529e-05 -5.37519227e-04
3.55546741e-04 0.00000000e+00 -6.95343711e-04
3.44001077e-04 8.95442063e-05 -6.93405280e-04
4.14280163e-04 0.00000000e+00 -5.72052435e-04
4.21015458e-04 7.39423631e-05 -5.81849192e-04
4.56236274e-04 0.00000000e+00 -7.19536329e-04
4.51523840e-04 7.29859239e-05 -7.35665322e-04
5.37216372e-04 0.00000000e+00 -6.08425820e-04
5.40173263e-04 8.02671639e-05 -6.01717096e-04
5.52652695e-04 0.00000000e+00 -7.37890543e-04
5.51976496e-04 6.83692706e-05 -7.65899371e-04
6.50029106e-04 0.00000000e+00 -6.23850734e-04
6.50728587e-04 7.92017308e-05 -6.16226171e-04
6.28298032e-04 0.00000000e+00 -7.43510958e-04
6.54844334e-04 6.53590832e-05 -7.66296987e-04
6.47463603e-05 1.84543518e-04 -4.29386942e-04
0.00000000e+00 2.10658996e-04 -4.23188496e-04
1.24811631e-04 1.99288887e-04 -5.91180869e-04
0.00000000e+00 2.00074865e-04 -5.87750052e-04
1.72137428e-04 1.85311030e-04 -4.71552514e-04
2.60055298e-04 2.10026337e-04 -6.52421615e-04
2.80485139e-04 1.99139555e-04 -5.59324806e-04
3.60617210e-04 1.96508961e-04 -7.66434474e-04
4.14484908e-04 2.22112561e-04 -5.83765912e-04
4.35320602e-04 1.72107335e-04 -8.01948016e-04
5.37326501e-04 2.07538804e-04 -5.76270220e-04
5.47998876e-04 1.92786203e-04 -7.99573667e-04
6.45202235e-04 2.14405212e-04 -5.87775605e-04
6.52074232e-04 1.92162421e-04 -8.00751499e-04
5.30031248e-05 3.21609434e-04 -3.44793138e-04
0.00000000e+00 3.12712393e-04 -3.48994363e-04
1.19378943e-04 3.13465367e-04 -5.21763694e-04
0.00000000e+00 3.12672550e-04 -5.08096593e-04
1.53047498e-04 2.77136103e-04 -4.09502623e-04
2.95767008e-04 3.25461093e-04 -6.72919676e-04
1.30234737e-04 2.49443197e-04 -9.78140975e-04
4.18408628e-04 2.88881041e-04 -8.86558031e-04
5.15782813e-05 3.92489106e-04 -2.89701944e-04
0.00000000e+00 4.07714018e-04 -2.90683151e-04
9.36661672e-05 4.39968862e-04 -4.00807563e-04
0.00000000e+00 4.53490211e-04 -4.42326156e-04
0.00000000e+00 4.74713015e-04 -3.18364968e-04
8.84689434e-05 5.73122234e-04 -4.47561062e-04
0.00000000e+00 5.38968248e-04 -4.65154182e-04
1.38403731e-04 3.93873255e-04 -2.20064278e-04
2.22246468e-04 4.62414493e-04 -4.69496619e-04
2.14354615e-04 5.42106514e-04 -4.56442096e-04
0.00000000e+00 5.66076546e-04 -4.01659927e-04
1.21238845e-04 6.80509431e-04 -5.77443105e-04
0.00000000e+00 7.11816829e-04 -5.54059574e-04
2.11620616e-04 7.10081309e-04 -5.81547851e-04
2.72049976e-04 5.00136695e-04 -6.75967080e-04
4.29351523e-04 5.65780036e-04 -6.71885558e-04
0.00000000e+00 0.00000000e+00 -8.27463809e-04
1.53582208e-04 0.00000000e+00 -8.33185215e-04
1.61812393e-04 1.02297396e-04 -8.27787619e-04
0.00000000e+00 9.45741194e-05 -8.21308815e-04
2.82172463e-04 0.00000000e+00 -8.41319794e-04
3.01470573e-04 1.19353041e-04 -8.46785610e-04
3.89234046e-04 0.00000000e+00 -8.56809493e-04
4.02193371e-04 1.24726197e-04 -8.61630077e-04
4.84916760e-04 0.00000000e+00 -8.75575293e-04
4.75791167e-04 1.13064940e-04 -8.77885788e-04
5.62615518e-04 0.00000000e+00 -8.83034256e-04
5.50325611e-04 1.00257363e-04 -8.93225253e-04
6.24948705e-04 0.00000000e+00 -8.84901674e-04
6.27423113e-04 1.08208231e-04 -8.88722774e-04
1.86784557e-04 2.19408976e-04 -8.08144861e-04
0.00000000e+00 2.01083152e-04 -7.95005762e-04
3.38392420e-04 2.42385489e-04 -8.45924020e-04
4.35001537e-04 2.39799439e-04 -9.07186302e-04
4.90345934e-04 2.13893261e-04 -9.49774112e-04
5.28343895e-04 1.84046876e-04 -9.78132943e-04
5.74294187e-04 1.91095576e-04 -9.76343814e-04
1.92241117e-04 3.04828282e-04 -7.45727040e-04
0.00000000e+00 3.41734587e-04 -7.05306767e-04
3.80815327e-04 3.13304306e-04 -8.66605726e-04
5.01434901e-04 2.93668272e-04 -9.93073569e-04
4.68093698e-04 1.39341864e-04 -1.12058979e-03
5.35414554e-04 2.61074281e-04 -1.03270472e-03
2.12897314e-04 4.34368965e-04 -5.94816869e-04
0.00000000e+00 4.03476384e-04 -6.79188466e-04
4.15071321e-04 3.94715491e-04 -8.01467802e-04
1.67885824e-04 6.47503475e-04 -7.20701704e-04
0.00000000e+00 6.59967831e-04 -7.31034204e-04
2.01438525e-04 8.38047941e-04 -7.99868954e-04
0.00000000e+00 8.32850928e-04 -7.58309034e-04
2.94124038e-04 5.89255651e-04 -7.08384032e-04
4.52307926e-04 7.31639273e-04 -7.75705732e-04
4.59570379e-04 4.19808493e-04 -9.41396924e-04
6.62313658e-04 4.78583679e-04 -8.74555844e-04
1.26307379e-04 3.59543163e-04 -1.29854295e-03
3.93721566e-04 3.64812469e-04 -1.11072906e-03
6.02676650e-04 2.61180743e-04 -1.03612244e-03
6.36014098e-04 2.60696950e-04 -1.03658030e-03
6.02646964e-04 2.28130230e-04 -1.03721314e-03
6.02441432e-04 1.95246510e-04 -1.03691919e-03
6.35227188e-04 1.94895547e-04 -1.03720487e-03
6.35572476e-04 2.27925717e-04 -1.03675213e-03
6.02654589e-04 2.28060424e-04 -1.03707763e-03
6.02499989e-04 1.95120330e-04 -1.03708729e-03
6.35385572e-04 1.95025743e-04 -1.03700685e-03
6.35414966e-04 2.27717188e-04 -1.03695330e-03
0.00000000e+00 0.00000000e+00 -1.03699183e-03
1.64073106e-04 0.00000000e+00 -1.03699183e-03
1.78478978e-04 1.11085894e-04 -1.03699183e-03
0.00000000e+00 1.00118050e-04 -1.03699183e-03
3.04365065e-04 0.00000000e+00 -1.03699183e-03
3.16737656e-04 1.29665525e-04 -1.03699183e-03
4.04675637e-04 0.00000000e+00 -1.03699183e-03
4.24225873e-04 1.40937627e-04 -1.03699183e-03
4.89326776e-04 0.00000000e+00 -1.03699183e-03
4.94272797e-04 1.41201017e-04 -1.03699183e-03
5.64140733e-04 0.00000000e+00 -1.03699183e-03
5.53637801e-04 1.29093110e-04 -1.03699183e-03
6.39201375e-04 0.00000000e+00 -1.03699183e-03
5.98243671e-04 1.48065898e-04 -1.03699183e-03
2.18383866e-04 2.02858748e-04 -1.03699183e-03
0.00000000e+00 1.88686201e-04 -1.03699183e-03
3.81519814e-04 2.44368624e-04 -1.03699183e-03
4.62719909e-04 2.58966698e-04 -1.03699183e-03
5.13708277e-04 2.39108791e-04 -1.03699183e-03
5.24819014e-04 2.15537439e-04 -1.03699183e-03
5.47905627e-04 2.10324200e-04 -1.03699183e-03
2.38184046e-04 3.79234756e-04 -1.03699183e-03
0.00000000e+00 3.92707298e-04 -1.03699183e-03
4.36792645e-04 3.36552563e-04 -1.03699183e-03
5.34947321e-04 3.10170435e-04 -1.03699183e-03
5.36618521e-04 2.64908653e-04 -1.03699183e-03
5.36067993e-04 2.26426942e-04 -1.03863946e-03
5.37721266e-04 2.28106379e-04 -1.03699183e-03
5.41693880e-04 1.99328191e-04 -1.04137952e-03
5.43436152e-04 2.04666896e-04 -1.03699183e-03
5.67739189e-04 2.98920611e-04 -1.06212404e-03
5.83262648e-04 3.16661724e-04 -1.03699183e-03
5.63018839e-04 3.84414918e-04 -1.03699183e-03
5.69645141e-04 2.60918634e-04 -1.03690603e-03
5.70368313e-04 2.61621928e-04 -1.03699183e-03
5.69935422e-04 2.28474426e-04 -1.03715749e-03
5.70136297e-04 2.28174380e-04 -1.03699183e-03
5.69172960e-04 1.95103275e-04 -1.03694643e-03
5.68927790e-04 1.94830660e-04 -1.03699183e-03
0.00000000e+00 3.70437076e-04 -1.03699183e-03
2.42648559e-04 4.16623370e-04 -1.03699183e-03
2.21469454e-04 6.96097850e-04 -1.03699183e-03
0.00000000e+00 7.30153231e-04 -1.03699183e-03
6.02736545e-04 2.28102639e-04 -1.03699183e-03
6.03590510e-04 2.60384666e-04 -1.03699183e-03
6.02601503e-04 1.95109460e-04 -1.03699183e-03
2.34997278e-04 8.82352353e-04 -1.03699183e-03
0.00000000e+00 8.59463762e-04 -1.03699183e-03
3.74616910e-04 6.08658476e-04 -1.03699183e-03
5.50803496e-04 7.28312414e-04 -1.03699183e-03
4.89950122e-04 3.70480702e-04 -1.03699183e-03
6.93628797e-04 4.49573854e-04 -1.03699183e-03
6.34472817e-04 2.60038883e-04 -1.03699183e-03
6.35717646e-04 2.28064280e-04 -1.03699183e-03
6.35309261e-04 1.94790322e-04 -1.03699183e-03
</DataArray>
<DataArray type="Float32" Name="Reaction_force" NumberOfComponents="3" format="ascii">
0.00000000e+00 0.00000000e+00 0.00000000e+00
0.00000000e+00 0.00000000e+00 0.00000000e+00
0.00000000e+00 0.00000000e+00 0.00000000e+00
0.00000000e+00 0.00000000e+00 0.00000000e+00
0.00000000e+00 0.00000000e+00 0.00000000e+00
0.00000000e+00 0.00000000e+00 0.00000000e+00
0.00000000e+00 0.00000000e+00 0.00000000e+00
0.00000000e+00 0.00000000e+00 0.00000000e+00
0.00000000e+00 0.00000000e+00 0.00000000e+00
0.00000000e+00 0.00000000e+00 0.00000000e+00
0.00000000e+00 0.00000000e+00 0.00000000e+00
0.00000000e+00 0.00000000e+00 0.00000000e+00
0.00000000e+00 0.00000000e+00 0.00000000e+00
0.00000000e+00 0.00000000e+00 0.00000000e+00
0.00000000e+00 0.00000000e+00 0.00000000e+00
0.00000000e+00 0.00000000e+00 0.00000000e+00
0.00000000e+00 0.00000000e+00 0.00000000e+00
0.00000000e+00 0.00000000e+00 0.00000000e+00
0.00000000e+00 0.00000000e+00 0.00000000e+00
0.00000000e+00 0.00000000e+00 0.00000000e+00
-1.51626885e-01 -3.87706071e-01 0.00000000e+00
0.00000000e+00 4.78915781e-01 0.00000000e+00
0.00000000e+00 0.00000000e+00 0.00000000e+00
1.09659863e+00 0.00000000e+00 0.00000000e+00
-6.93706870e-02 1.30662835e+00 0.00000000e+00
0.00000000e+00 2.39270496e+00 0.00000000e+00
0.00000000e+00 0.00000000e+00 0.00000000e+00
3.17770660e-01 0.00000000e+00 0.00000000e+00
0.00000000e+00 1.28169227e+00 0.00000000e+00
0.00000000e+00 0.00000000e+00 0.00000000e+00
0.00000000e+00 2.34749866e+00 0.00000000e+00
0.00000000e+00 0.00000000e+00 0.00000000e+00
0.00000000e+00 2.35791898e+00 0.00000000e+00
0.00000000e+00 0.00000000e+00 0.00000000e+00
0.00000000e+00 1.97661960e+00 0.00000000e+00
0.00000000e+00 0.00000000e+00 0.00000000e+00
0.00000000e+00 3.88856983e+00 0.00000000e+00
0.00000000e+00 0.00000000e+00 0.00000000e+00
0.00000000e+00 1.15279341e+00 0.00000000e+00
0.00000000e+00 0.00000000e+00 0.00000000e+00
0.00000000e+00 3.12018418e+00 0.00000000e+00
0.00000000e+00 0.00000000e+00 0.00000000e+00
0.00000000e+00 2.37280548e-01 0.00000000e+00
0.00000000e+00 0.00000000e+00 0.00000000e+00
0.00000000e+00 1.46717525e+00 0.00000000e+00
0.00000000e+00 0.00000000e+00 0.00000000e+00
0.00000000e+00 3.45876068e-01 0.00000000e+00
0.00000000e+00 0.00000000e+00 0.00000000e+00
0.00000000e+00 0.00000000e+00 0.00000000e+00
1.43717158e+00 0.00000000e+00 0.00000000e+00
0.00000000e+00 0.00000000e+00 0.00000000e+00
5.92828989e-01 0.00000000e+00 0.00000000e+00
0.00000000e+00 0.00000000e+00 0.00000000e+00
0.00000000e+00 0.00000000e+00 0.00000000e+00
0.00000000e+00 0.00000000e+00 0.00000000e+00
0.00000000e+00 0.00000000e+00 0.00000000e+00
0.00000000e+00 0.00000000e+00 0.00000000e+00
0.00000000e+00 0.00000000e+00 0.00000000e+00
0.00000000e+00 0.00000000e+00 0.00000000e+00
0.00000000e+00 0.00000000e+00 0.00000000e+00
0.00000000e+00 0.00000000e+00 0.00000000e+00
0.00000000e+00 0.00000000e+00 0.00000000e+00
0.00000000e+00 0.00000000e+00 0.00000000e+00
6.16309166e-01 0.00000000e+00 0.00000000e+00
0.00000000e+00 0.00000000e+00 0.00000000e+00
1.56554747e+00 0.00000000e+00 0.00000000e+00
0.00000000e+00 0.00000000e+00 0.00000000e+00
0.00000000e+00 0.00000000e+00 0.00000000e+00
0.00000000e+00 0.00000000e+00 0.00000000e+00
0.00000000e+00 0.00000000e+00 0.00000000e+00
0.00000000e+00 0.00000000e+00 0.00000000e+00
-9.98274684e-02 0.00000000e+00 0.00000000e+00
0.00000000e+00 0.00000000e+00 0.00000000e+00
6.41719818e-01 0.00000000e+00 0.00000000e+00
5.64593792e-01 0.00000000e+00 0.00000000e+00
0.00000000e+00 0.00000000e+00 0.00000000e+00
5.80055952e-01 0.00000000e+00 0.00000000e+00
0.00000000e+00 0.00000000e+00 0.00000000e+00
0.00000000e+00 0.00000000e+00 0.00000000e+00
0.00000000e+00 0.00000000e+00 0.00000000e+00
3.16366643e-01 0.00000000e+00 0.00000000e+00
0.00000000e+00 0.00000000e+00 0.00000000e+00
1.33067369e+00 0.00000000e+00 0.00000000e+00
0.00000000e+00 0.00000000e+00 0.00000000e+00
0.00000000e+00 0.00000000e+00 0.00000000e+00
0.00000000e+00 0.00000000e+00 0.00000000e+00
-9.46882963e-02 2.29753447e+00 0.00000000e+00
0.00000000e+00 3.44465351e+00 0.00000000e+00
0.00000000e+00 0.00000000e+00 0.00000000e+00
5.69623932e-02 0.00000000e+00 0.00000000e+00
0.00000000e+00 1.41471863e+00 0.00000000e+00
0.00000000e+00 0.00000000e+00 0.00000000e+00
0.00000000e+00 1.60294175e-02 0.00000000e+00
0.00000000e+00 0.00000000e+00 0.00000000e+00
0.00000000e+00 -1.25428247e+00 0.00000000e+00
0.00000000e+00 0.00000000e+00 0.00000000e+00
0.00000000e+00 -3.04846931e+00 0.00000000e+00
0.00000000e+00 0.00000000e+00 0.00000000e+00
0.00000000e+00 -2.10050035e+00 0.00000000e+00
0.00000000e+00 0.00000000e+00 0.00000000e+00
0.00000000e+00 0.00000000e+00 0.00000000e+00
1.06578398e+00 0.00000000e+00 0.00000000e+00
0.00000000e+00 0.00000000e+00 0.00000000e+00
0.00000000e+00 0.00000000e+00 0.00000000e+00
0.00000000e+00 0.00000000e+00 0.00000000e+00
0.00000000e+00 0.00000000e+00 0.00000000e+00
0.00000000e+00 0.00000000e+00 0.00000000e+00
0.00000000e+00 0.00000000e+00 0.00000000e+00
-1.14137971e+00 0.00000000e+00 0.00000000e+00
0.00000000e+00 0.00000000e+00 0.00000000e+00
0.00000000e+00 0.00000000e+00 0.00000000e+00
0.00000000e+00 0.00000000e+00 0.00000000e+00
0.00000000e+00 0.00000000e+00 0.00000000e+00
0.00000000e+00 0.00000000e+00 0.00000000e+00
1.04570317e+00 0.00000000e+00 0.00000000e+00
0.00000000e+00 0.00000000e+00 0.00000000e+00
0.00000000e+00 0.00000000e+00 0.00000000e+00
1.86869919e+00 0.00000000e+00 0.00000000e+00
0.00000000e+00 0.00000000e+00 0.00000000e+00
7.45851994e-01 0.00000000e+00 0.00000000e+00
0.00000000e+00 0.00000000e+00 0.00000000e+00
0.00000000e+00 0.00000000e+00 0.00000000e+00
0.00000000e+00 0.00000000e+00 0.00000000e+00
0.00000000e+00 0.00000000e+00 0.00000000e+00
0.00000000e+00 0.00000000e+00 0.00000000e+00
0.00000000e+00 0.00000000e+00 0.00000000e+00
0.00000000e+00 0.00000000e+00 0.00000000e+00
0.00000000e+00 0.00000000e+00 0.00000000e+00
0.00000000e+00 0.00000000e+00 0.00000000e+00
0.00000000e+00 0.00000000e+00 0.00000000e+00
0.00000000e+00 0.00000000e+00 0.00000000e+00
0.00000000e+00 0.00000000e+00 0.00000000e+00
0.00000000e+00 0.00000000e+00 0.00000000e+00
0.00000000e+00 0.00000000e+00 0.00000000e+00
0.00000000e+00 0.00000000e+00 0.00000000e+00
0.00000000e+00 0.00000000e+00 0.00000000e+00
-1.33489398e-02 1.28870559e+00 -9.17225552e+00
0.00000000e+00 2.01162958e+00 -1.82082119e+01
0.00000000e+00 0.00000000e+00 -3.57191811e+01
-2.76177347e-01 0.00000000e+00 -1.82895012e+01
0.00000000e+00 5.84021211e-01 -1.76540890e+01
0.00000000e+00 0.00000000e+00 -3.41606674e+01
0.00000000e+00 -5.72795630e-01 -1.69429455e+01
0.00000000e+00 0.00000000e+00 -3.11327763e+01
0.00000000e+00 -1.09081149e+00 -1.59883213e+01
0.00000000e+00 0.00000000e+00 -2.80270500e+01
0.00000000e+00 -1.87289572e+00 -1.44009266e+01
0.00000000e+00 0.00000000e+00 -2.60899067e+01
0.00000000e+00 -1.66615975e+00 -7.07466269e+00
0.00000000e+00 0.00000000e+00 -1.38646278e+01
0.00000000e+00 0.00000000e+00 -3.76192436e+01
1.55013227e+00 0.00000000e+00 -2.11503029e+01
0.00000000e+00 0.00000000e+00 -2.87676182e+01
0.00000000e+00 0.00000000e+00 -2.41708679e+01
0.00000000e+00 0.00000000e+00 -1.86782551e+01
0.00000000e+00 0.00000000e+00 -1.81368675e+01
0.00000000e+00 0.00000000e+00 -1.16999760e+01
0.00000000e+00 0.00000000e+00 -2.40887051e+01
-6.09611511e-01 0.00000000e+00 -1.45472965e+01
0.00000000e+00 0.00000000e+00 -2.23386192e+01
0.00000000e+00 0.00000000e+00 -1.48317738e+01
0.00000000e+00 0.00000000e+00 -7.48897266e+00
0.00000000e+00 0.00000000e+00 0.00000000e+00
0.00000000e+00 0.00000000e+00 -8.73716354e+00
0.00000000e+00 0.00000000e+00 0.00000000e+00
0.00000000e+00 0.00000000e+00 -4.82382965e+00
0.00000000e+00 0.00000000e+00 0.00000000e+00
0.00000000e+00 0.00000000e+00 -4.97019243e+00
0.00000000e+00 0.00000000e+00 -9.09566593e+00
0.00000000e+00 0.00000000e+00 0.00000000e+00
0.00000000e+00 0.00000000e+00 3.97217083e+00
0.00000000e+00 0.00000000e+00 0.00000000e+00
0.00000000e+00 0.00000000e+00 5.26552677e+00
0.00000000e+00 0.00000000e+00 0.00000000e+00
0.00000000e+00 0.00000000e+00 3.32880569e+00
9.85982001e-01 0.00000000e+00 -1.48706961e+01
0.00000000e+00 0.00000000e+00 -1.47375889e+01
0.00000000e+00 0.00000000e+00 -2.86168461e+01
1.93855286e+00 0.00000000e+00 -2.01821194e+01
0.00000000e+00 0.00000000e+00 1.66013455e+00
0.00000000e+00 0.00000000e+00 -6.03825665e+00
0.00000000e+00 0.00000000e+00 -7.90118575e-01
0.00000000e+00 0.00000000e+00 -1.64571095e+01
-1.41841635e-01 0.00000000e+00 -7.08476210e+00
0.00000000e+00 0.00000000e+00 -1.61492653e+01
0.00000000e+00 0.00000000e+00 -1.64766865e+01
0.00000000e+00 0.00000000e+00 -1.03251982e+01
0.00000000e+00 0.00000000e+00 -1.02673779e+01
0.00000000e+00 0.00000000e+00 -6.42377710e+00
0.00000000e+00 0.00000000e+00 7.33746648e-01
0.00000000e+00 0.00000000e+00 -1.44994527e-01
</DataArray>
<DataArray type="Float32" Name="Equivalent_plastic_strain" format="ascii">
1.40751705e-02
1.68042185e-02
2.27360018e-02
1.57829057e-02
1.31515286e-02
2.46432360e-02
3.40897762e-02
2.43707949e-02
2.30385642e-02
3.62486355e-02
4.38697891e-02
5.06059676e-02
0.00000000e+00
0.00000000e+00
0.00000000e+00
0.00000000e+00
0.00000000e+00
0.00000000e+00
0.00000000e+00
0.00000000e+00
2.88875187e-02
2.85146884e-02
2.83762128e-02
2.85426863e-02
3.22058098e-02
3.22362478e-02
3.34391943e-02
3.42783052e-02
2.75410591e-02
2.88593660e-02
3.03767985e-02
3.22877918e-02
2.68812408e-02
3.00566936e-02
2.77690669e-02
2.95387767e-02
2.58630295e-02
3.23608690e-02
2.52030385e-02
2.58145814e-02
2.36999877e-02
3.04274000e-02
2.12221588e-02
2.49406677e-02
2.14757463e-02
2.73701074e-02
1.86989820e-02
2.29579480e-02
2.87020807e-02
2.68920958e-02
3.79732763e-02
3.58183552e-02
3.15694152e-02
3.51183612e-02
4.43664908e-02
3.00456810e-02
4.44535101e-02
3.07262912e-02
4.06557638e-02
3.44361775e-02
3.69243342e-02
3.35580111e-02
2.67122098e-02
2.18171286e-02
3.81275538e-02
3.18695023e-02
4.36759917e-02
4.60644372e-02
4.41439450e-02
9.13353885e-03
1.72785353e-02
1.67639805e-02
2.39641963e-02
2.24303566e-02
1.59610291e-02
3.71414796e-02
3.58982114e-02
2.53288285e-02
5.27773164e-02
4.25075468e-02
2.05992823e-02
3.76721071e-02
3.89301963e-02
4.77096662e-02
4.78920639e-02
4.08126699e-02
3.78238745e-02
3.70269781e-02
3.88408974e-02
4.01360597e-02
3.48713575e-02
3.51924645e-02
3.13892658e-02
3.03032016e-02
2.76541882e-02
2.54470673e-02
2.49067741e-02
2.27793769e-02
2.43553175e-02
2.29151156e-02
4.32109614e-02
4.92392024e-02
3.52399703e-02
2.26552153e-02
1.71710027e-02
1.61021577e-02
1.65033435e-02
5.06804232e-02
5.32412492e-02
3.44554695e-02
1.43774025e-02
1.91124603e-02
7.08404953e-04
6.19584899e-02
6.18803514e-02
5.00681158e-02
6.00730379e-02
6.32815212e-02
5.91053376e-02
5.85637689e-02
5.79681639e-02
5.37957372e-02
2.62773735e-02
3.12741473e-02
8.47853720e-03
9.63281002e-03
8.69911639e-03
3.44498578e-03
0.00000000e+00
0.00000000e+00
0.00000000e+00
0.00000000e+00
-6.00595095e-05
0.00000000e+00
0.00000000e+00
5.75194620e-05
4.05131727e-02
3.91103961e-02
4.11821287e-02
4.28742860e-02
3.65286376e-02
3.64997862e-02
3.33181378e-02
3.09911198e-02
2.98402756e-02
2.67021051e-02
2.83514783e-02
2.38702870e-02
2.98433974e-02
2.45563723e-02
4.86481925e-02
5.39647341e-02
3.48137775e-02
2.21962193e-02
1.27148447e-02
7.73752423e-03
7.37188826e-03
6.70263022e-02
7.92996511e-02
2.98729278e-02
6.26348704e-03
1.32971465e-04
1.88663379e-03
2.42023052e-05
2.51249466e-03
7.04281265e-04
1.34571097e-02
-3.90986400e-03
2.93312613e-02
-5.91767202e-05
5.75484430e-04
-3.83524737e-05
-1.10185593e-04
1.12517919e-04
4.09656408e-04
1.00619890e-01
1.05305798e-01
7.53886253e-02
8.08953382e-02
-6.93703669e-05
1.41681952e-03
0.00000000e+00
6.63180463e-02
6.77927732e-02
5.69835417e-02
5.69056608e-02
1.16812908e-02
1.76165197e-02
2.76967062e-03
1.69966763e-04
0.00000000e+00
</DataArray>
<DataArray type="Float32" Name="Stress_Mises" format="ascii">
2.42093220e+01
3.11994427e+01
3.78815320e+01
2.76873167e+01
1.98788586e+01
3.43066721e+01
4.00413613e+01
2.74239943e+01
3.99517995e+01
7.82938461e+01
8.83991839e+01
7.94608250e+01
1.35756081e+00
2.06490672e+00
1.50879818e+00
2.13225216e+00
9.07985628e-01
1.01244712e+00
1.08658218e+00
1.01792514e+00
2.99744234e+01
2.98691750e+01
2.81218898e+01
2.99866962e+01
2.76589785e+01
3.01620045e+01
2.90662721e+01
3.12533526e+01
2.76166940e+01
2.62913475e+01
2.90777621e+01
3.12650472e+01
2.57091079e+01
2.63762538e+01
2.77828221e+01
3.04653047e+01
2.32284508e+01
3.04164774e+01
2.78408790e+01
2.29570896e+01
1.96027112e+01
2.66696607e+01
2.15747354e+01
2.55432159e+01
1.43279538e+01
2.00085315e+01
1.59719810e+01
2.01262772e+01
2.68342636e+01
2.68974042e+01
3.63358241e+01
3.04289804e+01
3.33920949e+01
3.24082782e+01
7.48221069e+01
2.77232316e+01
6.21189642e+01
5.03769028e+01
4.89898844e+01
5.49081421e+01
3.70987577e+01
5.21125870e+01
3.20109937e+01
2.22027279e+01
3.37052745e+01
2.05288434e+01
9.41463909e+01
5.46003468e+01
5.09262772e+01
3.48623854e+01
1.86709600e+01
1.94619679e+01
2.79085132e+01
1.94285939e+01
1.86516753e+01
2.60300699e+01
2.54490108e+01
5.52570972e+01
1.04380642e+02
4.33068964e+01
3.05934229e+01
4.27455597e+01
3.31023049e+01
4.47197719e+01
8.13520765e+01
4.71759237e+01
3.01071186e+01
3.12226119e+01
3.12247148e+01
3.05473652e+01
3.37073455e+01
3.34900930e+01
3.38702865e+01
3.49654179e+01
3.20044374e+01
3.09009182e+01
2.86172132e+01
2.71887631e+01
2.85386839e+01
2.95394826e+01
4.13595394e+01
3.89621480e+01
3.38904704e+01
2.45096493e+01
2.38244826e+01
3.08001632e+01
3.58833570e+01
4.75656786e+01
5.91931699e+01
3.06463669e+01
1.79817986e+01
3.47815094e+01
2.35421009e+01
4.50878429e+01
3.97599506e+01
1.06739697e+02
5.42379090e+01
4.47731824e+01
3.33714540e+01
2.77780013e+01
5.82089758e+01
4.40531616e+01
4.10176545e+01
3.17135826e+01
2.48802166e+01
2.48228874e+01
3.02494240e+01
2.80343971e+01
3.55173826e+00
1.39112163e+00
2.95753193e+00
4.28024435e+00
1.24217897e+01
7.22653739e+00
4.74054885e+00
1.71164133e+01
3.12230721e+01
3.13005352e+01
3.32589402e+01
3.15025549e+01
3.44193916e+01
3.52408361e+01
3.67312899e+01
3.59665847e+01
3.53006678e+01
3.66423235e+01
3.44273586e+01
3.42133002e+01
4.11054916e+01
3.92606201e+01
3.50169318e+01
3.78631887e+01
3.06601073e+01
2.68956820e+01
2.11040746e+01
1.83780780e+01
2.29058983e+01
9.54484978e+01
1.10081963e+02
3.66847032e+01
2.22847197e+01
1.63140928e+01
2.69893022e+01
2.00659060e+01
3.18091755e+01
2.52480555e+01
3.25820704e+01
2.43433151e+01
5.48136559e+01
2.33825442e+01
1.78498624e+01
2.17110190e+01
1.67407842e+01
2.37930775e+01
1.98321371e+01
9.27383881e+01
1.21068672e+02
3.42010161e+01
4.64944878e+01
1.09829898e+01
1.95910988e+01
7.95693922e+00
3.49422789e+01
2.93897896e+01
3.73943481e+01
4.16956034e+01
3.47262850e+01
3.44394131e+01
1.89471393e+01
1.99272451e+01
6.24367189e+00
</DataArray>
<DataArray type="Float32" Name="Stress_Max_Principal" format="ascii">
7.46727252e+00
6.02438912e+00
2.95817947e+00
3.31466579e+00
2.11891232e+01
2.69521064e+01
-2.49752945e+00
4.50738132e+00
-3.31013250e+00
-3.79021034e+01
-3.68588305e+01
-3.37978015e+01
6.81912720e-01
1.17805856e+00
4.88269560e-01
1.21996945e+00
6.66933119e-01
7.45759010e-01
7.55277336e-01
7.45700657e-01
4.07572746e-01
7.45995604e-01
3.11841569e+00
9.11897361e-01
3.38751239e+00
8.95412728e-01
1.88895626e+00
2.34985262e-01
3.82873933e+00
5.22481758e+00
1.61414009e+00
-2.54925314e-01
5.63126040e+00
7.87534128e+00
3.22959104e+00
9.04542305e-01
7.92767081e+00
1.87300476e+00
3.46072793e+00
7.81203937e+00
1.04885991e+01
4.47717726e+00
8.13318144e+00
5.52386424e+00
1.46833549e+01
1.29200031e+01
1.36103978e+01
1.03111183e+01
5.78628190e+00
5.62997986e+00
-4.12275253e+00
2.23031610e-01
7.34717941e+00
-7.38551274e-01
-3.47834236e+01
5.80379929e+00
-2.52169273e+01
-1.34049501e+01
-1.49908228e+01
-1.92301137e+01
-4.58073370e+00
-1.69677019e+01
2.42485251e+00
1.35433911e+01
4.95728493e-01
9.52602395e+00
-4.27895427e+01
-1.53117893e+01
3.02374382e+01
3.21040432e+01
1.24016576e+01
1.11883975e+01
3.08666528e+01
2.12749551e+01
1.12759557e+01
9.14000730e+00
1.20487103e+01
-1.51558145e+01
-5.69538879e+01
-4.33368559e+00
1.71302319e+00
2.19022710e+01
1.29994011e+00
-5.50209773e+00
-2.85301959e+01
-3.56083679e+00
2.39275102e+00
7.28722572e-01
1.16039497e+00
2.02394904e+00
-2.01191485e+00
-8.10971782e-01
-1.74479854e+00
-1.59891454e+00
7.21908771e-02
1.67310251e+00
3.11921027e+00
4.45667225e+00
3.92656511e+00
3.25945461e+00
1.72815555e+00
2.54400015e-01
4.39819789e+00
8.97332311e+00
1.04407633e+01
4.81587275e+00
2.92492008e+00
-1.00546346e+01
-1.97088497e+01
6.84263009e+00
2.53061366e+01
2.19088097e+01
2.87188026e+01
-8.76356351e+00
-4.34598327e+00
-4.77681103e+01
-4.38454620e+00
5.82767439e+00
-2.18182802e-01
2.58309364e+00
-1.84560299e+01
-4.60264921e+00
2.86387239e+01
2.12630816e+01
7.47448425e+01
6.78379974e+01
2.33110185e+01
2.57014548e+01
2.17398429e+00
5.45812070e-01
1.60999811e+00
2.62950873e+00
8.80741401e+00
2.00584369e+00
1.33436295e+00
7.76501020e+00
1.52480483e+00
6.79039657e-01
1.33036554e-01
1.87225914e+00
-2.53989321e+00
-1.61876434e+00
-2.75298119e+00
-1.62233071e+00
-8.84803295e-01
-1.69778171e+00
-4.00029015e-01
1.35749847e+00
-3.84114599e+00
-2.01668763e+00
5.80607665e+00
-2.41678238e+00
3.89521500e+00
7.54104590e+00
1.44305656e+01
2.14951871e+01
2.06344340e+01
-5.13820953e+01
-6.53315430e+01
1.13636882e+01
4.17020905e+01
3.48853350e+01
1.94120555e+01
2.32402625e+01
1.09207077e+01
1.64198551e+01
1.74347372e+01
4.78390741e+01
-9.75074577e+00
2.49426721e+01
1.65603765e+01
1.65244175e+01
1.24217674e+01
1.04064775e+01
7.06834745e+00
-4.64093781e+01
-7.45413742e+01
-1.56214237e+00
-9.95214945e+00
6.76094863e+00
2.69543425e+01
2.62043911e+00
6.54004097e-01
3.39841890e+00
-1.06044483e+00
-3.97936273e+00
2.88930637e+01
2.83687959e+01
2.87906661e+01
7.88747597e+00
7.19214380e-01
</DataArray>
<DataArray type="Float32" Name="Stress_Mid_Principal" format="ascii">
3.04281226e+00
-2.48192315e+00
-4.84719944e+00
1.35691726e+00
1.47325159e+01
1.43922191e+01
-1.38529747e+01
6.67067468e-01
-9.19276595e+00
-4.23065453e+01
-4.96172574e+01
-4.86613379e+01
-2.28821105e-01
-4.70099971e-01
2.19196171e-01
-4.78038758e-01
-9.32922028e-03
-6.36470765e-02
3.14557552e-02
-5.25708050e-02
-2.28381395e-01
-4.01442662e-01
3.02933630e-01
-6.71098381e-01
6.94029331e-01
-1.15602784e+00
-1.58645503e-01
-2.32342133e+00
3.78004849e-01
1.31449436e+00
6.59073293e-02
-1.62531762e+00
1.75069109e+00
2.84292596e+00
7.62327939e-01
-1.26683709e+00
3.66450185e+00
-2.50292856e+00
4.56703514e-01
4.73652921e+00
7.43422925e+00
1.46614778e+00
6.64187989e+00
2.39593878e+00
1.24127808e+01
9.52665704e+00
1.10325351e+01
6.97563124e+00
-1.90999985e-01
-1.32045150e-01
-6.22884762e+00
-5.70858121e-01
2.75607218e+00
-3.41192771e+00
-3.95733322e+01
1.87588055e+00
-2.94550595e+01
-1.68848530e+01
-1.72719247e+01
-2.27978699e+01
-7.40172976e+00
-2.04127007e+01
-5.21611498e+00
7.32632670e+00
-3.05842904e+00
7.50048059e+00
-5.89084387e+01
-2.34284265e+01
-2.15296817e+00
1.72659244e+01
9.31115971e+00
7.11735296e+00
1.82417181e+01
1.49088606e+01
8.74666397e+00
3.98416087e+00
5.18335366e+00
-2.11742973e+01
-6.68926640e+01
-1.24869621e+01
-2.37379217e+00
8.03671551e+00
-5.57172966e+00
-1.76612985e+01
-4.16419017e+01
-1.62981556e+01
-2.74210124e+00
-2.88878495e+00
-3.33672804e+00
-3.09490786e+00
-4.32008290e+00
-5.23233132e+00
-4.76831139e+00
-6.80619754e+00
-3.32110390e+00
-2.84206505e+00
-6.46330833e-01
1.04786034e+00
-1.22402823e+00
-1.65206173e+00
-8.22755516e+00
-7.25701380e+00
-2.74108356e+00
2.85142913e+00
5.15386275e+00
-1.71653529e+00
-8.08819866e+00
-1.94581825e+01
-2.95863647e+01
-1.33394414e+00
1.64915485e+01
4.15479469e+00
1.07766129e+01
-1.47923230e+01
-1.06282499e+01
-7.63176727e+01
-1.39286517e+01
-3.12093174e+00
-4.62764478e+00
1.63563156e+00
-2.73376002e+01
-1.71239052e+01
8.30927420e+00
8.51240611e+00
5.10996590e+01
4.42505722e+01
-3.47507524e+00
7.60956367e+00
-1.29507124e+00
-7.43504986e-02
-4.00045872e-01
-1.23401439e+00
-6.30435767e-01
-5.61577161e-01
-1.83005482e-01
3.36010528e+00
-3.82697439e+00
-2.98789483e+00
-5.91972244e+00
-4.71093678e+00
-5.05024588e+00
-7.58098537e+00
-8.98120689e+00
-8.81086922e+00
-8.44517314e+00
-9.48726726e+00
-7.38551831e+00
-8.08264632e+00
-1.56128483e+01
-1.34068532e+01
-4.91048288e+00
-1.14282885e+01
-4.44142521e+00
-1.26528158e+00
8.98628240e+00
1.60003827e+01
1.05116725e+01
-5.95756969e+01
-7.13985138e+01
-2.81473605e+00
2.98382380e+01
2.21449531e+01
-2.09081692e+00
1.24189418e+01
-2.05183768e+00
7.39867377e+00
-1.13825767e+00
3.14473162e+01
-1.92968178e+01
7.21723346e+00
6.98071873e+00
1.80665977e+00
5.59296981e+00
5.54342633e+00
2.97039187e+00
-6.13616714e+01
-8.10803757e+01
-4.85511144e+00
-1.82349010e+01
3.17333567e+00
1.59025911e+01
-2.50748479e+00
-8.98057890e+00
-2.37310648e+00
-6.69479275e+00
-1.58984454e+01
1.00890274e+01
4.09004402e+00
1.66273468e+01
4.62892255e+00
4.89528440e-02
</DataArray>
<DataArray type="Float32" Name="Stress_Min_Principal" format="ascii">
-1.86174789e+01
-2.81488762e+01
-3.72849426e+01
-2.52940601e+01
-1.02581412e-01
-9.18929917e+00
-4.69296001e+01
-2.44314103e+01
-4.58341579e+01
-1.18305199e+02
-1.30885769e+02
-1.19598583e+02
-8.78324330e-01
-1.13320881e+00
-1.13268778e+00
-1.16723678e+00
-3.65056694e-01
-3.89488757e-01
-4.94170874e-01
-4.00591999e-01
-2.98796911e+01
-2.96802273e+01
-2.62724811e+01
-2.98213143e+01
-2.55195303e+01
-3.02384162e+01
-2.81437974e+01
-3.22107940e+01
-2.53469807e+01
-2.27839632e+01
-2.82064991e+01
-3.21769535e+01
-2.17850196e+01
-2.03090000e+01
-2.56966689e+01
-3.05648874e+01
-1.71350015e+01
-3.04770096e+01
-2.57595983e+01
-1.65049952e+01
-1.04593447e+01
-2.35553049e+01
-1.41299148e+01
-2.14338899e+01
-6.44289255e-01
-8.14654207e+00
-3.48926592e+00
-1.12618294e+01
-2.34750784e+01
-2.36762793e+01
-4.14525962e+01
-3.05936456e+01
-2.70789743e+01
-3.43691346e+01
-1.11764294e+02
-2.35200627e+01
-8.93413029e+01
-6.53529118e+01
-6.50808363e+01
-7.58346682e+01
-4.30093222e+01
-7.07163525e+01
-3.25975186e+01
-1.07365267e+01
-3.46426056e+01
-1.19333334e+01
-1.43924303e+02
-7.34411655e+01
-2.84622593e+01
-5.00246302e+00
-7.53773090e+00
-9.94458863e+00
1.34857273e+00
6.60981417e-01
-8.47933435e+00
-1.87534191e+01
-1.57954214e+01
-7.30368986e+01
-1.65931335e+02
-5.07601528e+01
-3.07161399e+01
-2.24742546e+01
-3.46984344e+01
-5.49273776e+01
-1.15115833e+02
-5.46771800e+01
-2.99510174e+01
-3.21315360e+01
-3.20653477e+01
-3.07529140e+01
-3.68138461e+01
-3.62842231e+01
-3.70219789e+01
-3.88653649e+01
-3.34828162e+01
-3.12298989e+01
-2.71847982e+01
-2.42604193e+01
-2.68364401e+01
-2.84088578e+01
-4.30024691e+01
-4.14356737e+01
-3.21166286e+01
-1.78309293e+01
-1.53858419e+01
-2.85719730e+01
-3.69988238e+01
-6.15628716e+01
-8.29931920e+01
-2.67839451e+01
5.17804583e+00
-1.81667500e+01
2.65574780e+00
-5.64574883e+01
-4.66426093e+01
-1.65858765e+02
-6.09223754e+01
-4.08588648e+01
-3.55590148e+01
-2.56560125e+01
-8.05348352e+01
-5.35324295e+01
-1.74712367e+01
-1.42222948e+01
4.87905846e+01
4.19410667e+01
-9.47069800e+00
-5.88757642e+00
-1.45503175e+00
-1.04753399e+00
-1.78600442e+00
-1.97159410e+00
-4.40050395e+00
-5.85565805e+00
-3.97158504e+00
-1.10571411e+01
-3.20282440e+01
-3.22844753e+01
-3.57065656e+01
-3.24009295e+01
-3.81379681e+01
-3.93886857e+01
-4.21913395e+01
-4.06223574e+01
-3.93487940e+01
-4.15649500e+01
-3.77844391e+01
-3.65677295e+01
-4.95482445e+01
-4.56184254e+01
-3.26725712e+01
-4.38547854e+01
-3.00263829e+01
-2.25798475e+01
-8.22264290e+00
1.79851842e+00
-4.92443180e+00
-1.50642632e+02
-1.78321533e+02
-2.92857590e+01
1.69808462e+01
1.66620047e+01
-1.05456545e+01
1.91607952e-01
-2.45823965e+01
-1.13030907e+01
-1.89916949e+01
2.02057946e+01
-6.87104187e+01
-1.47257519e+00
-2.76162283e+00
-7.92815351e+00
-6.49036884e+00
-1.54278316e+01
-1.41556091e+01
-1.45715424e+02
-1.98747040e+02
-3.72217080e+01
-6.00242882e+01
-5.15855330e+00
5.07449214e+00
-6.44145370e+00
-3.80194809e+01
-2.84489880e+01
-4.08412533e+01
-5.03097067e+01
-9.86008644e+00
-1.08826542e+01
6.97348928e+00
-1.34327984e+01
-5.83254766e+00
</DataArray>
<DataArray type="Float32" Name="Stress_Pressure" format="ascii">
2.70246489e+00
8.20213693e+00
1.30579872e+01
6.87415957e+00
-1.19396860e+01
-1.07183420e+01
2.10933682e+01
6.41898656e+00
1.94456859e+01
6.61712837e+01
7.24539522e+01
6.73525734e+01
1.41744241e-01
1.41750090e-01
1.41740680e-01
1.41768690e-01
-9.75157395e-02
-9.75410566e-02
-9.75207463e-02
-9.75126252e-02
9.90016711e+00
9.77855790e+00
7.61704376e+00
9.86017156e+00
7.14599627e+00
1.01663439e+01
8.80449548e+00
1.14330766e+01
7.04674551e+00
5.41488349e+00
8.84215039e+00
1.13523990e+01
4.80102289e+00
3.19691083e+00
7.23491661e+00
1.03090605e+01
1.84760952e+00
1.03689777e+01
7.28072238e+00
1.31880879e+00
-2.48782790e+00
5.87066005e+00
-2.15049028e-01
4.50469576e+00
-8.81728196e+00
-4.76670647e+00
-7.05122221e+00
-2.00830698e+00
5.95993216e+00
6.05944830e+00
1.72680655e+01
1.03138242e+01
5.65857387e+00
1.28398718e+01
6.20403481e+01
5.28012756e+00
4.80044293e+01
3.18809057e+01
3.24478607e+01
3.92875500e+01
1.83305960e+01
3.60322523e+01
1.17962605e+01
-3.37773025e+00
1.24017683e+01
-1.69772378e+00
8.18740959e+01
3.73937943e+01
1.25929669e-01
-1.47891686e+01
-4.72502867e+00
-2.78705390e+00
-1.68189811e+01
-1.22815991e+01
-3.84776159e+00
1.87641639e+00
-4.78880882e-01
3.64556696e+01
9.65926285e+01
2.25269333e+01
1.04589696e+01
-2.48824310e+00
1.29900746e+01
2.60302584e+01
6.17626432e+01
2.48453906e+01
1.01001227e+01
1.14305328e+01
1.14138934e+01
1.06079577e+01
1.43819478e+01
1.41091754e+01
1.45116960e+01
1.57568259e+01
1.22439096e+01
1.07996208e+01
8.23730609e+00
6.25196216e+00
8.04463434e+00
8.93382175e+00
1.65006230e+01
1.61460953e+01
1.01531714e+01
2.00205895e+00
-6.95949112e-02
8.49087858e+00
1.40540342e+01
3.03585626e+01
4.40961355e+01
7.09175315e+00
-1.56585766e+01
-2.63228512e+00
-1.40503878e+01
2.66711245e+01
2.05389471e+01
9.66481819e+01
2.64118582e+01
1.27173734e+01
1.34682803e+01
7.14576197e+00
4.21094880e+01
2.50863276e+01
-6.49225330e+00
-5.18439722e+00
-5.82116966e+01
-5.13432121e+01
-3.45508158e+00
-9.14114718e+00
1.92039594e-01
1.92024127e-01
1.92017391e-01
1.92033216e-01
-1.25882464e+00
1.47046386e+00
9.40075815e-01
-2.26580451e-02
1.14434719e+01
1.15311103e+01
1.38310838e+01
1.17465353e+01
1.52427015e+01
1.61961452e+01
1.79751768e+01
1.70185194e+01
1.62262568e+01
1.75833327e+01
1.51899948e+01
1.44309590e+01
2.30007458e+01
2.03473220e+01
1.05923252e+01
1.92332855e+01
1.01908643e+01
5.43469477e+00
-5.06473494e+00
-1.30980292e+01
-8.74055862e+00
8.72001419e+01
1.05017197e+02
6.91226959e+00
-2.95070583e+01
-2.45640978e+01
-2.25852793e+00
-1.19502708e+01
5.23784216e+00
-4.17181295e+00
8.98405075e-01
-3.31640611e+01
3.25859947e+01
-1.02291102e+01
-6.92649062e+00
-3.46764135e+00
-3.84145617e+00
-1.74024105e-01
1.37228981e+00
8.44954910e+01
1.18122932e+02
1.45463209e+01
2.94037809e+01
-1.59191027e+00
-1.59771419e+01
2.10949987e+00
1.54486845e+01
9.14122486e+00
1.61988306e+01
2.33958383e+01
-9.70733547e+00
-7.19206238e+00
-1.74638334e+01
3.05466473e-01
1.68812680e+00
</DataArray>
<DataArray type="Float32" Name="Stress_Tresca" format="ascii">
2.60847514e+01
3.41732650e+01
4.02431221e+01
2.86087255e+01
2.12917044e+01
3.61414059e+01
4.44320703e+01
2.89387915e+01
4.25240250e+01
8.04030914e+01
9.40269407e+01
8.58007832e+01
1.56023705e+00
2.31126732e+00
1.62095731e+00
2.38720620e+00
1.03198981e+00
1.13524771e+00
1.24944818e+00
1.14629269e+00
3.02872639e+01
3.04262228e+01
2.93908966e+01
3.07332120e+01
2.89070435e+01
3.11338296e+01
3.00327538e+01
3.24457798e+01
2.91757197e+01
2.80087801e+01
2.98206401e+01
3.19220283e+01
2.74162793e+01
2.81843410e+01
2.89262605e+01
3.14694300e+01
2.50626724e+01
3.23500140e+01
2.92203264e+01
2.43170350e+01
2.09479437e+01
2.80324818e+01
2.22630961e+01
2.69577541e+01
1.53276443e+01
2.10665455e+01
1.70996642e+01
2.15729473e+01
2.92613602e+01
2.93062596e+01
3.73298441e+01
3.08166780e+01
3.44261541e+01
3.36305838e+01
7.69808701e+01
2.93238619e+01
6.41243763e+01
5.19479610e+01
5.00900145e+01
5.66045551e+01
3.84285889e+01
5.37486496e+01
3.50223707e+01
2.42799175e+01
3.51383345e+01
2.14593573e+01
1.01134760e+02
5.81293758e+01
5.86996994e+01
3.71065057e+01
1.99393881e+01
2.11329861e+01
2.95180801e+01
2.06139734e+01
1.97552900e+01
2.78934266e+01
2.78441319e+01
5.78810840e+01
1.08977448e+02
4.64264671e+01
3.24291630e+01
4.43765259e+01
3.59983745e+01
4.94252801e+01
8.65856374e+01
5.11163445e+01
3.23437691e+01
3.28602581e+01
3.32257426e+01
3.27768626e+01
3.48019304e+01
3.54732513e+01
3.52771807e+01
3.72664506e+01
3.35550065e+01
3.29030011e+01
3.03040080e+01
2.87170916e+01
3.07630062e+01
3.16683123e+01
4.47306247e+01
4.16900730e+01
3.65148269e+01
2.68042526e+01
2.58266051e+01
3.33878455e+01
3.99237436e+01
5.15082372e+01
6.32843437e+01
3.36265758e+01
2.01280905e+01
4.00755615e+01
2.60630552e+01
4.76939259e+01
4.22966264e+01
1.18090656e+02
5.65378291e+01
4.66865396e+01
3.53408318e+01
2.82391062e+01
6.20788054e+01
4.89297810e+01
4.61099606e+01
3.54853759e+01
2.59542580e+01
2.58969307e+01
3.27817168e+01
3.15890312e+01
3.62901592e+00
1.59334612e+00
3.39600253e+00
4.60110283e+00
1.32079180e+01
7.86150201e+00
5.30594802e+00
1.88221515e+01
3.35530472e+01
3.29635153e+01
3.58396025e+01
3.42731895e+01
3.55980740e+01
3.77699213e+01
3.94383583e+01
3.90000257e+01
3.84639912e+01
3.98671684e+01
3.73844090e+01
3.79252272e+01
4.57070999e+01
4.36017380e+01
3.84786472e+01
4.14380026e+01
3.39215980e+01
3.01208935e+01
2.26532083e+01
1.96966686e+01
2.55588655e+01
9.92605362e+01
1.12989990e+02
4.06494471e+01
2.47212441e+01
1.82233303e+01
2.99577098e+01
2.30486546e+01
3.55031042e+01
2.77229462e+01
3.64264336e+01
2.76332798e+01
5.89596710e+01
2.64152476e+01
1.93219992e+01
2.44525709e+01
1.89121363e+01
2.58343096e+01
2.12239561e+01
9.93060455e+01
1.24205666e+02
3.56595647e+01
5.00721378e+01
1.19195018e+01
2.18798510e+01
9.06189251e+00
3.86734848e+01
3.18474064e+01
3.97808094e+01
4.63303432e+01
3.87531509e+01
3.92514496e+01
2.18171768e+01
2.13202744e+01
6.55176210e+00
</DataArray>
<DataArray type="Float32" Name="Stress_Third_Invariant" format="ascii">
-2.31628978e+01
-2.62055563e+01
-3.18562582e+01
-2.75141554e+01
-1.15604247e+01
-1.36257630e+01
-3.58814006e+01
-2.59653349e+01
-3.88034526e+01
-7.80143738e+01
-8.60942141e+01
-7.60887318e+01
8.92493576e-01
1.78262562e+00
-1.43851858e+00
1.83399349e+00
7.24268198e-01
8.82364154e-01
7.02784061e-01
8.68085921e-01
-2.99590130e+01
-2.98191123e+01
-2.76985424e+01
-2.98511682e+01
-2.73611507e+01
-2.99997816e+01
-2.88936272e+01
-3.09913740e+01
-2.71119533e+01
-2.55639127e+01
-2.89838691e+01
-3.11801752e+01
-2.49965067e+01
-2.35941272e+01
-2.75102386e+01
-3.02186816e+01
-2.23154802e+01
-2.96396189e+01
-2.74703617e+01
-2.24029666e+01
-1.90474780e+01
-2.62322224e+01
-2.14013629e+01
-2.50896775e+01
-1.39144559e+01
-1.73677700e+01
-1.54785066e+01
-1.94472877e+01
-2.50576833e+01
-2.54335227e+01
-3.61579176e+01
-3.04012151e+01
-2.63227752e+01
-3.20612253e+01
-7.41007484e+01
-2.62469048e+01
-6.17767591e+01
-4.98612438e+01
-4.88684349e+01
-5.46450396e+01
-3.68558693e+01
-5.18525143e+01
-2.93960064e+01
-1.77057861e+01
-3.19713925e+01
-2.02799015e+01
-9.08617096e+01
-5.29691521e+01
2.86613369e+01
-1.31800022e+01
-1.75557210e+01
-1.83119519e+01
-7.39915029e+00
-1.09889963e+01
-1.81527309e+01
-2.26070656e+01
-2.01218171e+01
-5.40682387e+01
-1.03254879e+02
-3.80229578e+01
-2.99627795e+01
-1.95248272e+01
-3.14353375e+01
-4.02258663e+01
-7.36035166e+01
-2.98666528e+01
-2.90955362e+01
-3.07030072e+01
-3.04712315e+01
-2.95373936e+01
-3.35283122e+01
-3.27984722e+01
-3.35538502e+01
-3.40423048e+01
-3.15619092e+01
-3.01220734e+01
-2.80210338e+01
-2.66525410e+01
-2.74628496e+01
-2.85346458e+01
-3.40764284e+01
-3.41765653e+01
-2.92537408e+01
-2.17199862e+01
-2.12685339e+01
-2.68648384e+01
-3.08080511e+01
-4.52060986e+01
-5.64637909e+01
-2.50849737e+01
-8.64748979e+00
-2.01986313e+01
1.16835643e+01
-4.38234434e+01
-3.78116919e+01
-9.74941177e+01
-4.36064186e+01
-3.23652010e+01
-3.26542799e+01
-2.77400875e+01
-5.64443753e+01
-3.96110168e+01
-1.87736419e+01
-1.90236479e+01
2.46374187e+01
2.45794334e+01
2.88081017e+01
2.30260181e+00
3.54362011e+00
-1.00091982e+00
2.00554895e+00
4.13362408e+00
5.70623798e+00
-3.40625842e+00
-4.10116458e+00
-1.55241059e+01
-3.01651764e+01
-3.07832880e+01
-3.18809981e+01
-2.98927746e+01
-3.41887417e+01
-3.38353043e+01
-3.54843197e+01
-3.42307277e+01
-3.33897381e+01
-3.45447831e+01
-3.27754498e+01
-3.10010743e+01
-3.70187302e+01
-3.48113441e+01
-2.78523836e+01
-3.49002857e+01
-2.72858801e+01
-2.27876349e+01
-1.34773629e+01
-1.11136454e+01
-1.33187373e+01
-9.45885658e+01
-1.09704887e+02
-2.27413635e+01
3.14275241e+00
1.33139838e+01
2.21578004e+01
7.90558934e-01
-5.72100306e+00
-6.41036081e+00
-2.99652100e+00
3.69094515e+00
-5.28947754e+01
1.87876190e+01
2.24646441e+00
6.58174896e+00
-7.81252134e+00
-2.25814781e+01
-1.73617415e+01
-8.99663696e+01
-1.20670418e+02
-3.36087529e+01
-4.47650986e+01
-6.58211190e+00
3.07867527e+00
1.76976919e-01
-3.14441395e+01
-2.80719738e+01
-3.48903221e+01
-3.74458151e+01
-1.05439386e+01
2.42781625e+01
1.05186567e+01
-1.91923747e+01
-6.16195154e+00
</DataArray>
<DataArray type="Float32" Name="Logarithmic_strain_Max_Principal" format="ascii">
1.07451092e-02
1.38388413e-02
1.59276591e-02
1.07401684e-02
1.20753814e-02
1.86036723e-02
2.87339753e-02
1.75154423e-02
1.66965623e-02
2.27281814e-02
3.39707434e-02
3.99231687e-02
1.80530428e-05
3.01897826e-05
1.36646263e-05
3.09014740e-05
1.42132603e-05
1.68283332e-05
1.67204071e-05
1.71113934e-05
1.77137032e-02
1.78885316e-02
1.95231000e-02
1.82347475e-02
2.27976674e-02
2.21924423e-02
2.25196888e-02
2.31723930e-02
1.97327221e-02
2.13274248e-02
2.04295800e-02
2.11658257e-02
2.04342329e-02
2.24266427e-02
1.89837106e-02
1.92159542e-02
2.00538416e-02
2.34757417e-02
1.74026149e-02
1.83791763e-02
1.73017103e-02
2.09446505e-02
1.43023371e-02
1.76403737e-02
1.60846119e-02
1.89617346e-02
1.39862979e-02
1.68778605e-02
2.24245267e-02
2.10091937e-02
2.50802352e-02
2.31107231e-02
2.12988223e-02
2.35813195e-02
3.06650840e-02
2.13209258e-02
2.91339494e-02
2.17236198e-02
2.54432922e-02
2.22499161e-02
2.26755394e-02
2.08599698e-02
2.17930915e-02
1.81307094e-02
2.72511278e-02
2.04903157e-02
3.44844330e-02
3.39288589e-02
5.29642366e-02
1.94288241e-02
1.30456389e-02
1.35582576e-02
2.03408948e-02
1.98637506e-02
1.20045166e-02
2.51945867e-02
2.68663056e-02
1.87826590e-02
3.60500114e-02
3.08046859e-02
1.53638055e-02
2.83230781e-02
2.95051867e-02
3.77474604e-02
3.78812104e-02
3.59495226e-02
2.88845766e-02
2.68120519e-02
2.88574493e-02
3.05339745e-02
2.30854372e-02
2.54922635e-02
2.12280932e-02
2.18885753e-02
1.92440236e-02
1.84273198e-02
1.74508025e-02
1.61344776e-02
1.77277084e-02
1.67910412e-02
3.49289672e-02
3.58916959e-02
2.74358420e-02
1.80519982e-02
1.40334555e-02
1.34714927e-02
1.42006076e-02
3.91284712e-02
4.10877665e-02
2.90357188e-02
1.45903698e-02
2.27017961e-02
6.50239710e-03
4.31337571e-02
4.54605743e-02
4.15256210e-02
4.35651038e-02
4.27547442e-02
4.21689395e-02
3.61403283e-02
3.95280616e-02
4.32557734e-02
2.84036710e-02
2.79543293e-02
3.42424698e-02
2.28817109e-02
1.52424459e-02
1.29813130e-02
5.40695219e-05
1.54738609e-05
4.05202190e-05
6.59529032e-05
1.87463222e-04
6.58914766e-05
4.32920897e-05
2.52802723e-04
3.10433730e-02
2.82196514e-02
3.22405696e-02
3.44555080e-02
2.42805891e-02
2.70762537e-02
2.44463328e-02
2.35549225e-02
2.33560791e-02
2.11061030e-02
2.15181839e-02
1.89438800e-02
2.42150538e-02
2.02554055e-02
3.84111041e-02
3.99405528e-02
3.01071014e-02
1.90232508e-02
1.13807401e-02
8.33705708e-03
8.59739305e-03
4.43695653e-02
4.96570207e-02
2.44861326e-02
8.79759557e-03
2.11649472e-03
3.18344805e-03
1.06839401e-03
3.24891583e-03
1.38000952e-03
1.70530339e-02
4.03222197e-03
2.04824284e-02
1.15161137e-03
8.17658758e-04
3.55268636e-04
2.58122071e-04
3.80714395e-04
4.58619892e-04
6.78820685e-02
6.56555817e-02
5.32089112e-02
5.83453774e-02
1.25847107e-04
3.80971926e-03
8.79169420e-05
5.23454491e-02
4.83230911e-02
3.67917996e-02
4.51082885e-02
1.99348694e-02
2.47663129e-02
5.70364128e-03
3.14454199e-04
3.74568372e-05
</DataArray>
<DataArray type="Float32" Name="Logarithmic_strain_Min_Principal" format="ascii">
-1.44472000e-02
-1.79744164e-02
-2.34772298e-02
-1.65636966e-02
-1.63951096e-02
-2.51816048e-02
-3.53251351e-02
-2.33185710e-02
-2.43929639e-02
-3.93584957e-02
-4.85316155e-02
-5.43093979e-02
-1.92651223e-05
-2.55904642e-05
-2.55917021e-05
-2.60882043e-05
-1.02104977e-05
-1.01597316e-05
-1.31218121e-05
-1.06620919e-05
-2.95480536e-02
-2.91832872e-02
-2.88577750e-02
-2.92346496e-02
-3.25383851e-02
-3.26885772e-02
-3.39734843e-02
-3.48083861e-02
-2.79257745e-02
-2.91536280e-02
-3.09200147e-02
-3.30769820e-02
-2.69163037e-02
-3.04035179e-02
-2.82794992e-02
-3.03571804e-02
-2.58560996e-02
-3.28890914e-02
-2.57100267e-02
-2.62701339e-02
-2.38843868e-02
-3.09009971e-02
-2.16214955e-02
-2.54672614e-02
-2.14271508e-02
-2.75532734e-02
-1.88137973e-02
-2.32653837e-02
-2.87396833e-02
-2.70418674e-02
-3.90870310e-02
-3.65846241e-02
-3.40221173e-02
-3.62571608e-02
-4.90517899e-02
-3.07203747e-02
-4.64199884e-02
-3.32427114e-02
-4.19503199e-02
-3.61787565e-02
-3.78215630e-02
-3.51842903e-02
-2.71674176e-02
-2.17187838e-02
-3.90703433e-02
-3.26948580e-02
-4.99683730e-02
-4.77943450e-02
-5.25989980e-02
-2.20612974e-02
-1.79736500e-02
-1.65226359e-02
-2.86923833e-02
-2.81904023e-02
-1.62656317e-02
-3.57604011e-02
-3.47024398e-02
-2.86480738e-02
-5.70719447e-02
-4.53877758e-02
-2.13403711e-02
-3.87229351e-02
-3.98484785e-02
-4.95425891e-02
-5.41841760e-02
-4.30163729e-02
-3.76879852e-02
-3.72310709e-02
-3.90314343e-02
-4.00677798e-02
-3.55379274e-02
-3.55778211e-02
-3.21061658e-02
-3.08652187e-02
-2.82826102e-02
-2.60169362e-02
-2.53826147e-02
-2.34145084e-02
-2.48235920e-02
-2.36774567e-02
-4.50828974e-02
-4.86368593e-02
-3.53975841e-02
-2.28180839e-02
-1.77399741e-02
-1.69249827e-02
-1.73130076e-02
-5.04953042e-02
-5.40748350e-02
-3.48558072e-02
-1.42798337e-02
-2.52897721e-02
-4.16714856e-03
-6.00128556e-02
-6.06268706e-02
-5.52764498e-02
-6.54671323e-02
-6.45765141e-02
-6.06355853e-02
-5.95609527e-02
-5.99859180e-02
-5.56745604e-02
-3.22818733e-02
-3.07508167e-02
-2.39891987e-02
-1.64687671e-02
-8.39530951e-03
-1.15464811e-02
-3.28036695e-05
-2.26452285e-05
-4.03702834e-05
-4.49490508e-05
-1.34072316e-04
-1.22926653e-04
-8.42526642e-05
-3.51270064e-04
-4.03140448e-02
-3.93703412e-02
-4.08152994e-02
-4.22258899e-02
-3.72168720e-02
-3.66986031e-02
-3.37467082e-02
-3.12899067e-02
-3.00309556e-02
-2.70224293e-02
-2.87251472e-02
-2.43173842e-02
-3.01215630e-02
-2.49498114e-02
-4.76425085e-02
-5.48230503e-02
-3.40036042e-02
-2.18060887e-02
-1.28602709e-02
-7.44113734e-03
-7.08610890e-03
-7.17452019e-02
-8.35056901e-02
-3.01238522e-02
-7.76086131e-03
-9.22032617e-04
-2.06270719e-03
-7.47783575e-04
-3.47383082e-03
-1.97590864e-03
-1.30634590e-02
-2.99787847e-03
-3.17885391e-02
-8.85766213e-04
-7.93143054e-04
-2.25949632e-04
-1.87077325e-04
-5.20377842e-04
-7.83918833e-04
-1.05403036e-01
-1.12152286e-01
-7.42147317e-02
-8.21297914e-02
-1.10598899e-04
-1.85848221e-03
-1.29241525e-04
-6.64566942e-02
-6.82438537e-02
-5.64404316e-02
-5.55208921e-02
-2.03475151e-02
-2.22372832e-02
-6.28339290e-03
-5.19179019e-04
-1.20116973e-04
</DataArray>
<DataArray type="Float32" Name="Plastic_strain_Max_Principal" format="ascii">
1.05302567e-02
1.30221397e-02
1.60445580e-02
1.05808317e-02
1.22455340e-02
1.90866228e-02
2.81727375e-02
1.86295861e-02
1.71035340e-02
2.29982035e-02
3.43611737e-02
3.99962123e-02
0.00000000e+00
0.00000000e+00
0.00000000e+00
0.00000000e+00
0.00000000e+00
0.00000000e+00
0.00000000e+00
0.00000000e+00
1.75980655e-02
1.77444518e-02
1.93724351e-02
1.80901326e-02
2.26183850e-02
2.20523402e-02
2.23577698e-02
2.30310513e-02
1.95519160e-02
2.11266063e-02
2.02670819e-02
2.10593326e-02
2.02437555e-02
2.21449777e-02
1.87993543e-02
1.90679438e-02
1.98014062e-02
2.32738815e-02
1.72409331e-02
1.81266097e-02
1.70240754e-02
2.07499971e-02
1.40961995e-02
1.74228667e-02
1.57802314e-02
1.86902168e-02
1.37266601e-02
1.66027274e-02
2.21795274e-02
2.08165147e-02
2.50417318e-02
2.29925509e-02
2.12158939e-02
2.34304611e-02
3.09325639e-02
2.17357265e-02
2.93349968e-02
2.17421673e-02
2.55752970e-02
2.23677810e-02
2.26496132e-02
2.09769476e-02
2.15949503e-02
1.78650920e-02
2.70449320e-02
2.02399306e-02
3.47901047e-02
3.46630499e-02
5.16698472e-02
2.37694333e-02
1.27837940e-02
1.33134522e-02
1.76096663e-02
1.61357357e-02
1.17953897e-02
2.62724140e-02
2.76361266e-02
1.87968924e-02
3.68994744e-02
3.04678224e-02
1.52032566e-02
2.76051708e-02
2.92434143e-02
3.75470575e-02
3.81293483e-02
3.55587136e-02
2.86974274e-02
2.66584521e-02
2.86742719e-02
3.03495051e-02
2.29730662e-02
2.53436654e-02
2.10998533e-02
2.17648780e-02
1.91054181e-02
1.82597013e-02
1.72963743e-02
1.59275478e-02
1.75603004e-02
1.65768047e-02
3.32592600e-02
3.65033494e-02
2.73215955e-02
1.77500537e-02
1.38644174e-02
1.32720054e-02
1.39717126e-02
3.96674157e-02
4.11013973e-02
2.87029125e-02
1.44966893e-02
2.13908125e-02
7.04107283e-03
4.53424584e-02
4.68022414e-02
4.15555276e-02
4.04348169e-02
4.22508074e-02
4.17579943e-02
3.58959325e-02
4.02263664e-02
4.25415682e-02
2.65483358e-02
2.91711697e-02
3.27337794e-02
1.73180774e-02
1.55450328e-02
8.48176061e-03
0.00000000e+00
0.00000000e+00
0.00000000e+00
0.00000000e+00
3.34371096e-05
0.00000000e+00
0.00000000e+00
6.84079472e-05
3.08646318e-02
2.80399350e-02
3.20978560e-02
3.42642628e-02
2.41575055e-02
2.69448622e-02
2.43183794e-02
2.34134449e-02
2.31814655e-02
2.09747506e-02
2.13547312e-02
1.87742889e-02
2.40464732e-02
2.01225802e-02
3.88422115e-02
3.93894203e-02
2.98358034e-02
1.90158971e-02
1.11096175e-02
8.03187443e-03
8.26758402e-03
4.45811823e-02
5.07858805e-02
2.46516783e-02
6.91892434e-03
1.66776157e-03
2.74447605e-03
6.57715580e-04
2.93104688e-03
1.04845662e-03
1.69409525e-02
7.08327303e-03
2.12101731e-02
7.08010563e-04
5.25319151e-04
4.96339194e-05
8.28506852e-05
1.42158751e-04
2.83517205e-04
6.80638626e-02
6.57931119e-02
5.46836791e-02
5.81802707e-02
5.82881240e-05
3.48445659e-03
0.00000000e+00
5.19686025e-02
4.80129831e-02
3.90451439e-02
4.60825544e-02
1.25348740e-02
1.89760961e-02
5.37540822e-03
1.31972512e-04
0.00000000e+00
</DataArray>
<DataArray type="Float32" Name="Plastic_strain_Min_Principal" format="ascii">
-1.40497382e-02
-1.63383234e-02
-2.33497731e-02
-1.60521585e-02
-1.52550008e-02
-2.65888793e-02
-3.37051824e-02
-2.50010563e-02
-2.43613189e-02
-3.70585034e-02
-4.61968655e-02
-5.20238951e-02
0.00000000e+00
0.00000000e+00
0.00000000e+00
0.00000000e+00
0.00000000e+00
0.00000000e+00
0.00000000e+00
0.00000000e+00
-2.89689181e-02
-2.85744444e-02
-2.83605391e-02
-2.86260699e-02
-3.20310416e-02
-3.20951343e-02
-3.34140779e-02
-3.41818966e-02
-2.74286377e-02
-2.86915919e-02
-3.03339264e-02
-3.24352495e-02
-2.65013985e-02
-2.99562418e-02
-2.77491030e-02
-2.97639375e-02
-2.54833773e-02
-3.22620282e-02
-2.52094511e-02
-2.59331749e-02
-2.36138389e-02
-3.04351689e-02
-2.13208115e-02
-2.50056300e-02
-2.13363534e-02
-2.73815305e-02
-1.87084144e-02
-2.29811813e-02
-2.82659312e-02
-2.65966072e-02
-3.82878557e-02
-3.60120256e-02
-3.34834653e-02
-3.53326076e-02
-4.65395540e-02
-3.12553809e-02
-4.46852883e-02
-3.20560701e-02
-4.08223020e-02
-3.47342910e-02
-3.70922741e-02
-3.38448491e-02
-2.65167614e-02
-2.15174435e-02
-3.84110494e-02
-3.24075539e-02
-4.75651780e-02
-4.74983133e-02
-5.75842820e-02
-2.25145280e-02
-1.77569566e-02
-1.62803002e-02
-2.38004194e-02
-2.14133081e-02
-1.60562103e-02
-3.79543177e-02
-3.64118046e-02
-2.71794866e-02
-5.44829145e-02
-4.39820621e-02
-2.08137296e-02
-3.82526657e-02
-3.91450673e-02
-4.83560581e-02
-5.26819838e-02
-4.21451156e-02
-3.71098220e-02
-3.66163319e-02
-3.83751402e-02
-3.94733343e-02
-3.48135801e-02
-3.48366592e-02
-3.13531146e-02
-3.01101494e-02
-2.76087956e-02
-2.54062186e-02
-2.48508146e-02
-2.29231629e-02
-2.42945068e-02
-2.31149863e-02
-4.20045669e-02
-4.91310041e-02
-3.48259418e-02
-2.23578338e-02
-1.75888870e-02
-1.63875865e-02
-1.66473463e-02
-5.03015127e-02
-5.20858591e-02
-3.42417387e-02
-1.47557855e-02
-2.56366078e-02
-4.60249675e-03
-6.31975206e-02
-6.22719266e-02
-5.23836985e-02
-5.90427220e-02
-6.34486796e-02
-5.94046833e-02
-5.88491317e-02
-5.90473851e-02
-5.39361499e-02
-3.00813066e-02
-3.24704992e-02
-2.73250043e-02
-1.27720730e-02
-8.49047189e-03
-7.62929773e-03
0.00000000e+00
0.00000000e+00
0.00000000e+00
0.00000000e+00
-5.09074594e-05
0.00000000e+00
0.00000000e+00
-9.17519016e-05
-3.97026278e-02
-3.87132540e-02
-4.01520189e-02
-4.16048393e-02
-3.64430547e-02
-3.59296221e-02
-3.29123810e-02
-3.04816863e-02
-2.92192809e-02
-2.62164171e-02
-2.79493844e-02
-2.36088377e-02
-2.90945843e-02
-2.41020536e-02
-4.81439065e-02
-5.30285016e-02
-3.33137093e-02
-2.16445387e-02
-1.26514498e-02
-7.43016496e-03
-6.96525467e-03
-6.79196194e-02
-7.99658522e-02
-3.02141036e-02
-6.47233799e-03
-1.06727551e-03
-1.78656090e-03
-6.57934397e-04
-2.94796316e-03
-1.66515377e-03
-1.30783401e-02
-5.56241092e-03
-3.25215086e-02
-7.52171195e-04
-6.62038128e-04
-3.94722670e-05
-6.76995273e-05
-1.57783885e-04
-4.63126285e-04
-1.00861065e-01
-1.05288088e-01
-7.61550864e-02
-8.04305412e-02
-4.42418046e-05
-1.79239554e-03
0.00000000e+00
-6.51495941e-02
-6.73640147e-02
-5.91648184e-02
-5.65806683e-02
-1.06504539e-02
-1.49183953e-02
-6.27066396e-03
-2.00409704e-04
0.00000000e+00
</DataArray>
</PointData>
<Cells>
<DataArray type="Int32" Name="connectivity" format="ascii">
0 1 2 3 4 5 6 7
1 8 9 2 5 10 11 6
12 13 14 15 16 17 18 19
20 21 22 23 24 25 26 27
21 28 29 22 25 30 31 26
28 32 33 29 30 34 35 31
32 36 37 33 34 38 39 35
36 40 41 37 38 42 43 39
40 44 45 41 42 46 47 43
23 22 48 49 27 26 50 51
22 29 52 48 26 31 53 50
29 33 54 52 31 35 55 53
33 37 56 54 35 39 57 55
37 41 58 56 39 43 59 57
41 45 60 58 43 47 61 59
49 48 62 63 51 50 64 65
48 52 66 62 50 53 67 64
52 54 68 66 53 55 69 67
63 62 70 71 65 64 72 73
71 70 4 74 73 72 75 76
70 77 5 4 72 78 79 75
74 4 7 80 76 75 81 82
4 5 6 7 75 79 83 81
5 10 11 6 79 84 85 83
24 25 26 27 86 87 88 89
25 30 31 26 87 90 91 88
30 34 35 31 90 92 93 91
34 38 39 35 92 94 95 93
38 42 43 39 94 96 97 95
42 46 47 43 96 98 99 97
27 26 50 51 89 88 100 101
26 31 53 50 88 91 102 100
31 35 55 53 91 93 103 102
35 39 57 55 93 95 104 103
39 43 59 57 95 97 105 104
43 47 61 59 97 99 106 105
51 50 64 65 101 100 107 108
50 53 67 64 100 102 109 107
53 55 69 67 102 103 110 109
55 57 111 69 103 104 112 110
65 64 72 73 108 107 113 114
64 67 78 72 107 109 115 113
73 72 75 76 114 113 116 117
76 75 81 82 117 116 118 119
75 79 83 81 116 120 121 118
79 84 85 83 120 122 123 121
84 124 125 85 122 126 127 123
128 129 130 131 132 133 134 135
86 87 88 89 136 137 138 139
87 90 91 88 137 140 141 138
90 92 93 91 140 142 143 141
92 94 95 93 142 144 145 143
94 96 97 95 144 146 147 145
96 98 99 97 146 148 149 147
89 88 100 101 139 138 150 151
88 91 102 100 138 141 152 150
91 93 103 102 141 143 153 152
93 95 104 103 143 145 154 153
95 97 105 104 145 147 155 154
97 99 106 105 147 149 156 155
101 100 107 108 151 150 157 158
100 102 109 107 150 152 159 157
102 103 110 109 152 153 160 159
103 104 112 110 153 154 161 160
104 105 162 112 154 155 163 161
105 106 164 162 155 156 165 163
109 110 166 115 159 160 167 168
110 112 169 166 160 161 170 167
112 162 171 169 161 163 172 170
162 164 173 171 163 165 174 172
114 113 116 117 175 176 177 178
169 171 132 126 170 172 179 180
171 173 133 132 172 174 181 179
117 116 118 119 178 177 182 183
116 120 121 118 177 184 185 182
120 122 123 121 184 186 187 185
122 126 127 123 186 180 188 187
126 132 135 127 180 179 189 188
132 133 134 135 179 181 190 189
</DataArray>
<DataArray type="Int32" Name="offsets" format="ascii">
8
16
24
32
40
48
56
64
72
80
88
96
104
112
120
128
136
144
152
160
168
176
184
192
200
208
216
224
232
240
248
256
264
272
280
288
296
304
312
320
328
336
344
352
360
368
376
384
392
400
408
416
424
432
440
448
456
464
472
480
488
496
504
512
520
528
536
544
552
560
568
576
584
592
600
608
616
624
632
</DataArray>
<DataArray type="UInt8" Name="types" format="ascii">
12
12
12
12
12
12
12
12
12
12
12
12
12
12
12
12
12
12
12
12
12
12
12
12
12
12
12
12
12
12
12
12
12
12
12
12
12
12
12
12
12
12
12
12
12
12
12
12
12
12
12
12
12
12
12
12
12
12
12
12
12
12
12
12
12
12
12
12
12
12
12
12
12
12
12
12
12
12
12
</DataArray>
</Cells>
</Piece>
</UnstructuredGrid>
</VTKFile>
