<VTKFile type="UnstructuredGrid" version="0.1" byte_order="LittleEndian">
<UnstructuredGrid>
<Piece NumberOfPoints="173" NumberOfCells="80">
<Points>
<DataArray type="Float64" NumberOfComponents="3" format="ascii">
 0.00000000e+00  0.00000000e+00  0.00000000e+00
 1.01070368e+00  0.00000000e+00  0.00000000e+00
 1.01199293e+00  1.02649808e+00  0.00000000e+00
 0.00000000e+00  1.02499902e+00  0.00000000e+00
 0.00000000e+00  0.00000000e+00  9.69892204e-01
 1.01102376e+00  0.00000000e+00  9.68419015e-01
 1.01120055e+00  1.02409816e+00  9.70133543e-01
 0.00000000e+00  1.02371633e+00  9.72127318e-01
 2.02393794e+00  0.00000000e+00  0.00000000e+00
 2.02453279e+00  1.02986634e+00  0.00000000e+00
 2.02379870e+00  0.00000000e+00  9.63776648e-01
 2.02470684e+00  1.02596009e+00  9.66776192e-01
 3.03861356e+00  0.00000000e+00  0.00000000e+00
 3.03970027e+00  1.03447962e+00  0.00000000e+00
 3.04114747e+00  0.00000000e+00  9.58976567e-01
 3.03949594e+00  1.02826428e+00  9.61971343e-01
 4.05915070e+00  0.00000000e+00  0.00000000e+00
 4.05506372e+00  1.03821373e+00  0.00000000e+00
 4.06150913e+00  0.00000000e+00  9.54658151e-01
 4.05723000e+00  1.02914751e+00  9.57076371e-01
 5.08337307e+00  0.00000000e+00  0.00000000e+00
 5.07569456e+00  1.04152894e+00  0.00000000e+00
 5.08468676e+00  0.00000000e+00  9.47808027e-01
 5.07971907e+00  1.03071260e+00  9.52730954e-01
 6.11115837e+00  0.00000000e+00  0.00000000e+00
 6.09344721e+00  1.05465305e+00  0.00000000e+00
 6.10725164e+00  0.00000000e+00  9.44544911e-01
 6.10333776e+00  1.04010415e+00  9.45708096e-01
 1.01385546e+00  2.04544210e+00  0.00000000e+00
 0.00000000e+00  2.04418945e+00  0.00000000e+00
 1.01223063e+00  2.04403019e+00  9.75954473e-01
 0.00000000e+00  2.04268074e+00  9.76368666e-01
 2.02751327e+00  2.05050683e+00  0.00000000e+00
 2.02500582e+00  2.04719090e+00  9.76366282e-01
 3.03840899e+00  2.05560493e+00  0.00000000e+00
 3.03665257e+00  2.05084205e+00  9.80239391e-01
 4.04791069e+00  2.06278205e+00  0.00000000e+00
 4.04957151e+00  2.05317497e+00  9.78628874e-01
 5.05478144e+00  2.06637979e+00  0.00000000e+00
 5.06052732e+00  2.05636382e+00  9.79783714e-01
 6.06518269e+00  2.08008814e+00  0.00000000e+00
 6.07566023e+00  2.07015014e+00  9.79102194e-01
 1.01510084e+00  3.05598497e+00  0.00000000e+00
 0.00000000e+00  3.05480719e+00  0.00000000e+00
 1.01308382e+00  3.05613327e+00  9.82243717e-01
 0.00000000e+00  3.05552220e+00  9.81036067e-01
 2.02833414e+00  3.05765843e+00  0.00000000e+00
 2.02558851e+00  3.05779624e+00  9.87638712e-01
 3.03595209e+00  3.06174946e+00  0.00000000e+00
 3.03380942e+00  3.06012654e+00  9.95729029e-01
 4.03722000e+00  3.06628132e+00  0.00000000e+00
 4.03567600e+00  3.06148839e+00  1.00110805e+00
 5.04324102e+00  3.06563020e+00  0.00000000e+00
 5.04282188e+00  3.06113410e+00  1.00345993e+00
 6.04436636e+00  3.08037138e+00  0.00000000e+00
 6.04531336e+00  3.07828760e+00  1.00190020e+00
 1.01521826e+00  4.06083441e+00  0.00000000e+00
 0.00000000e+00  4.06164265e+00  0.00000000e+00
 1.01308024e+00  4.06193733e+00  9.84891653e-01
 0.00000000e+00  4.06277084e+00  9.83430624e-01
 2.02720857e+00  4.06091118e+00  0.00000000e+00
 2.02433038e+00  4.06016827e+00  9.90490198e-01
 3.03233099e+00  4.06196833e+00  0.00000000e+00
 3.02992558e+00  4.06110811e+00  9.97871161e-01
 4.03159857e+00  4.06521893e+00  0.00000000e+00
 4.03142023e+00  4.06513786e+00  9.99952793e-01
 6.03196955e+00  4.07140636e+00  0.00000000e+00
 5.03184891e+00  4.06788635e+00  0.00000000e+00
 6.03204393e+00  4.07154465e+00  9.99937832e-01
 5.03187132e+00  4.06797791e+00  1.00010002e+00
 1.01423860e+00  5.06630182e+00  0.00000000e+00
 0.00000000e+00  5.06838465e+00  0.00000000e+00
 1.01263177e+00  5.06766987e+00  9.84055638e-01
 0.00000000e+00  5.06862354e+00  9.81082082e-01
 2.02546382e+00  5.06279755e+00  0.00000000e+00
 2.02152205e+00  5.06364679e+00  9.89999354e-01
 3.02873206e+00  5.06268549e+00  0.00000000e+00
 3.02734828e+00  5.06263447e+00  9.98498797e-01
 4.02890730e+00  5.06515169e+00  0.00000000e+00
 4.02872276e+00  5.06511211e+00  1.00018430e+00
 5.02877283e+00  5.06804323e+00  0.00000000e+00
 5.02884293e+00  5.06805182e+00  1.00000429e+00
 6.02879238e+00  5.07111406e+00  0.00000000e+00
 6.02882671e+00  5.07106209e+00  9.99957144e-01
 1.01587248e+00  6.07504702e+00  0.00000000e+00
 0.00000000e+00  6.07671976e+00  0.00000000e+00
 1.01343226e+00  6.07479525e+00  9.81301785e-01
 0.00000000e+00  6.07784271e+00  9.78165150e-01
 2.02711558e+00  6.06806231e+00  0.00000000e+00
 2.02161908e+00  6.07194662e+00  9.85856533e-01
 3.02773666e+00  6.06364727e+00  0.00000000e+00
 3.02705050e+00  6.06643629e+00  9.96407747e-01
 4.02646112e+00  6.06526279e+00  0.00000000e+00
 4.02615547e+00  6.06530666e+00  1.00019181e+00
 5.02593756e+00  6.06802273e+00  0.00000000e+00
 5.02598047e+00  6.06805229e+00  1.00002456e+00
 6.02588224e+00  6.07103586e+00  0.00000000e+00
 6.02590752e+00  6.07100010e+00  1.00001442e+00
 0.00000000e+00  0.00000000e+00  1.94269013e+00
 1.01257467e+00  0.00000000e+00  1.93928742e+00
 1.01177669e+00  1.01957560e+00  1.94290042e+00
 0.00000000e+00  1.02021837e+00  1.94413149e+00
 2.02828121e+00  0.00000000e+00  1.93454075e+00
 2.02467155e+00  1.01661360e+00  1.93496513e+00
 3.04464793e+00  0.00000000e+00  1.92623258e+00
 3.04487467e+00  1.01576328e+00  1.92666864e+00
 4.06728697e+00  0.00000000e+00  1.91473651e+00
 4.06530476e+00  1.01661777e+00  1.92339504e+00
 5.08962202e+00  0.00000000e+00  1.90601003e+00
 5.08782768e+00  1.01758015e+00  1.91565537e+00
 6.10728931e+00  0.00000000e+00  1.90022278e+00
 6.11225080e+00  1.01812053e+00  1.90880215e+00
 1.00873542e+00  2.03873754e+00  1.95086503e+00
 0.00000000e+00  2.04066777e+00  1.95457768e+00
 2.02210665e+00  2.03796148e+00  1.94855440e+00
 3.03955722e+00  2.04083467e+00  1.94674706e+00
 4.06190681e+00  2.04594612e+00  1.93587661e+00
 5.08680582e+00  2.04694700e+00  1.93632650e+00
 6.11161470e+00  2.04811811e+00  1.92783058e+00
 1.00722313e+00  3.05536675e+00  1.96245134e+00
 0.00000000e+00  3.05563927e+00  1.96555018e+00
 2.01798105e+00  3.05577374e+00  1.97103608e+00
 3.01611614e+00  3.05422401e+00  2.00276566e+00
 1.00860214e+00  4.06617975e+00  1.97172678e+00
 0.00000000e+00  4.06520796e+00  1.96831894e+00
 2.01761508e+00  4.06272984e+00  1.98166263e+00
 3.02181745e+00  4.05547523e+00  1.99339151e+00
 1.00895488e+00  5.07056761e+00  1.97006655e+00
 0.00000000e+00  5.07213116e+00  1.96724737e+00
 2.01643109e+00  5.06794500e+00  1.97880864e+00
 3.02934504e+00  5.06358862e+00  1.98301196e+00
 1.00649774e+00  6.08089399e+00  1.96139514e+00
 0.00000000e+00  6.07883167e+00  1.96216965e+00
 2.01585937e+00  6.08365536e+00  1.96703637e+00
 3.03205204e+00  6.08181715e+00  1.96764266e+00
 5.02888918e+00  5.06804037e+00  2.00001121e+00
 6.02889633e+00  5.07096052e+00  1.99996459e+00
 6.02595663e+00  6.07097530e+00  2.00001073e+00
 5.02593994e+00  6.06804466e+00  2.00003219e+00
 0.00000000e+00  0.00000000e+00  2.91310954e+00
 1.01634991e+00  0.00000000e+00  2.91177130e+00
 1.01648581e+00  1.01731884e+00  2.91595316e+00
 0.00000000e+00  1.01702917e+00  2.91872334e+00
 2.03595233e+00  0.00000000e+00  2.90451980e+00
 2.03151107e+00  1.01340115e+00  2.91059947e+00
 3.05358124e+00  0.00000000e+00  2.89716196e+00
 3.05382514e+00  1.01036274e+00  2.89938831e+00
 4.07487822e+00  0.00000000e+00  2.89013743e+00
 4.07549810e+00  1.01111388e+00  2.88730931e+00
 5.09484196e+00  0.00000000e+00  2.88042331e+00
 5.09611082e+00  1.01244426e+00  2.88230991e+00
 6.11168480e+00  0.00000000e+00  2.87618756e+00
 6.11375332e+00  1.01088238e+00  2.87858772e+00
 1.01046419e+00  2.03186679e+00  2.92713881e+00
 0.00000000e+00  2.03720951e+00  2.92872667e+00
 2.02890015e+00  2.03096032e+00  2.91295099e+00
 3.04916525e+00  2.03456879e+00  2.89257312e+00
 4.07612371e+00  2.03902936e+00  2.88967657e+00
 5.09883785e+00  2.03412986e+00  2.88766670e+00
 6.11770344e+00  2.03078485e+00  2.88545871e+00
 1.00695086e+00  3.05534744e+00  2.94735909e+00
 0.00000000e+00  3.05430937e+00  2.94296265e+00
 2.02564025e+00  3.04927254e+00  2.93003774e+00
 1.00624406e+00  4.06716537e+00  2.95725203e+00
 0.00000000e+00  4.06991196e+00  2.95618415e+00
 2.01744032e+00  4.06705046e+00  2.97148728e+00
 1.00721312e+00  5.07992792e+00  2.95529199e+00
 0.00000000e+00  5.07709408e+00  2.95583797e+00
 2.01794910e+00  5.08085585e+00  2.95593691e+00
 3.02021885e+00  4.07430935e+00  3.00580215e+00
 3.03328586e+00  5.07573366e+00  2.95141602e+00
 1.00730753e+00  6.08921671e+00  2.94814205e+00
 0.00000000e+00  6.08966780e+00  2.94267607e+00
</DataArray>
</Points>
<PointData Tensors="Stress_Components,Plastic_strain_components" Vevtors="Spatial_displacement,Reaction_force" Scalars="Equivalent_plastic_strain,Stress_Mises,Stress_Max_Principal,Stress_Mid_Principal,Stress_Min_Principal,Stress_Pressure,Stress_Tresca,Stress_Third_Invariant,Plastic_strain_Max_Principal,Plastic_strain_Min_Principal">
<DataArray type="Float32" Name="Stress_Components" NumberOfComponents="9" format="ascii">
-3.88153887e+00 2.11219303e-04 -4.85216267e-03 2.11219303e-04 2.53884387e+00 -2.17429921e-03 -4.85216267e-03 -2.17429921e-03 -3.07535191e+01
-5.19891430e+00 2.91715264e-01 -8.96630168e-04 2.91715264e-01 1.40144086e+00 -5.71413264e-02 -8.96630168e-04 -5.71413264e-02 -3.33996716e+01
-3.74389005e+00 8.48839700e-01 -5.81096537e-01 8.48839700e-01 1.01748362e+00 -2.82571480e-01 -5.81096537e-01 -2.82571480e-01 -3.24805202e+01
-1.77056280e+00 3.14658657e-01 -3.35229263e-01 3.14658657e-01 2.70016021e+00 5.74410520e-03 -3.35229263e-01 5.74410520e-03 -2.86167803e+01
-2.72823918e+00 -3.64641077e-04 4.14726600e-01 -3.64641077e-04 3.23967302e+00 -3.94866183e-01 4.14726600e-01 -3.94866183e-01 -2.88072748e+01
-4.01740760e+00 8.84061046e-02 4.81584311e-01 8.84061046e-02 1.86601932e+00 -5.14929906e-01 4.81584311e-01 -5.14929906e-01 -3.17332563e+01
-2.45698783e+00 4.43085257e-01 1.17215312e-02 4.43085257e-01 2.06977146e+00 -6.93269901e-01 1.17215312e-02 -6.93269901e-01 -3.00035461e+01
-2.81482112e+00 1.19289663e-01 1.05176190e-01 1.19289663e-01 1.89710692e+00 -3.32663976e-01 1.05176190e-01 -3.32663976e-01 -3.05806322e+01
-8.90778747e+00 5.92919523e-02 -1.20784533e-02 5.92919523e-02 -1.68182349e+00 -3.11122417e-01 -1.20784533e-02 -3.11122417e-01 -4.07272778e+01
-7.70513010e+00 1.44866897e+00 -8.17379020e-01 1.44866897e+00 -2.07775629e+00 -6.24560085e-02 -8.17379020e-01 -6.24560085e-02 -3.99741504e+01
-3.78714019e+00 2.52183650e-01 4.95953768e-01 2.52183650e-01 1.06861150e+00 -4.73152415e-01 4.95953768e-01 -4.73152415e-01 -3.25641708e+01
-5.96697897e+00 6.46580771e-01 -3.11572157e-01 6.46580771e-01 -1.23071490e+00 -1.26174661e+00 -3.11572157e-01 -1.26174661e+00 -3.73263631e+01
-1.30422814e+01 5.88569045e-01 -4.31749802e-02 5.88569045e-01 -5.31219855e+00 6.08193830e-01 -4.31749802e-02 6.08193830e-01 -4.91063347e+01
-1.16271138e+01 1.01478113e+00 -1.49952397e+00 1.01478113e+00 -5.32391024e+00 -6.47031404e-01 -1.49952397e+00 -6.47031404e-01 -4.77960324e+01
-5.10395470e+00 -5.01858391e-01 1.47533389e-01 -5.01858391e-01 -1.40229511e+00 -5.29301532e-01 1.47533389e-01 -5.29301532e-01 -3.69107709e+01
-8.17496365e+00 -2.69199997e-01 3.78339589e-01 -2.69199997e-01 -3.29284179e+00 -7.40384992e-01 3.78339589e-01 -7.40384992e-01 -4.18279426e+01
-1.32676010e+01 -9.63394731e-01 -3.09030656e-02 -9.63394731e-01 -6.50698677e+00 3.66259351e-01 -3.09030656e-02 3.66259351e-01 -5.08546867e+01
-1.70395463e+01 -8.39764979e-01 -2.60199276e+00 -8.39764979e-01 -8.57304287e+00 1.63903208e-01 -2.60199276e+00 1.63903208e-01 -5.68262706e+01
-7.30674517e+00 -1.18648514e+00 4.70551379e-01 -1.18648514e+00 -4.19351637e+00 -3.08803455e-01 4.70551379e-01 -3.08803455e-01 -4.23378224e+01
-3.35697254e+00 -1.31394459e+00 5.05788639e-01 -1.31394459e+00 -7.57452548e-01 1.81649819e-01 5.05788639e-01 1.81649819e-01 -3.41502646e+01
-1.50346550e+01 -1.23834577e+00 -6.64171204e-02 -1.23834577e+00 -7.46579897e+00 5.79121858e-01 -6.64171204e-02 5.79121858e-01 -5.36809959e+01
-1.36778286e+01 -3.09249263e+00 -2.88990206e+00 -3.09249263e+00 -6.40841365e+00 1.05667798e+00 -2.88990206e+00 1.05667798e+00 -5.02288566e+01
-4.74077368e+00 -9.04018294e-01 9.43726085e-01 -9.04018294e-01 -1.77618825e+00 3.55114179e-01 9.43726085e-01 3.55114179e-01 -3.69123394e+01
-3.69668959e+00 -2.22230158e+00 1.16296019e+00 -2.22230158e+00 -1.74763788e+00 4.14483080e-01 1.16296019e+00 4.14483080e-01 -3.53984906e+01
-3.53013039e+01 -4.52462482e+00 -4.57773693e-02 -4.52462482e+00 -2.03013000e+01 -4.06008400e-02 -4.57773693e-02 -4.06008400e-02 -8.78508530e+01
-3.84495173e+01 -4.04126465e+00 -4.01712608e+00 -4.04126465e+00 -2.08624330e+01 4.15056622e+00 -4.01712608e+00 4.15056622e+00 -9.03507271e+01
-1.71983726e+01 -9.45930332e-01 1.11226570e-01 -9.45930332e-01 -8.46613684e+00 3.78779054e-01 1.11226570e-01 3.78779054e-01 -5.71209526e+01
-1.68420027e+01 -2.13010064e+00 6.30037054e-01 -2.13010064e+00 -1.06211178e+01 1.65744184e+00 6.30037054e-01 1.65744184e+00 -5.82691674e+01
6.18715942e-01 1.41935417e+00 -4.33130644e-01 1.41935417e+00 -2.71384716e-01 -5.17311402e-01 -4.33130644e-01 -5.17311402e-01 -2.93737919e+01
1.23841900e+00 2.26133138e-01 -6.81171864e-01 2.26133138e-01 5.96278906e-01 1.54893380e-03 -6.81171864e-01 1.54893380e-03 -2.78909855e+01
-6.39707372e-01 9.38450769e-01 6.30271411e-01 9.38450769e-01 5.61909527e-01 -1.00139887e+00 6.30271411e-01 -1.00139887e+00 -2.98962457e+01
2.37185895e+00 4.40359548e-01 9.62067857e-01 4.40359548e-01 3.54358211e+00 -1.92670640e-01 9.62067857e-01 -1.92670640e-01 -2.35357940e+01
1.64961004e+00 2.25656408e+00 -1.36550792e+00 2.25656408e+00 2.13210583e-02 -1.10317093e+00 -1.36550792e+00 -1.10317093e+00 -2.74790035e+01
-5.81542701e-01 1.30094766e+00 1.65253259e+00 1.30094766e+00 3.85393858e-01 -4.14597317e-01 1.65253259e+00 -4.14597317e-01 -2.97659897e+01
1.12522555e+01 1.11081784e+00 -1.28839642e+00 1.11081784e+00 1.00170271e+01 -6.49682760e-01 -1.28839642e+00 -6.49682760e-01 -7.32255602e+00
2.81891935e+00 3.82484971e-01 3.54733585e+00 3.82484971e-01 3.83816866e+00 1.93057669e-01 3.54733585e+00 1.93057669e-01 -2.22636531e+01
1.12029889e+01 -2.87188785e+00 -3.37630045e+00 -2.87188785e+00 1.01924623e+01 -6.45561783e-02 -3.37630045e+00 -6.45561783e-02 -5.94925213e+00
-1.03591696e+00 -3.54532152e+00 5.07781057e+00 -3.54532152e+00 3.50084970e-01 1.15933895e+00 5.07781057e+00 1.15933895e+00 -2.86196950e+01
1.59876632e+01 -1.45528511e+00 -3.39971300e+00 -1.45528511e+00 9.45057428e+00 1.74025627e+00 -3.39971300e+00 1.74025627e+00 -3.65221500e-01
2.33639852e+00 -3.47658702e+00 5.98122704e+00 -3.47658702e+00 1.34953549e-01 3.61438653e+00 5.98122704e+00 3.61438653e+00 -2.33213768e+01
1.51625738e+01 -3.82161236e+00 -3.94157147e+00 -3.82161236e+00 5.27271461e+00 3.05254585e+00 -3.94157147e+00 3.05254585e+00 -4.79254150e+00
-1.56885993e+01 -7.09370956e+00 5.82872222e+00 -7.09370956e+00 -1.35724824e+01 6.55101858e+00 5.82872222e+00 6.55101858e+00 -5.66115322e+01
4.73216265e+00 8.05860370e-01 2.16822680e-01 8.05860370e-01 -2.11784041e+00 -8.24436367e-01 2.16822680e-01 -8.24436367e-01 -2.62234769e+01
3.33226508e+00 4.67585474e-01 4.25354406e-01 4.67585474e-01 -2.74639547e+00 -1.61463451e-02 4.25354406e-01 -1.61463451e-02 -2.87335100e+01
3.25108609e+00 5.80198832e-01 1.48314936e+00 5.80198832e-01 -1.63210937e+00 -4.34375819e-01 1.48314936e+00 -4.34375819e-01 -2.75806003e+01
5.73999000e+00 2.16959719e-01 1.37443450e+00 2.16959719e-01 2.83092377e+00 -8.37316923e-03 1.37443450e+00 -8.37316923e-03 -2.04298979e+01
1.09728147e+01 1.26993388e+00 3.00695736e-01 1.26993388e+00 5.55171807e+00 -1.64793114e+00 3.00695736e-01 -1.64793114e+00 -1.13132041e+01
1.11379491e+01 5.45302947e-01 1.84779430e+00 5.45302947e-01 4.47539850e+00 7.23901469e-01 1.84779430e+00 7.23901469e-01 -1.23178042e+01
2.44521728e+01 5.43878436e-01 -1.50430191e+00 5.43878436e-01 2.04194011e+01 -1.05993443e+00 -1.50430191e+00 -1.05993443e+00 1.76624293e+01
2.45909504e+01 -8.14799650e-01 3.28517904e-02 -8.14799650e-01 2.17733545e+01 1.34240170e+00 3.28517904e-02 1.34240170e+00 1.98370589e+01
3.32890450e+01 2.11928964e+00 -4.36966537e+00 2.11928964e+00 2.86044569e+01 -1.13706282e+00 -4.36966537e+00 -1.13706282e+00 4.28554354e+01
4.71318817e+00 -6.47644075e+00 1.17525260e-01 -6.47644075e+00 1.14830656e+01 3.35479576e+00 1.17525260e-01 3.35479576e+00 4.11519305e+00
3.30769094e+01 3.83076104e+00 -3.73618716e+00 3.83076104e+00 3.68654474e+01 -5.35419782e-01 -3.73618716e+00 -5.35419782e-01 4.52243818e+01
6.69108693e+00 1.64541562e-01 6.53263569e-01 1.64541562e-01 1.24218499e+01 -7.31593172e-01 6.53263569e-01 -7.31593172e-01 9.85117187e+00
2.60062616e+01 3.34087396e+00 -2.58499110e+00 3.34087396e+00 1.01786842e+01 1.18592024e-01 -2.58499110e+00 1.18592024e-01 3.40581104e+01
4.06431675e-01 -1.72514963e+00 4.90769458e+00 -1.72514963e+00 -9.36452624e+00 -1.46250874e+00 4.90769458e+00 -1.46250874e+00 -2.84975719e+00
5.24015452e+00 -5.79343576e-01 4.40126106e-01 -5.79343576e-01 -4.21263837e+00 -1.17425339e+00 4.40126106e-01 -1.17425339e+00 -2.72693253e+01
3.72302794e+00 -5.62352598e-01 6.43845379e-01 -5.62352598e-01 -4.81619728e+00 -1.68049876e-02 6.43845379e-01 -1.68049876e-02 -2.99217529e+01
5.89128461e+00 -1.00833226e+00 1.93309534e+00 -1.00833226e+00 -1.20515978e+00 -7.86357373e-03 1.93309534e+00 -7.86357373e-03 -2.35770477e+01
4.34061909e+00 -7.44971707e-01 6.86943137e-01 -7.44971707e-01 -2.41561881e+00 3.66924547e-01 6.86943137e-01 3.66924547e-01 -2.70698371e+01
9.33458132e+00 -7.29846910e-01 -5.54646142e-01 -7.29846910e-01 1.42719726e+00 -2.17022195e+00 -5.54646142e-01 -2.17022195e+00 -1.70196473e+01
1.05451212e+01 -1.48379551e+00 7.81872801e-01 -1.48379551e+00 3.44146892e+00 1.75428651e+00 7.81872801e-01 1.75428651e+00 -1.30328225e+01
1.31356193e+01 -2.19738143e+00 -1.57415465e+00 -2.19738143e+00 1.14594557e+01 -5.20093927e+00 -1.57415465e+00 -5.20093927e+00 8.56603146e-01
1.62828345e+01 -6.14994347e-01 -2.03445067e-01 -6.14994347e-01 1.06608603e+01 1.38704139e+00 -2.03445067e-01 1.38704139e+00 2.18179842e-01
1.18512549e+01 7.09028681e-01 -2.62376217e+00 7.09028681e-01 1.29302444e+01 -2.95696310e+00 -2.62376217e+00 -2.95696310e+00 9.31642755e+00
1.34468284e+01 2.55824103e+00 5.45782328e-01 2.55824103e+00 5.61519178e+00 5.75144958e+00 5.45782328e-01 5.75144958e+00 -7.89779305e-01
2.51645708e+00 -3.32642078e+00 1.36121064e+00 -3.32642078e+00 -1.84395790e+01 7.77007110e-01 1.36121064e+00 7.77007110e-01 -1.47220078e+00
5.58720311e+00 -3.96062024e+00 1.23101581e+00 -3.96062024e+00 7.71258769e+00 3.18692500e-01 1.23101581e+00 3.18692500e-01 3.12507598e+00
7.06968379e+00 -4.30353379e+00 7.02987731e-01 -4.30353379e+00 -1.52857280e+01 -9.21999601e-01 7.02987731e-01 -9.21999601e-01 2.03156000e+00
5.95583101e+00 -9.85157728e-01 -1.50868389e+00 -9.85157728e-01 5.68303426e+00 2.10538302e-01 -1.50868389e+00 2.10538302e-01 -2.90535808e-01
3.12438391e+00 -1.82085188e+00 1.05681752e+00 -1.82085188e+00 -3.76297963e+00 -6.68775700e-01 1.05681752e+00 -6.68775700e-01 -2.95575018e+01
1.78665066e+00 -1.34253943e+00 8.38015545e-02 -1.34253943e+00 -5.56504494e+00 -1.16437133e-02 8.38015545e-02 -1.16437133e-02 -3.31492424e+01
5.14756773e+00 -1.44426682e+00 2.35195918e-01 -1.44426682e+00 3.36233556e-01 8.75984414e-01 2.35195918e-01 8.75984414e-01 -2.33665385e+01
3.24136028e+00 -4.18386914e-01 -2.69458823e-01 -4.18386914e-01 -2.73183158e+00 1.02070571e+00 -2.69458823e-01 1.02070571e+00 -2.86571712e+01
5.85832912e+00 -1.19824681e+00 7.15134859e-01 -1.19824681e+00 1.08262071e+00 -3.25684178e+00 7.15134859e-01 -3.25684178e+00 -2.12356362e+01
7.14043736e+00 -2.74752092e+00 -3.20506585e-01 -2.74752092e+00 4.79717782e+00 1.85387535e+00 -3.20506585e-01 1.85387535e+00 -1.57335928e+01
1.11168215e+01 1.24050856e-01 6.07590668e-01 1.24050856e-01 1.15588605e+01 -3.97619501e+00 6.07590668e-01 -3.97619501e+00 -1.51155400e+00
4.75570941e+00 -6.79095586e-01 -1.20448015e+00 -6.79095586e-01 3.85644845e+00 4.66468209e+00 -1.20448015e+00 4.66468209e+00 -1.73525328e+01
4.29294419e+00 2.33124262e+00 -7.17738830e-01 2.33124262e+00 9.29743469e+00 -3.94930601e+00 -7.17738830e-01 -3.94930601e+00 7.43023872e-01
8.16375607e+00 3.07307780e+00 5.62232792e-01 3.07307780e+00 -4.52949464e-01 3.44907022e+00 5.62232792e-01 3.44907022e+00 1.60354875e-01
-1.34838027e+00 5.04707519e-01 1.77829977e-01 5.04707519e-01 3.77928829e+00 1.47840792e+00 1.77829977e-01 1.47840792e+00 9.25896347e-01
1.42251862e+00 1.10474682e+00 -4.56298369e-01 1.10474682e+00 1.14142479e+00 -7.33918334e-01 -4.56298369e-01 -7.33918334e-01 -9.28982854e-02
2.19522256e+00 5.79271674e-01 -1.07620603e+00 5.79271674e-01 -6.34293711e+00 7.10493475e-01 -1.07620603e+00 7.10493475e-01 -6.02846742e-01
1.60943565e+00 -1.54047489e-01 -4.97538887e-01 -1.54047489e-01 -6.15711339e+00 -2.63534983e-02 -4.97538887e-01 -2.63534983e-02 9.99685109e-01
-3.12209964e+00 -1.97712271e+00 -1.96504727e-01 -1.97712271e+00 -9.36897135e+00 -8.62477124e-01 -1.96504727e-01 -8.62477124e-01 -4.27143602e+01
-3.18432331e+00 -5.43674946e-01 9.87836540e-01 -5.43674946e-01 -1.19572392e+01 -1.22420099e-02 9.87836540e-01 -1.22420099e-02 -4.53609962e+01
-1.31541213e+00 -9.00716946e-01 1.54911399e-01 -9.00716946e-01 -6.27549952e+00 -9.51025642e-01 1.54911399e-01 -9.51025642e-01 -3.76329627e+01
-2.18189889e+00 -1.66810691e+00 -4.29402009e-01 -1.66810691e+00 -7.18591094e+00 9.65628147e-01 -4.29402009e-01 9.65628147e-01 -3.97366199e+01
-6.18847394e+00 -3.09068322e+00 3.84618556e+00 -3.09068322e+00 -6.62300110e+00 -5.05519676e+00 3.84618556e+00 -5.05519676e+00 -4.14331474e+01
-4.95949298e+00 -3.15380971e+00 1.09098050e+00 -3.15380971e+00 -2.80360013e+00 1.22329041e+00 1.09098050e+00 1.22329041e+00 -3.78521914e+01
5.08981514e+00 -1.08610582e+00 7.48179829e+00 -1.08610582e+00 9.14707029e+00 -1.42356777e+00 7.48179829e+00 -1.42356777e+00 -1.48897548e+01
-1.31788832e+01 -5.37765503e+00 3.71844010e+00 -5.37765503e+00 -7.51821216e+00 1.03952360e+01 3.71844010e+00 1.03952360e+01 -4.55852407e+01
-1.75183225e+01 -3.62898088e+00 3.13603228e+00 -3.62898088e+00 9.81997514e+00 -8.72642279e-01 3.13603228e+00 -8.72642279e-01 5.62002766e+00
-1.18623695e+01 -5.90346742e+00 5.53271161e-01 -5.90346742e+00 -2.11650777e+00 3.11293936e+00 5.53271161e-01 3.11293936e+00 -2.42547369e+00
-9.28727269e+00 1.23936963e+00 6.39111370e-01 1.23936963e+00 2.60326833e+00 7.16103524e-01 6.39111370e-01 7.16103524e-01 4.36815241e+00
-3.80091850e+00 3.34716082e-01 7.75083303e-01 3.34716082e-01 5.67978005e-01 -9.60628947e-01 7.75083303e-01 -9.60628947e-01 1.14119119e+00
-2.32799649e+00 2.15389752e+00 -7.53312945e-01 2.15389752e+00 -3.25677109e+00 5.21430016e-01 -7.53312945e-01 5.21430016e-01 3.99778664e-01
-2.22960961e+00 5.87441862e-01 5.59058622e-01 5.87441862e-01 -1.78596228e+00 5.59997618e-01 5.59058622e-01 5.59997618e-01 8.51564795e-01
-2.41278458e+00 -2.53995042e-03 3.72977126e-02 -2.53995042e-03 1.57497597e+00 -9.15265471e-01 3.72977126e-02 -9.15265471e-01 -3.06405945e+01
-1.60404360e+00 -1.21102000e-01 7.74379432e-01 -1.21102000e-01 1.19684827e+00 -5.45630557e-01 7.74379432e-01 -5.45630557e-01 -3.02813482e+01
-1.56791590e-01 -7.99636502e-01 5.15360823e-01 -7.99636502e-01 3.36460572e+00 -1.93003990e-01 5.15360823e-01 -1.93003990e-01 -2.62029957e+01
-2.80539559e+00 -1.08731847e-01 5.54569036e-01 -1.08731847e-01 2.07873534e+00 -1.98510874e-01 5.54569036e-01 -1.98510874e-01 -3.02948046e+01
2.41737610e+00 -9.56949472e-01 4.77845289e-01 -9.56949472e-01 2.69224018e+00 1.07424300e-01 4.77845289e-01 1.07424300e-01 -2.45079349e+01
2.03083998e+00 -1.05466697e+00 -1.42592438e-01 -1.05466697e+00 3.36357544e+00 -1.30779837e+00 -1.42592438e-01 -1.30779837e+00 -2.37869245e+01
4.00174586e+00 5.40907914e-02 7.41429394e-02 5.40907914e-02 2.55110243e+00 -4.65142645e-01 7.41429394e-02 -4.65142645e-01 -2.29044793e+01
2.87658774e+00 -6.93716018e-01 -2.95995474e-01 -6.93716018e-01 2.44847903e+00 -2.14562786e-01 -2.95995474e-01 -2.14562786e-01 -2.40219214e+01
3.17757654e+00 -4.61473130e-01 1.11185890e+00 -4.61473130e-01 1.07820213e-01 -6.75421610e-01 1.11185890e+00 -6.75421610e-01 -2.63022101e+01
1.43514681e+00 -5.29501800e-01 1.43978086e-01 -5.29501800e-01 1.50775722e+00 9.29474356e-01 1.43978086e-01 9.29474356e-01 -2.66786213e+01
5.12554982e+00 -5.64262562e-01 1.33648036e+00 -5.64262562e-01 3.66519797e+00 -5.22448570e-02 1.33648036e+00 -5.22448570e-02 -2.03703447e+01
2.85038616e+00 -2.23379364e-01 9.04249094e-01 -2.23379364e-01 1.93759009e+00 4.30591874e-01 9.04249094e-01 4.30591874e-01 -2.47503214e+01
7.09445810e+00 9.29595381e-01 1.04078484e+00 9.29595381e-01 7.36249971e+00 3.85776630e-01 1.04078484e+00 3.85776630e-01 -1.44555812e+01
6.31710124e+00 4.26310554e-01 -1.56945631e-01 4.26310554e-01 5.21740103e+00 -1.50861930e-01 -1.56945631e-01 -1.50861930e-01 -1.74990703e+01
1.72987903e+00 -1.08680621e+00 9.19262448e-01 -1.08680621e+00 5.12948483e+00 -1.31213406e+00 9.19262448e-01 -1.31213406e+00 -2.21310076e+01
-1.54552701e+00 -8.18064183e-01 2.33969024e+00 -8.18064183e-01 3.45591971e+00 -7.61867642e-01 2.33969024e+00 -7.61867642e-01 -2.70105884e+01
-1.10049072e+01 -9.47314473e-01 2.86104480e+00 -9.47314473e-01 -7.21933437e+00 -4.48184013e-01 2.86104480e+00 -4.48184013e-01 -4.97168093e+01
-3.15288618e+01 -3.69738400e+00 1.02343668e+01 -3.69738400e+00 -2.97144218e+01 6.82946390e-01 1.02343668e+01 6.82946390e-01 -8.98906284e+01
-2.20507617e+01 -2.04236284e-01 1.98322424e+00 -2.04236284e-01 -1.79140410e+01 2.73686104e+00 1.98322424e+00 2.73686104e+00 -7.27110577e+01
-2.50964179e+01 -2.03692324e-01 3.78734398e+00 -2.03692324e-01 -2.06717657e+01 5.16786051e+00 3.78734398e+00 5.16786051e+00 -7.77622671e+01
-2.68483601e+01 -1.48042291e+00 1.32574022e+00 -1.48042291e+00 -2.03731256e+01 5.25635442e+00 1.32574022e+00 5.25635442e+00 -7.92789574e+01
6.64059374e+00 5.88682853e-02 2.64331980e+00 5.88682853e-02 9.43039015e+00 -9.81459058e-01 2.64331980e+00 -9.81459058e-01 -1.18192272e+01
4.05201340e+00 -3.88933033e-01 1.89564735e+00 -3.88933033e-01 6.74849713e+00 -6.02109626e-01 1.89564735e+00 -6.02109626e-01 -1.79078965e+01
-1.66530836e+01 -1.19392677e+00 6.20614052e+00 -1.19392677e+00 -1.15873625e+01 8.56311722e+00 6.20614052e+00 8.56311722e+00 -5.51530819e+01
-1.36573396e+01 -4.05317628e+00 3.58751774e+00 -4.05317628e+00 -5.64593381e+00 9.19235945e+00 3.58751774e+00 9.19235945e+00 -1.96944094e+00
7.05053467e+00 3.59744951e-02 2.44437952e+00 3.59744951e-02 5.35595540e+00 1.29849191e+00 2.44437952e+00 1.29849191e+00 -1.50978581e+01
7.10649544e+00 7.18189299e-01 1.62023857e+00 7.18189299e-01 6.53841439e+00 1.57877949e+00 1.62023857e+00 1.57877949e+00 -1.50444503e+01
1.59321191e+01 -3.00410983e+00 2.12636467e+00 -3.00410983e+00 1.51842797e+01 1.71160685e+00 2.12636467e+00 1.71160685e+00 5.49759998e+00
2.44285915e+01 -1.46606712e+00 -6.29553763e+00 -1.46606712e+00 2.56340582e+01 -1.38638727e+00 -6.29553763e+00 -1.38638727e+00 2.12837510e+01
5.89577819e+00 -9.43176971e-01 4.10666317e-01 -9.43176971e-01 4.24256027e+00 9.19525300e-01 4.10666317e-01 9.19525300e-01 -1.82457330e+01
8.54588902e+00 -7.92601392e-01 3.73012856e-01 -7.92601392e-01 6.30439186e+00 8.85558620e-01 3.73012856e-01 8.85558620e-01 -1.36172428e+01
1.11770388e+00 -2.29440660e+00 7.07915209e-01 -2.29440660e+00 5.79872668e-01 2.29629846e+00 7.07915209e-01 2.29629846e+00 -2.63039877e+01
-6.56860518e+00 4.55719054e-01 -2.73220291e+00 4.55719054e-01 -7.26733470e+00 4.38767748e+00 -2.73220291e+00 4.38767748e+00 -4.45011170e+01
1.35469609e+00 -2.23345431e-01 -5.77366493e-01 -2.23345431e-01 3.19572353e+00 -4.07963499e-01 -5.77366493e-01 -4.07963499e-01 -2.51728973e+01
9.19463396e-01 3.68696332e-01 3.15974951e-02 3.68696332e-01 8.54726076e-01 5.24586141e-01 3.15974951e-02 5.24586141e-01 -2.79990811e+01
-4.42910981e+00 4.69715584e-01 1.05578642e+00 4.69715584e-01 -5.75675964e-02 -4.93655775e-01 1.05578642e+00 -4.93655775e-01 -3.46872854e+01
-4.25616398e+01 4.01745439e-02 -4.82639335e-01 4.01745439e-02 -3.79377346e+01 4.29246140e+00 -4.82639335e-01 4.29246140e+00 -1.18014473e+02
1.13254353e-01 -6.14845991e-01 -1.51817426e-02 -6.14845991e-01 -1.22439861e-02 -1.01974970e-01 -1.51817426e-02 -1.01974970e-01 -5.26243076e-01
-2.22802147e-01 -4.10948709e-01 -2.34554231e-01 -4.10948709e-01 1.04316872e-01 -7.78023899e-02 -2.34554231e-01 -7.78023899e-02 -3.06764979e-01
2.88358385e-01 -1.84602737e-01 2.51367025e-01 -1.84602737e-01 2.07579341e-01 2.97566226e-01 2.51367025e-01 2.97566226e-01 -9.21159744e-01
1.98605032e-01 -3.88568938e-01 -1.53775424e-01 -3.88568938e-01 -3.34778804e-01 -2.88192540e-01 -1.53775424e-01 -2.88192540e-01 -2.89132297e-01
-2.29286671e-01 6.14376366e-03 1.22359782e+00 6.14376366e-03 3.57996345e-01 -1.67765521e-01 1.22359782e+00 -1.67765521e-01 -2.98292103e+01
2.55466849e-01 1.84652667e-01 7.36265019e-01 1.84652667e-01 4.05545533e-02 3.70847553e-01 7.36265019e-01 3.70847553e-01 -2.96316953e+01
1.43778840e+00 -1.10716575e+00 1.20726372e+00 -1.10716575e+00 1.88682706e+00 4.49153131e-01 1.20726372e+00 4.49153131e-01 -2.61757467e+01
-6.41637981e-01 1.41696084e-01 1.23892360e+00 1.41696084e-01 8.07313517e-01 -6.90804332e-01 1.23892360e+00 -6.90804332e-01 -2.97461910e+01
3.26496306e+00 -1.25069778e+00 7.91382492e-01 -1.25069778e+00 9.15867805e-01 1.37462283e-01 7.91382492e-01 1.37462283e-01 -2.53210673e+01
3.79815562e+00 -1.53649100e+00 1.37400567e+00 -1.53649100e+00 2.56346035e+00 9.22213938e-01 1.37400567e+00 9.22213938e-01 -2.26062669e+01
5.58203578e+00 1.35694671e-01 2.62311801e-01 1.35694671e-01 1.75514260e+00 8.33218455e-01 2.62311801e-01 8.33218455e-01 -2.17402468e+01
6.27931380e+00 -5.63020539e-01 -1.00572897e-01 -5.63020539e-01 3.37615494e+00 -1.95367164e-01 -1.00572897e-01 -1.95367164e-01 -1.92462018e+01
7.89431652e+00 3.05868160e-01 -4.28462312e-01 3.05868160e-01 3.67749339e+00 8.68663508e-02 -4.28462312e-01 8.68663508e-02 -1.71146389e+01
9.35548648e-01 3.66623877e-01 -9.74382028e-01 3.66623877e-01 -1.63218051e+00 1.03983620e-01 -9.74382028e-01 1.03983620e-01 -3.04103016e+01
1.04622391e+01 1.15375883e-01 3.32088396e-01 1.15375883e-01 7.43296584e+00 -4.39712752e-01 3.32088396e-01 -4.39712752e-01 -1.04317212e+01
4.12186489e+00 2.02429140e-01 -2.14121515e-01 2.02429140e-01 1.76515138e+00 8.44549462e-02 -2.14121515e-01 8.44549462e-02 -2.34989958e+01
1.45851860e+01 2.43826173e-02 3.10013473e-01 2.43826173e-02 1.24063954e+01 -6.56350076e-01 3.10013473e-01 -6.56350076e-01 -5.39735317e-01
1.15555536e+01 -6.98736170e-02 -3.93645508e-01 -6.98736170e-02 9.66903539e+00 -4.56156429e-01 -3.93645508e-01 -4.56156429e-01 -6.92447019e+00
8.61822784e-01 -1.78146409e+00 2.95704536e+00 -1.78146409e+00 4.20314541e+00 1.93983948e-01 2.95704536e+00 1.93983948e-01 -2.29447643e+01
2.28809595e-01 -1.37238969e+00 2.20841791e+00 -1.37238969e+00 5.05804638e+00 -3.75155631e-01 2.20841791e+00 -3.75155631e-01 -2.34652007e+01
4.49287844e+00 1.25374465e-01 2.76740759e+00 1.25374465e-01 3.08400597e+00 8.83423396e-01 2.76740759e+00 8.83423396e-01 -2.45526069e+01
-3.88828934e+01 -2.24933665e+00 -9.94302604e+00 -2.24933665e+00 -3.92221909e+01 -1.00908597e+00 -9.94302604e+00 -1.00908597e+00 -1.08015962e+02
-2.91042686e+01 -1.59679323e-01 -3.40174121e+00 -1.59679323e-01 -2.58818655e+01 2.03481343e+00 -3.40174121e+00 2.03481343e+00 -8.90271540e+01
-1.69724841e+01 -3.64796784e-01 -2.69667193e-01 -3.64796784e-01 -1.54126611e+01 1.63595144e+00 -2.69667193e-01 1.63595144e+00 -6.49584379e+01
-7.42437977e+00 3.85990385e-02 -4.78903741e-01 3.85990385e-02 -4.62018043e+00 3.74451980e-01 -4.78903741e-01 3.74451980e-01 -4.29472256e+01
-4.27124773e+00 -9.43439814e-01 4.82815668e+00 -9.43439814e-01 4.29208108e-01 8.28680911e-01 4.82815668e+00 8.28680911e-01 -3.15467419e+01
7.35834000e+00 5.27291819e-01 2.76858161e+00 5.27291819e-01 1.14224219e+01 -1.80700533e-01 2.76858161e+00 -1.80700533e-01 -8.64757085e+00
-5.77100668e+01 -7.16220272e+00 1.18486822e+01 -7.16220272e+00 -5.25527401e+01 -1.26381271e+01 1.18486822e+01 -1.26381271e+01 -1.35359478e+02
9.45273827e+00 -2.40606959e-01 7.87212423e-01 -2.40606959e-01 1.15730239e+01 1.55994933e+00 7.87212423e-01 1.55994933e+00 -6.85067599e+00
7.36839449e+00 -8.66102040e-01 2.63028521e+00 -8.66102040e-01 1.03702464e+01 -1.01589952e-02 2.63028521e+00 -1.01589952e-02 -9.37747899e+00
-2.36145900e+01 3.56651917e-01 4.18179336e+00 3.56651917e-01 -2.02877183e+01 1.39785581e+01 4.18179336e+00 1.39785581e+01 -6.54647031e+01
1.49697088e+01 4.50613933e-01 1.59577054e+00 4.50613933e-01 1.65608069e+01 -4.06940350e-01 1.59577054e+00 -4.06940350e-01 4.28854218e+00
9.11106524e+00 5.82921844e-01 -3.30658928e-02 5.82921844e-01 1.07249696e+01 5.79991635e-01 -3.30658928e-02 5.79991635e-01 -8.29274940e+00
1.41300498e+01 -9.20854300e-01 8.81833230e-01 -9.20854300e-01 1.65700111e+01 1.53092313e+00 8.81833230e-01 1.53092313e+00 1.45496505e+00
-2.64920044e+01 9.27035618e+00 -1.45519285e+01 9.27035618e+00 -2.78557320e+01 2.74237423e+01 -1.45519285e+01 2.74237423e+01 -1.45175352e+01
-4.60637496e+01 4.85315704e+00 -1.85964319e+01 4.85315704e+00 -4.69156148e+01 -1.73537902e+00 -1.85964319e+01 -1.73537902e+00 -1.24382493e+02
1.61979789e+00 1.46023588e+00 1.68200117e+00 1.46023588e+00 3.08176005e+00 2.46260162e+00 1.68200117e+00 2.46260162e+00 -2.39585187e+01
-2.45491171e+00 -4.90755811e-02 6.47011101e-01 -4.90755811e-02 1.57628822e+00 1.60472137e+00 6.47011101e-01 1.60472137e+00 -3.04982861e+01
</DataArray>
<DataArray type="Float32" Name="Logarithmic_strain_components" NumberOfComponents="9" format="ascii">
1.08466549e-02 -6.09776180e-07 6.81585334e-07 -6.09776180e-07 2.48894282e-02 -2.47237040e-07 6.81585334e-07 -2.47237040e-07 -3.03621348e-02
1.17872842e-02 1.27312588e-03 6.55753865e-07 1.27312588e-03 2.60435343e-02 3.15578349e-04 6.55753865e-07 3.15578349e-04 -3.22057754e-02
1.24733043e-02 3.93482437e-03 -2.34436389e-03 3.93482437e-03 2.27461583e-02 -7.78196743e-04 -2.34436389e-03 -7.78196743e-04 -3.00274091e-02
1.17556909e-02 1.46614568e-03 -1.25474832e-03 1.46614568e-03 2.16899617e-02 1.51319909e-07 -1.25474832e-03 1.51319909e-07 -2.84413490e-02
1.09114852e-02 1.67759458e-06 2.30069505e-03 1.67759458e-06 2.33878633e-02 -1.51663745e-03 2.30069505e-03 -1.51663745e-03 -2.91257221e-02
1.20024388e-02 1.75610847e-04 1.76804181e-03 1.75610847e-04 2.39842455e-02 -2.22811647e-03 1.76804181e-03 -2.22811647e-03 -3.06392084e-02
1.22598220e-02 1.69367600e-03 4.87373742e-04 1.69367600e-03 2.17652917e-02 -2.85748226e-03 4.87373742e-04 -2.85748226e-03 -2.89720267e-02
1.14456401e-02 3.74314950e-04 9.88348911e-04 3.74314950e-04 2.14226353e-02 -2.05033447e-03 9.88348911e-04 -2.05033447e-03 -2.80052857e-02
1.38130290e-02 5.85335016e-04 1.29424916e-06 5.85335016e-04 2.93838549e-02 -1.39192016e-04 1.29424916e-06 -1.39192016e-04 -3.69441006e-02
1.39871135e-02 5.65043680e-03 -3.80842440e-03 5.65043680e-03 2.51721693e-02 1.82460881e-04 -3.80842440e-03 1.82460881e-04 -3.35460268e-02
1.44756252e-02 8.95267905e-04 3.10073141e-03 8.95267905e-04 2.51573916e-02 -2.74003702e-03 3.10073141e-03 -2.74003702e-03 -3.37638641e-02
1.44183877e-02 2.62775121e-03 2.15701439e-05 2.62775121e-03 2.37130120e-02 -4.13989648e-03 2.15701439e-05 -4.13989648e-03 -3.26405079e-02
1.66493645e-02 1.06485380e-03 4.58021532e-08 1.06485380e-03 3.31077781e-02 2.48306373e-03 4.58021532e-08 2.48306373e-03 -4.27417438e-02
1.59167063e-02 3.95367242e-03 -6.04163366e-03 3.95367242e-03 2.81918603e-02 -1.87526461e-04 -6.04163366e-03 -1.87526461e-04 -3.79692866e-02
1.78778111e-02 -1.61964691e-03 3.10659752e-03 -1.61964691e-03 2.70699668e-02 -1.77638410e-03 3.10659752e-03 -1.77638410e-03 -3.84191154e-02
1.68368316e-02 -6.81540136e-04 1.88460393e-03 -6.81540136e-04 2.58271571e-02 -2.50444493e-03 1.88460393e-03 -2.50444493e-03 -3.65370177e-02
2.03931890e-02 -4.00598720e-03 5.54782309e-06 -4.00598720e-03 3.57787479e-02 2.30476784e-03 5.54782309e-06 2.30476784e-03 -4.82689887e-02
1.84663497e-02 -2.11414252e-03 -8.77842610e-03 -2.11414252e-03 3.15350858e-02 2.11411924e-03 -8.77842610e-03 2.11411924e-03 -4.32409327e-02
2.17131330e-02 -4.18617530e-03 2.52307573e-03 -4.18617530e-03 2.88872262e-02 -1.85790801e-03 2.52307573e-03 -1.85790801e-03 -4.33697114e-02
1.98115269e-02 -4.71428392e-03 1.92913716e-03 -4.71428392e-03 2.61440210e-02 1.47216808e-04 1.92913716e-03 1.47216808e-04 -3.90843460e-02
2.44386941e-02 -7.48871150e-03 1.13347851e-05 -7.48871150e-03 3.94445695e-02 1.26658956e-03 1.13347851e-05 1.26658956e-03 -5.49483728e-02
2.05192110e-02 -6.07473135e-03 -1.04403957e-02 -6.07473135e-03 3.40822511e-02 3.89521191e-03 -1.04403957e-02 3.89521191e-03 -4.69479309e-02
2.37078806e-02 -4.84480802e-03 5.15858177e-03 -4.84480802e-03 3.13126692e-02 -2.26488191e-03 5.15858177e-03 -2.26488191e-03 -4.69481563e-02
2.28135320e-02 -6.54506043e-03 4.99314500e-03 -6.54506043e-03 2.77630233e-02 -2.19765912e-04 4.99314500e-03 -2.19765912e-04 -4.29689465e-02
2.27285270e-02 -1.72829628e-02 -2.41115486e-05 -1.72829628e-02 4.85196933e-02 -3.84954270e-03 -2.41115486e-05 -3.84954270e-03 -6.21980876e-02
1.99705753e-02 -9.97794047e-03 -1.39127509e-02 -9.97794047e-03 4.14138287e-02 9.59368236e-03 -1.39127509e-02 9.59368236e-03 -5.36136720e-02
2.15654429e-02 -3.80475493e-03 1.23661861e-03 -3.80475493e-03 3.85934934e-02 -5.34512731e-03 1.23661861e-03 -5.34512731e-03 -5.19525502e-02
2.22715838e-02 -6.48713461e-03 3.54667660e-04 -6.48713461e-03 3.33471941e-02 1.45531690e-03 3.54667660e-04 1.45531690e-03 -4.77395896e-02
1.37166027e-02 4.64681094e-03 -1.38758196e-03 4.64681094e-03 1.46922842e-02 -1.59954259e-03 -1.38758196e-03 -1.59954259e-03 -2.42803004e-02
1.35884630e-02 1.23462203e-03 -1.48659595e-03 1.23462203e-03 1.46212247e-02 1.10731162e-06 -1.48659595e-03 1.10731162e-06 -2.40940917e-02
1.26634111e-02 3.16147172e-03 2.90952534e-03 3.16147172e-03 1.61300175e-02 -2.52548973e-03 2.90952534e-03 -2.52548973e-03 -2.46147143e-02
1.18705728e-02 1.32726927e-03 2.82275572e-03 1.32726927e-03 1.54919853e-02 -4.26310806e-04 2.82275572e-03 -4.26310806e-04 -2.32610335e-02
1.28432070e-02 6.89330755e-03 -3.26125289e-03 6.89330755e-03 1.44458888e-02 -2.46340164e-03 -3.26125289e-03 -2.46340164e-03 -2.32487833e-02
1.29213914e-02 3.80447481e-03 4.53131409e-03 3.80447481e-03 1.65892682e-02 -4.66888872e-04 4.53131409e-03 -4.66888872e-04 -2.51945166e-02
1.02327531e-02 4.20636038e-03 -4.70077049e-03 4.20636038e-03 1.36437311e-02 -1.72852949e-03 -4.70077049e-03 -1.72852949e-03 -1.98766557e-02
1.26361090e-02 2.12748897e-04 1.06304636e-02 2.12748897e-04 1.72630169e-02 1.77671586e-03 1.06304636e-02 1.77671586e-03 -2.53292745e-02
9.40836011e-03 -3.53250423e-03 -9.46910679e-03 -3.53250423e-03 1.51716156e-02 1.63114216e-03 -9.46910679e-03 1.63114216e-03 -2.03740154e-02
1.30205407e-02 -6.97151416e-03 1.38231918e-02 -6.97151416e-03 1.96791120e-02 4.74875813e-03 1.38231918e-02 4.74875813e-03 -2.75991273e-02
1.01004522e-02 -7.56419293e-03 -9.87537112e-03 -7.56419293e-03 1.33871275e-02 5.65719802e-03 -9.87537112e-03 5.65719802e-03 -1.90384979e-02
1.38422969e-02 -1.03212646e-02 1.70692873e-02 -1.03212646e-02 1.91691947e-02 1.22430597e-02 1.70692873e-02 1.22430597e-02 -2.74505162e-02
1.13565698e-02 -1.08044299e-02 -9.77118500e-03 -1.08044299e-02 1.35649273e-02 1.03238784e-02 -9.77118500e-03 1.03238784e-02 -2.04337342e-02
1.51529169e-02 -1.50820588e-02 1.73258204e-02 -1.50820588e-02 2.22003857e-02 1.72320629e-02 1.73258204e-02 1.72320629e-02 -3.16001810e-02
1.38300359e-02 2.08895389e-03 1.49211191e-04 2.08895389e-03 7.42622127e-03 -1.98931742e-03 1.49211191e-04 -1.98931742e-03 -1.81631930e-02
1.45734893e-02 1.16840261e-03 7.08734355e-04 1.16840261e-03 8.27209116e-03 -6.22758307e-07 7.08734355e-04 -6.22758307e-07 -1.95749598e-02
1.28732974e-02 1.55006265e-03 4.25315990e-03 1.55006265e-03 9.06136539e-03 -5.24918778e-04 4.25315990e-03 -5.24918778e-04 -1.87831917e-02
1.22145824e-02 6.02202737e-04 4.00837167e-03 6.02202737e-04 9.20302630e-03 1.22731045e-03 4.00837167e-03 1.22731045e-03 -1.81813356e-02
1.01602087e-02 2.72155230e-03 1.40357417e-04 2.72155230e-03 4.98015329e-03 -2.71859101e-03 1.40357417e-04 -2.71859101e-03 -1.26573439e-02
1.04839892e-02 1.66021148e-03 6.24972149e-03 1.66021148e-03 6.61094565e-03 1.71869188e-03 6.24972149e-03 1.71869188e-03 -1.43875540e-02
3.89849595e-03 1.28099399e-03 -1.61736392e-03 1.28099399e-03 2.64625378e-03 -2.13539391e-03 -1.61736392e-03 -2.13539391e-03 -4.82757803e-03
3.23922143e-03 -1.30086234e-03 5.82621382e-03 -1.30086234e-03 2.22386282e-03 -8.74824279e-05 5.82621382e-03 -8.74824279e-05 -3.36443299e-03
1.48083427e-03 -6.17260498e-03 -4.80016678e-03 -6.17260498e-03 5.87505560e-04 -1.55273464e-03 -4.80016678e-03 -1.55273464e-03 -3.01121055e-04
4.11211372e-04 -9.88293951e-03 9.87573651e-03 -9.88293951e-03 3.43802804e-03 2.72006908e-03 9.87573651e-03 2.72006908e-03 -2.02783349e-03
1.16592166e-03 -1.85727856e-03 -4.51185772e-03 -1.85727856e-03 -1.31408967e-03 -4.07801310e-04 -4.51185772e-03 -4.07801310e-04 1.81088170e-03
3.32323504e-04 -4.15053267e-03 1.01561875e-02 -4.15053267e-03 1.67877702e-03 -8.57347739e-04 1.01561875e-02 -8.57347739e-04 -2.22550705e-04
2.06305916e-03 -1.78565364e-03 -2.09864066e-03 -1.78565364e-03 -3.43960724e-03 9.64549952e-04 -2.09864066e-03 9.64549952e-04 2.69532815e-03
1.40628417e-03 -4.63151047e-03 8.31544260e-03 -4.63151047e-03 -5.72833233e-04 -8.51796591e-04 8.31544260e-03 -8.51796591e-04 6.42752275e-04
1.32395769e-02 -7.90625167e-04 1.09760420e-03 -7.90625167e-04 4.86929284e-03 -2.10904144e-03 1.09760420e-03 -2.10904144e-03 -1.55069258e-02
1.43541317e-02 -8.03388510e-04 1.12132751e-03 -8.03388510e-04 6.01096381e-03 5.89432602e-07 1.12132751e-03 5.89432602e-07 -1.74820619e-02
1.17356559e-02 -1.52759731e-03 3.57348552e-03 -1.52759731e-03 5.38984931e-03 3.13833538e-04 3.57348552e-03 3.13833538e-04 -1.46030101e-02
1.27182603e-02 -8.29315395e-04 1.79491461e-03 -8.29315395e-04 6.25044084e-03 1.48610739e-03 1.79491461e-03 1.48610739e-03 -1.62506308e-02
8.59276392e-03 -8.55837206e-04 -7.41359239e-04 -8.55837206e-04 2.63825833e-03 -2.85383913e-03 -7.41359239e-04 -2.85383913e-03 -9.48568108e-03
8.30211485e-03 -2.43943512e-03 2.10049307e-03 -2.43943512e-03 2.82080862e-03 1.79105596e-03 2.10049307e-03 1.79105596e-03 -9.28847142e-03
2.28540767e-03 -1.44834141e-03 -8.61744338e-04 -1.44834141e-03 5.57089177e-04 -2.40127050e-03 -8.61744338e-04 -2.40127050e-03 -2.04597300e-03
3.71536238e-03 -1.23946708e-03 -1.04585225e-03 -1.23946708e-03 7.41717381e-04 1.34752858e-03 -1.04585225e-03 1.34752858e-03 -3.41686645e-03
7.59099930e-06 -6.11683279e-04 -8.10163595e-05 -6.11683279e-04 1.05909051e-05 -1.79039038e-04 -8.10163595e-05 -1.79039038e-04 3.58490702e-04
5.06687114e-04 4.15084379e-04 -3.06888910e-04 4.15084379e-04 5.60228720e-04 1.26074982e-03 -3.06888910e-04 1.26074982e-03 -6.91341952e-04
1.77826398e-03 -4.23667852e-03 1.39274693e-04 -4.23667852e-03 -3.01514851e-03 7.28294217e-05 1.39274693e-04 7.28294217e-05 1.56196001e-03
-9.02223292e-05 -2.61654408e-03 9.18552832e-05 -2.61654408e-03 5.80402819e-04 2.10991305e-05 9.18552832e-05 2.10991305e-05 -1.75207786e-04
1.47976934e-03 -4.65226344e-03 -8.29400742e-04 -4.65226344e-03 -2.35362872e-03 -8.06342177e-05 -8.29400742e-04 -8.06342177e-05 1.20772116e-03
-5.14604514e-04 -2.35898365e-03 -1.09377078e-03 -2.35898365e-03 1.52598367e-03 -2.99872966e-05 -1.09377078e-03 -2.99872966e-05 -6.99702379e-04
1.23198975e-02 -2.45319848e-03 1.35625782e-03 -2.45319848e-03 6.75026025e-03 -1.58433334e-03 1.35625782e-03 -1.58433334e-03 -1.64147778e-02
1.42918704e-02 -2.06752412e-03 2.36013482e-04 -2.06752412e-03 7.66704255e-03 7.24357278e-07 2.36013482e-04 7.24357278e-07 -1.89395174e-02
1.08684991e-02 -2.30307211e-03 2.86590093e-04 -2.30307211e-03 6.57903962e-03 1.91053294e-03 2.86590093e-04 1.91053294e-03 -1.48992852e-02
1.22866740e-02 -9.46083310e-04 -8.18193410e-04 -9.46083310e-04 7.24440557e-03 3.02286685e-03 -8.18193410e-04 3.02286685e-03 -1.67789436e-02
7.53107248e-03 -1.85140359e-03 8.43944828e-04 -1.85140359e-03 3.88067242e-03 -3.91337235e-03 8.43944828e-04 -3.91337235e-03 -9.74066043e-03
7.15082610e-03 -3.86031488e-03 2.06380284e-04 -3.86031488e-03 5.68741394e-03 2.81750594e-03 2.06380284e-04 2.81750594e-03 -1.08129100e-02
1.56302025e-03 -1.11783220e-03 -5.03039228e-05 -1.11783220e-03 6.79113782e-04 -1.38331874e-03 -5.03039228e-05 -1.38331874e-03 -1.66378988e-03
4.42606342e-03 -1.27721661e-03 -4.45064361e-04 -1.27721661e-03 2.77012828e-03 6.01718616e-03 -4.45064361e-04 6.01718616e-03 -6.06427382e-03
-1.52757848e-05 1.10071324e-04 -3.93549808e-05 1.10071324e-04 -1.36357576e-05 -1.84569002e-04 -3.93549808e-05 -1.84569002e-04 1.45098527e-04
4.48098725e-04 7.80250430e-05 8.23716259e-05 7.80250430e-05 -2.14343256e-04 5.68346732e-04 8.23716259e-05 5.68346732e-04 -1.17246209e-04
-4.72287577e-05 2.51175553e-05 8.62898787e-06 2.51175553e-05 7.79577131e-05 6.97179039e-05 8.62898787e-06 6.97179039e-05 1.00144639e-05
2.51810165e-05 5.32538899e-05 -2.16808945e-05 5.32538899e-05 1.72101759e-05 -3.50942784e-05 -2.16808945e-05 -3.50942784e-05 -1.27443945e-05
7.12903529e-05 2.78955267e-05 -5.14520689e-05 2.78955267e-05 -1.33289857e-04 3.44093296e-05 -5.14520689e-05 3.44093296e-05 4.41652446e-06
5.29780086e-05 -7.78630056e-06 -2.39186804e-05 -7.78630056e-06 -1.33681620e-04 -1.32478817e-06 -2.39186804e-05 -1.32478817e-06 3.81477148e-05
1.32833393e-02 -2.67834600e-03 -2.56138723e-04 -2.67834600e-03 8.53291247e-03 -2.40714871e-03 -2.56138723e-04 -2.40714871e-03 -1.90639738e-02
1.61349289e-02 -1.65972218e-03 1.11330335e-03 -1.65972218e-03 8.69150367e-03 2.03308082e-06 1.11330335e-03 2.03308082e-06 -2.16744319e-02
1.21807402e-02 -2.14599306e-03 8.17689579e-05 -2.14599306e-03 8.53313040e-03 -7.19980046e-04 8.17689579e-05 -7.19980046e-04 -1.80190383e-02
1.31525239e-02 -3.01641971e-03 -1.93209964e-03 -3.01641971e-03 8.99047032e-03 3.19241534e-03 -1.93209964e-03 3.19241534e-03 -1.92824248e-02
7.48766284e-03 -4.03500511e-03 3.84578644e-03 -4.03500511e-03 6.84208982e-03 -5.45252068e-03 3.84578644e-03 -5.45252068e-03 -1.26498453e-02
8.03735666e-03 -4.08751349e-03 3.48786545e-03 -4.08751349e-03 9.54036834e-03 2.09149071e-03 3.48786545e-03 2.09149071e-03 -1.53135830e-02
8.23453307e-04 -2.39472219e-03 2.78544659e-03 -2.39472219e-03 2.11638340e-03 -6.85661944e-04 2.78544659e-03 -6.85661944e-04 -2.44423561e-03
5.33242388e-03 -4.32847339e-03 4.80806079e-03 -4.32847339e-03 5.87761705e-03 9.59872183e-03 4.80806079e-03 9.59872183e-03 -9.99354090e-03
-7.09776519e-04 -2.61210182e-04 4.45086935e-05 -2.61210182e-04 3.00130894e-04 -3.05690759e-04 4.45086935e-05 -3.05690759e-04 3.78617377e-04
-4.96619265e-04 -1.76099017e-03 5.45962139e-05 -1.76099017e-03 2.32295257e-04 1.50286527e-03 5.45962139e-05 1.50286527e-03 2.31480786e-04
-2.03001431e-04 5.07368204e-05 2.97195847e-05 5.07368204e-05 6.62629982e-05 4.30315722e-05 2.97195847e-05 4.30315722e-05 1.06710718e-04
-8.47589557e-05 1.77065716e-05 3.75713210e-05 1.77065716e-05 2.27126723e-05 -4.73151667e-05 3.75713210e-05 -4.73151667e-05 3.73086962e-05
-3.51635063e-05 1.02886319e-04 -3.66209315e-05 1.02886319e-04 -5.67144052e-05 2.44427993e-05 -3.66209315e-05 2.44427993e-05 3.02405388e-05
-4.09575687e-05 2.80256208e-05 2.65939952e-05 2.80256208e-05 -3.05734575e-05 2.63941438e-05 2.65939952e-05 2.63941438e-05 3.29951545e-05
1.28761120e-02 2.87169746e-06 1.48260145e-03 2.87169746e-06 2.03965632e-02 -3.49944807e-03 1.48260145e-03 -3.49944807e-03 -2.84003057e-02
1.41116644e-02 -7.84516174e-04 3.71545629e-03 -7.84516174e-04 1.94494394e-02 -1.56772600e-03 3.71545629e-03 -1.56772600e-03 -2.86518652e-02
1.25281027e-02 -3.66936642e-03 2.62803282e-03 -3.66936642e-03 1.94517407e-02 -2.10647155e-03 2.62803282e-03 -2.10647155e-03 -2.71562228e-02
1.16705727e-02 -6.28833543e-04 2.82904683e-03 -6.28833543e-04 2.00918536e-02 -1.26368064e-03 2.82904683e-03 -1.26368064e-03 -2.70817420e-02
1.68489008e-02 -3.55223357e-03 4.35305577e-04 -3.55223357e-03 1.73932104e-02 -7.46182210e-04 4.35305577e-04 -7.46182210e-04 -2.90895007e-02
1.59193244e-02 -4.92050307e-03 1.05457965e-03 -4.92050307e-03 1.83172912e-02 -5.01866585e-03 1.05457965e-03 -5.01866585e-03 -2.89499850e-02
1.99556425e-02 2.22754417e-04 4.47787941e-04 2.22754417e-04 1.62674547e-02 -4.11489264e-03 4.47787941e-04 -4.11489264e-03 -3.06899077e-02
1.92691034e-02 -2.55158541e-03 1.83571631e-03 -2.55158541e-03 1.93550797e-02 1.01832125e-03 1.83571631e-03 1.01832125e-03 -3.26217457e-02
2.22225040e-02 -1.92425604e-03 8.93789274e-03 -1.92425604e-03 1.64282271e-02 -3.91803854e-03 8.93789274e-03 -3.91803854e-03 -3.27664320e-02
2.05984730e-02 -1.82692065e-03 2.13973356e-03 -1.82692065e-03 2.20581957e-02 3.21063174e-03 2.13973356e-03 3.21063174e-03 -3.61693366e-02
2.08408250e-02 -1.74263684e-03 9.96570289e-03 -1.74263684e-03 1.84344889e-02 -2.53622213e-03 9.96570289e-03 -2.53622213e-03 -3.31395469e-02
2.19112022e-02 -7.15412666e-04 6.79572031e-03 -7.15412666e-04 2.19065927e-02 4.32905963e-04 6.79572031e-03 4.32905963e-04 -3.70909371e-02
1.93183185e-02 4.89250128e-03 8.88100965e-03 4.89250128e-03 1.97374923e-02 -3.77983926e-03 8.88100965e-03 -3.77983926e-03 -3.28421900e-02
2.17779386e-02 2.56611460e-03 3.74640222e-05 2.56611460e-03 2.15275860e-02 -1.97647870e-03 3.74640222e-05 -1.97647870e-03 -3.64908399e-02
1.11177503e-02 -3.56906769e-03 4.03356340e-03 -3.56906769e-03 1.78749093e-02 -3.96651179e-03 4.03356340e-03 -3.96651179e-03 -2.45372620e-02
9.35802539e-03 -1.88175333e-03 8.27765837e-03 -1.88175333e-03 1.82003572e-02 -3.79363622e-03 8.27765837e-03 -3.79363622e-03 -2.33766655e-02
1.55584263e-02 -2.40248551e-03 9.81419148e-03 -2.40248551e-03 2.01857431e-02 -9.51914383e-04 9.81419148e-03 -9.51914383e-04 -3.09712107e-02
2.13124439e-02 -5.12151784e-03 1.99661085e-02 -5.12151784e-03 2.44143588e-02 -3.72278795e-04 1.99661085e-02 -3.72278795e-04 -4.01788980e-02
2.33138255e-02 -4.58885450e-04 6.17437356e-03 -4.58885450e-04 2.88243596e-02 7.47932972e-03 6.17437356e-03 7.47932972e-03 -4.55253366e-02
2.47289743e-02 -1.99209011e-04 1.08436246e-02 -1.99209011e-04 2.90361936e-02 1.44591235e-02 1.08436246e-02 1.44591235e-02 -4.69270125e-02
2.48033749e-02 1.27888954e-04 8.30264878e-04 1.27888954e-04 2.98465192e-02 1.15973683e-02 8.30264878e-04 1.15973683e-02 -4.76757698e-02
8.50861066e-03 2.48248398e-06 1.02229626e-02 2.48248398e-06 1.31536074e-02 -2.34158797e-04 1.02229626e-02 -2.34158797e-04 -1.80210896e-02
8.25241813e-03 -2.57723274e-04 6.39902084e-03 -2.57723274e-04 1.32322549e-02 -3.15364933e-03 6.39902084e-03 -3.15364933e-03 -1.81195533e-02
9.61294179e-03 -2.56179422e-03 1.34712201e-02 -2.56179422e-03 1.53743428e-02 1.40703895e-02 1.34712201e-02 1.40703895e-02 -2.16567521e-02
-4.99088108e-03 -1.04527513e-02 1.74399172e-02 -1.04527513e-02 3.68093562e-03 1.37020978e-02 1.74399172e-02 1.37020978e-02 4.57026833e-03
8.86213995e-03 -3.91888345e-04 6.44860121e-03 -3.91888345e-04 7.65037083e-03 3.38098958e-03 6.44860121e-03 3.38098958e-03 -1.37928623e-02
8.40583839e-03 9.55786993e-04 4.40191629e-03 9.55786993e-04 8.05658370e-03 3.45429435e-03 4.40191629e-03 3.45429435e-03 -1.38807048e-02
6.60344599e-03 -5.91124598e-03 6.20559269e-03 -5.91124598e-03 5.62301278e-03 6.94001676e-03 6.20559269e-03 6.94001676e-03 -9.72276487e-03
1.16695689e-03 -3.38225470e-04 -7.64139090e-03 -3.38225470e-04 2.82501243e-03 5.80867302e-03 -7.64139090e-03 5.80867302e-03 -1.88527241e-03
8.67569854e-03 -3.13619136e-03 8.33583923e-04 -3.13619136e-03 7.84055522e-03 3.18483281e-03 8.33583923e-04 3.18483281e-03 -1.39484188e-02
8.71397858e-03 -1.55217361e-03 1.09406901e-03 -1.55217361e-03 6.59729878e-03 2.85642175e-03 1.09406901e-03 2.85642175e-03 -1.28992277e-02
9.99703264e-03 -4.33153388e-03 1.06019507e-03 -4.33153388e-03 1.03021949e-02 4.82332806e-03 1.06019507e-03 4.82332806e-03 -1.72799767e-02
1.31768484e-02 8.06927506e-04 -6.74369902e-03 8.06927506e-04 1.34770835e-02 7.22025800e-03 -6.74369902e-03 7.22025800e-03 -2.34035798e-02
8.30488571e-03 -6.57637938e-05 -1.66148660e-03 -6.57637938e-05 1.06918905e-02 -5.38837758e-04 -1.66148660e-03 -5.38837758e-04 -1.62764923e-02
8.85345927e-03 2.04545364e-03 7.04444712e-04 2.04545364e-03 9.07876808e-03 -7.87489611e-04 7.04444712e-04 -7.87489611e-04 -1.54615492e-02
1.20295689e-02 -1.61102391e-04 2.65299224e-03 -1.61102391e-04 1.50158461e-02 -6.46821108e-04 2.65299224e-03 -6.46821108e-04 -2.33085309e-02
2.02609901e-02 1.09389253e-03 2.04933120e-03 1.09389253e-03 2.23818254e-02 1.18956084e-02 2.04933120e-03 1.18956084e-02 -3.86736970e-02
4.55541203e-06 -2.92838276e-05 -9.33150659e-07 -2.92838276e-05 1.46376442e-06 -4.75555075e-06 -9.33150659e-07 -4.75555075e-06 -1.09465504e-05
-3.43840327e-06 -1.94807126e-05 -1.16615684e-05 -1.94807126e-05 4.31663955e-06 -3.73265175e-06 -1.16615684e-05 -3.73265175e-06 -5.50856862e-06
8.72880514e-06 -9.22419122e-06 1.25707925e-05 -9.22419122e-06 6.62232958e-06 1.49648299e-05 1.25707925e-05 1.49648299e-05 -2.02235769e-05
6.57386863e-06 -1.85819181e-05 -7.59913519e-06 -1.85819181e-05 -6.17236287e-06 -1.38769792e-05 -7.59913519e-06 -1.38769792e-05 -5.13370031e-06
1.68744037e-02 3.71665806e-06 5.77947707e-03 3.71665806e-06 1.75343361e-02 -1.37898204e-03 5.77947707e-03 -1.37898204e-03 -2.93604480e-02
1.73360705e-02 1.31216872e-04 4.30333533e-03 1.31216872e-04 1.66752236e-02 7.01764162e-04 4.30333533e-03 7.01764162e-04 -2.90184040e-02
1.67240371e-02 -4.69282846e-03 6.23235398e-03 -4.69282846e-03 1.68679437e-02 1.48258379e-03 6.23235398e-03 1.48258379e-03 -2.85342752e-02
1.59505161e-02 2.90141288e-04 5.73282421e-03 2.90141288e-04 1.80294639e-02 -2.84984044e-03 5.73282421e-03 -2.84984044e-03 -2.89912480e-02
1.89029612e-02 -4.36102564e-03 6.25144504e-03 -4.36102564e-03 1.37264407e-02 3.72745730e-04 6.25144504e-03 3.72745730e-04 -2.76868986e-02
1.86344406e-02 -6.88108162e-03 4.47561837e-03 -6.88108162e-03 1.54479811e-02 1.70083193e-03 4.47561837e-03 1.70083193e-03 -2.88291690e-02
2.03760029e-02 2.37367971e-04 2.28647754e-03 2.37367971e-04 1.13669166e-02 2.83254319e-03 2.28647754e-03 2.83254319e-03 -2.68268832e-02
2.02001256e-02 -3.29327100e-03 -2.76994202e-03 -3.29327100e-03 1.55260524e-02 -2.59789625e-03 -2.76994202e-03 -2.59789625e-03 -3.00839066e-02
2.00280021e-02 6.06389309e-04 -2.90508772e-03 6.06389309e-04 1.06265778e-02 -8.33601720e-04 -2.90508772e-03 -8.33601720e-04 -2.57835435e-02
2.00362152e-02 1.60831210e-03 -2.56374918e-03 1.60831210e-03 1.83956067e-02 -2.62243586e-04 -2.56374918e-03 -2.62243586e-04 -3.26965698e-02
1.71436239e-02 1.24713194e-03 1.92905639e-03 1.24713194e-03 1.12628408e-02 -2.68443729e-03 1.92905639e-03 -2.68443729e-03 -2.37632198e-02
1.92128555e-02 1.82190500e-03 1.53235214e-04 1.82190500e-03 1.71752925e-02 9.66470572e-04 1.53235214e-04 9.66470572e-04 -3.08312378e-02
1.58113730e-02 2.03577650e-03 2.44968047e-03 2.03577650e-03 9.92465112e-03 -2.84481540e-03 2.44968047e-03 -2.84481540e-03 -2.12542014e-02
1.75537313e-02 1.41002735e-03 4.96929388e-05 1.41002735e-03 1.53471623e-02 -2.59374076e-03 4.96929388e-05 -2.59374076e-03 -2.74492796e-02
1.39657785e-02 -7.76252337e-03 1.40538751e-02 -7.76252337e-03 1.83846459e-02 -1.09027147e-03 1.40538751e-02 -1.09027147e-03 -2.71013901e-02
1.16591810e-02 -5.23369655e-03 9.58275481e-03 -5.23369655e-03 1.97015572e-02 -1.59995450e-03 9.58275481e-03 -1.59995450e-03 -2.65113725e-02
1.99187015e-02 -1.80155065e-03 8.57103809e-03 -1.80155065e-03 1.85051983e-02 -3.49949066e-03 8.57103809e-03 -3.49949066e-03 -3.29346231e-02
2.53389090e-02 -5.05125018e-03 -2.60476852e-02 -5.05125018e-03 2.31349465e-02 1.96394697e-04 -2.60476852e-02 1.96394697e-04 -4.31697845e-02
2.45625004e-02 3.33910109e-04 -6.66498591e-03 3.33910109e-04 2.75676548e-02 6.24560463e-03 -6.66498591e-03 6.24560463e-03 -4.60239425e-02
2.34912732e-02 -1.42105228e-03 -2.14229536e-03 -1.42105228e-03 2.43852139e-02 4.11348231e-03 -2.14229536e-03 4.11348231e-03 -4.16918276e-02
2.13372298e-02 5.48189739e-04 -2.67466996e-03 5.48189739e-04 2.24057976e-02 1.47068826e-03 -2.67466996e-03 1.47068826e-03 -3.75602003e-02
1.14285875e-02 -4.26844074e-03 1.58691953e-02 -4.26844074e-03 1.77629377e-02 -3.37915761e-05 1.58691953e-02 -3.37915761e-05 -2.46346099e-02
7.81762123e-03 9.91739187e-04 1.23947861e-02 9.91739187e-04 1.70654831e-02 4.49321454e-03 1.23947861e-02 4.49321454e-03 -2.05685762e-02
2.02369171e-02 -1.00091654e-02 2.48171827e-02 -1.00091654e-02 2.52552559e-02 -2.65554169e-02 2.48171827e-02 -2.65554169e-02 -4.02166191e-02
7.91839138e-03 -1.36340138e-03 6.43527386e-03 -1.36340138e-03 1.18782285e-02 8.02975906e-03 6.43527386e-03 8.02975906e-03 -1.63127995e-02
6.72392279e-03 -2.72303866e-03 1.08085641e-02 -2.72303866e-03 1.17924695e-02 1.09509041e-03 1.08085641e-02 1.09509041e-03 -1.52250277e-02
8.62112772e-03 8.14719169e-05 4.44932096e-03 8.14719169e-05 1.42596399e-02 2.37606952e-02 4.44932096e-03 2.37606952e-02 -1.96112702e-02
8.71847849e-03 2.40192060e-03 5.95095279e-03 2.40192060e-03 1.07981332e-02 2.07118748e-03 5.95095279e-03 2.07118748e-03 -1.58459629e-02
8.16220557e-03 2.80724437e-03 8.67031049e-05 2.80724437e-03 1.08163020e-02 -5.63434514e-04 8.67031049e-05 -5.63434514e-04 -1.58201314e-02
1.19779135e-02 -3.66850889e-03 -4.88662477e-03 -3.66850889e-03 1.70571265e-02 6.76597485e-03 -4.88662477e-03 6.76597485e-03 -2.42289600e-02
-1.96282379e-03 2.08290163e-02 -3.53521593e-02 2.08290163e-02 -3.26112565e-03 3.23397852e-02 -3.53521593e-02 3.23397852e-02 9.13878251e-03
2.22276924e-02 1.02955696e-02 -3.70708245e-02 1.02955696e-02 2.51707394e-02 4.80809668e-03 -3.70708245e-02 4.80809668e-03 -4.23649593e-02
1.16511702e-02 6.16187554e-03 8.84149133e-03 6.16187554e-03 1.41737799e-02 5.82964625e-03 8.84149133e-03 5.82964625e-03 -2.19443319e-02
9.31214914e-03 -4.53369896e-04 5.60007419e-03 -4.53369896e-04 1.47054689e-02 5.58965537e-03 5.60007419e-03 5.58965537e-03 -2.04418441e-02
</DataArray>
<DataArray type="Float32" Name="Plastic_strain_components" NumberOfComponents="9" format="ascii">
1.08159585e-02 -2.98125087e-07 2.89595846e-07 -2.98125087e-07 2.47068424e-02 -5.01458999e-08 2.89595846e-07 -5.01458999e-08 -2.97566243e-02
1.17694065e-02 1.25930185e-03 -7.44812496e-08 1.25930185e-03 2.58664200e-02 3.18623643e-04 -7.44812496e-08 3.18623643e-04 -3.15411771e-02
1.24333533e-02 3.89565184e-03 -2.31694250e-03 3.89565184e-03 2.25907941e-02 -7.64949582e-04 -2.31694250e-03 -7.64949582e-04 -2.93887332e-02
1.16844731e-02 1.45108253e-03 -1.23884081e-03 1.45108253e-03 2.15064278e-02 1.21657649e-07 -1.23884081e-03 1.21657649e-07 -2.78605996e-02
1.08624124e-02 1.71712350e-06 2.28045229e-03 1.71712350e-06 2.31945049e-02 -1.49740448e-03 2.28045229e-03 -1.49740448e-03 -2.85467831e-02
1.19691405e-02 1.71592670e-04 1.74428837e-03 1.71592670e-04 2.38125208e-02 -2.20366440e-03 1.74428837e-03 -2.20366440e-03 -3.00156404e-02
1.21989578e-02 1.67303420e-03 4.88222329e-04 1.67303420e-03 2.15948173e-02 -2.82398428e-03 4.88222329e-04 -2.82398428e-03 -2.83708142e-02
1.13930816e-02 3.69158508e-04 9.84971106e-04 3.69158508e-04 2.12592282e-02 -2.03461951e-03 9.84971106e-04 -2.03461951e-03 -2.74034981e-02
1.38492584e-02 5.82986686e-04 6.64046638e-07 5.82986686e-04 2.92456150e-02 -1.23377948e-04 6.64046638e-07 -1.23377948e-04 -3.61417402e-02
1.40029732e-02 5.58420882e-03 -3.77084914e-03 5.58420882e-03 2.50511384e-02 1.85341025e-04 -3.77084914e-03 1.85341025e-04 -3.27639859e-02
1.44233652e-02 8.83838278e-04 3.07682739e-03 8.83838278e-04 2.49866354e-02 -2.71773601e-03 3.07682739e-03 -2.71773601e-03 -3.31045231e-02
1.44040168e-02 2.59842369e-03 4.04171224e-05 2.59842369e-03 2.35876518e-02 -4.07974704e-03 4.04171224e-05 -4.07974704e-03 -3.19186558e-02
1.67360525e-02 1.03656127e-03 1.02309241e-06 1.03656127e-03 3.29989959e-02 2.45923840e-03 1.02309241e-06 2.45923840e-03 -4.17368840e-02
1.60023691e-02 3.90764326e-03 -5.97374537e-03 3.90764326e-03 2.81267366e-02 -1.57353548e-04 -5.97374537e-03 -1.57353548e-04 -3.70488083e-02
1.78323651e-02 -1.59399878e-03 3.09990731e-03 -1.59399878e-03 2.69331778e-02 -1.74898602e-03 3.09990731e-03 -1.74898602e-03 -3.76605671e-02
1.68408044e-02 -6.69066612e-04 1.87794230e-03 -6.69066612e-04 2.57209039e-02 -2.47133621e-03 1.87794230e-03 -2.47133621e-03 -3.57592902e-02
2.04693107e-02 -3.95256351e-03 6.33791933e-06 -3.95256351e-03 3.56695000e-02 2.28534383e-03 6.33791933e-06 2.28534383e-03 -4.71643973e-02
1.86471101e-02 -2.07550114e-03 -8.65887594e-03 -2.07550114e-03 3.15147475e-02 2.10856751e-03 -8.65887594e-03 2.10856751e-03 -4.21315348e-02
2.17133509e-02 -4.12992586e-03 2.49599427e-03 -4.12992586e-03 2.88206609e-02 -1.84143253e-03 2.49599427e-03 -1.84143253e-03 -4.25418336e-02
1.97232063e-02 -4.65096740e-03 1.90952804e-03 -4.65096740e-03 2.59952121e-02 1.32767454e-04 1.90952804e-03 1.32767454e-04 -3.84255210e-02
2.45778998e-02 -7.42541300e-03 1.08724453e-05 -7.42541300e-03 3.93912662e-02 1.23962475e-03 1.08724453e-05 1.23962475e-03 -5.37800863e-02
2.10512644e-02 -6.28225342e-03 -1.05387215e-02 -6.28225342e-03 3.49730225e-02 4.08045074e-03 -1.05387215e-02 4.08045074e-03 -4.72696135e-02
2.37113223e-02 -4.80683730e-03 5.11105929e-03 -4.80683730e-03 3.12621822e-02 -2.28685196e-03 5.11105929e-03 -2.28685196e-03 -4.62661711e-02
2.26845986e-02 -6.40269674e-03 4.97871236e-03 -6.40269674e-03 2.75319433e-02 -2.72260477e-04 4.97871236e-03 -2.72260477e-04 -4.21642982e-02
2.31883004e-02 -1.70081407e-02 -1.67129474e-05 -1.70081407e-02 4.85117361e-02 -3.83610278e-03 -1.67129474e-05 -3.83610278e-03 -6.00739792e-02
2.03463538e-02 -9.65047488e-03 -1.36168795e-02 -9.65047488e-03 4.10847319e-02 9.28785000e-03 -1.36168795e-02 9.28785000e-03 -5.12410868e-02
2.17755325e-02 -3.76615080e-03 1.21681858e-03 -3.76615080e-03 3.86010092e-02 -5.36263816e-03 1.21681858e-03 -5.36263816e-03 -5.07479049e-02
2.23531215e-02 -6.40928582e-03 3.34358541e-04 -6.40928582e-03 3.33004594e-02 1.37987356e-03 3.34358541e-04 1.37987356e-03 -4.66754297e-02
1.35896858e-02 4.57861100e-03 -1.36650700e-03 4.57861100e-03 1.45820449e-02 -1.57480506e-03 -1.36650700e-03 -1.57480506e-03 -2.36876048e-02
1.34534081e-02 1.22331968e-03 -1.45364541e-03 1.22331968e-03 1.44954552e-02 8.85092959e-07 -1.45364541e-03 8.85092959e-07 -2.35223565e-02
1.25668169e-02 3.11675284e-03 2.88062044e-03 3.11675284e-03 1.60012433e-02 -2.47765669e-03 2.88062044e-03 -2.47765669e-03 -2.40164171e-02
1.17334693e-02 1.30569839e-03 2.77611602e-03 1.30569839e-03 1.53225106e-02 -4.15995091e-04 2.77611602e-03 -4.15995091e-04 -2.27654725e-02
1.27113985e-02 6.78670115e-03 -3.19570140e-03 6.78670115e-03 1.43434575e-02 -2.41231133e-03 -3.19570140e-03 -2.41231133e-03 -2.26991791e-02
1.28087305e-02 3.76605522e-03 4.35383365e-03 3.76605522e-03 1.64347332e-02 -4.35615802e-04 4.35383365e-03 -4.35615802e-04 -2.45442344e-02
9.98772075e-03 4.15177579e-03 -4.63398313e-03 4.15177579e-03 1.34183315e-02 -1.69821028e-03 -4.63398313e-03 -1.69821028e-03 -1.96641628e-02
1.26026526e-02 9.83679477e-05 1.09144316e-02 9.83679477e-05 1.72705680e-02 1.72658903e-03 1.09144316e-02 1.72658903e-03 -2.51631513e-02
9.18154046e-03 -3.40700174e-03 -9.30940150e-03 -3.40700174e-03 1.49527928e-02 1.63416058e-03 -9.30940150e-03 1.63416058e-03 -2.02030330e-02
1.29039278e-02 -6.80947156e-03 1.36007996e-02 -6.80947156e-03 1.95356511e-02 4.70787929e-03 1.36007996e-02 4.70787929e-03 -2.71144683e-02
8.45284187e-03 -6.26477326e-03 -8.88821459e-03 -6.26477326e-03 9.86895338e-03 4.75635205e-03 -8.88821459e-03 4.75635205e-03 -1.42926294e-02
1.38107087e-02 -1.03385509e-02 1.66221166e-02 -1.03385509e-02 1.94873778e-02 1.22147424e-02 1.66221166e-02 1.22147424e-02 -2.77211495e-02
1.17160161e-02 -1.12774146e-02 -1.00085801e-02 -1.12774146e-02 1.52047738e-02 1.06221647e-02 -1.00085801e-02 1.06221647e-02 -2.27984916e-02
1.49898349e-02 -1.46442273e-02 1.71324437e-02 -1.46442273e-02 2.18261424e-02 1.68771387e-02 1.71324437e-02 1.68771387e-02 -3.03596966e-02
1.36199787e-02 2.04895728e-03 1.38980518e-04 2.04895728e-03 7.37964595e-03 -1.94935958e-03 1.38980518e-04 -1.94935958e-03 -1.76208797e-02
1.43771884e-02 1.14521245e-03 6.88371772e-04 1.14521245e-03 8.22341396e-03 1.17160198e-07 6.88371772e-04 1.17160198e-07 -1.89865837e-02
1.26958858e-02 1.52158220e-03 4.18205163e-03 1.52158220e-03 8.99801758e-03 -5.03647541e-04 4.18205163e-03 -5.03647541e-04 -1.82239751e-02
1.20139392e-02 5.91141084e-04 3.93835572e-03 5.91141084e-04 9.07183415e-03 1.22822719e-03 3.93835572e-03 1.22822719e-03 -1.77293750e-02
9.90075863e-03 2.65924358e-03 1.27413590e-04 2.65924358e-03 4.85321955e-03 -2.63856648e-03 1.27413590e-04 -2.63856648e-03 -1.23695885e-02
1.03188967e-02 1.54904001e-03 6.54986531e-03 1.54904001e-03 6.66212695e-03 1.64178943e-03 6.54986531e-03 1.64178943e-03 -1.43215930e-02
3.53715697e-03 1.25221755e-03 -1.54221855e-03 1.25221755e-03 2.38457293e-03 -2.08221754e-03 -1.54221855e-03 -2.08221754e-03 -5.01083379e-03
2.39703743e-03 -8.50459648e-04 3.85563227e-03 -8.50459648e-04 1.15353442e-03 4.57822268e-05 3.85563227e-03 4.57822268e-05 -2.36682811e-03
1.07557420e-03 -6.26560568e-03 -4.57665185e-03 -6.26560568e-03 2.99869416e-04 -1.49666491e-03 -4.57665185e-03 -1.49666491e-03 -9.13374378e-04
3.37445150e-04 -9.53888971e-03 9.83385664e-03 -9.53888971e-03 3.19816743e-03 2.55383687e-03 9.83385664e-03 2.55383687e-03 -2.06021606e-03
4.98985619e-04 -1.89737626e-03 -4.24626966e-03 -1.89737626e-03 -1.82065523e-03 -5.59918621e-04 -4.24626966e-03 -5.59918621e-04 1.60752148e-03
3.26044004e-04 -4.17735565e-03 1.00760839e-02 -4.17735565e-03 1.47557831e-03 -7.76420735e-04 1.00760839e-02 -7.76420735e-04 -4.81316277e-04
1.82964842e-03 -1.99727761e-03 -1.99717726e-03 -1.99727761e-03 -3.39166637e-03 1.02459872e-03 -1.99717726e-03 1.02459872e-03 1.98629271e-03
1.24169904e-03 -4.50616772e-03 8.05322675e-03 -4.50616772e-03 -4.79685143e-04 -8.01848364e-04 8.05322675e-03 -8.01848364e-04 6.46814471e-04
1.30083587e-02 -7.62546901e-04 1.07599900e-03 -7.62546901e-04 4.86747001e-03 -2.05230014e-03 1.07599900e-03 -2.05230014e-03 -1.49488575e-02
1.41353630e-02 -7.75784109e-04 1.08977070e-03 -7.75784109e-04 6.00317563e-03 1.27342173e-06 1.08977070e-03 1.27342173e-06 -1.68686965e-02
1.15131569e-02 -1.47899743e-03 3.47955402e-03 -1.47899743e-03 5.34005917e-03 3.14771969e-04 3.47955402e-03 3.14771969e-04 -1.41078215e-02
1.25120743e-02 -7.93451458e-04 1.76089672e-03 -7.93451458e-04 6.20761467e-03 1.46753309e-03 1.76089672e-03 1.46753309e-03 -1.56951169e-02
8.33884371e-03 -8.20860448e-04 -7.14989888e-04 -8.20860448e-04 2.57599860e-03 -2.74968700e-03 -7.14989888e-04 -2.74968700e-03 -9.10333986e-03
8.04510270e-03 -2.36718614e-03 2.06310043e-03 -2.36718614e-03 2.73703337e-03 1.70802222e-03 2.06310043e-03 1.70802222e-03 -8.97416804e-03
2.06695268e-03 -1.34213092e-03 -7.85868804e-04 -1.34213092e-03 3.80875554e-04 -2.15130535e-03 -7.85868804e-04 -2.15130535e-03 -1.96661282e-03
3.42522164e-03 -1.20883275e-03 -1.03741437e-03 -1.20883275e-03 5.88573285e-04 1.27778411e-03 -1.03741437e-03 1.27778411e-03 -3.31441455e-03
-1.40655779e-04 -6.46092526e-04 4.44882652e-05 -6.46092526e-04 -1.63582109e-04 -3.67821344e-05 4.44882652e-05 -3.67821344e-05 2.71202273e-04
2.57118684e-04 2.92478782e-04 -3.32713617e-04 2.92478782e-04 4.98186454e-04 9.84364553e-04 -3.32713617e-04 9.84364553e-04 -5.98437260e-04
1.66654564e-03 -4.08929400e-03 7.38899107e-05 -4.08929400e-03 -2.63484614e-03 3.59540609e-05 7.38899107e-05 3.59540609e-05 1.54560513e-03
-1.51942748e-04 -2.42408201e-03 3.21603213e-05 -2.42408201e-03 4.69760599e-04 5.79837894e-06 3.21603213e-05 5.79837894e-06 -1.77757900e-04
1.29845145e-03 -4.45510354e-03 -8.66280869e-04 -4.45510354e-03 -2.00209511e-03 -3.65910819e-05 -8.66280869e-04 -3.65910819e-05 1.14642433e-03
-6.03349252e-04 -2.30420796e-03 -1.02003105e-03 -2.30420796e-03 1.44273251e-03 -4.02534162e-05 -1.02003105e-03 -4.02534162e-05 -6.38405322e-04
1.21242537e-02 -2.36536330e-03 1.30547999e-03 -2.36536330e-03 6.72105385e-03 -1.55276631e-03 1.30547999e-03 -1.55276631e-03 -1.58148659e-02
1.41130988e-02 -2.00312282e-03 2.32393890e-04 -2.00312282e-03 7.66309793e-03 6.50629772e-07 2.32393890e-04 6.50629772e-07 -1.82849392e-02
1.06719967e-02 -2.23533989e-03 2.75260129e-04 -2.23533989e-03 6.49796217e-03 1.86966666e-03 2.75260129e-04 1.86966666e-03 -1.44141595e-02
1.20973936e-02 -9.25520551e-04 -8.05865988e-04 -9.25520551e-04 7.19896681e-03 2.97329784e-03 -8.05865988e-04 2.97329784e-03 -1.61972626e-02
7.32981542e-03 -1.79349937e-03 8.08396639e-04 -1.79349937e-03 3.79562980e-03 -3.75662110e-03 8.08396639e-04 -3.75662110e-03 -9.29050962e-03
6.94888906e-03 -3.72871863e-03 2.21139129e-04 -3.72871863e-03 5.54078139e-03 2.72762570e-03 2.21139129e-04 2.72762570e-03 -1.04607870e-02
1.37612272e-03 -1.12331199e-03 -8.03234434e-05 -1.12331199e-03 4.81699004e-04 -1.19077248e-03 -8.03234434e-05 -1.19077248e-03 -1.54546947e-03
4.28072331e-03 -1.24429262e-03 -3.92347608e-04 -1.24429262e-03 2.64597750e-03 5.79657836e-03 -3.92347608e-04 5.79657836e-03 -5.69394780e-03
-6.12043588e-05 -1.89583477e-06 -4.76465489e-06 -1.89583477e-06 -1.79788004e-04 5.16343771e-06 -4.76465489e-06 5.16343771e-06 1.84539727e-04
2.83254459e-04 -6.95835903e-05 5.54795144e-05 -6.95835903e-05 -1.72008874e-04 4.02522034e-04 5.54795144e-05 4.02522034e-04 -9.01497220e-05
-1.64486198e-06 1.00465914e-06 6.33554649e-08 1.00465914e-06 8.65029037e-07 -1.11339029e-06 6.33554649e-08 -1.11339029e-06 1.05719673e-06
9.55565110e-07 2.36199025e-07 1.17058431e-07 2.36199025e-07 -4.51626329e-07 2.32245535e-07 1.17058431e-07 2.32245535e-07 -4.52593531e-07
0.00000000e+00 0.00000000e+00 0.00000000e+00 0.00000000e+00 0.00000000e+00 0.00000000e+00 0.00000000e+00 0.00000000e+00 0.00000000e+00
0.00000000e+00 0.00000000e+00 0.00000000e+00 0.00000000e+00 0.00000000e+00 0.00000000e+00 0.00000000e+00 0.00000000e+00 0.00000000e+00
1.31538943e-02 -2.58435018e-03 -2.45403382e-04 -2.58435018e-03 8.55482090e-03 -2.36677157e-03 -2.45403382e-04 -2.36677157e-03 -1.82360290e-02
1.60051174e-02 -1.63397926e-03 1.06603245e-03 -1.63397926e-03 8.76939762e-03 1.70364001e-06 1.06603245e-03 1.70364001e-06 -2.08067931e-02
1.20597042e-02 -2.10566306e-03 7.47658196e-05 -2.10566306e-03 8.52777495e-03 -6.74294803e-04 7.47658196e-05 -6.74294803e-04 -1.73090170e-02
1.30269499e-02 -2.93639896e-03 -1.91081886e-03 -2.93639896e-03 8.98511522e-03 3.14736844e-03 -1.91081886e-03 3.14736844e-03 -1.85041744e-02
7.43329921e-03 -3.89086979e-03 3.66572326e-03 -3.89086979e-03 6.80296519e-03 -5.21509838e-03 3.66572326e-03 -5.21509838e-03 -1.18806940e-02
7.97474454e-03 -3.94044234e-03 3.43771572e-03 -3.94044234e-03 9.42868576e-03 2.03370173e-03 3.43771572e-03 2.03370173e-03 -1.46153849e-02
6.94808788e-04 -2.34485435e-03 2.42764922e-03 -2.34485435e-03 1.89052522e-03 -6.14834164e-04 2.42764922e-03 -6.14834164e-04 -2.09523551e-03
5.42663464e-03 -4.07751782e-03 4.64971777e-03 -4.07751782e-03 5.83558211e-03 9.12821339e-03 4.64971777e-03 9.12821339e-03 -9.20289576e-03
-2.98024643e-04 -8.71107950e-05 -1.06140065e-04 -8.71107950e-05 5.56562391e-05 -2.63699956e-04 -1.06140065e-04 -2.63699956e-04 2.35528725e-04
-2.77166998e-04 -1.47775003e-03 2.79620465e-05 -1.47775003e-03 2.17695873e-04 1.35341867e-03 2.79620465e-05 1.35341867e-03 2.24551037e-04
1.06533835e-05 -8.71509201e-06 -8.24752306e-07 -8.71509201e-06 -5.73969055e-06 8.32775004e-06 -8.24752306e-07 8.32775004e-06 -7.28239274e-06
-1.90304354e-06 1.55680103e-06 1.47327796e-07 1.55680103e-06 1.02529687e-06 -1.48760925e-06 1.47327796e-07 -1.48760925e-06 1.30087407e-06
0.00000000e+00 0.00000000e+00 0.00000000e+00 0.00000000e+00 0.00000000e+00 0.00000000e+00 0.00000000e+00 0.00000000e+00 0.00000000e+00
0.00000000e+00 0.00000000e+00 0.00000000e+00 0.00000000e+00 0.00000000e+00 0.00000000e+00 0.00000000e+00 0.00000000e+00 0.00000000e+00
1.28193637e-02 2.98636087e-06 1.48145680e-03 2.98636087e-06 2.02463903e-02 -3.45628476e-03 1.48145680e-03 -3.45628476e-03 -2.77960869e-02
1.40314656e-02 -7.78304733e-04 3.67892429e-03 -7.78304733e-04 1.93044669e-02 -1.54190287e-03 3.67892429e-03 -1.54190287e-03 -2.80457642e-02
1.24358860e-02 -3.63103501e-03 2.60439413e-03 -3.63103501e-03 1.92769133e-02 -2.09734356e-03 2.60439413e-03 -2.09734356e-03 -2.66344098e-02
1.16157401e-02 -6.23521730e-04 2.80227757e-03 -6.23521730e-04 1.99195533e-02 -1.25464768e-03 2.80227757e-03 -1.25464768e-03 -2.64763245e-02
1.67140327e-02 -3.50843143e-03 4.13031426e-04 -3.50843143e-03 1.72543162e-02 -7.51705360e-04 4.13031426e-04 -7.51705360e-04 -2.86207967e-02
1.57665632e-02 -4.86866033e-03 1.05385802e-03 -4.86866033e-03 1.81344828e-02 -4.95784506e-03 1.05385802e-03 -4.95784506e-03 -2.84592044e-02
1.97824892e-02 2.19468024e-04 4.45084908e-04 2.19468024e-04 1.61343059e-02 -4.09496240e-03 4.45084908e-04 -4.09496240e-03 -3.02486308e-02
1.90680416e-02 -2.51423718e-03 1.82898552e-03 -2.51423718e-03 1.91598857e-02 1.02577654e-03 1.82898552e-03 1.02577654e-03 -3.21260928e-02
2.20425362e-02 -1.90337497e-03 8.88552214e-03 -1.90337497e-03 1.63273953e-02 -3.88703504e-03 8.88552214e-03 -3.88703504e-03 -3.22545278e-02
2.04303816e-02 -1.79961922e-03 2.12676200e-03 -1.79961922e-03 2.18793713e-02 3.16350249e-03 2.12676200e-03 3.16350249e-03 -3.56172575e-02
2.06805170e-02 -1.71899088e-03 9.91077209e-03 -1.71899088e-03 1.83125872e-02 -2.53573152e-03 9.91077209e-03 -2.53573152e-03 -3.27708106e-02
2.17123604e-02 -7.03761390e-04 6.73099907e-03 -7.03761390e-04 2.17233889e-02 4.08031925e-04 6.73099907e-03 4.08031925e-04 -3.65454014e-02
1.91714000e-02 4.85122902e-03 8.83680303e-03 4.85122902e-03 1.95963560e-02 -3.81094945e-03 8.83680303e-03 -3.81094945e-03 -3.26135475e-02
2.15246305e-02 2.54539654e-03 2.08773999e-05 2.54539654e-03 2.12974860e-02 -1.96503362e-03 2.08773999e-05 -1.96503362e-03 -3.60340308e-02
1.10021982e-02 -3.51735830e-03 3.99124055e-03 -3.51735830e-03 1.76804790e-02 -3.90573550e-03 3.99124055e-03 -3.90573550e-03 -2.40807629e-02
9.29887581e-03 -1.84349439e-03 8.17137153e-03 -1.84349439e-03 1.80250304e-02 -3.75915342e-03 8.17137153e-03 -3.75915342e-03 -2.28478448e-02
1.55981840e-02 -2.36631013e-03 9.71536824e-03 -2.36631013e-03 2.01415954e-02 -9.32718960e-04 9.71536824e-03 -9.32718960e-04 -3.00563074e-02
2.15497762e-02 -4.92360100e-03 1.93567872e-02 -4.92360100e-03 2.45917222e-02 -3.78500600e-04 1.93567872e-02 -3.78500600e-04 -3.85227937e-02
2.35115462e-02 -4.46974795e-04 6.07164588e-03 -4.46974795e-04 2.89212051e-02 7.34241650e-03 6.07164588e-03 7.34241650e-03 -4.41048788e-02
2.49647368e-02 -1.83827946e-04 1.06653909e-02 -1.83827946e-04 2.91652097e-02 1.41967437e-02 1.06653909e-02 1.41967437e-02 -4.54309611e-02
2.50454843e-02 2.02520619e-04 7.66329700e-04 2.02520619e-04 2.99342591e-02 1.13499734e-02 7.66329700e-04 1.13499734e-02 -4.61822599e-02
8.33746453e-03 2.84679118e-07 1.00928238e-02 2.84679118e-07 1.29129667e-02 -1.96743524e-04 1.00928238e-02 -1.96743524e-04 -1.77274086e-02
8.12881312e-03 -2.38710480e-04 6.31349889e-03 -2.38710480e-04 1.30470304e-02 -3.12534539e-03 6.31349889e-03 -3.12534539e-03 -1.77454450e-02
9.70646086e-03 -2.48598273e-03 1.30716643e-02 -2.48598273e-03 1.53305278e-02 1.37184958e-02 1.30716643e-02 1.37184958e-02 -2.06301964e-02
-4.58876195e-03 -1.05367703e-02 1.87257668e-02 -1.05367703e-02 4.09886599e-03 1.30533674e-02 1.87257668e-02 1.30533674e-02 3.35710042e-03
8.67133337e-03 -3.94004630e-04 6.32615200e-03 -3.94004630e-04 7.49808270e-03 3.32046291e-03 6.32615200e-03 3.32046291e-03 -1.34550795e-02
8.21981474e-03 9.20926206e-04 4.32409201e-03 9.20926206e-04 7.88325537e-03 3.37872148e-03 4.32409201e-03 3.37872148e-03 -1.35311061e-02
6.39999072e-03 -5.72390911e-03 6.10614267e-03 -5.72390911e-03 5.47163262e-03 7.27454613e-03 6.10614267e-03 7.27454613e-03 -9.85026772e-03
3.50518540e-04 -6.28687975e-04 -7.38331334e-03 -6.28687975e-04 1.71058563e-03 2.21022054e-03 -7.38331334e-03 2.21022054e-03 -9.20941122e-04
8.49662250e-03 -3.09097186e-03 8.17728051e-04 -3.09097186e-03 7.69913662e-03 3.14264762e-03 8.17728051e-04 3.14264762e-03 -1.35589162e-02
8.50366778e-03 -1.51442474e-03 1.07443229e-03 -1.51442474e-03 6.44133531e-03 2.81396811e-03 1.07443229e-03 2.81396811e-03 -1.25729288e-02
9.39363375e-03 -4.11289008e-03 1.03360450e-03 -4.11289008e-03 9.60256704e-03 4.53750385e-03 1.03360450e-03 4.53750385e-03 -1.56578426e-02
1.34997636e-02 7.95858010e-04 -6.59415463e-03 7.95858010e-04 1.39262266e-02 7.78870378e-03 -6.59415463e-03 7.78870378e-03 -2.33322219e-02
8.18928541e-03 -5.64312650e-05 -1.63692418e-03 -5.64312650e-05 1.05335244e-02 -5.22652421e-04 -1.63692418e-03 -5.22652421e-04 -1.57660735e-02
8.75045639e-03 2.02861009e-03 7.04010716e-04 2.02861009e-03 8.97703879e-03 -8.11032369e-04 7.04010716e-04 -8.11032369e-04 -1.49294049e-02
1.22137726e-02 -2.46549200e-04 2.60267441e-03 -2.46549200e-04 1.51427516e-02 -5.92213910e-04 2.60267441e-03 -5.92213910e-04 -2.31899344e-02
2.06133006e-02 1.14424553e-03 2.05376674e-03 1.14424553e-03 2.25999244e-02 1.16955647e-02 2.05376674e-03 1.16955647e-02 -3.63730323e-02
0.00000000e+00 0.00000000e+00 0.00000000e+00 0.00000000e+00 0.00000000e+00 0.00000000e+00 0.00000000e+00 0.00000000e+00 0.00000000e+00
0.00000000e+00 0.00000000e+00 0.00000000e+00 0.00000000e+00 0.00000000e+00 0.00000000e+00 0.00000000e+00 0.00000000e+00 0.00000000e+00
0.00000000e+00 0.00000000e+00 0.00000000e+00 0.00000000e+00 0.00000000e+00 0.00000000e+00 0.00000000e+00 0.00000000e+00 0.00000000e+00
0.00000000e+00 0.00000000e+00 0.00000000e+00 0.00000000e+00 0.00000000e+00 0.00000000e+00 0.00000000e+00 0.00000000e+00 0.00000000e+00
1.67740416e-02 3.57229646e-06 5.72410366e-03 3.57229646e-06 1.74194342e-02 -1.37127709e-03 5.72410366e-03 -1.37127709e-03 -2.87820557e-02
1.72041706e-02 1.23283298e-04 4.26594308e-03 1.23283298e-04 1.65480571e-02 6.85616222e-04 4.26594308e-03 6.85616222e-04 -2.84102676e-02
1.66113056e-02 -4.64366235e-03 6.18355398e-03 -4.64366235e-03 1.67430720e-02 1.46131048e-03 6.18355398e-03 1.46131048e-03 -2.80384091e-02
1.58451444e-02 2.85081718e-04 5.67087170e-03 2.85081718e-04 1.78863816e-02 -2.81707593e-03 5.67087170e-03 -2.81707593e-03 -2.83840625e-02
1.87350879e-02 -4.30150446e-03 6.21435663e-03 -4.30150446e-03 1.36132364e-02 3.64057434e-04 6.21435663e-03 3.64057434e-04 -2.71891765e-02
1.84656313e-02 -6.80834660e-03 4.41399092e-03 -6.80834660e-03 1.53111664e-02 1.66536069e-03 4.41399092e-03 1.66536069e-03 -2.83702952e-02
2.01865574e-02 2.30309324e-04 2.27508886e-03 2.30309324e-04 1.12616511e-02 2.79565522e-03 2.27508886e-03 2.79565522e-03 -2.64127627e-02
1.99385798e-02 -3.25971487e-03 -2.74931319e-03 -3.25971487e-03 1.53304173e-02 -2.58472006e-03 -2.74931319e-03 -2.58472006e-03 -2.96383938e-02
1.97759657e-02 5.90785639e-04 -2.87941413e-03 5.90785639e-04 1.04807052e-02 -8.48584627e-04 -2.87941413e-03 -8.48584627e-04 -2.54110438e-02
1.98632663e-02 1.59076726e-03 -2.51816530e-03 1.59076726e-03 1.82695078e-02 -2.64226401e-04 -2.51816530e-03 -2.64226401e-04 -3.20704342e-02
1.68662064e-02 1.24012338e-03 1.91592096e-03 1.24012338e-03 1.10667178e-02 -2.66102242e-03 1.91592096e-03 -2.66102242e-03 -2.34930920e-02
1.90255770e-02 1.81200269e-03 1.66873202e-04 1.81200269e-03 1.70405774e-02 9.62922946e-04 1.66873202e-04 9.62922946e-04 -3.03659595e-02
1.55079085e-02 2.03379651e-03 2.43727549e-03 2.03379651e-03 9.68019525e-03 -2.80824224e-03 2.43727549e-03 -2.80824224e-03 -2.11655023e-02
1.72853563e-02 1.41370839e-03 7.04487247e-05 1.41370839e-03 1.51203268e-02 -2.57504883e-03 7.04487247e-05 -2.57504883e-03 -2.72782189e-02
1.38404781e-02 -7.67665403e-03 1.39083901e-02 -7.67665403e-03 1.81747173e-02 -1.08848643e-03 1.39083901e-02 -1.08848643e-03 -2.66383495e-02
1.15875991e-02 -5.17171167e-03 9.49416205e-03 -5.17171167e-03 1.95199978e-02 -1.58337865e-03 9.49416205e-03 -1.58337865e-03 -2.60693659e-02
1.98639679e-02 -1.80950717e-03 8.36132181e-03 -1.80950717e-03 1.84591476e-02 -3.55149064e-03 8.36132181e-03 -3.55149064e-03 -3.24294429e-02
2.56732054e-02 -4.92871967e-03 -2.51796763e-02 -4.92871967e-03 2.35707955e-02 3.53067555e-04 -2.51796763e-02 3.53067555e-04 -4.08252373e-02
2.48454125e-02 3.43275606e-04 -6.48262515e-03 3.43275606e-04 2.77790101e-02 6.15140707e-03 -6.48262515e-03 6.15140707e-03 -4.42969194e-02
2.36604260e-02 -1.40552016e-03 -2.13516050e-03 -1.40552016e-03 2.45225113e-02 4.05259759e-03 -2.13516050e-03 4.05259759e-03 -4.05656174e-02
2.13709027e-02 5.48788958e-04 -2.65746051e-03 5.48788958e-04 2.23773504e-02 1.45199546e-03 -2.65746051e-03 1.45199546e-03 -3.68316025e-02
1.13937138e-02 -4.21223038e-03 1.56237571e-02 -4.21223038e-03 1.76167770e-02 -4.28506173e-05 1.56237571e-02 -4.28506173e-05 -2.40062135e-02
7.65094510e-03 9.67870874e-04 1.22771552e-02 9.67870874e-04 1.68080372e-02 4.49577614e-03 1.22771552e-02 4.49577614e-03 -2.03720736e-02
2.05274136e-02 -9.68944374e-03 2.49156458e-02 -9.68944374e-03 2.55813552e-02 -2.60211185e-02 2.49156458e-02 -2.60211185e-02 -3.77918165e-02
7.71734305e-03 -1.35302152e-03 6.40674717e-03 -1.35302152e-03 1.16272706e-02 7.94153642e-03 6.40674717e-03 7.94153642e-03 -1.61078622e-02
6.56970765e-03 -2.68235110e-03 1.06798423e-02 -2.68235110e-03 1.15652159e-02 1.09727753e-03 1.06798423e-02 1.09727753e-03 -1.49940744e-02
8.80878628e-03 5.94873563e-05 4.19840519e-03 5.94873563e-05 1.43473018e-02 2.29250358e-02 4.19840519e-03 2.29250358e-02 -1.83761877e-02
6.67943066e-03 1.98565950e-03 5.87145356e-03 1.98565950e-03 8.36626720e-03 9.50106973e-04 5.87145356e-03 9.50106973e-04 -1.19009286e-02
7.99000415e-03 2.78420834e-03 9.31461109e-05 2.78420834e-03 1.06112462e-02 -5.88262817e-04 9.31461109e-05 -5.88262817e-04 -1.56111231e-02
1.24284014e-02 -3.54107651e-03 -4.91065033e-03 -3.54107651e-03 1.75817836e-02 7.07825024e-03 -4.91065033e-03 7.07825024e-03 -2.56605563e-02
-1.55851629e-03 2.05992535e-02 -3.44434753e-02 2.05992535e-02 -2.58821691e-03 3.38509306e-02 -3.44434753e-02 3.38509306e-02 7.95687363e-03
2.27251764e-02 1.01244951e-02 -3.64401030e-02 1.01244951e-02 2.56571045e-02 4.69942829e-03 -3.64401030e-02 4.69942829e-03 -4.00843310e-02
1.25919944e-02 6.33295095e-03 8.80611033e-03 6.33295095e-03 1.52834705e-02 6.36786479e-03 8.80611033e-03 6.36786479e-03 -2.36747318e-02
9.23072081e-03 -4.53736706e-04 5.58138941e-03 -4.53736706e-04 1.45469215e-02 5.50544262e-03 5.58138941e-03 5.50544262e-03 -1.99189344e-02
</DataArray>
<DataArray type="Float32" Name="Spatial_displacement" NumberOfComponents="3" format="ascii">
0.00000000e+00 0.00000000e+00 0.00000000e+00
1.07037351e-02 0.00000000e+00 0.00000000e+00
1.19929537e-02 2.64981221e-02 0.00000000e+00
0.00000000e+00 2.49990374e-02 0.00000000e+00
0.00000000e+00 0.00000000e+00 -3.01078185e-02
1.10237487e-02 0.00000000e+00 -3.15809585e-02
1.12005360e-02 2.40981411e-02 -2.98664868e-02
0.00000000e+00 2.37163287e-02 -2.78726518e-02
2.39378363e-02 0.00000000e+00 0.00000000e+00
2.45329086e-02 2.98663620e-02 0.00000000e+00
2.37987153e-02 0.00000000e+00 -3.62233780e-02
2.47067343e-02 2.59600729e-02 -3.32238115e-02
3.86135429e-02 0.00000000e+00 0.00000000e+00
3.97003852e-02 3.44796106e-02 0.00000000e+00
4.11475003e-02 0.00000000e+00 -4.10234258e-02
3.94958965e-02 2.82643251e-02 -3.80286425e-02
5.91507815e-02 0.00000000e+00 0.00000000e+00
5.50636426e-02 3.82136926e-02 0.00000000e+00
6.15090504e-02 0.00000000e+00 -4.53418419e-02
5.72302118e-02 2.91474890e-02 -4.29236293e-02
8.33730996e-02 0.00000000e+00 0.00000000e+00
7.56945759e-02 4.15289886e-02 0.00000000e+00
8.46869424e-02 0.00000000e+00 -5.21919876e-02
7.97189996e-02 3.07126064e-02 -4.72690314e-02
1.11158594e-01 0.00000000e+00 0.00000000e+00
9.34470594e-02 5.46530522e-02 0.00000000e+00
1.07251480e-01 0.00000000e+00 -5.54550588e-02
1.03337765e-01 4.01041284e-02 -5.42918891e-02
1.38554629e-02 4.54421490e-02 0.00000000e+00
0.00000000e+00 4.41894643e-02 0.00000000e+00
1.22305918e-02 4.40302193e-02 -2.40455419e-02
0.00000000e+00 4.26807813e-02 -2.36313529e-02
2.75133513e-02 5.05068600e-02 0.00000000e+00
2.50057634e-02 4.71908376e-02 -2.36337334e-02
3.84090059e-02 5.56049645e-02 0.00000000e+00
3.66524532e-02 5.08420207e-02 -1.97605975e-02
4.79105264e-02 6.27820343e-02 0.00000000e+00
4.95713688e-02 5.31750545e-02 -2.13711485e-02
5.47812544e-02 6.63797930e-02 0.00000000e+00
6.05271533e-02 5.63637167e-02 -2.02162601e-02
6.51827157e-02 8.00880268e-02 0.00000000e+00
7.56603777e-02 7.01501817e-02 -2.08977908e-02
1.51008610e-02 5.59848882e-02 0.00000000e+00
0.00000000e+00 5.48071600e-02 0.00000000e+00
1.30838249e-02 5.61332926e-02 -1.77563056e-02
0.00000000e+00 5.55221811e-02 -1.89639032e-02
2.83341445e-02 5.76583371e-02 0.00000000e+00
2.55884696e-02 5.77963330e-02 -1.23612583e-02
3.59521993e-02 6.17493652e-02 0.00000000e+00
3.38093899e-02 6.01265505e-02 -4.27097827e-03
3.72201763e-02 6.62813187e-02 0.00000000e+00
3.56757939e-02 6.14884980e-02 1.10807270e-03
4.32411619e-02 6.56301752e-02 0.00000000e+00
4.28217761e-02 6.11341745e-02 3.45990807e-03
4.43665311e-02 8.03713053e-02 0.00000000e+00
4.53135818e-02 7.82876089e-02 1.90020353e-03
1.52182486e-02 6.08344823e-02 0.00000000e+00
0.00000000e+00 6.16427362e-02 0.00000000e+00
1.30802952e-02 6.19372427e-02 -1.51083395e-02
0.00000000e+00 6.27710372e-02 -1.65693946e-02
2.72086207e-02 6.09111786e-02 0.00000000e+00
2.43304744e-02 6.01682365e-02 -9.50982422e-03
3.23310867e-02 6.19683042e-02 0.00000000e+00
2.99255736e-02 6.11082986e-02 -2.12884694e-03
3.15984748e-02 6.52191192e-02 0.00000000e+00
3.14202011e-02 6.51380345e-02 -4.71994281e-05
3.19696739e-02 7.14065284e-02 0.00000000e+00
3.18487957e-02 6.78864196e-02 0.00000000e+00
3.20437029e-02 7.15446025e-02 -6.21601939e-05
3.18711996e-02 6.79779425e-02 9.99644399e-05
1.42385382e-02 6.63020387e-02 0.00000000e+00
0.00000000e+00 6.83847442e-02 0.00000000e+00
1.26317553e-02 6.76699281e-02 -1.59443617e-02
0.00000000e+00 6.86233640e-02 -1.89179070e-02
2.54637785e-02 6.27973378e-02 0.00000000e+00
2.15219259e-02 6.36466146e-02 -1.00006238e-02
2.87320167e-02 6.26855120e-02 0.00000000e+00
2.73483545e-02 6.26345873e-02 -1.50117278e-03
2.89074071e-02 6.51514828e-02 0.00000000e+00
2.87230015e-02 6.51123300e-02 1.84290111e-04
2.87728645e-02 6.80430681e-02 0.00000000e+00
2.88427025e-02 6.80516660e-02 4.23192978e-06
2.87926048e-02 7.11138323e-02 0.00000000e+00
2.88266987e-02 7.10622072e-02 -4.28408384e-05
1.58724543e-02 7.50468448e-02 0.00000000e+00
0.00000000e+00 7.67195821e-02 0.00000000e+00
1.34322513e-02 7.47952610e-02 -1.86982304e-02
0.00000000e+00 7.78425708e-02 -2.18348764e-02
2.71156952e-02 6.80623651e-02 0.00000000e+00
2.16190144e-02 7.19466358e-02 -1.41434371e-02
2.77365930e-02 6.36473820e-02 0.00000000e+00
2.70503759e-02 6.64364845e-02 -3.59226018e-03
2.64609177e-02 6.52625561e-02 0.00000000e+00
2.61554122e-02 6.53064623e-02 1.91837549e-04
2.59376597e-02 6.80226088e-02 0.00000000e+00
2.59803347e-02 6.80524856e-02 2.45720148e-05
2.58824676e-02 7.10360408e-02 0.00000000e+00
2.59074923e-02 7.09999055e-02 1.44243240e-05
0.00000000e+00 0.00000000e+00 -5.73099144e-02
1.25747062e-02 0.00000000e+00 -6.07125610e-02
1.17766969e-02 1.95756517e-02 -5.70995286e-02
0.00000000e+00 2.02184096e-02 -5.58685549e-02
2.82811485e-02 0.00000000e+00 -6.54592514e-02
2.46715974e-02 1.66135952e-02 -6.50349259e-02
4.46479656e-02 0.00000000e+00 -7.37674534e-02
4.48745489e-02 1.57632884e-02 -7.33313709e-02
6.72870502e-02 0.00000000e+00 -8.52634683e-02
6.53047785e-02 1.66177843e-02 -7.66049922e-02
8.96218047e-02 0.00000000e+00 -9.39899459e-02
8.78276750e-02 1.75801590e-02 -8.43446851e-02
1.07289270e-01 0.00000000e+00 -9.97771844e-02
1.12250909e-01 1.81205366e-02 -9.11978558e-02
8.73536989e-03 3.87375578e-02 -4.91350293e-02
0.00000000e+00 4.06676754e-02 -4.54222970e-02
2.21067574e-02 3.79615314e-02 -5.14456183e-02
3.95573080e-02 4.08347510e-02 -5.32529242e-02
6.19069114e-02 4.59461436e-02 -6.41234219e-02
8.68059546e-02 4.69470732e-02 -6.36735037e-02
1.11614764e-01 4.81180698e-02 -7.21694678e-02
7.22317770e-03 5.53667173e-02 -3.75486948e-02
0.00000000e+00 5.56392223e-02 -3.44498046e-02
1.79810449e-02 5.57738282e-02 -2.89639533e-02
1.61160585e-02 5.42239994e-02 2.76567042e-03
8.60215351e-03 6.61796927e-02 -2.82732174e-02
0.00000000e+00 6.52079433e-02 -3.16810608e-02
1.76150966e-02 6.27299622e-02 -1.83373354e-02
2.18173414e-02 5.54752499e-02 -6.60850108e-03
8.95491615e-03 7.05674812e-02 -2.99334675e-02
0.00000000e+00 7.21309632e-02 -3.27526331e-02
1.64310336e-02 6.79450333e-02 -2.11913586e-02
2.93451250e-02 6.35884255e-02 -1.69880949e-02
6.49773329e-03 8.08937773e-02 -3.86048481e-02
0.00000000e+00 7.88316280e-02 -3.78303863e-02
1.58593915e-02 8.36551934e-02 -3.29636000e-02
3.20520923e-02 8.18169191e-02 -3.23573351e-02
2.88891830e-02 6.80404902e-02 1.11535192e-05
2.88961679e-02 7.09603578e-02 -3.53828073e-05
2.59565841e-02 7.09752440e-02 1.07213855e-05
2.59397477e-02 6.80444837e-02 3.22759151e-05
0.00000000e+00 0.00000000e+00 -8.68903995e-02
1.63499396e-02 0.00000000e+00 -8.82287771e-02
1.64858047e-02 1.73187871e-02 -8.40468109e-02
0.00000000e+00 1.70291271e-02 -8.12766328e-02
3.59523147e-02 0.00000000e+00 -9.54803005e-02
3.15111689e-02 1.34011079e-02 -8.94005001e-02
5.35812043e-02 0.00000000e+00 -1.02837980e-01
5.38250729e-02 1.03627425e-02 -1.00611731e-01
7.48781338e-02 0.00000000e+00 -1.09862514e-01
7.54979104e-02 1.11138225e-02 -1.12690628e-01
9.48420167e-02 0.00000000e+00 -1.19576752e-01
9.61107835e-02 1.24442074e-02 -1.17690064e-01
1.11684605e-01 0.00000000e+00 -1.23812422e-01
1.13753513e-01 1.08823664e-02 -1.21412322e-01
1.04641430e-02 3.18667367e-02 -7.28612468e-02
0.00000000e+00 3.72095071e-02 -7.12732449e-02
2.89002359e-02 3.09604220e-02 -8.70490745e-02
4.91652526e-02 3.45687047e-02 -1.07426919e-01
7.61235431e-02 3.90293226e-02 -1.10323414e-01
9.88379568e-02 3.41299251e-02 -1.12333179e-01
1.17703632e-01 3.07848230e-02 -1.14541233e-01
6.95084780e-03 5.53474352e-02 -5.26409745e-02
0.00000000e+00 5.43093905e-02 -5.70373237e-02
2.56402604e-02 4.92724702e-02 -6.99623376e-02
6.24408945e-03 6.71655536e-02 -4.27478664e-02
0.00000000e+00 6.99117333e-02 -4.38159108e-02
1.74404029e-02 6.70505166e-02 -2.85126194e-02
7.21308216e-03 7.99277425e-02 -4.47079502e-02
0.00000000e+00 7.70940334e-02 -4.41620760e-02
1.79490224e-02 8.08556527e-02 -4.40630615e-02
2.02188678e-02 7.43094385e-02 5.80213964e-03
3.32859457e-02 7.57335201e-02 -4.85839024e-02
7.30756298e-03 8.92168730e-02 -5.18578365e-02
0.00000000e+00 8.96677375e-02 -5.73238619e-02
</DataArray>
<DataArray type="Float32" Name="Spatial_acceleration" NumberOfComponents="3" format="ascii">
0.00000000e+00 0.00000000e+00 0.00000000e+00
3.65416213e-07 0.00000000e+00 0.00000000e+00
2.91566039e-07 2.60035193e-07 0.00000000e+00
0.00000000e+00 2.29358676e-07 0.00000000e+00
0.00000000e+00 0.00000000e+00 -2.40961697e-07
3.28262644e-07 0.00000000e+00 -2.92460129e-07
2.27371842e-07 1.95403885e-07 -2.75611882e-07
0.00000000e+00 3.08672583e-07 -2.65121457e-07
3.94503274e-07 0.00000000e+00 0.00000000e+00
3.64243988e-07 1.85608869e-07 0.00000000e+00
3.39031203e-07 0.00000000e+00 -3.00725304e-07
3.75986104e-07 2.33560797e-07 -3.09149414e-07
4.67697788e-07 0.00000000e+00 0.00000000e+00
7.03334820e-07 2.14258833e-07 0.00000000e+00
6.05205685e-07 0.00000000e+00 -2.43504843e-07
5.85953387e-07 2.60313357e-07 -3.56356310e-07
8.62518959e-07 0.00000000e+00 0.00000000e+00
9.78708272e-07 3.61057602e-07 0.00000000e+00
7.85360726e-07 0.00000000e+00 -2.43186946e-07
1.00906686e-06 2.11834902e-07 -3.55720516e-07
7.40925486e-07 0.00000000e+00 0.00000000e+00
8.94625998e-07 2.04642618e-07 0.00000000e+00
8.29021133e-07 0.00000000e+00 1.28746038e-07
9.00387761e-07 2.14199218e-07 -2.06311540e-07
1.49340428e-06 0.00000000e+00 0.00000000e+00
1.03600814e-06 -7.43865982e-08 0.00000000e+00
1.14826355e-06 0.00000000e+00 1.40508021e-07
1.14790600e-06 -8.18570456e-09 -1.91370646e-07
2.41518023e-07 4.54982114e-07 0.00000000e+00
0.00000000e+00 5.30123714e-07 0.00000000e+00
2.03028321e-07 4.82598921e-07 -3.12328325e-07
0.00000000e+00 4.84744703e-07 -2.99771614e-07
4.77472952e-07 5.12123108e-07 0.00000000e+00
4.64757278e-07 4.32093941e-07 -3.98000083e-07
6.79413461e-07 4.24782428e-07 0.00000000e+00
6.54399400e-07 4.11714808e-07 -4.84103225e-07
1.10371911e-06 4.91619119e-07 0.00000000e+00
8.32266267e-07 3.87350724e-07 -4.46319575e-07
1.33728975e-06 2.52008448e-07 0.00000000e+00
9.87132353e-07 4.24702961e-07 -5.46773265e-07
1.21466314e-06 7.17321996e-07 0.00000000e+00
1.10838153e-06 2.73280676e-07 -4.70479335e-07
2.65598288e-07 6.56053430e-07 0.00000000e+00
0.00000000e+00 6.61373122e-07 0.00000000e+00
2.44657201e-07 6.82314237e-07 -3.59376259e-07
0.00000000e+00 7.08262121e-07 -1.66893003e-07
5.11328381e-07 5.11050246e-07 0.00000000e+00
4.95831159e-07 6.61353283e-07 -3.76145039e-07
7.26540861e-07 5.73396676e-07 0.00000000e+00
6.91387413e-07 5.91887385e-07 -9.74867120e-08
3.99271642e-07 6.93639151e-07 0.00000000e+00
7.77774403e-07 4.08172610e-07 -3.17891446e-09
2.79956396e-07 7.66542257e-07 0.00000000e+00
8.65035588e-07 8.01086458e-07 -1.94973424e-08
5.06083154e-07 5.35329150e-07 0.00000000e+00
8.60849980e-07 1.14768739e-06 -6.19888283e-07
2.15609873e-07 7.71999339e-07 0.00000000e+00
0.00000000e+00 9.12745804e-07 0.00000000e+00
3.08513648e-07 7.98006852e-07 -2.35398602e-07
0.00000000e+00 8.21520871e-07 -1.57038372e-07
4.43935392e-07 6.24537449e-07 0.00000000e+00
3.94393993e-07 7.05003742e-07 -2.37941734e-07
6.99202189e-07 8.07762149e-07 0.00000000e+00
8.15080284e-07 6.65373307e-07 -7.54462377e-08
7.95576341e-07 6.99573093e-07 0.00000000e+00
6.95546476e-07 1.03791557e-07 2.01967026e-07
1.41180055e-06 5.54084750e-07 0.00000000e+00
4.75035790e-07 9.79105607e-07 0.00000000e+00
7.83453402e-07 6.85691816e-07 1.39872228e-07
1.26107534e-06 4.38921973e-07 -2.70803781e-07
2.31544178e-07 8.15629960e-07 0.00000000e+00
0.00000000e+00 1.14377337e-06 0.00000000e+00
2.67262266e-07 9.70964606e-07 -2.94526416e-07
0.00000000e+00 8.29418468e-07 -2.53995267e-07
7.56541908e-07 8.13702741e-07 0.00000000e+00
4.87645480e-07 9.01540091e-07 -2.39054373e-07
7.18514116e-07 5.55594738e-07 0.00000000e+00
6.85267992e-07 5.18269019e-07 -1.25885009e-07
1.27299620e-06 4.81287657e-07 0.00000000e+00
5.58853117e-07 6.38961808e-07 1.55687331e-07
8.40385724e-07 8.35796186e-07 0.00000000e+00
5.58209422e-07 6.00751264e-07 6.87579302e-07
-2.85466513e-07 -1.52587880e-08 0.00000000e+00
1.44261787e-06 4.97023279e-07 -1.00216266e-06
1.64667767e-07 9.96192284e-07 0.00000000e+00
0.00000000e+00 9.68267500e-07 0.00000000e+00
4.03205547e-07 1.08905635e-06 -3.60170986e-07
0.00000000e+00 1.25751887e-06 -2.47319548e-07
5.68628309e-07 1.43432612e-06 0.00000000e+00
3.73740988e-07 1.08559925e-06 -4.22159815e-07
1.16793308e-06 5.07831544e-07 0.00000000e+00
4.95062920e-07 9.75926696e-07 -4.04357905e-07
6.66936216e-07 1.17967524e-07 0.00000000e+00
7.44183865e-07 1.13185240e-06 -1.62760415e-07
7.87258159e-07 5.47250124e-07 0.00000000e+00
9.52402786e-07 1.11971963e-06 -4.10414401e-07
1.84735654e-06 5.11884707e-07 0.00000000e+00
4.42688645e-07 1.96610884e-07 3.25734419e-07
0.00000000e+00 0.00000000e+00 -6.61214187e-07
2.02407435e-07 0.00000000e+00 -6.63121511e-07
2.11477271e-07 2.42367378e-07 -6.22272466e-07
0.00000000e+00 1.76548951e-07 -6.69479391e-07
3.04698943e-07 0.00000000e+00 -6.09715755e-07
3.29653432e-07 2.07106268e-07 -5.38190193e-07
4.71472731e-07 0.00000000e+00 -5.23885092e-07
5.67515713e-07 3.14573441e-07 -5.11646249e-07
7.46111084e-07 0.00000000e+00 -4.03086347e-07
8.01682461e-07 3.22322052e-07 -4.73181387e-07
9.60916282e-07 0.00000000e+00 -2.60670987e-07
1.12605096e-06 3.56058280e-07 -3.68277227e-07
1.31618970e-06 0.00000000e+00 -1.97092689e-07
1.15068747e-06 2.99195449e-07 -3.47455341e-07
2.51293187e-07 4.76400061e-07 -6.85691816e-07
0.00000000e+00 4.98771669e-07 -6.94592813e-07
4.79698201e-07 3.85057348e-07 -7.21159438e-07
6.39478401e-07 3.92468763e-07 -6.27136217e-07
8.37365803e-07 3.32656015e-07 -6.19252489e-07
9.80853997e-07 4.02410819e-07 -6.68843597e-07
8.18332012e-07 6.56396111e-08 -4.24702961e-07
2.46882422e-07 6.25729569e-07 -6.62008915e-07
0.00000000e+00 6.59147872e-07 -5.84602333e-07
3.43905555e-07 6.39385632e-07 -7.47680645e-07
4.24385064e-07 3.69389852e-07 -6.20683025e-08
1.41978262e-07 8.76665126e-07 -6.44048043e-07
0.00000000e+00 7.91430466e-07 -4.42186973e-07
4.46200374e-07 6.87553779e-07 -5.01178533e-07
6.05901107e-07 7.16951149e-07 -5.14984151e-07
2.73307165e-07 9.54031975e-07 -6.84738154e-07
0.00000000e+00 1.05793276e-06 -5.90324419e-07
4.62174398e-07 9.36269771e-07 -8.00450607e-07
7.72794067e-07 8.81393760e-07 -5.33421826e-07
1.73171358e-07 1.22419988e-06 -6.15119916e-07
0.00000000e+00 1.14301838e-06 -8.80559298e-07
4.63843350e-07 1.32838886e-06 -7.94092784e-07
8.26875350e-07 1.10483165e-06 -4.87009686e-07
1.50491292e-06 1.30879130e-06 -9.57931093e-07
7.67111771e-07 1.14822387e-06 1.92548328e-06
1.62202116e-06 1.85285387e-06 -2.47845537e-06
1.31605066e-06 -2.13086597e-08 1.19963784e-06
0.00000000e+00 0.00000000e+00 -7.38779704e-07
1.24573702e-07 0.00000000e+00 -8.51949039e-07
1.76131721e-07 2.05457212e-07 -9.61780529e-07
0.00000000e+00 1.30395094e-07 -9.39051290e-07
3.65535413e-07 0.00000000e+00 -8.37643938e-07
3.77317264e-07 2.18649703e-07 -9.70681526e-07
4.35034423e-07 0.00000000e+00 -7.62939464e-07
5.11169446e-07 2.33491264e-07 -8.37008145e-07
7.31825821e-07 0.00000000e+00 -7.01904298e-07
7.70568818e-07 2.86360574e-07 -7.96953827e-07
1.03202956e-06 0.00000000e+00 -6.82512905e-07
1.03058414e-06 2.37007939e-07 -8.50359584e-07
1.39373537e-06 0.00000000e+00 -7.71840405e-07
1.38310588e-06 3.10887884e-07 -8.28107204e-07
2.69412993e-07 4.68810384e-07 -9.06308458e-07
0.00000000e+00 4.48336209e-07 -1.00072225e-06
4.58490263e-07 4.94502842e-07 -8.37416849e-07
6.28089936e-07 3.51333625e-07 -7.78706863e-07
6.62247317e-07 4.93208574e-07 -7.78834021e-07
8.52217283e-07 5.83132078e-07 -6.75837214e-07
1.14147861e-06 8.04503770e-07 -6.34511309e-07
2.52564746e-07 6.97907922e-07 -9.83828613e-07
0.00000000e+00 6.82989764e-07 -9.33011336e-07
4.02132656e-07 6.19967750e-07 -8.16345221e-07
3.20979524e-07 8.28152622e-07 -8.25427833e-07
0.00000000e+00 8.65221011e-07 -9.88324473e-07
5.38825986e-07 9.52561663e-07 -8.95182268e-07
1.29421551e-07 1.14576017e-06 -9.97225470e-07
0.00000000e+00 1.11422071e-06 -1.11230213e-06
4.26428642e-07 1.06121240e-06 -8.51949039e-07
6.99798250e-07 1.32195157e-06 -3.05175760e-08
4.59353146e-07 1.17386708e-06 -1.06811524e-06
2.55743657e-07 1.37428447e-06 -1.31511683e-06
0.00000000e+00 1.50163964e-06 -1.15203852e-06
</DataArray>
<DataArray type="Float32" Name="Spatial_velocity" NumberOfComponents="3" format="ascii">
0.00000000e+00 0.00000000e+00 0.00000000e+00
7.37808659e-05 0.00000000e+00 0.00000000e+00
7.90846170e-05 1.40838994e-04 0.00000000e+00
0.00000000e+00 1.34768270e-04 0.00000000e+00
0.00000000e+00 0.00000000e+00 -1.67557446e-04
7.28256928e-05 0.00000000e+00 -1.74350032e-04
7.44624558e-05 1.30719724e-04 -1.65677833e-04
0.00000000e+00 1.28745887e-04 -1.60349344e-04
1.57663759e-04 0.00000000e+00 0.00000000e+00
1.58437746e-04 1.51664426e-04 0.00000000e+00
1.53034678e-04 0.00000000e+00 -1.87734593e-04
1.58165916e-04 1.38515257e-04 -1.79584764e-04
2.43439921e-04 0.00000000e+00 0.00000000e+00
2.53572827e-04 1.69028062e-04 0.00000000e+00
2.55277700e-04 0.00000000e+00 -2.02221694e-04
2.44419731e-04 1.45804763e-04 -2.00213559e-04
3.60845414e-04 0.00000000e+00 0.00000000e+00
3.40558472e-04 1.84670542e-04 0.00000000e+00
3.68467212e-04 0.00000000e+00 -2.22073781e-04
3.44381318e-04 1.48397376e-04 -2.11171689e-04
4.76830348e-04 0.00000000e+00 0.00000000e+00
4.46527119e-04 1.99001224e-04 0.00000000e+00
4.87073237e-04 0.00000000e+00 -2.40215231e-04
4.64910147e-04 1.55497153e-04 -2.19804540e-04
6.02200511e-04 0.00000000e+00 0.00000000e+00
5.23895316e-04 2.47020886e-04 0.00000000e+00
5.99841122e-04 0.00000000e+00 -2.44139155e-04
5.76449442e-04 2.02778479e-04 -2.43732604e-04
8.70558652e-05 2.49354925e-04 0.00000000e+00
0.00000000e+00 2.45716743e-04 0.00000000e+00
7.92810970e-05 2.42315567e-04 -1.44300953e-04
0.00000000e+00 2.34725099e-04 -1.40499149e-04
1.74947389e-04 2.75585771e-04 0.00000000e+00
1.59576375e-04 2.54082959e-04 -1.46516861e-04
2.44681112e-04 2.94801430e-04 0.00000000e+00
2.33553335e-04 2.71505705e-04 -1.29354143e-04
3.05092544e-04 3.27152607e-04 0.00000000e+00
3.06728121e-04 2.74742808e-04 -1.31753535e-04
3.41994077e-04 3.36423749e-04 0.00000000e+00
3.71022179e-04 2.84217735e-04 -1.24600687e-04
4.02038684e-04 4.04952210e-04 0.00000000e+00
4.49883722e-04 3.49494454e-04 -1.26469095e-04
9.46953442e-05 3.16277670e-04 0.00000000e+00
0.00000000e+00 3.10019415e-04 0.00000000e+00
8.44241149e-05 3.18822800e-04 -1.16126968e-04
0.00000000e+00 3.15184705e-04 -1.14626084e-04
1.86390243e-04 3.21101863e-04 0.00000000e+00
1.66632046e-04 3.25103290e-04 -8.40962020e-05
2.35871383e-04 3.42186977e-04 0.00000000e+00
2.26229575e-04 3.32519005e-04 -3.09599673e-05
2.44493160e-04 3.62768536e-04 0.00000000e+00
2.35843501e-04 3.27626418e-04 5.34601122e-06
2.71695113e-04 3.42254585e-04 0.00000000e+00
2.77719315e-04 3.08583956e-04 2.30348305e-05
2.82184716e-04 4.18578304e-04 0.00000000e+00
2.91594915e-04 4.07287211e-04 6.54667747e-06
9.95663431e-05 3.51083814e-04 0.00000000e+00
0.00000000e+00 3.57949844e-04 0.00000000e+00
8.61603257e-05 3.56417033e-04 -1.00734971e-04
0.00000000e+00 3.65707703e-04 -1.05071937e-04
1.84917983e-04 3.45282315e-04 0.00000000e+00
1.65747551e-04 3.40641243e-04 -6.66209598e-05
2.24151634e-04 3.43138352e-04 0.00000000e+00
2.09216581e-04 3.38258076e-04 -1.34008960e-05
2.18892848e-04 3.53144453e-04 0.00000000e+00
2.18211833e-04 3.53148353e-04 4.68245020e-07
2.16467844e-04 3.63685045e-04 0.00000000e+00
2.17460096e-04 3.58705234e-04 0.00000000e+00
2.16978326e-04 3.62558028e-04 -1.21585151e-06
2.17710840e-04 3.58369347e-04 -2.45937031e-07
9.44984131e-05 3.86722852e-04 0.00000000e+00
0.00000000e+00 4.03644342e-04 0.00000000e+00
8.72631790e-05 3.99329379e-04 -1.07006381e-04
0.00000000e+00 4.04614897e-04 -1.19158569e-04
1.80622868e-04 3.57962243e-04 0.00000000e+00
1.51837114e-04 3.64492444e-04 -7.62804266e-05
2.10482744e-04 3.44958506e-04 0.00000000e+00
1.99462127e-04 3.47080553e-04 -1.27134335e-05
2.11898499e-04 3.53006675e-04 0.00000000e+00
2.11959079e-04 3.53066775e-04 6.22573452e-07
2.11849183e-04 3.58878984e-04 0.00000000e+00
2.12206636e-04 3.58708843e-04 1.14896750e-07
2.12238476e-04 3.63527884e-04 0.00000000e+00
2.12418250e-04 3.63583036e-04 1.72680416e-07
1.04260267e-04 4.49113606e-04 0.00000000e+00
0.00000000e+00 4.55219997e-04 0.00000000e+00
9.53919080e-05 4.46149934e-04 -1.27846681e-04
0.00000000e+00 4.67566395e-04 -1.38826566e-04
1.99155198e-04 3.97147698e-04 0.00000000e+00
1.54763591e-04 4.30745800e-04 -1.15795505e-04
2.13208405e-04 3.54621036e-04 0.00000000e+00
2.07375764e-04 3.82321479e-04 -3.62193350e-05
2.07445919e-04 3.54492600e-04 0.00000000e+00
2.06387514e-04 3.54134594e-04 1.54198835e-06
2.06542405e-04 3.58123885e-04 0.00000000e+00
2.07101257e-04 3.58479214e-04 -2.39461485e-07
2.06720608e-04 3.63840169e-04 0.00000000e+00
2.06902419e-04 3.63861414e-04 -3.20713013e-07
0.00000000e+00 0.00000000e+00 -3.18750943e-04
7.58326860e-05 0.00000000e+00 -3.33970471e-04
7.39929383e-05 1.08860026e-04 -3.20921361e-04
0.00000000e+00 1.10392437e-04 -3.17978062e-04
1.68547107e-04 0.00000000e+00 -3.55192577e-04
1.50802560e-04 9.70271285e-05 -3.46399378e-04
2.62262445e-04 0.00000000e+00 -3.82501341e-04
2.62892921e-04 9.53143390e-05 -3.81950696e-04
3.86623171e-04 0.00000000e+00 -4.20002587e-04
3.76085809e-04 9.60765392e-05 -3.96631949e-04
5.14713931e-04 0.00000000e+00 -4.47993691e-04
5.00797876e-04 1.02158163e-04 -4.17712086e-04
6.17694459e-04 0.00000000e+00 -4.65653284e-04
6.41276711e-04 1.14315873e-04 -4.40611126e-04
6.13679513e-05 2.15120250e-04 -2.87118717e-04
0.00000000e+00 2.28684934e-04 -2.75244907e-04
1.41774362e-04 2.12087587e-04 -3.01232154e-04
2.33775776e-04 2.22018629e-04 -3.07370967e-04
3.57624900e-04 2.52632686e-04 -3.43189575e-04
4.88661521e-04 2.56997126e-04 -3.29724950e-04
6.03016815e-04 2.76887760e-04 -3.55986180e-04
5.08763806e-05 3.11232929e-04 -2.33515646e-04
0.00000000e+00 3.17540253e-04 -2.22687086e-04
1.20096134e-04 3.12776741e-04 -2.03995660e-04
1.09660774e-04 2.84649490e-04 1.49562138e-05
5.78561412e-05 3.88944754e-04 -1.87328420e-04
0.00000000e+00 3.79521924e-04 -2.07332050e-04
1.24021200e-04 3.58796737e-04 -1.30289380e-04
1.59643081e-04 3.00233398e-04 -4.99269154e-05
7.06529754e-05 4.18166775e-04 -2.02412630e-04
0.00000000e+00 4.29471198e-04 -2.15121865e-04
1.18418597e-04 4.01099824e-04 -1.58217983e-04
2.14254949e-04 3.68288485e-04 -1.31422974e-04
5.93662808e-05 4.92514169e-04 -2.62641843e-04
0.00000000e+00 4.88009595e-04 -2.68728210e-04
1.21031808e-04 5.08037512e-04 -2.37902743e-04
2.30917634e-04 4.96028049e-04 -2.42650131e-04
2.12363113e-04 3.59267055e-04 3.34849744e-07
2.12273037e-04 3.64448875e-04 3.80538495e-07
2.07366771e-04 3.64417967e-04 -8.25253494e-07
2.07372053e-04 3.59356025e-04 -2.07399239e-07
0.00000000e+00 0.00000000e+00 -4.80651710e-04
9.09767405e-05 0.00000000e+00 -4.83528391e-04
9.47038279e-05 9.89387117e-05 -4.71411651e-04
0.00000000e+00 9.56704971e-05 -4.59842937e-04
2.00496055e-04 0.00000000e+00 -5.10559534e-04
1.77522466e-04 8.13367660e-05 -4.95342072e-04
2.97338207e-04 0.00000000e+00 -5.43250237e-04
2.99384032e-04 6.97872529e-05 -5.37519227e-04
4.14280163e-04 0.00000000e+00 -5.72052435e-04
4.21015458e-04 7.39423631e-05 -5.81849192e-04
5.37216372e-04 0.00000000e+00 -6.08425820e-04
5.40173263e-04 8.02671639e-05 -6.01717096e-04
6.50029106e-04 0.00000000e+00 -6.23850734e-04
6.50728587e-04 7.92017308e-05 -6.16226171e-04
6.47463603e-05 1.84543518e-04 -4.29386942e-04
0.00000000e+00 2.10658996e-04 -4.23188496e-04
1.72137428e-04 1.85311030e-04 -4.71552514e-04
2.80485139e-04 1.99139555e-04 -5.59324806e-04
4.14484908e-04 2.22112561e-04 -5.83765912e-04
5.37326501e-04 2.07538804e-04 -5.76270220e-04
6.45202235e-04 2.14405212e-04 -5.87775605e-04
5.30031248e-05 3.21609434e-04 -3.44793138e-04
0.00000000e+00 3.12712393e-04 -3.48994363e-04
1.53047498e-04 2.77136103e-04 -4.09502623e-04
5.15782813e-05 3.92489106e-04 -2.89701944e-04
0.00000000e+00 4.07714018e-04 -2.90683151e-04
1.38403731e-04 3.93873255e-04 -2.20064278e-04
5.70607917e-05 4.87277372e-04 -3.07585375e-04
0.00000000e+00 4.74713015e-04 -3.18364968e-04
1.33798530e-04 4.84288699e-04 -2.98630446e-04
1.75454115e-04 4.68315207e-04 3.63657455e-05
2.16467321e-04 4.71664040e-04 -3.49882495e-04
6.41028964e-05 5.63165988e-04 -3.78330442e-04
0.00000000e+00 5.66076546e-04 -4.01659927e-04
</DataArray>
<DataArray type="Float32" Name="Reaction_force" NumberOfComponents="3" format="ascii">
7.75078416e-01 -7.07283258e-01 7.76512527e+00
0.00000000e+00 -1.36719871e+00 1.57744589e+01
0.00000000e+00 0.00000000e+00 3.06171188e+01
1.11100793e+00 0.00000000e+00 1.52831230e+01
1.38037109e+00 -1.32797635e+00 0.00000000e+00
0.00000000e+00 -2.34513235e+00 0.00000000e+00
0.00000000e+00 0.00000000e+00 0.00000000e+00
1.95110130e+00 0.00000000e+00 0.00000000e+00
0.00000000e+00 -1.31625843e+00 1.62950726e+01
0.00000000e+00 0.00000000e+00 3.12891521e+01
0.00000000e+00 -1.41583264e+00 0.00000000e+00
0.00000000e+00 0.00000000e+00 0.00000000e+00
0.00000000e+00 -9.80465233e-01 1.72755547e+01
0.00000000e+00 0.00000000e+00 3.08883171e+01
0.00000000e+00 -6.32394552e-01 0.00000000e+00
0.00000000e+00 0.00000000e+00 0.00000000e+00
0.00000000e+00 -9.64322865e-01 1.73072491e+01
0.00000000e+00 0.00000000e+00 3.09519424e+01
0.00000000e+00 -8.79779935e-01 0.00000000e+00
0.00000000e+00 0.00000000e+00 0.00000000e+00
0.00000000e+00 -1.76934934e+00 1.56816063e+01
0.00000000e+00 0.00000000e+00 2.95298710e+01
0.00000000e+00 -2.60624576e+00 0.00000000e+00
0.00000000e+00 0.00000000e+00 0.00000000e+00
0.00000000e+00 -2.32231236e+00 8.55860329e+00
0.00000000e+00 0.00000000e+00 1.67539940e+01
0.00000000e+00 -3.04046059e+00 0.00000000e+00
0.00000000e+00 0.00000000e+00 0.00000000e+00
0.00000000e+00 0.00000000e+00 2.84083729e+01
-1.71379983e-01 0.00000000e+00 1.45209713e+01
0.00000000e+00 0.00000000e+00 0.00000000e+00
5.58694184e-01 0.00000000e+00 0.00000000e+00
0.00000000e+00 0.00000000e+00 2.56636505e+01
0.00000000e+00 0.00000000e+00 0.00000000e+00
0.00000000e+00 0.00000000e+00 2.13453159e+01
0.00000000e+00 0.00000000e+00 0.00000000e+00
0.00000000e+00 0.00000000e+00 1.70489388e+01
0.00000000e+00 0.00000000e+00 0.00000000e+00
0.00000000e+00 0.00000000e+00 1.74298935e+01
0.00000000e+00 0.00000000e+00 0.00000000e+00
0.00000000e+00 0.00000000e+00 1.31074905e+01
0.00000000e+00 0.00000000e+00 0.00000000e+00
0.00000000e+00 0.00000000e+00 2.59518871e+01
-1.45966244e+00 0.00000000e+00 1.40165901e+01
0.00000000e+00 0.00000000e+00 0.00000000e+00
-1.59672523e+00 0.00000000e+00 0.00000000e+00
0.00000000e+00 0.00000000e+00 2.11034050e+01
0.00000000e+00 0.00000000e+00 0.00000000e+00
0.00000000e+00 0.00000000e+00 1.33397665e+01
0.00000000e+00 0.00000000e+00 0.00000000e+00
0.00000000e+00 0.00000000e+00 5.42659473e+00
0.00000000e+00 0.00000000e+00 0.00000000e+00
0.00000000e+00 0.00000000e+00 5.71040916e+00
0.00000000e+00 0.00000000e+00 0.00000000e+00
0.00000000e+00 0.00000000e+00 4.52064419e+00
0.00000000e+00 0.00000000e+00 0.00000000e+00
0.00000000e+00 0.00000000e+00 2.55585651e+01
-2.11038160e+00 0.00000000e+00 1.40287895e+01
0.00000000e+00 0.00000000e+00 0.00000000e+00
-4.02475166e+00 0.00000000e+00 0.00000000e+00
0.00000000e+00 0.00000000e+00 2.03288975e+01
0.00000000e+00 0.00000000e+00 0.00000000e+00
0.00000000e+00 0.00000000e+00 1.04691572e+01
0.00000000e+00 0.00000000e+00 0.00000000e+00
0.00000000e+00 0.00000000e+00 -1.96211708e+00
0.00000000e+00 0.00000000e+00 0.00000000e+00
0.00000000e+00 0.00000000e+00 -2.52864027e+00
0.00000000e+00 0.00000000e+00 -3.36745048e+00
0.00000000e+00 0.00000000e+00 0.00000000e+00
0.00000000e+00 0.00000000e+00 0.00000000e+00
0.00000000e+00 0.00000000e+00 2.73971443e+01
-2.43026996e+00 0.00000000e+00 1.38303738e+01
0.00000000e+00 0.00000000e+00 0.00000000e+00
-3.83685732e+00 0.00000000e+00 0.00000000e+00
0.00000000e+00 0.00000000e+00 2.37190342e+01
0.00000000e+00 0.00000000e+00 0.00000000e+00
0.00000000e+00 0.00000000e+00 1.69632835e+01
0.00000000e+00 0.00000000e+00 0.00000000e+00
0.00000000e+00 0.00000000e+00 4.16431952e+00
0.00000000e+00 0.00000000e+00 0.00000000e+00
0.00000000e+00 0.00000000e+00 -3.16846704e+00
0.00000000e+00 0.00000000e+00 0.00000000e+00
0.00000000e+00 0.00000000e+00 7.92405367e-01
0.00000000e+00 0.00000000e+00 0.00000000e+00
0.00000000e+00 0.00000000e+00 1.49865818e+01
-1.49176717e+00 0.00000000e+00 7.21824169e+00
0.00000000e+00 0.00000000e+00 0.00000000e+00
-2.23645496e+00 0.00000000e+00 0.00000000e+00
0.00000000e+00 0.00000000e+00 1.51844978e+01
0.00000000e+00 0.00000000e+00 0.00000000e+00
0.00000000e+00 0.00000000e+00 1.23689861e+01
0.00000000e+00 0.00000000e+00 0.00000000e+00
0.00000000e+00 0.00000000e+00 5.11284876e+00
0.00000000e+00 0.00000000e+00 0.00000000e+00
0.00000000e+00 0.00000000e+00 -1.84553730e+00
0.00000000e+00 0.00000000e+00 0.00000000e+00
0.00000000e+00 0.00000000e+00 2.49943689e-01
0.00000000e+00 0.00000000e+00 0.00000000e+00
4.67798680e-01 -1.26571453e+00 0.00000000e+00
0.00000000e+00 -1.39263403e+00 0.00000000e+00
0.00000000e+00 0.00000000e+00 0.00000000e+00
1.90006793e+00 0.00000000e+00 0.00000000e+00
0.00000000e+00 -2.68876374e-01 0.00000000e+00
0.00000000e+00 0.00000000e+00 0.00000000e+00
0.00000000e+00 1.26047039e+00 0.00000000e+00
0.00000000e+00 0.00000000e+00 0.00000000e+00
0.00000000e+00 2.24655247e+00 0.00000000e+00
0.00000000e+00 0.00000000e+00 0.00000000e+00
0.00000000e+00 3.22857976e-01 0.00000000e+00
0.00000000e+00 0.00000000e+00 0.00000000e+00
0.00000000e+00 -3.84155899e-01 0.00000000e+00
0.00000000e+00 0.00000000e+00 0.00000000e+00
0.00000000e+00 0.00000000e+00 0.00000000e+00
1.15391171e+00 0.00000000e+00 0.00000000e+00
0.00000000e+00 0.00000000e+00 0.00000000e+00
0.00000000e+00 0.00000000e+00 0.00000000e+00
0.00000000e+00 0.00000000e+00 0.00000000e+00
0.00000000e+00 0.00000000e+00 0.00000000e+00
0.00000000e+00 0.00000000e+00 0.00000000e+00
0.00000000e+00 0.00000000e+00 0.00000000e+00
-7.37194598e-01 0.00000000e+00 0.00000000e+00
0.00000000e+00 0.00000000e+00 0.00000000e+00
0.00000000e+00 0.00000000e+00 0.00000000e+00
0.00000000e+00 0.00000000e+00 0.00000000e+00
-2.06690049e+00 0.00000000e+00 0.00000000e+00
0.00000000e+00 0.00000000e+00 0.00000000e+00
0.00000000e+00 0.00000000e+00 0.00000000e+00
0.00000000e+00 0.00000000e+00 0.00000000e+00
-1.74646485e+00 0.00000000e+00 0.00000000e+00
0.00000000e+00 0.00000000e+00 0.00000000e+00
0.00000000e+00 0.00000000e+00 0.00000000e+00
0.00000000e+00 0.00000000e+00 0.00000000e+00
-8.56317163e-01 0.00000000e+00 0.00000000e+00
0.00000000e+00 0.00000000e+00 0.00000000e+00
0.00000000e+00 0.00000000e+00 0.00000000e+00
0.00000000e+00 0.00000000e+00 0.00000000e+00
0.00000000e+00 0.00000000e+00 0.00000000e+00
0.00000000e+00 0.00000000e+00 0.00000000e+00
0.00000000e+00 0.00000000e+00 0.00000000e+00
-1.51626885e-01 -3.87706071e-01 0.00000000e+00
0.00000000e+00 4.78915781e-01 0.00000000e+00
0.00000000e+00 0.00000000e+00 0.00000000e+00
1.09659863e+00 0.00000000e+00 0.00000000e+00
0.00000000e+00 1.28169227e+00 0.00000000e+00
0.00000000e+00 0.00000000e+00 0.00000000e+00
0.00000000e+00 2.35791898e+00 0.00000000e+00
0.00000000e+00 0.00000000e+00 0.00000000e+00
0.00000000e+00 3.88856983e+00 0.00000000e+00
0.00000000e+00 0.00000000e+00 0.00000000e+00
0.00000000e+00 3.12018418e+00 0.00000000e+00
0.00000000e+00 0.00000000e+00 0.00000000e+00
0.00000000e+00 1.46717525e+00 0.00000000e+00
0.00000000e+00 0.00000000e+00 0.00000000e+00
0.00000000e+00 0.00000000e+00 0.00000000e+00
1.43717158e+00 0.00000000e+00 0.00000000e+00
0.00000000e+00 0.00000000e+00 0.00000000e+00
0.00000000e+00 0.00000000e+00 0.00000000e+00
0.00000000e+00 0.00000000e+00 0.00000000e+00
0.00000000e+00 0.00000000e+00 0.00000000e+00
0.00000000e+00 0.00000000e+00 0.00000000e+00
0.00000000e+00 0.00000000e+00 0.00000000e+00
6.16309166e-01 0.00000000e+00 0.00000000e+00
0.00000000e+00 0.00000000e+00 0.00000000e+00
0.00000000e+00 0.00000000e+00 0.00000000e+00
-9.98274684e-02 0.00000000e+00 0.00000000e+00
0.00000000e+00 0.00000000e+00 0.00000000e+00
0.00000000e+00 0.00000000e+00 0.00000000e+00
5.64593792e-01 0.00000000e+00 0.00000000e+00
0.00000000e+00 0.00000000e+00 0.00000000e+00
0.00000000e+00 0.00000000e+00 0.00000000e+00
0.00000000e+00 0.00000000e+00 0.00000000e+00
0.00000000e+00 0.00000000e+00 0.00000000e+00
3.16366643e-01 0.00000000e+00 0.00000000e+00
</DataArray>
<DataArray type="Float32" Name="Equivalent_plastic_strain" format="ascii">
3.07775997e-02
3.25327329e-02
3.00836740e-02
2.84516169e-02
2.94118272e-02
3.07797543e-02
2.89464321e-02
2.80191409e-02
3.71146258e-02
3.35758310e-02
3.36601310e-02
3.24159802e-02
4.26894203e-02
3.77936298e-02
3.79269151e-02
3.63111296e-02
4.78968229e-02
4.28630756e-02
4.26613493e-02
3.89292273e-02
5.43730836e-02
4.79262397e-02
4.64817444e-02
4.28564153e-02
6.20900802e-02
5.37497569e-02
5.13879526e-02
4.79929615e-02
2.39340547e-02
2.36284761e-02
2.42940893e-02
2.29032659e-02
2.32500299e-02
2.49614157e-02
1.99734648e-02
2.56678318e-02
2.09847526e-02
2.84248429e-02
1.73168862e-02
3.03406234e-02
2.42505781e-02
3.41572699e-02
1.80366114e-02
1.92900915e-02
1.85224360e-02
1.79164615e-02
1.27278490e-02
1.46559770e-02
4.86220291e-03
4.03028017e-03
2.46669164e-03
7.87539043e-03
3.26243113e-04
7.36921684e-03
2.74678436e-03
7.39119179e-03
1.56232982e-02
1.74522446e-02
1.46543529e-02
1.61443215e-02
9.66980238e-03
9.65113577e-03
2.56880169e-03
3.73311748e-03
-1.76346503e-04
8.37391382e-04
3.08162463e-03
7.47626765e-04
2.36351974e-03
1.07280952e-03
1.61744899e-02
1.86373955e-02
1.47107246e-02
1.65428177e-02
9.79472382e-03
1.08298617e-02
1.66725647e-03
6.58042360e-03
-3.01336378e-04
1.12597538e-04
1.48055594e-06
2.74069293e-07
0.00000000e+00
0.00000000e+00
1.85379665e-02
2.11786907e-02
1.74998473e-02
1.87255451e-02
1.25738238e-02
1.48821836e-02
2.61610618e-03
1.09924373e-02
-3.65026281e-05
8.81192384e-04
-1.26439918e-05
2.25863141e-06
0.00000000e+00
0.00000000e+00
2.81336019e-02
2.82369079e-02
2.71091703e-02
2.70053418e-02
2.85457610e-02
2.90478657e-02
3.02579599e-02
3.25713865e-02
3.26453531e-02
3.57247195e-02
3.32174241e-02
3.67784263e-02
3.28485034e-02
3.62348482e-02
2.45645130e-02
2.38952730e-02
3.03757622e-02
4.04698953e-02
4.44551939e-02
4.64366954e-02
4.69601154e-02
1.88054300e-02
1.83101709e-02
2.33587731e-02
1.71448877e-02
1.44894574e-02
1.37292389e-02
1.11852816e-02
2.64299475e-03
1.40751705e-02
1.26618224e-02
1.68042185e-02
2.30385642e-02
1.57829057e-02
1.49366232e-02
2.27360018e-02
3.62486355e-02
0.00000000e+00
0.00000000e+00
0.00000000e+00
0.00000000e+00
2.88875187e-02
2.85146884e-02
2.83762128e-02
2.85426863e-02
2.75410591e-02
2.88593660e-02
2.68812408e-02
3.00566936e-02
2.58630295e-02
3.23608690e-02
2.36999877e-02
3.04274000e-02
2.14757463e-02
2.73701074e-02
2.87020807e-02
2.68920958e-02
3.15694152e-02
4.43664908e-02
4.44535101e-02
4.06557638e-02
3.69243342e-02
2.67122098e-02
2.18171286e-02
4.36759917e-02
1.72785353e-02
1.67639805e-02
2.53288285e-02
1.31515286e-02
1.59610291e-02
2.46432360e-02
2.31058504e-02
4.38697891e-02
2.43707949e-02
2.05992823e-02
</DataArray>
<DataArray type="Float32" Name="Stress_Mises" format="ascii">
3.05917168e+01
3.20238323e+01
3.14767556e+01
2.93651047e+01
2.95360756e+01
3.11074252e+01
3.01335864e+01
3.04342179e+01
3.59856672e+01
3.55790925e+01
3.15451412e+01
3.41483288e+01
4.05424747e+01
3.98747883e+01
3.38405313e+01
3.66458802e+01
4.14222231e+01
4.49107642e+01
3.67630978e+01
3.24791434e+01
4.30045166e+01
4.16204221e+01
3.38507040e+01
3.40245136e+01
6.19364738e+01
6.39726524e+01
4.49746952e+01
4.60474463e+01
2.97832451e+01
2.89425392e+01
3.00779595e+01
2.66086435e+01
2.90388713e+01
3.01044370e+01
2.39386738e+01
2.73747199e+01
2.61965210e+01
3.46543636e+01
2.68833997e+01
3.74643680e+01
4.33939333e+01
4.86237946e+01
2.83101397e+01
2.95416269e+01
2.91118982e+01
2.50308614e+01
2.06963109e+01
2.40835745e+01
1.61649710e+01
1.84136941e+01
1.95876662e+01
2.01463544e+01
1.70643282e+01
2.18889430e+01
2.62731857e+01
3.36327305e+01
2.90799170e+01
3.03283558e+01
2.71668820e+01
2.87642469e+01
2.40242605e+01
2.19591309e+01
1.77774899e+01
1.69356774e+01
2.13578990e+01
2.30734787e+01
2.72945147e+01
1.87030258e+01
3.03081436e+01
2.21811543e+01
3.01933985e+01
3.19911652e+01
2.68102343e+01
2.95418653e+01
2.64460411e+01
2.33337135e+01
1.75200143e+01
2.71849407e+01
2.39609902e+01
2.48966813e+01
8.54347837e+00
6.02719631e+00
9.92483234e+00
9.49619436e+00
3.72084074e+01
3.85958290e+01
3.45138168e+01
3.54880180e+01
3.78119326e+01
3.52728128e+01
2.75965576e+01
4.38817183e+01
3.20694799e+01
3.25102310e+01
1.53337550e+01
6.57173538e+00
5.22233677e+00
3.40519607e+00
3.04599066e+01
3.02413077e+01
2.80970690e+01
3.03358116e+01
2.71373854e+01
2.68415858e+01
2.62869596e+01
2.84476144e+01
2.81822667e+01
2.83742521e+01
2.49490585e+01
2.73701328e+01
2.18525219e+01
2.35595982e+01
2.60178323e+01
2.87115827e+01
4.13282814e+01
6.53730972e+01
5.32748928e+01
5.64058847e+01
5.71772041e+01
2.31696950e+01
2.38131523e+01
4.83293842e+01
4.01702785e+01
2.27431068e+01
2.23356311e+01
1.69515267e+01
2.66401831e+01
2.42093220e+01
2.14401674e+01
3.11994427e+01
3.99517995e+01
2.76873167e+01
2.91716633e+01
3.78815320e+01
7.82938461e+01
1.35756081e+00
2.06490672e+00
1.50879818e+00
2.13225216e+00
2.99744234e+01
2.98691750e+01
2.81218898e+01
2.99866962e+01
2.76166940e+01
2.62913475e+01
2.57091079e+01
2.63762538e+01
2.32284508e+01
3.04164774e+01
1.96027112e+01
2.66696607e+01
1.43279538e+01
2.00085315e+01
2.68342636e+01
2.68974042e+01
3.33920949e+01
7.48221069e+01
6.21189642e+01
4.89898844e+01
3.70987577e+01
3.20109937e+01
2.22027279e+01
9.41463909e+01
1.86709600e+01
1.94619679e+01
5.52570972e+01
1.98788586e+01
1.86516753e+01
3.43066721e+01
5.75400429e+01
8.83991839e+01
2.74239943e+01
3.05934229e+01
</DataArray>
<DataArray type="Float32" Name="Stress_Max_Principal" format="ascii">
2.53884459e+00
1.41459084e+00
1.21011016e+00
2.72727349e+00
3.24505305e+00
1.87405609e+00
2.13990790e+00
1.90955643e+00
-1.68129015e+00
-1.59416032e+00
1.09064075e+00
-1.09633614e+00
-5.26221207e+00
-5.10327017e+00
-1.33242285e+00
-3.11604729e+00
-6.37220162e+00
-8.30756640e+00
-3.77961814e+00
-1.82471015e-02
-7.26471794e+00
-4.44513404e+00
-1.50185299e+00
5.42528361e-01
-1.90421619e+01
-1.92351546e+01
-8.36443484e+00
-8.55302072e+00
2.17161018e+00
2.37791896e+00
1.41559857e+00
3.82729741e+00
4.15042311e+00
1.76829362e+00
1.50412208e+01
5.29832215e+00
1.80406902e+01
6.35288835e+00
2.28156466e+01
1.06089477e+01
2.93827758e+01
-5.97102483e+00
4.86763841e+00
3.37025602e+00
3.50814000e+00
5.78061460e+00
1.17063141e+01
1.27989431e+01
3.01071980e+01
3.30343827e+01
4.57611586e+01
1.93190467e+01
4.82944635e+01
2.30001094e+01
3.61241117e+01
1.40017109e+01
5.33650239e+00
3.76006424e+00
6.12369765e+00
4.42639303e+00
9.57703561e+00
1.11677853e+01
1.74690969e+01
1.78776007e+01
2.40466754e+01
2.04574388e+01
7.18536639e+00
1.71974195e+01
1.28034606e+01
1.80082251e+01
3.64322326e+00
2.02540345e+00
5.97558234e+00
3.30772677e+00
7.30392915e+00
9.76599197e+00
1.68057847e+01
1.11251467e+01
1.82049491e+01
1.75447166e+01
5.93735081e+00
4.30494862e+00
3.43725586e+00
2.71368619e+00
-2.09658849e+00
-3.15063214e+00
-1.04085139e+00
-1.64767408e+00
-4.93736267e-01
-3.70642421e-01
1.39280045e+01
-1.13392115e+00
1.43121767e+01
1.09994359e+01
5.43940902e+00
2.46750148e+00
5.54183841e-01
1.13963056e+00
1.57502747e+00
1.22391668e+00
3.60357807e+00
2.14419002e+00
3.53613305e+00
4.29066588e+00
4.06244064e+00
4.65125233e+00
3.27238202e+00
2.97950833e+00
5.44662890e+00
3.63245580e+00
8.29857230e+00
7.33310723e+00
5.52528554e+00
3.80665252e+00
-6.60199825e+00
-2.43664794e+01
-1.76951876e+01
-2.03500774e+01
-2.00255375e+01
1.11215344e+01
7.02913868e+00
-8.96613093e+00
1.62548976e+01
8.97066116e+00
7.93953037e+00
2.08600408e+01
3.82577124e+01
7.46727252e+00
8.84578490e+00
6.02438912e+00
-3.31013250e+00
3.31466579e+00
1.34528136e+00
2.95817947e+00
-3.79021034e+01
6.81912720e-01
1.17805856e+00
4.88269560e-01
1.21996945e+00
4.07572746e-01
7.45995604e-01
3.11841569e+00
9.11897361e-01
3.82873933e+00
5.22481758e+00
5.63126040e+00
7.87534128e+00
7.92767081e+00
1.87300476e+00
1.04885991e+01
4.47717726e+00
1.46833549e+01
1.29200031e+01
5.78628190e+00
5.62997986e+00
7.34717941e+00
-3.47834236e+01
-2.52169273e+01
-1.49908228e+01
-4.58073370e+00
2.42485251e+00
1.35433911e+01
-4.27895427e+01
1.24016576e+01
1.11883975e+01
-1.51558145e+01
2.11891232e+01
1.12759557e+01
2.69521064e+01
8.52609825e+00
-3.68588305e+01
4.50738132e+00
1.71302319e+00
</DataArray>
<DataArray type="Float32" Name="Stress_Mid_Principal" format="ascii">
-3.88153863e+00
-5.21194832e+00
-3.92389917e+00
-1.79407215e+00
-2.72225499e+00
-4.00730801e+00
-2.49881320e+00
-2.81412482e+00
-8.90518832e+00
-8.17091167e+00
-3.78303830e+00
-6.00742066e+00
-1.30819273e+01
-1.17839113e+01
-5.16300452e+00
-8.16600245e+00
-1.33987815e+01
-1.71629575e+01
-7.70974910e+00
-3.96535911e+00
-1.52267936e+01
-1.54280417e+01
-4.97481370e+00
-5.41615155e+00
-3.65603752e+01
-3.95484304e+01
-1.72893670e+01
-1.84423745e+01
-1.80956954e+00
-5.26872635e-01
-1.42364781e+00
2.12715968e+00
-2.37726653e+00
-1.78865387e+00
9.29726887e+00
2.38137041e+00
8.28085470e+00
-3.91721829e+00
9.61699438e+00
-1.03275895e+00
6.06763840e+00
-1.99920514e+01
-2.22896147e+00
-2.77740765e+00
-1.70617712e+00
2.88016833e+00
4.95417923e+00
4.50548360e+00
2.03337705e+01
2.08948167e+01
3.53034910e+01
4.44567362e+00
3.79537799e+01
7.07266625e+00
2.66432648e+01
-2.46377468e+00
-4.25888904e+00
-4.83672988e+00
-1.09414378e+00
-2.43773928e+00
1.38675866e+00
3.27802764e+00
9.93153846e+00
1.03948228e+01
9.62995481e+00
2.89234193e+00
-1.54979229e+00
3.27119184e+00
2.32301843e+00
-4.39236323e-01
-4.22747260e+00
-5.80353230e+00
-4.11893129e-01
-2.72653052e+00
4.88594472e-02
2.62878521e+00
7.27218401e+00
-5.55365245e-01
5.10696220e+00
8.50946732e-01
1.24724233e+00
6.34932238e-01
-4.47095633e-01
1.08298796e+00
-1.03736902e+01
-1.19617424e+01
-6.35785458e+00
-7.68841720e+00
-1.12594559e+01
-6.88605207e+00
2.60263705e+00
-1.54513696e+01
4.71456075e+00
-1.91592908e+00
3.10441577e+00
3.07810525e-01
-5.92849076e-01
-1.65101075e+00
-2.38303614e+00
-1.59621479e+00
-3.41531761e-01
-2.80663876e+00
1.58807516e+00
1.23923424e+00
2.52007767e+00
1.59513266e+00
7.95437992e-02
3.06688547e-02
3.42202795e+00
1.24565193e+00
6.22123361e+00
4.28639817e+00
1.46150424e+00
-1.68189818e+00
-1.12780664e+01
-3.33127257e+01
-2.19937692e+01
-2.44841154e+01
-2.63696880e+01
6.70371500e+00
3.97975194e+00
-1.46122440e+01
-7.45950758e+00
4.11233142e+00
5.97235477e+00
1.38737322e+01
2.43317237e+01
3.04281226e+00
6.18541485e+00
-2.48192315e+00
-9.19276595e+00
1.35691726e+00
6.14103794e-01
-4.84719944e+00
-4.23065453e+01
-2.28821105e-01
-4.70099971e-01
2.19196171e-01
-4.78038758e-01
-2.28381395e-01
-4.01442662e-01
3.02933630e-01
-6.71098381e-01
3.78004849e-01
1.31449436e+00
1.75069109e+00
2.84292596e+00
3.66450185e+00
-2.50292856e+00
7.43422925e+00
1.46614778e+00
1.24127808e+01
9.52665704e+00
-1.90999985e-01
-1.32045150e-01
2.75607218e+00
-3.95733322e+01
-2.94550595e+01
-1.72719247e+01
-7.40172976e+00
-5.21611498e+00
7.32632670e+00
-5.89084387e+01
9.31115971e+00
7.11735296e+00
-2.11742973e+01
1.47325159e+01
8.74666397e+00
1.43922191e+01
-1.97135868e+01
-4.96172574e+01
6.67067468e-01
-2.37379217e+00
</DataArray>
<DataArray type="Float32" Name="Stress_Min_Principal" format="ascii">
-3.07535191e+01
-3.33997879e+01
-3.24931374e+01
-2.86203833e+01
-2.88186398e+01
-3.17513928e+01
-3.00318573e+01
-3.05937781e+01
-4.07304106e+01
-3.99919643e+01
-3.25903020e+01
-3.74203004e+01
-4.91166763e+01
-4.78598752e+01
-3.69215937e+01
-4.20136983e+01
-5.08582916e+01
-5.69683366e+01
-4.23487176e+01
-3.42810829e+01
-5.36899376e+01
-5.04419228e+01
-3.69526350e+01
-3.59691950e+01
-8.78509216e+01
-9.08790932e+01
-5.71316586e+01
-5.87368913e+01
-2.93885021e+01
-2.79073343e+01
-2.99659944e+01
-2.35748098e+01
-2.75812294e+01
-2.99417787e+01
-1.03917637e+01
-2.32862575e+01
-1.08753462e+01
-3.17411966e+01
-7.35962677e+00
-3.04262133e+01
-1.98076649e+01
-5.99095364e+01
-2.62478318e+01
-2.87404881e+01
-2.77635867e+01
-2.05197672e+01
-1.14491644e+01
-1.40088833e+01
1.20930352e+01
1.22721637e+01
2.36842893e+01
-3.45327361e+00
2.89184933e+01
-1.10866737e+00
7.47567749e+00
-2.33457870e+01
-2.73194222e+01
-2.99382563e+01
-2.39204762e+01
-2.71334901e+01
-1.72216625e+01
-1.34920457e+01
-1.94895691e+00
-1.11054877e+00
4.21296716e-01
-5.07753992e+00
-2.30308957e+01
-4.04374451e+00
-2.13109627e+01
-6.22065856e+00
-2.96118484e+01
-3.31495085e+01
-2.34464264e+01
-2.87288389e+01
-2.16474750e+01
-1.61907550e+01
-2.91384077e+00
-1.93101563e+01
-8.97850883e+00
-1.05245017e+01
-3.82778881e+00
-2.46883569e+00
-7.74072170e+00
-7.34466664e+00
-4.27351532e+01
-4.53901825e+01
-3.78251686e+01
-3.97683372e+01
-4.24914312e+01
-3.83585896e+01
-1.71835117e+01
-4.96970450e+01
-2.11050577e+01
-2.54878588e+01
-1.08596768e+01
-4.86706130e+00
-5.14632368e+00
-2.65262687e+00
-3.06703939e+01
-3.03162456e+01
-2.62572274e+01
-3.03590159e+01
-2.45225266e+01
-2.39224087e+01
-2.29341494e+01
-2.49432399e+01
-2.63687389e+01
-2.67458950e+01
-2.04482536e+01
-2.48404529e+01
-1.45184293e+01
-1.75840733e+01
-2.22584332e+01
-2.72249498e+01
-5.00609863e+01
-9.34547112e+01
-7.29869061e+01
-7.86962585e+01
-8.01052170e+01
-1.35734923e+01
-1.81162759e+01
-5.98151512e+01
-3.00681052e+01
-1.57743607e+01
-1.53114258e+01
1.88022539e+00
8.75696309e+00
-1.86174789e+01
-1.37981613e+01
-2.81488762e+01
-4.58341579e+01
-2.52940601e+01
-2.81842766e+01
-3.72849426e+01
-1.18305199e+02
-8.78324330e-01
-1.13320881e+00
-1.13268778e+00
-1.16723678e+00
-2.98796911e+01
-2.96802273e+01
-2.62724811e+01
-2.98213143e+01
-2.53469807e+01
-2.27839632e+01
-2.17850196e+01
-2.03090000e+01
-1.71350015e+01
-3.04770096e+01
-1.04593447e+01
-2.35553049e+01
-6.44289255e-01
-8.14654207e+00
-2.34750784e+01
-2.36762793e+01
-2.70789743e+01
-1.11764294e+02
-8.93413029e+01
-6.50808363e+01
-4.30093222e+01
-3.25975186e+01
-1.07365267e+01
-1.43924303e+02
-7.53773090e+00
-9.94458863e+00
-7.30368986e+01
-1.02581412e-01
-8.47933435e+00
-9.18929917e+00
-5.76777840e+01
-1.30885769e+02
-2.44314103e+01
-3.07161399e+01
</DataArray>
<DataArray type="Float32" Name="Stress_Pressure" format="ascii">
1.06987381e+01
1.23990486e+01
1.17356424e+01
9.22906089e+00
9.43194723e+00
1.12948813e+01
1.01302543e+01
1.04994488e+01
1.71056292e+01
1.65856787e+01
1.17609000e+01
1.48413524e+01
2.24869380e+01
2.15823523e+01
1.44723401e+01
1.77652493e+01
2.35430923e+01
2.74796193e+01
1.79460281e+01
1.27548965e+01
2.53938174e+01
2.34383667e+01
1.44764338e+01
1.36142727e+01
4.78178177e+01
4.98875599e+01
2.75951529e+01
2.85774285e+01
9.67548692e+00
8.68542898e+00
9.99134783e+00
5.87345096e+00
8.60269070e+00
9.98737982e+00
-4.64890862e+00
5.20218863e+00
-5.14873266e+00
9.76850843e+00
-8.35767198e+00
6.95000839e+00
-5.21425056e+00
2.86242046e+01
7.86971807e+00
9.38254666e+00
8.65387447e+00
3.95299482e+00
-1.73710942e+00
-1.09851464e+00
-2.08446677e+01
-2.20671213e+01
-3.49163121e+01
-6.77048222e+00
-3.83889128e+01
-9.65470266e+00
-2.34143527e+01
3.93595076e+00
8.74726957e+00
1.03383074e+01
6.29697435e+00
8.38161242e+00
2.08595622e+00
-3.17922398e-01
-8.48389256e+00
-9.05395814e+00
-1.13659760e+01
-6.09074672e+00
5.79844087e+00
-5.47495560e+00
2.06149477e+00
-3.78277636e+00
1.00653660e+01
1.23092122e+01
5.96091244e+00
9.38254750e+00
4.76489547e+00
1.26532584e+00
-7.05470943e+00
2.91345836e+00
-4.77780099e+00
-2.62372044e+00
-1.11893475e+00
-8.23681692e-01
1.58352047e+00
1.18266423e+00
1.84018102e+01
2.01675186e+01
1.50746245e+01
1.63681436e+01
1.80815411e+01
1.52050946e+01
2.17623234e-01
2.20941121e+01
6.92773223e-01
5.46811700e+00
7.71950662e-01
6.97249760e-01
1.72832966e+00
1.05466901e+00
1.04928012e+01
1.02295145e+01
7.66506055e+00
1.03404886e+01
6.46610630e+00
6.13083643e+00
5.45054360e+00
6.23228501e+00
7.67227130e+00
7.91190571e+00
3.85986555e+00
6.65411514e+00
-4.58881259e-04
1.98818952e+00
5.09054804e+00
8.36673185e+00
2.26470171e+01
5.03779715e+01
3.75586205e+01
4.11768179e+01
4.21668129e+01
-1.41725226e+00
2.36912851e+00
2.77978429e+01
7.09090447e+00
8.97122726e-01
4.66513425e-01
-1.22046666e+01
-2.37821339e+01
2.70246489e+00
-4.11012709e-01
8.20213693e+00
1.94456859e+01
6.87415957e+00
8.74163087e+00
1.30579872e+01
6.61712837e+01
1.41744241e-01
1.41750090e-01
1.41740680e-01
1.41768690e-01
9.90016711e+00
9.77855790e+00
7.61704376e+00
9.86017156e+00
7.04674551e+00
5.41488349e+00
4.80102289e+00
3.19691083e+00
1.84760952e+00
1.03689777e+01
-2.48782790e+00
5.87066005e+00
-8.81728196e+00
-4.76670647e+00
5.95993216e+00
6.05944830e+00
5.65857387e+00
6.20403481e+01
4.80044293e+01
3.24478607e+01
1.83305960e+01
1.17962605e+01
-3.37773025e+00
8.18740959e+01
-4.72502867e+00
-2.78705390e+00
3.64556696e+01
-1.19396860e+01
-3.84776159e+00
-1.07183420e+01
2.29550896e+01
7.24539522e+01
6.41898656e+00
1.04589696e+01
</DataArray>
<DataArray type="Float32" Name="Stress_Tresca" format="ascii">
3.32923622e+01
3.48143787e+01
3.37032466e+01
3.13476572e+01
3.20636921e+01
3.36254487e+01
3.21717653e+01
3.25033350e+01
3.90491199e+01
3.83978043e+01
3.36809430e+01
3.63239644e+01
4.38544655e+01
4.27566051e+01
3.55891709e+01
3.88976508e+01
4.44860897e+01
4.86607699e+01
3.85690994e+01
3.42628355e+01
4.64252186e+01
4.59967904e+01
3.54507816e+01
3.65117235e+01
6.88087616e+01
7.16439381e+01
4.87672234e+01
5.01838694e+01
3.15601125e+01
3.02852526e+01
3.13815932e+01
2.74021068e+01
3.17316525e+01
3.17100726e+01
2.54329839e+01
2.85845796e+01
2.89160361e+01
3.80940854e+01
3.01752729e+01
4.10351607e+01
4.91904392e+01
5.39385109e+01
3.11154699e+01
3.21107445e+01
3.12717271e+01
2.63003814e+01
2.31554780e+01
2.68078263e+01
1.80141625e+01
2.07622188e+01
2.20768693e+01
2.27723201e+01
1.93759702e+01
2.41087767e+01
2.86484337e+01
3.73474979e+01
3.26559248e+01
3.36983204e+01
3.00441732e+01
3.15598826e+01
2.67986975e+01
2.46598313e+01
1.94180541e+01
1.89881498e+01
2.36253783e+01
2.55349789e+01
3.02162609e+01
2.12411639e+01
3.41144218e+01
2.42288831e+01
3.32550716e+01
3.51749125e+01
2.94220088e+01
3.20365648e+01
2.89514046e+01
2.59567468e+01
1.97196252e+01
3.04353031e+01
2.71834574e+01
2.80692182e+01
9.76513970e+00
6.77378435e+00
1.11779776e+01
1.00583526e+01
4.06385632e+01
4.22395515e+01
3.67843175e+01
3.81206627e+01
4.19976940e+01
3.79879465e+01
3.11115170e+01
4.85631231e+01
3.54172354e+01
3.64872942e+01
1.62990856e+01
7.33456278e+00
5.70050764e+00
3.79225731e+00
3.22454224e+01
3.15401616e+01
2.98608060e+01
3.25032063e+01
2.80586588e+01
2.82130748e+01
2.69965901e+01
2.95944924e+01
2.96411214e+01
2.97254028e+01
2.58948829e+01
2.84729084e+01
2.28170013e+01
2.49171810e+01
2.77837186e+01
3.10316029e+01
4.34589879e+01
6.90882313e+01
5.52917194e+01
5.83461809e+01
6.00796795e+01
2.46950265e+01
2.51454139e+01
5.08490194e+01
4.63230038e+01
2.47450216e+01
2.32509563e+01
1.89798149e+01
2.95007490e+01
2.60847514e+01
2.26439462e+01
3.41732650e+01
4.25240250e+01
2.86087255e+01
2.95295582e+01
4.02431221e+01
8.04030914e+01
1.56023705e+00
2.31126732e+00
1.62095731e+00
2.38720620e+00
3.02872639e+01
3.04262228e+01
2.93908966e+01
3.07332120e+01
2.91757197e+01
2.80087801e+01
2.74162793e+01
2.81843410e+01
2.50626724e+01
3.23500140e+01
2.09479437e+01
2.80324818e+01
1.53276443e+01
2.10665455e+01
2.92613602e+01
2.93062596e+01
3.44261541e+01
7.69808701e+01
6.41243763e+01
5.00900145e+01
3.84285889e+01
3.50223707e+01
2.42799175e+01
1.01134760e+02
1.99393881e+01
2.11329861e+01
5.78810840e+01
2.12917044e+01
1.97552900e+01
3.61414059e+01
6.62038803e+01
9.40269407e+01
2.89387915e+01
3.24291630e+01
</DataArray>
<DataArray type="Float32" Name="Stress_Third_Invariant" format="ascii">
-2.90171967e+01
-3.04079351e+01
-3.04297633e+01
-2.85135794e+01
-2.81299639e+01
-2.98079710e+01
-2.92737224e+01
-2.95377855e+01
-3.42951012e+01
-3.41333556e+01
-3.06237721e+01
-3.32941374e+01
-3.86928673e+01
-3.84615579e+01
-3.33360281e+01
-3.58138193e+01
-4.00483189e+01
-4.28150687e+01
-3.62822876e+01
-3.19028331e+01
-4.12836018e+01
-3.80949016e+01
-3.34385564e+01
-3.21045549e+01
-5.59421654e+01
-5.59021587e+01
-4.29111090e+01
-4.35435629e+01
-2.91321588e+01
-2.86113672e+01
-2.97264798e+01
-2.64375548e+01
-2.72559257e+01
-2.95783520e+01
-1.70839711e+01
-2.62494629e+01
-1.63698117e+01
-2.74199804e+01
-9.72823739e+00
-2.72389604e+01
-1.20838127e+01
-4.30172605e+01
-2.59315228e+01
-2.79729681e+01
-2.77116024e+01
-2.44775221e+01
-1.75336005e+01
-1.84267001e+01
2.84514856e+00
6.43947244e+00
1.21986898e+00
1.50664228e+01
3.69383907e+00
9.02092171e+00
-8.03909683e+00
-1.50778866e+00
-2.50822201e+01
-2.73774652e+01
-2.48576088e+01
-2.67679615e+01
-1.81569875e+01
-1.64128722e+01
-4.86096621e+00
-5.10008979e+00
8.25481606e+00
1.10146151e+01
-2.08253913e+01
1.48312461e+01
-2.54871492e+01
1.88917220e+01
-2.73574252e+01
-2.97034883e+01
-2.49916582e+01
-2.79020777e+01
-2.10120938e+01
-2.00330510e+01
-3.58293951e+00
-7.79033089e+00
-2.00599313e+00
7.04573178e+00
1.48388314e+00
-5.11404276e-02
-4.60399604e+00
-7.37487221e+00
-3.50042448e+01
-3.62277603e+01
-3.33101811e+01
-3.43025627e+01
-3.39681187e+01
-3.35762620e+01
-1.30836015e+01
-3.39975510e+01
-2.69200687e+01
-2.13426275e+01
-1.46796067e+01
-5.45191598e+00
-4.92681265e+00
3.04006636e+00
-2.98730249e+01
-2.99047217e+01
-2.74625347e+01
-2.93946004e+01
-2.69785948e+01
-2.63722123e+01
-2.61008077e+01
-2.67235885e+01
-2.77659802e+01
-2.80009385e+01
-2.47485101e+01
-2.70956627e+01
-2.16286726e+01
-2.30521073e+01
-2.52001457e+01
-2.73951139e+01
-4.07002313e+01
-6.29744213e+01
-5.28757162e+01
-5.60237465e+01
-5.63614044e+01
-2.00795741e+01
-2.32197106e+01
-4.73975398e+01
-5.37176132e-02
-2.14018637e+01
-2.21295049e+01
-9.74448780e+00
-5.91387367e+00
-2.31628978e+01
-2.10568619e+01
-2.62055563e+01
-3.88034526e+01
-2.75141554e+01
-2.91485624e+01
-3.18562582e+01
-7.80143738e+01
8.92493576e-01
1.78262562e+00
-1.43851858e+00
1.83399349e+00
-2.99590130e+01
-2.98191123e+01
-2.76985424e+01
-2.98511682e+01
-2.71119533e+01
-2.55639127e+01
-2.49965067e+01
-2.35941272e+01
-2.23154802e+01
-2.96396189e+01
-1.90474780e+01
-2.62322224e+01
-1.39144559e+01
-1.73677700e+01
-2.50576833e+01
-2.54335227e+01
-2.63227752e+01
-7.41007484e+01
-6.17767591e+01
-4.88684349e+01
-3.68558693e+01
-2.93960064e+01
-1.77057861e+01
-9.08617096e+01
-1.75557210e+01
-1.83119519e+01
-5.40682387e+01
-1.15604247e+01
-1.81527309e+01
-1.36257630e+01
-3.63006859e+01
-8.60942141e+01
-2.59653349e+01
-2.99627795e+01
</DataArray>
<DataArray type="Float32" Name="Logarithmic_strain_Max_Principal" format="ascii">
2.48894282e-02
2.60721128e-02
2.32224399e-02
2.17563221e-02
2.34130882e-02
2.39989697e-02
2.19045875e-02
2.14425852e-02
2.93893646e-02
2.61320607e-02
2.52150209e-02
2.39825377e-02
3.31255347e-02
2.86616436e-02
2.71828994e-02
2.61991043e-02
3.60386930e-02
3.20747197e-02
2.94992179e-02
2.75688483e-02
4.03359197e-02
3.67016774e-02
3.21197757e-02
3.11940063e-02
5.11500165e-02
4.45027649e-02
3.88125852e-02
3.74814272e-02
1.74150579e-02
1.63174742e-02
1.72271365e-02
1.57776608e-02
1.85510786e-02
1.83365453e-02
1.64006865e-02
1.89847133e-02
1.85695908e-02
2.31599438e-02
2.01276834e-02
2.47908862e-02
2.17239950e-02
2.90184096e-02
1.41250442e-02
1.46321394e-02
1.33655443e-02
1.24025496e-02
1.09590783e-02
1.18247673e-02
5.45920170e-03
7.76232992e-03
5.12814429e-03
1.00760080e-02
5.02224608e-03
1.03513047e-02
4.06361371e-03
9.41265887e-03
1.33110376e-02
1.43734501e-02
1.18976827e-02
1.27611877e-02
8.73805385e-03
8.72676395e-03
3.15404526e-03
4.25244812e-03
6.28910823e-04
1.48660701e-03
2.70355986e-03
1.75045254e-03
2.75932650e-03
2.41571927e-03
1.26859581e-02
1.44514395e-02
1.14682266e-02
1.24185213e-02
8.57371639e-03
8.97446246e-03
2.43143766e-03
6.06639157e-03
2.28322595e-04
7.60777366e-04
1.29739734e-04
9.38256286e-05
1.01321115e-04
7.93092052e-05
1.41663454e-02
1.62264220e-02
1.26813948e-02
1.37424455e-02
1.08628324e-02
1.11540442e-02
3.69447586e-03
8.92025450e-03
4.38572111e-04
1.30691761e-03
1.32448396e-04
6.86647460e-05
3.40202423e-05
3.97700369e-05
2.04079123e-02
1.95574909e-02
2.00833660e-02
2.02597077e-02
1.89421489e-02
2.06767358e-02
2.00895355e-02
2.25052766e-02
2.25203754e-02
2.46551901e-02
2.15601982e-02
2.51507415e-02
2.20833682e-02
2.52745315e-02
1.85008228e-02
1.87671939e-02
2.11941374e-02
2.83931490e-02
2.91114803e-02
2.95363371e-02
2.98744971e-02
1.43141368e-02
1.36868304e-02
1.82765403e-02
2.19267611e-02
1.08862816e-02
9.41895461e-03
9.84117016e-03
8.96070851e-03
1.07451092e-02
9.03756777e-03
1.38388413e-02
1.66965623e-02
1.07401684e-02
1.01311887e-02
1.59276591e-02
2.27281814e-02
1.80530428e-05
3.01897826e-05
1.36646263e-05
3.09014740e-05
1.77137032e-02
1.78885316e-02
1.95231000e-02
1.82347475e-02
1.97327221e-02
2.13274248e-02
2.04342329e-02
2.24266427e-02
2.00538416e-02
2.34757417e-02
1.73017103e-02
2.09446505e-02
1.60846119e-02
1.89617346e-02
2.24245267e-02
2.10091937e-02
2.12988223e-02
3.06650840e-02
2.91339494e-02
2.54432922e-02
2.26755394e-02
2.17930915e-02
1.81307094e-02
3.44844330e-02
1.30456389e-02
1.35582576e-02
1.87826590e-02
1.20753814e-02
1.20045166e-02
1.86036723e-02
2.44484376e-02
3.39707434e-02
1.75154423e-02
1.53638055e-02
</DataArray>
<DataArray type="Float32" Name="Logarithmic_strain_Min_Principal" format="ascii">
-3.03621348e-02
-3.22063416e-02
-3.00563811e-02
-2.84492290e-02
-2.91652884e-02
-3.06991660e-02
-2.90552687e-02
-2.80487100e-02
-3.69441956e-02
-3.36088631e-02
-3.38668143e-02
-3.28156268e-02
-4.27677631e-02
-3.81084513e-02
-3.84704247e-02
-3.69017399e-02
-4.82883565e-02
-4.35158536e-02
-4.34204079e-02
-3.95261492e-02
-5.49534410e-02
-4.73321676e-02
-4.70710481e-02
-4.35667480e-02
-6.22420795e-02
-5.43938931e-02
-5.20607401e-02
-4.86757401e-02
-2.43079844e-02
-2.41085486e-02
-2.47435074e-02
-2.33153920e-02
-2.33542467e-02
-2.54105025e-02
-2.00662464e-02
-2.61826989e-02
-2.10608961e-02
-2.89351136e-02
-2.00777585e-02
-3.03717085e-02
-2.18104124e-02
-3.52774132e-02
-1.81945637e-02
-1.95794925e-02
-1.90287593e-02
-1.83437751e-02
-1.27408186e-02
-1.50720719e-02
-5.05512615e-03
-6.89099915e-03
-3.91973951e-03
-8.30264064e-03
-4.13245692e-03
-8.40876244e-03
-4.89796896e-03
-8.62156623e-03
-1.55596868e-02
-1.74954375e-02
-1.48895975e-02
-1.63724297e-02
-9.61496052e-03
-9.60858841e-03
-2.59148641e-03
-3.98135197e-03
-6.06745465e-04
-1.07420964e-03
-3.93895438e-03
-1.26403245e-03
-3.65091271e-03
-1.42294643e-03
-1.64546061e-02
-1.89400418e-02
-1.49899385e-02
-1.68900294e-02
-9.97997005e-03
-1.10661214e-02
-1.85989420e-03
-7.07557976e-03
-1.68531378e-04
-4.80608163e-04
-1.06406098e-04
-6.91673722e-05
-1.67034083e-04
-1.61999832e-04
-1.91102447e-02
-2.16846392e-02
-1.81554472e-02
-1.93898818e-02
-1.31740654e-02
-1.57284040e-02
-2.89122842e-03
-1.20880834e-02
-8.07397126e-04
-1.59463749e-03
-2.41599388e-04
-1.09925762e-04
-1.02128848e-04
-5.10894733e-05
-2.84856334e-02
-2.87463688e-02
-2.73502306e-02
-2.72466056e-02
-2.91251023e-02
-2.94370223e-02
-3.08158621e-02
-3.32358391e-02
-3.32511133e-02
-3.63292401e-02
-3.36625916e-02
-3.74663454e-02
-3.33193587e-02
-3.69171742e-02
-2.48078944e-02
-2.38923663e-02
-3.16645237e-02
-4.28732857e-02
-4.59793694e-02
-4.82902043e-02
-4.87832855e-02
-1.92213738e-02
-1.86489746e-02
-2.58125272e-02
-1.94610520e-02
-1.47789012e-02
-1.42745250e-02
-1.17611318e-02
-8.74967563e-03
-1.44472000e-02
-1.30714041e-02
-1.79744164e-02
-2.43929639e-02
-1.65636966e-02
-1.57084474e-02
-2.34772298e-02
-3.93584957e-02
-1.92651223e-05
-2.55904642e-05
-2.55917021e-05
-2.60882043e-05
-2.95480536e-02
-2.91832872e-02
-2.88577750e-02
-2.92346496e-02
-2.79257745e-02
-2.91536280e-02
-2.69163037e-02
-3.04035179e-02
-2.58560996e-02
-3.28890914e-02
-2.38843868e-02
-3.09009971e-02
-2.14271508e-02
-2.75532734e-02
-2.87396833e-02
-2.70418674e-02
-3.40221173e-02
-4.90517899e-02
-4.64199884e-02
-4.19503199e-02
-3.78215630e-02
-2.71674176e-02
-2.17187838e-02
-4.99683730e-02
-1.79736500e-02
-1.65226359e-02
-2.86480738e-02
-1.63951096e-02
-1.62656317e-02
-2.51816048e-02
-2.83528026e-02
-4.85316155e-02
-2.33185710e-02
-2.13403711e-02
</DataArray>
<DataArray type="Float32" Name="Plastic_strain_Max_Principal" format="ascii">
2.47068424e-02
2.58946940e-02
2.30628881e-02
2.15721745e-02
2.32196590e-02
2.38270527e-02
2.17326318e-02
2.12789546e-02
2.92511424e-02
2.60007023e-02
2.50439448e-02
2.38543416e-02
3.30160204e-02
2.85925269e-02
2.70448755e-02
2.60898375e-02
3.59257199e-02
3.20506073e-02
2.94227139e-02
2.74042408e-02
4.02787682e-02
3.76032013e-02
3.20628593e-02
3.09326211e-02
5.11052385e-02
4.41556405e-02
3.88182867e-02
3.73828588e-02
1.72484694e-02
1.61516028e-02
1.70788168e-02
1.56018906e-02
1.83556778e-02
1.81706724e-02
1.61296262e-02
1.88854757e-02
1.82821346e-02
2.29225081e-02
1.63747328e-02
2.49225448e-02
2.32011657e-02
2.85057966e-02
1.39125022e-02
1.44348973e-02
1.31824146e-02
1.22014408e-02
1.06822543e-02
1.17291466e-02
5.07937989e-03
7.44376394e-03
4.71944828e-03
9.63099006e-03
4.77295159e-03
9.80547722e-03
3.82329302e-03
8.94793984e-03
1.30776244e-02
1.41538437e-02
1.16697459e-02
1.25534737e-02
8.47875606e-03
8.45502503e-03
2.84552123e-03
3.92814710e-03
3.62757486e-04
1.07114940e-03
2.48336233e-03
1.41171741e-03
2.44550058e-03
2.03920855e-03
1.24779879e-02
1.42670302e-02
1.12527813e-02
1.22280093e-02
8.33858130e-03
8.71069264e-03
2.11049622e-03
5.78134660e-03
1.95924933e-04
3.80147267e-04
1.24936872e-06
1.07114301e-06
0.00000000e+00
0.00000000e+00
1.40148164e-02
1.60963088e-02
1.25567995e-02
1.36049949e-02
1.06816590e-02
1.09882422e-02
3.35763930e-03
8.73207565e-03
2.74769769e-04
1.00206168e-03
1.26024570e-05
1.49566161e-06
0.00000000e+00
0.00000000e+00
2.02578986e-02
1.94120365e-02
1.99031103e-02
2.00862661e-02
1.87832373e-02
2.04710469e-02
1.99157503e-02
2.22733174e-02
2.23391103e-02
2.44416674e-02
2.13965722e-02
2.49257216e-02
2.19176719e-02
2.49926443e-02
1.82976238e-02
1.85846128e-02
2.11444638e-02
2.84222804e-02
2.92028901e-02
2.96617206e-02
2.99613206e-02
1.40647666e-02
1.34961836e-02
1.81563480e-02
2.19476772e-02
1.06514767e-02
9.21518914e-03
9.61092061e-03
8.64775293e-03
1.05302567e-02
8.82078311e-03
1.30221397e-02
1.71035340e-02
1.05808317e-02
1.00187478e-02
1.60445580e-02
2.29982035e-02
0.00000000e+00
0.00000000e+00
0.00000000e+00
0.00000000e+00
1.75980655e-02
1.77444518e-02
1.93724351e-02
1.80901326e-02
1.95519160e-02
2.11266063e-02
2.02437555e-02
2.21449777e-02
1.98014062e-02
2.32738815e-02
1.70240754e-02
2.07499971e-02
1.57802314e-02
1.86902168e-02
2.21795274e-02
2.08165147e-02
2.12158939e-02
3.09325639e-02
2.93349968e-02
2.55752970e-02
2.26496132e-02
2.15949503e-02
1.78650920e-02
3.47901047e-02
1.27837940e-02
1.33134522e-02
1.87968924e-02
1.22455340e-02
1.17953897e-02
1.90866228e-02
2.39908341e-02
3.43611737e-02
1.86295861e-02
1.52032566e-02
</DataArray>
<DataArray type="Float32" Name="Plastic_strain_Min_Principal" format="ascii">
-2.97566243e-02
-3.15417647e-02
-2.94174310e-02
-2.78684003e-02
-2.85861380e-02
-3.00752646e-02
-2.84535640e-02
-2.74467980e-02
-3.61418147e-02
-3.28265820e-02
-3.32070924e-02
-3.20917945e-02
-4.17628009e-02
-3.71869439e-02
-3.77120655e-02
-3.61204450e-02
-4.71837297e-02
-4.24035108e-02
-4.25923057e-02
-3.88650908e-02
-5.37850056e-02
-4.76587508e-02
-4.63885432e-02
-4.27686418e-02
-6.01185262e-02
-5.20050935e-02
-5.08575235e-02
-4.75990083e-02
-2.37149508e-02
-2.35364316e-02
-2.41438344e-02
-2.28189672e-02
-2.28022360e-02
-2.47546437e-02
-1.98512319e-02
-2.60327168e-02
-2.08760635e-02
-2.84260859e-02
-1.53441397e-02
-3.05345760e-02
-2.41555702e-02
-3.40368276e-02
-1.76516995e-02
-1.89909600e-02
-1.84653986e-02
-1.78898619e-02
-1.24500636e-02
-1.50511221e-02
-5.23012190e-03
-6.59808388e-03
-4.25122903e-03
-8.15209537e-03
-4.59638098e-03
-8.32493464e-03
-4.87962412e-03
-8.14635912e-03
-1.50004451e-02
-1.68816736e-02
-1.43863603e-02
-1.58156268e-02
-9.22781485e-03
-9.28393251e-03
-2.44681092e-03
-3.85009953e-03
-5.04499044e-04
-8.80285190e-04
-3.45198927e-03
-1.09404269e-03
-3.16036399e-03
-1.22224596e-03
-1.58535556e-02
-1.82854608e-02
-1.45030776e-02
-1.63069698e-02
-9.51988564e-03
-1.07038333e-02
-1.70951267e-03
-6.65925938e-03
-2.08434094e-04
-2.26664507e-04
-1.92595148e-06
-6.21491745e-07
0.00000000e+00
0.00000000e+00
-1.82821024e-02
-2.08164025e-02
-1.74412006e-02
-1.86118875e-02
-1.23800994e-02
-1.50198778e-02
-2.49041501e-03
-1.12042320e-02
-3.47754041e-04
-1.07272016e-03
-8.37282823e-06
-2.25121191e-06
0.00000000e+00
0.00000000e+00
-2.78809285e-02
-2.81396108e-02
-2.68275994e-02
-2.66400948e-02
-2.86563318e-02
-2.89440064e-02
-3.03741549e-02
-3.27367464e-02
-3.27392849e-02
-3.57760019e-02
-3.32936677e-02
-3.69185871e-02
-3.30914091e-02
-3.64594627e-02
-2.43490441e-02
-2.33596633e-02
-3.07476313e-02
-4.11085777e-02
-4.45518484e-02
-4.67703855e-02
-4.72716391e-02
-1.89162383e-02
-1.82707685e-02
-2.46976425e-02
-1.96393523e-02
-1.44251257e-02
-1.39188818e-02
-1.19656038e-02
-8.27750331e-03
-1.40497382e-02
-1.27415964e-02
-1.63383234e-02
-2.43613189e-02
-1.60521585e-02
-1.51736406e-02
-2.33497731e-02
-3.70585034e-02
0.00000000e+00
0.00000000e+00
0.00000000e+00
0.00000000e+00
-2.89689181e-02
-2.85744444e-02
-2.83605391e-02
-2.86260699e-02
-2.74286377e-02
-2.86915919e-02
-2.65013985e-02
-2.99562418e-02
-2.54833773e-02
-3.22620282e-02
-2.36138389e-02
-3.04351689e-02
-2.13363534e-02
-2.73815305e-02
-2.82659312e-02
-2.65966072e-02
-3.34834653e-02
-4.65395540e-02
-4.46852883e-02
-4.08223020e-02
-3.70922741e-02
-2.65167614e-02
-2.15174435e-02
-4.75651780e-02
-1.77569566e-02
-1.62803002e-02
-2.71794866e-02
-1.52550008e-02
-1.60562103e-02
-2.65888793e-02
-2.84142829e-02
-4.61968655e-02
-2.50010563e-02
-2.08137296e-02
</DataArray>
</PointData>
<Cells>
<DataArray type="Int32" Name="connectivity" format="ascii">
0 1 2 3 4 5 6 7
1 8 9 2 5 10 11 6
8 12 13 9 10 14 15 11
12 16 17 13 14 18 19 15
16 20 21 17 18 22 23 19
20 24 25 21 22 26 27 23
3 2 28 29 7 6 30 31
2 9 32 28 6 11 33 30
9 13 34 32 11 15 35 33
13 17 36 34 15 19 37 35
17 21 38 36 19 23 39 37
21 25 40 38 23 27 41 39
29 28 42 43 31 30 44 45
28 32 46 42 30 33 47 44
32 34 48 46 33 35 49 47
34 36 50 48 35 37 51 49
36 38 52 50 37 39 53 51
38 40 54 52 39 41 55 53
43 42 56 57 45 44 58 59
42 46 60 56 44 47 61 58
46 48 62 60 47 49 63 61
48 50 64 62 49 51 65 63
52 54 66 67 53 55 68 69
57 56 70 71 59 58 72 73
56 60 74 70 58 61 75 72
60 62 76 74 61 63 77 75
62 64 78 76 63 65 79 77
64 67 80 78 65 69 81 79
67 66 82 80 69 68 83 81
71 70 84 85 73 72 86 87
70 74 88 84 72 75 89 86
74 76 90 88 75 77 91 89
76 78 92 90 77 79 93 91
78 80 94 92 79 81 95 93
80 82 96 94 81 83 97 95
4 5 6 7 98 99 100 101
5 10 11 6 99 102 103 100
10 14 15 11 102 104 105 103
14 18 19 15 104 106 107 105
18 22 23 19 106 108 109 107
22 26 27 23 108 110 111 109
7 6 30 31 101 100 112 113
6 11 33 30 100 103 114 112
11 15 35 33 103 105 115 114
15 19 37 35 105 107 116 115
19 23 39 37 107 109 117 116
23 27 41 39 109 111 118 117
31 30 44 45 113 112 119 120
30 33 47 44 112 114 121 119
33 35 49 47 114 115 122 121
45 44 58 59 120 119 123 124
44 47 61 58 119 121 125 123
47 49 63 61 121 122 126 125
59 58 72 73 124 123 127 128
58 61 75 72 123 125 129 127
61 63 77 75 125 126 130 129
73 72 86 87 128 127 131 132
72 75 89 86 127 129 133 131
75 77 91 89 129 130 134 133
81 83 97 95 135 136 137 138
98 99 100 101 139 140 141 142
99 102 103 100 140 143 144 141
102 104 105 103 143 145 146 144
104 106 107 105 145 147 148 146
106 108 109 107 147 149 150 148
108 110 111 109 149 151 152 150
101 100 112 113 142 141 153 154
100 103 114 112 141 144 155 153
103 105 115 114 144 146 156 155
105 107 116 115 146 148 157 156
107 109 117 116 148 150 158 157
109 111 118 117 150 152 159 158
113 112 119 120 154 153 160 161
112 114 121 119 153 155 162 160
120 119 123 124 161 160 163 164
119 121 125 123 160 162 165 163
124 123 127 128 164 163 166 167
123 125 129 127 163 165 168 166
125 126 130 129 165 169 170 168
128 127 131 132 167 166 171 172
</DataArray>
<DataArray type="Int32" Name="offsets" format="ascii">
8
16
24
32
40
48
56
64
72
80
88
96
104
112
120
128
136
144
152
160
168
176
184
192
200
208
216
224
232
240
248
256
264
272
280
288
296
304
312
320
328
336
344
352
360
368
376
384
392
400
408
416
424
432
440
448
456
464
472
480
488
496
504
512
520
528
536
544
552
560
568
576
584
592
600
608
616
624
632
640
</DataArray>
<DataArray type="UInt8" Name="types" format="ascii">
12
12
12
12
12
12
12
12
12
12
12
12
12
12
12
12
12
12
12
12
12
12
12
12
12
12
12
12
12
12
12
12
12
12
12
12
12
12
12
12
12
12
12
12
12
12
12
12
12
12
12
12
12
12
12
12
12
12
12
12
12
12
12
12
12
12
12
12
12
12
12
12
12
12
12
12
12
12
12
12
</DataArray>
</Cells>
</Piece>
</UnstructuredGrid>
</VTKFile>
