<VTKFile type="UnstructuredGrid" version="0.1" byte_order="LittleEndian">
<UnstructuredGrid>
<Piece NumberOfPoints="173" NumberOfCells="80">
<Points>
<DataArray type="Float64" NumberOfComponents="3" format="ascii">
 0.00000000e+00  0.00000000e+00  0.00000000e+00
 1.00056934e+00  0.00000000e+00  0.00000000e+00
 1.00068867e+00  1.00209129e+00  0.00000000e+00
 0.00000000e+00  1.00194347e+00  0.00000000e+00
 0.00000000e+00  0.00000000e+00  9.97538745e-01
 1.00061119e+00  0.00000000e+00  9.97326672e-01
 1.00061512e+00  1.00182855e+00  9.97570872e-01
 0.00000000e+00  1.00180244e+00  9.97742355e-01
 2.00133419e+00  0.00000000e+00  0.00000000e+00
 2.00143600e+00  1.00245500e+00  0.00000000e+00
 2.00139356e+00  0.00000000e+00  9.96756434e-01
 2.00142932e+00  1.00197268e+00  9.97303009e-01
 3.00232840e+00  0.00000000e+00  0.00000000e+00
 3.00229001e+00  1.00284505e+00  0.00000000e+00
 3.00251389e+00  0.00000000e+00  9.96258557e-01
 3.00243354e+00  1.00215673e+00  9.96869743e-01
 4.00366879e+00  0.00000000e+00  0.00000000e+00
 4.00339746e+00  1.00314939e+00  0.00000000e+00
 4.00396013e+00  0.00000000e+00  9.95950520e-01
 4.00369167e+00  1.00224841e+00  9.96161520e-01
 5.00570631e+00  0.00000000e+00  0.00000000e+00
 5.00498867e+00  1.00357282e+00  0.00000000e+00
 5.00579882e+00  0.00000000e+00  9.95115519e-01
 5.00537157e+00  1.00241911e+00  9.95473146e-01
 6.00838423e+00  0.00000000e+00  0.00000000e+00
 6.00685167e+00  1.00493371e+00  0.00000000e+00
 6.00767899e+00  0.00000000e+00  9.94576037e-01
 6.00746965e+00  1.00311828e+00  9.94677544e-01
 1.00083363e+00  2.00337768e+00  0.00000000e+00
 0.00000000e+00  2.00324631e+00  0.00000000e+00
 1.00069296e+00  2.00323558e+00  9.98290241e-01
 0.00000000e+00  2.00316262e+00  9.98198032e-01
 2.00158906e+00  2.00368476e+00  0.00000000e+00
 2.00143766e+00  2.00352764e+00  9.98468518e-01
 3.00224924e+00  2.00411677e+00  0.00000000e+00
 3.00210190e+00  2.00377774e+00  9.98769701e-01
 4.00286961e+00  2.00471377e+00  0.00000000e+00
 4.00305319e+00  2.00393987e+00  9.98549640e-01
 5.00355768e+00  2.00530005e+00  0.00000000e+00
 5.00395679e+00  2.00446296e+00  9.98592317e-01
 6.00414276e+00  2.00667620e+00  0.00000000e+00
 6.00512552e+00  2.00578499e+00  9.98357296e-01
 1.00085664e+00  3.00391316e+00  0.00000000e+00
 0.00000000e+00  3.00386524e+00  0.00000000e+00
 1.00071776e+00  3.00392747e+00  9.98864710e-01
 0.00000000e+00  3.00390601e+00  9.98626113e-01
 2.00152802e+00  3.00404406e+00  0.00000000e+00
 2.00137329e+00  3.00403523e+00  9.99212325e-01
 3.00196600e+00  3.00427461e+00  0.00000000e+00
 3.00174379e+00  3.00419950e+00  9.99772847e-01
 4.00214767e+00  3.00470161e+00  0.00000000e+00
 4.00199890e+00  3.00433612e+00  1.00020611e+00
 5.00261831e+00  3.00524783e+00  0.00000000e+00
 5.00259161e+00  3.00482750e+00  1.00024605e+00
 6.00263453e+00  3.00632048e+00  0.00000000e+00
 6.00273323e+00  3.00616097e+00  1.00007463e+00
 1.00078714e+00  4.00412941e+00  0.00000000e+00
 0.00000000e+00  4.00415564e+00  0.00000000e+00
 1.00067198e+00  4.00421810e+00  9.98997450e-01
 0.00000000e+00  4.00422382e+00  9.98843670e-01
 2.00134754e+00  4.00415802e+00  0.00000000e+00
 2.00118279e+00  4.00415039e+00  9.99337792e-01
 3.00159311e+00  4.00429487e+00  0.00000000e+00
 3.00136924e+00  4.00426626e+00  9.99810696e-01
 4.00158072e+00  4.00464296e+00  0.00000000e+00
 4.00152826e+00  4.00468969e+00  1.00003672e+00
 6.00169802e+00  4.00586033e+00  0.00000000e+00
 5.00170851e+00  4.00515270e+00  0.00000000e+00
 6.00173473e+00  4.00591373e+00  1.00000048e+00
 5.00170755e+00  4.00521469e+00  1.00004876e+00
 1.00070393e+00  5.00437593e+00  0.00000000e+00
 0.00000000e+00  5.00444651e+00  0.00000000e+00
 1.00060284e+00  5.00442314e+00  9.98938978e-01
 0.00000000e+00  5.00448322e+00  9.98729110e-01
 2.00115776e+00  5.00429106e+00  0.00000000e+00
 2.00098324e+00  5.00432444e+00  9.99285400e-01
 3.00128746e+00  5.00438452e+00  0.00000000e+00
 3.00113273e+00  5.00439024e+00  9.99733090e-01
 4.00126982e+00  5.00468302e+00  0.00000000e+00
 4.00119638e+00  5.00468683e+00  1.00003159e+00
 5.00117397e+00  5.00519180e+00  0.00000000e+00
 5.00119877e+00  5.00519562e+00  1.00000167e+00
 6.00119495e+00  5.00573921e+00  0.00000000e+00
 6.00120211e+00  5.00571871e+00  9.99985993e-01
 1.00079131e+00  6.00475931e+00  0.00000000e+00
 0.00000000e+00  6.00489140e+00  0.00000000e+00
 1.00061738e+00  6.00476503e+00  9.98818099e-01
 0.00000000e+00  6.00491047e+00  9.98554230e-01
 2.00115085e+00  6.00448751e+00  0.00000000e+00
 2.00096989e+00  6.00456333e+00  9.99167383e-01
 3.00111938e+00  6.00445080e+00  0.00000000e+00
 3.00101566e+00  6.00453091e+00  9.99638796e-01
 4.00092125e+00  6.00474310e+00  0.00000000e+00
 4.00083351e+00  6.00473785e+00  1.00004983e+00
 5.00075197e+00  6.00519228e+00  0.00000000e+00
 5.00074959e+00  6.00519943e+00  1.00002003e+00
 6.00070906e+00  6.00570297e+00  0.00000000e+00
 6.00072193e+00  6.00568628e+00  1.00001264e+00
 0.00000000e+00  0.00000000e+00  1.99522913e+00
 1.00079334e+00  0.00000000e+00  1.99500716e+00
 1.00067365e+00  1.00137985e+00  1.99536169e+00
 0.00000000e+00  1.00149095e+00  1.99560714e+00
 2.00180817e+00  0.00000000e+00  1.99454021e+00
 2.00153446e+00  1.00107622e+00  1.99446547e+00
 3.00299644e+00  0.00000000e+00  1.99361777e+00
 3.00298476e+00  1.00097370e+00  1.99374449e+00
 4.00462580e+00  0.00000000e+00  1.99235952e+00
 4.00449562e+00  1.00110960e+00  1.99348903e+00
 5.00620842e+00  0.00000000e+00  1.99135435e+00
 5.00616026e+00  1.00116086e+00  1.99251044e+00
 6.00739002e+00  0.00000000e+00  1.99080563e+00
 6.00776339e+00  1.00106955e+00  1.99174201e+00
 1.00037324e+00  2.00280166e+00  1.99621975e+00
 0.00000000e+00  2.00287080e+00  1.99663913e+00
 2.00126624e+00  2.00266242e+00  1.99621069e+00
 3.00256562e+00  2.00291109e+00  1.99598920e+00
 4.00427961e+00  2.00322556e+00  1.99442625e+00
 5.00612020e+00  2.00330782e+00  1.99419188e+00
 6.00832605e+00  2.00314903e+00  1.99316287e+00
 1.00034690e+00  3.00398493e+00  1.99737203e+00
 0.00000000e+00  3.00387335e+00  1.99764442e+00
 2.00080538e+00  3.00397897e+00  1.99843287e+00
 3.00068974e+00  3.00401354e+00  2.00017428e+00
 1.00044513e+00  4.00442839e+00  1.99810839e+00
 0.00000000e+00  4.00441647e+00  1.99791586e+00
 2.00076485e+00  4.00434160e+00  1.99881685e+00
 3.00086761e+00  4.00413179e+00  1.99948311e+00
 1.00032401e+00  5.00462961e+00  1.99800074e+00
 0.00000000e+00  5.00469828e+00  1.99776793e+00
 2.00068879e+00  5.00450134e+00  1.99862337e+00
 3.00106382e+00  5.00435925e+00  1.99888647e+00
 1.00016391e+00  6.00500727e+00  1.99756515e+00
 0.00000000e+00  6.00485182e+00  1.99767351e+00
 2.00053287e+00  6.00509024e+00  1.99800050e+00
 3.00107837e+00  6.00490093e+00  1.99836791e+00
 5.00123167e+00  5.00517082e+00  2.00000072e+00
 6.00123167e+00  5.00564957e+00  1.99997056e+00
 6.00074768e+00  6.00565767e+00  2.00001907e+00
 5.00073671e+00  6.00517464e+00  2.00003719e+00
 0.00000000e+00  0.00000000e+00  2.99296904e+00
 1.00116086e+00  0.00000000e+00  2.99270535e+00
 1.00109172e+00  1.00113380e+00  2.99323893e+00
 0.00000000e+00  1.00118184e+00  2.99348021e+00
 2.00250888e+00  0.00000000e+00  2.99195004e+00
 2.00222158e+00  1.00080991e+00  2.99268031e+00
 3.00387430e+00  0.00000000e+00  2.99122047e+00
 3.00385761e+00  1.00055432e+00  2.99148655e+00
 4.00544214e+00  0.00000000e+00  2.99049687e+00
 4.00543213e+00  1.00062120e+00  2.99019265e+00
 5.00672007e+00  0.00000000e+00  2.98961329e+00
 5.00685596e+00  1.00073147e+00  2.98969316e+00
 6.00762272e+00  0.00000000e+00  2.98919296e+00
 6.00792599e+00  1.00049281e+00  2.98938322e+00
 1.00061810e+00  2.00217128e+00  2.99439073e+00
 0.00000000e+00  2.00259495e+00  2.99465108e+00
 2.00183916e+00  2.00197816e+00  2.99237490e+00
 3.00332880e+00  2.00221062e+00  2.99052310e+00
 4.00564480e+00  2.00265479e+00  2.99080229e+00
 5.00725460e+00  2.00211453e+00  2.99008012e+00
 6.00850773e+00  2.00158858e+00  2.99000406e+00
 1.00028455e+00  3.00372767e+00  2.99649692e+00
 0.00000000e+00  3.00382900e+00  2.99575591e+00
 2.00161958e+00  3.00344062e+00  2.99447751e+00
 1.00020015e+00  4.00460672e+00  2.99735355e+00
 0.00000000e+00  4.00478458e+00  2.99693418e+00
 2.00054312e+00  4.00469542e+00  2.99849868e+00
 1.00024068e+00  5.00512409e+00  2.99715161e+00
 0.00000000e+00  5.00491047e+00  2.99727249e+00
 2.00055695e+00  5.00526285e+00  2.99725342e+00
 3.00029755e+00  4.00487041e+00  2.99975300e+00
 3.00141335e+00  5.00467348e+00  2.99771929e+00
 1.00007892e+00  6.00522757e+00  2.99699044e+00
 0.00000000e+00  6.00526333e+00  2.99661040e+00
</DataArray>
</Points>
<PointData Tensors="Stress_Components,Plastic_strain_components" Vevtors="Spatial_displacement,Reaction_force" Scalars="Equivalent_plastic_strain,Stress_Mises,Stress_Max_Principal,Stress_Mid_Principal,Stress_Min_Principal,Stress_Pressure,Stress_Tresca,Stress_Third_Invariant,Plastic_strain_Max_Principal,Plastic_strain_Min_Principal">
<DataArray type="Float32" Name="Stress_Components" NumberOfComponents="9" format="ascii">
-4.78936768e+00 2.68630683e-04 1.13360817e-03 2.68630683e-04 6.08573437e+00 3.43388319e-03 1.13360817e-03 3.43388319e-03 -2.64158211e+01
-5.12189841e+00 4.43860367e-01 -2.18822621e-04 4.43860367e-01 5.42655873e+00 2.18838662e-01 -2.18822621e-04 2.18838662e-01 -2.76843290e+01
-3.25544402e+00 1.60500666e+00 -1.03435762e+00 1.60500666e+00 4.60928583e+00 -2.55954131e-01 -1.03435762e+00 -2.55954131e-01 -2.70853601e+01
-3.16462326e+00 6.41294241e-01 -5.80297917e-01 6.41294241e-01 5.00898552e+00 -1.59953907e-03 -5.80297917e-01 -1.59953907e-03 -2.66687298e+01
-4.01141191e+00 -8.78379215e-04 8.22186232e-01 -8.78379215e-04 5.71241093e+00 -7.53158957e-01 8.22186232e-01 -7.53158957e-01 -2.63511925e+01
-3.92841518e+00 2.77889660e-04 7.58689597e-01 2.77889660e-04 5.08607423e+00 -9.52220546e-01 7.58689597e-01 -9.52220546e-01 -2.71866493e+01
-3.17730592e+00 5.40372917e-01 4.13623240e-01 5.40372917e-01 4.60960948e+00 -1.01793854e+00 4.13623240e-01 -1.01793854e+00 -2.71944847e+01
-3.33082086e+00 1.12065401e-01 4.57315668e-01 1.12065401e-01 5.27191782e+00 -8.90110925e-01 4.57315668e-01 -8.90110925e-01 -2.64231768e+01
-6.10072351e+00 2.90030926e-01 1.49151357e-03 2.90030926e-01 3.98458111e+00 2.20456153e-01 1.49151357e-03 2.20456153e-01 -3.06640539e+01
-3.31267327e+00 1.87627745e+00 -1.76307905e+00 1.87627745e+00 4.08244950e+00 5.88896051e-02 -1.76307905e+00 5.88896051e-02 -2.76740856e+01
-3.90065408e+00 1.62733266e-01 1.62147412e+00 1.62733266e-01 3.83392203e+00 -9.39311761e-01 1.62147412e+00 -9.39311761e-01 -2.89635625e+01
-3.39626007e+00 7.45765939e-01 3.65996985e-01 7.45765939e-01 3.15789357e+00 -1.14468113e+00 3.65996985e-01 -1.14468113e+00 -2.94917817e+01
-6.74763370e+00 -1.45950072e-01 2.80412962e-03 -1.45950072e-01 2.77377760e+00 5.27316809e-01 2.80412962e-03 5.27316809e-01 -3.29191494e+01
-3.48898204e+00 8.40371266e-01 -2.19462258e+00 8.40371266e-01 3.17052776e+00 5.12951501e-01 -2.19462258e+00 5.12951501e-01 -2.92107768e+01
-3.79364175e+00 -2.86589976e-01 1.64254603e+00 -2.86589976e-01 2.24180970e+00 -1.61807226e-01 1.64254603e+00 -1.61807226e-01 -3.11533971e+01
-3.43550414e+00 -1.81246966e-01 7.93396845e-01 -1.81246966e-01 2.00781883e+00 -5.99954445e-01 7.93396845e-01 -5.99954445e-01 -3.08881037e+01
-5.60369349e+00 -7.86813647e-01 1.41675082e-03 -7.86813647e-01 1.81708455e+00 7.05632329e-01 1.41675082e-03 7.05632329e-01 -3.32090731e+01
-3.95512564e+00 -4.23192076e-01 -2.35981566e+00 -4.23192076e-01 1.65961935e+00 7.89765388e-01 -2.35981566e+00 7.89765388e-01 -3.16526809e+01
-2.91534308e+00 -8.51857796e-01 4.16737847e-01 -8.51857796e-01 8.55817374e-01 -1.82460080e-01 4.16737847e-01 -1.82460080e-01 -3.21536789e+01
-2.59829915e+00 -1.19915768e+00 5.58146641e-01 -1.19915768e+00 1.19440964e+00 -2.34771520e-01 5.58146641e-01 -2.34771520e-01 -3.07721000e+01
-3.72531167e+00 -1.63998652e+00 3.31111951e-03 -1.63998652e+00 1.67391233e+00 9.57227275e-02 3.31111951e-03 9.57227275e-02 -3.17595711e+01
-2.89636101e+00 -8.78334910e-01 -2.64834905e+00 -8.78334910e-01 1.15953493e+00 8.87117133e-01 -2.64834905e+00 8.87117133e-01 -3.11872792e+01
-1.41260135e+00 -1.11295426e+00 7.82311395e-01 -1.11295426e+00 1.74484623e+00 -1.12740089e+00 7.82311395e-01 -1.12740089e+00 -2.94898324e+01
-1.83447580e+00 -1.80038719e+00 1.36881550e+00 -1.80038719e+00 5.02483703e-01 -2.95289301e-01 1.36881550e+00 -2.95289301e-01 -3.05583932e+01
-6.29562521e+00 -2.77039146e+00 6.91715628e-04 -2.77039146e+00 2.26595783e+00 -1.20875239e+00 6.91715628e-04 -1.20875239e+00 -3.29553642e+01
-5.00495172e+00 -1.74051385e+00 -3.79683757e+00 -1.74051385e+00 1.25713706e-01 1.43461496e+00 -3.79683757e+00 1.43461496e+00 -3.36707935e+01
-2.68180811e+00 -3.86099011e-01 1.47299938e-01 -3.86099011e-01 3.38015723e+00 -2.12332100e+00 1.47299938e-01 -2.12332100e+00 -2.87509537e+01
-3.36036274e+00 -1.78282571e+00 1.19926095e-01 -1.78282571e+00 8.69827319e-01 -7.08263185e-01 1.19926095e-01 -7.08263185e-01 -3.14462795e+01
1.34998610e+00 1.79810262e+00 -8.30834433e-01 1.79810262e+00 2.57653117e+00 -7.58681133e-01 -8.30834433e-01 -7.58681133e-01 -2.52068343e+01
7.44292676e-01 7.83408552e-01 -5.13736740e-01 7.83408552e-01 2.14512707e+00 8.77948944e-04 -5.13736740e-01 8.77948944e-04 -2.66125593e+01
-4.24484693e-01 1.30894193e+00 1.74992675e+00 1.30894193e+00 3.01271215e+00 -6.78258150e-01 1.74992675e+00 -6.78258150e-01 -2.65137446e+01
-3.96211907e-01 4.82770361e-01 1.32405509e+00 4.82770361e-01 3.65807804e+00 2.19541021e-01 1.32405509e+00 2.19541021e-01 -2.60434117e+01
2.58677167e+00 2.57148272e+00 -1.01961339e+00 2.57148272e+00 3.39853409e+00 -8.24626490e-01 -1.01961339e+00 -8.24626490e-01 -2.27225885e+01
4.35749650e-01 1.34798156e+00 2.17285743e+00 1.34798156e+00 3.31546335e+00 3.01663900e-01 2.17285743e+00 3.01663900e-01 -2.50836256e+01
4.60836986e+00 1.96662867e+00 -2.21646690e+00 1.96662867e+00 4.86308370e+00 -4.79861885e-01 -2.21646690e+00 -4.79861885e-01 -1.88339615e+01
1.13216036e+00 -4.21941322e-01 4.09413797e+00 -4.21941322e-01 3.39437485e+00 6.75951251e-01 4.09413797e+00 6.75951251e-01 -2.40484170e+01
5.33640208e+00 -4.75805499e-01 -3.40144527e+00 -4.75805499e-01 6.38904598e+00 1.39515327e+00 -3.40144527e+00 1.39515327e+00 -1.63827338e+01
1.26942148e-01 -2.15477719e+00 4.58121494e+00 -2.15477719e+00 3.27825763e+00 1.67389472e+00 4.58121494e+00 1.67389472e+00 -2.47785891e+01
6.23775318e+00 -1.04148531e+00 -3.53300649e+00 -1.04148531e+00 5.44074893e+00 2.17610946e+00 -3.53300649e+00 2.17610946e+00 -1.71823244e+01
-4.64650015e-01 -2.35718531e+00 5.23934424e+00 -2.35718531e+00 1.69505250e+00 3.62590750e+00 5.23934424e+00 3.62590750e+00 -2.54429447e+01
3.91322780e+00 -2.36892870e+00 -4.13565290e+00 -2.36892870e+00 2.19712710e+00 5.10973108e+00 -4.13565290e+00 5.10973108e+00 -2.01942620e+01
-2.78796411e+00 -4.53163735e+00 5.05392917e+00 -4.53163735e+00 -8.98965677e-01 5.46484613e+00 5.05392917e+00 5.46484613e+00 -2.94627520e+01
5.58166254e+00 7.23844675e-01 4.43979390e-02 7.23844675e-01 -6.34963021e-01 -1.10032502e+00 4.43979390e-02 -1.10032502e+00 -2.38169546e+01
4.53095496e+00 4.42086786e-01 2.45652005e-01 4.42086786e-01 -1.25535923e+00 1.30011784e-02 2.45652005e-01 1.30011784e-02 -2.58406839e+01
3.55216804e+00 5.98559714e-01 2.70539506e+00 5.98559714e-01 6.02006428e-01 2.15865374e-01 2.70539506e+00 2.15865374e-01 -2.48105829e+01
3.65785214e+00 2.30984185e-01 2.40785971e+00 2.30984185e-01 5.65215588e-01 1.68073776e+00 2.40785971e+00 1.68073776e+00 -2.47925105e+01
7.22897220e+00 9.94912051e-01 -3.73760073e-02 9.94912051e-01 1.01956508e+00 -1.50687891e+00 -3.73760073e-02 -1.50687891e+00 -2.04780154e+01
6.58953243e+00 3.52654834e-01 3.69398360e+00 3.52654834e-01 2.77937183e+00 1.29621389e+00 3.69398360e+00 1.29621389e+00 -2.00302322e+01
1.20998249e+01 4.25849736e-01 -1.00539564e+00 4.25849736e-01 3.52859789e+00 -3.94259453e+00 -1.00539564e+00 -3.94259453e+00 -1.21343649e+01
6.71139781e+00 -3.76145848e+00 5.02109578e+00 -3.76145848e+00 2.63012564e+00 7.63894240e-01 5.02109578e+00 7.63894240e-01 -7.30280058e+00
1.44732469e+01 -5.49000716e+00 -6.00697215e+00 -5.49000716e+00 8.65750273e-01 -2.21900662e+00 -6.00697215e+00 -2.21900662e+00 1.49946888e+00
3.86498237e+00 -6.86880223e+00 4.93056965e+00 -6.86880223e+00 6.27516882e+00 2.72110519e+00 4.93056965e+00 2.72110519e+00 1.71977172e-01
6.09594836e+00 6.00278775e-01 -7.83092038e+00 6.00278775e-01 -3.10267452e+00 8.13965102e-02 -7.83092038e+00 8.13965102e-02 2.82295307e+00
9.16881005e-01 4.43736712e-02 6.84598414e+00 4.43736712e-02 4.66164962e+00 -2.32302901e+00 6.84598414e+00 -2.32302901e+00 -2.99392165e+00
1.02892401e+01 -5.65074480e+00 -2.33922833e+00 -5.65074480e+00 -1.17471805e+01 4.14539492e+00 -2.33922833e+00 4.14539492e+00 1.28601122e+00
-6.09784126e-02 -1.78730607e+00 5.57411170e+00 -1.78730607e+00 -4.29567102e+00 -1.17271519e+00 5.57411170e+00 -1.17271519e+00 -2.49154472e+00
5.98256123e+00 -5.49436551e-01 8.05370107e-01 -5.49436551e-01 -2.43585536e+00 -1.11248755e+00 8.05370107e-01 -1.11248755e+00 -2.47700467e+01
5.47154951e+00 -1.55136123e-01 5.35383523e-01 -1.55136123e-01 -2.95202386e+00 5.18477522e-03 5.35383523e-01 5.18477522e-03 -2.60211096e+01
5.51867455e+00 -8.12727194e-01 1.88490332e+00 -8.12727194e-01 -1.38456140e+00 7.18458097e-01 1.88490332e+00 7.18458097e-01 -2.43882854e+01
5.18220031e+00 -1.83433290e-02 1.55508408e+00 -1.83433290e-02 -1.94861385e+00 1.43100762e+00 1.55508408e+00 1.43100762e+00 -2.51317325e+01
7.26831496e+00 -1.11668491e+00 -9.71756000e-02 -1.11668491e+00 1.31175578e-01 -2.19063914e+00 -9.71756000e-02 -2.19063914e+00 -2.17981730e+01
6.28782684e+00 -2.19615536e+00 2.09980610e+00 -2.19615536e+00 8.39662805e-01 1.66898419e+00 2.09980610e+00 1.66898419e+00 -2.08359741e+01
5.82767317e+00 -2.12772468e+00 -6.12298056e-01 -2.12772468e+00 2.83110270e+00 -4.86373043e+00 -6.12298056e-01 -4.86373043e+00 -8.62113675e+00
6.88613967e+00 -2.02974453e+00 -1.86748511e+00 -2.02974453e+00 3.29984838e+00 1.94425766e+00 -1.86748511e+00 1.94425766e+00 -1.28271907e+01
3.21254083e+00 1.22795641e-01 9.71990546e-01 1.22795641e-01 2.08604840e+00 -1.08451839e+00 9.71990546e-01 -1.08451839e+00 3.30866985e+00
5.35716931e+00 1.64371320e+00 -2.73237765e-01 1.64371320e+00 3.27874293e+00 2.13898923e+00 -2.73237765e-01 2.13898923e+00 -2.86480387e-02
3.45573424e+00 -2.47272730e-01 1.10936350e+00 -2.47272730e-01 -8.22287869e+00 7.67484546e-01 1.10936350e+00 7.67484546e-01 3.89338863e+00
1.10688345e+00 -3.69414508e-01 1.29277893e+00 -3.69414508e-01 -6.16322438e-01 -1.58749620e-02 1.29277893e+00 -1.58749620e-02 1.64107364e+00
3.53709048e+00 -1.37957537e+00 1.85035542e-01 -1.37957537e+00 -6.81735086e+00 -2.39212811e-01 1.85035542e-01 -2.39212811e-01 2.40652061e+00
5.84410350e-01 1.50878241e-01 -7.32193997e-01 1.50878241e-01 2.18459729e+00 -6.02064366e-01 -7.32193997e-01 -6.02064366e-01 -6.37370497e-01
3.54564528e+00 -6.69901304e-01 4.24479604e-01 -6.69901304e-01 -1.46441874e+00 -1.04717389e+00 4.24479604e-01 -1.04717389e+00 -2.72088842e+01
3.75590122e+00 -6.24669999e-01 2.30654344e-01 -6.24669999e-01 -1.85565573e+00 7.71471113e-03 2.30654344e-01 7.71471113e-03 -2.74121513e+01
3.40149049e+00 -1.13745241e+00 4.24714315e-01 -1.13745241e+00 -1.08455647e+00 1.02349770e+00 4.24714315e-01 1.02349770e+00 -2.68248765e+01
3.36105606e+00 -5.76168835e-01 -2.11885989e-01 -5.76168835e-01 -1.51459859e+00 2.11031818e+00 -2.11885989e-01 2.11031818e+00 -2.72405572e+01
3.76121444e+00 -1.14135402e+00 4.94394563e-01 -1.14135402e+00 6.13114059e-01 -2.62013823e+00 4.94394563e-01 -2.62013823e+00 -2.62864380e+01
2.45641464e+00 -1.75833181e+00 3.24554371e-01 -1.75833181e+00 1.10664495e+00 2.52803641e+00 3.24554371e-01 2.52803641e+00 -2.59101541e+01
4.41252142e-01 -8.78095459e-01 1.34038473e-01 -8.78095459e-01 1.34306729e+00 -3.32593870e+00 1.34038473e-01 -3.32593870e+00 -1.38215427e+01
1.08549504e+00 -4.79012201e-01 -1.71307820e+00 -4.79012201e-01 1.66888088e+00 5.01175702e+00 -1.71307820e+00 5.01175702e+00 -1.93722860e+01
-3.13560274e+00 1.54206710e+00 7.54639432e-02 1.54206710e+00 1.32524115e+00 -1.53181317e+00 7.54639432e-02 -1.53181317e+00 5.47588453e-01
-2.76019484e-01 1.15138692e+00 2.13821757e-01 1.15138692e+00 -6.49012164e-01 1.26558280e+00 2.13821757e-01 1.26558280e+00 -3.37746426e-01
-1.41455245e+00 1.03746167e+00 7.89752826e-02 1.03746167e+00 9.78599660e-01 5.20508960e-01 7.89752826e-02 5.20508960e-01 2.13567898e-01
5.37581056e-02 9.20129561e-01 -2.02548769e-01 9.20129561e-01 -2.90833911e-01 1.06653908e-01 -2.02548769e-01 1.06653908e-01 -2.99772561e-02
8.07486087e-01 1.10804448e+00 -4.31245655e-01 1.10804448e+00 -3.34274220e+00 1.56050079e-01 -4.31245655e-01 1.56050079e-01 -6.51236624e-01
7.43553554e-01 5.28181846e-01 -4.96299361e-01 5.28181846e-01 -3.01050234e+00 -1.96602941e-02 -4.96299361e-01 -1.96602941e-02 -5.97061217e-03
1.99705330e+00 -1.17784938e+00 1.31470300e-02 -1.17784938e+00 -1.15977523e+00 -1.77985460e+00 1.31470300e-02 -1.77985460e+00 -2.85214329e+01
3.29129314e+00 -1.07369328e+00 5.97734489e-02 -1.07369328e+00 -2.13263631e+00 1.36566758e-02 5.97734489e-02 1.36566758e-02 -2.82866459e+01
1.52260484e+00 -1.61108837e+00 1.65113062e-02 -1.61108837e+00 -1.05438263e+00 3.24541777e-02 1.65113062e-02 3.24541777e-02 -2.92298899e+01
2.28371823e+00 -1.43720669e+00 -1.97020900e+00 -1.43720669e+00 -1.36543596e+00 2.65513682e+00 -1.97020900e+00 2.65513682e+00 -2.82804890e+01
-4.28074598e-02 -2.22500390e+00 1.16978300e+00 -2.22500390e+00 1.81077588e+00 -2.71206081e+00 1.16978300e+00 -2.71206081e+00 -2.89657011e+01
-7.29288340e-01 -1.67508614e+00 2.11198964e+00 -1.67508614e+00 7.07171112e-01 1.55404361e+00 2.11198964e+00 1.55404361e+00 -2.93701038e+01
-5.07594180e+00 -8.75135422e-01 1.71610588e+00 -8.75135422e-01 2.65353170e+00 -2.26885402e+00 1.71610588e+00 -2.26885402e+00 -1.61399212e+01
-3.98138110e+00 -1.07981269e+00 9.46214676e-01 -1.07981269e+00 2.67250852e+00 6.90952953e+00 9.46214676e-01 6.90952953e+00 -2.24169909e+01
-9.02622032e+00 4.63258803e-01 -1.16233338e-01 4.63258803e-01 1.13586036e+00 -1.83087820e+00 -1.16233338e-01 -1.83087820e+00 7.05661416e-01
-7.49211359e+00 -5.97451448e-01 2.64831051e-01 -5.97451448e-01 1.76295817e-01 2.14025104e+00 2.64831051e-01 2.14025104e+00 1.31126314e-01
-3.98443675e+00 1.20308277e+00 1.50273256e-01 1.20308277e+00 4.60372344e-01 -5.12303486e-02 1.50273256e-01 -5.12303486e-02 1.26845366e+00
-2.15738523e+00 5.99609574e-01 3.12572410e-01 5.99609574e-01 -6.04373043e-02 -4.32138612e-01 3.12572410e-01 -4.32138612e-01 5.65496733e-01
-1.47004795e+00 5.22296786e-01 -3.51672649e-01 5.22296786e-01 -1.20991588e+00 2.65124321e-01 -3.51672649e-01 2.65124321e-01 8.27680051e-01
-8.23997885e-01 1.29537210e-01 8.28606971e-02 1.29537210e-01 -1.03781557e+00 2.46709473e-01 8.28606971e-02 2.46709473e-01 7.12803155e-01
-1.91185117e+00 3.21558421e-03 1.59355897e+00 3.21558421e-03 4.14883339e+00 -9.82568234e-01 1.59355897e+00 -9.82568234e-01 -2.67820587e+01
-1.15651038e+00 -4.49631989e-01 1.64907315e+00 -4.49631989e-01 3.12820822e+00 -2.02328783e-01 1.64907315e+00 -2.02328783e-01 -2.74833384e+01
-2.33021852e+00 -1.79339875e+00 1.20627483e+00 -1.79339875e+00 3.52355689e+00 -1.35494573e+00 1.20627483e+00 -1.35494573e+00 -2.75333116e+01
-2.40914896e+00 -4.35728483e-01 1.73328281e+00 -4.35728483e-01 4.41333264e+00 -9.99628484e-01 1.73328281e+00 -9.99628484e-01 -2.66502724e+01
7.99361758e-01 -1.19163957e+00 -3.24630126e-01 -1.19163957e+00 1.07805903e+00 -4.23011167e-01 -3.24630126e-01 -4.23011167e-01 -2.81770859e+01
-1.83816771e+00 -2.00778560e+00 9.45553228e-01 -2.00778560e+00 1.99686540e-01 -1.63917140e+00 9.45553228e-01 -1.63917140e+00 -3.04022374e+01
1.77895683e+00 2.63714790e-02 4.02719162e-01 2.63714790e-02 -1.20162725e+00 -1.64323984e+00 4.02719162e-01 -1.64323984e+00 -2.94270420e+01
-1.83915559e+00 -6.17630046e-01 1.05542143e+00 -6.17630046e-01 -1.44018665e+00 9.14624870e-01 1.05542143e+00 9.14624870e-01 -3.26785693e+01
1.13295894e+00 -5.71126081e-01 4.37838018e+00 -5.71126081e-01 -2.19409055e+00 -1.50797030e+00 4.37838018e+00 -1.50797030e+00 -3.01103449e+01
-1.51891848e+00 -3.83919097e-01 8.50681495e-01 -3.83919097e-01 -8.58552982e-01 9.65869433e-01 8.50681495e-01 9.65869433e-01 -3.25467820e+01
9.97694537e-01 -2.10033499e-01 4.46402019e+00 -2.10033499e-01 -2.52677754e-01 -1.27403936e+00 4.46402019e+00 -1.27403936e+00 -2.78566580e+01
-5.86214150e-01 -2.44423564e-01 2.11841613e+00 -2.44423564e-01 -1.25774764e-01 -4.01884540e-01 2.11841613e+00 -4.01884540e-01 -3.05669606e+01
1.50542307e+00 1.57982200e+00 3.91395688e+00 1.57982200e+00 9.36772853e-01 -2.06345588e+00 3.91395688e+00 -2.06345588e+00 -2.62785006e+01
8.38652149e-01 1.31169096e+00 -8.35992992e-02 1.31169096e+00 7.08824813e-01 -1.85933846e+00 -8.35992992e-02 -1.85933846e+00 -2.80641465e+01
-3.10570032e+00 -1.29767228e+00 2.27071702e+00 -1.29767228e+00 3.50532652e+00 -1.54394162e+00 2.27071702e+00 -1.54394162e+00 -2.83636479e+01
-3.13317239e+00 -3.99591051e-01 3.81774789e+00 -3.99591051e-01 5.33788192e+00 -2.28156477e+00 3.81774789e+00 -2.28156477e+00 -2.49452081e+01
-4.56818524e+00 -1.02985965e+00 4.39866928e+00 -1.02985965e+00 -1.29627749e+00 -6.59394264e-03 4.39866928e+00 -6.59394264e-03 -3.57072664e+01
-6.64011924e+00 -1.36703240e+00 5.63103285e+00 -1.36703240e+00 -3.90575695e+00 -8.26442122e-02 5.63103285e+00 -8.26442122e-02 -3.96434074e+01
-5.29609585e+00 -1.58775747e-01 1.07194522e+00 -1.58775747e-01 -2.72484952e+00 1.77780777e+00 1.07194522e+00 1.77780777e+00 -3.84647579e+01
-5.12232310e+00 -1.74556859e-01 1.57491386e+00 -1.74556859e-01 -4.04716921e+00 3.32904726e+00 1.57491386e+00 3.32904726e+00 -3.94125547e+01
-3.72961581e+00 1.02378553e+00 -1.67501308e+00 1.02378553e+00 -4.18746799e+00 1.81559741e+00 -1.67501308e+00 1.81559741e+00 -3.78256321e+01
-1.39407402e+00 5.71914598e-01 5.72101590e+00 5.71914598e-01 3.68007248e+00 8.32836568e-01 5.72101590e+00 8.32836568e-01 -2.42806678e+01
-1.04566200e+00 7.43152320e-01 3.71174833e+00 7.43152320e-01 4.65235293e+00 -2.07173002e+00 3.71174833e+00 -2.07173002e+00 -2.43215375e+01
-4.26806343e+00 -1.10086572e+00 6.48720777e+00 -1.10086572e+00 1.82219203e+00 6.59263031e+00 6.48720777e+00 6.59263031e+00 -2.58104833e+01
-1.14830213e+01 -1.77952099e+00 2.10265160e-01 -1.77952099e+00 -5.44942379e-01 8.93446791e+00 2.10265160e-01 8.93446791e+00 -5.11311769e-01
2.44013716e+00 -6.34354445e-01 4.75700416e+00 -6.34354445e-01 1.02056196e+00 2.23160021e+00 4.75700416e+00 2.23160021e+00 -2.22399631e+01
2.52207643e+00 1.55464614e-01 3.16529393e+00 1.55464614e-01 1.91026011e+00 1.88015825e+00 3.16529393e+00 1.88015825e+00 -2.43719597e+01
3.14352146e+00 -3.46097476e+00 4.45375644e+00 -3.46097476e+00 3.98784398e+00 5.79669973e+00 4.45375644e+00 5.79669973e+00 -1.96799928e+01
-2.32152859e-01 9.79976811e-01 -1.04408613e+01 9.79976811e-01 3.01331564e+00 4.58524346e+00 -1.04408613e+01 4.58524346e+00 -1.26358374e+01
1.46019794e+00 -2.87140712e+00 9.63012673e-01 -2.87140712e+00 3.03398270e-01 2.86576248e+00 9.63012673e-01 2.86576248e+00 -2.63677504e+01
3.28451502e+00 -9.84054536e-01 1.42963134e+00 -9.84054536e-01 1.96508795e-01 3.25890118e+00 1.42963134e+00 3.25890118e+00 -2.59829292e+01
9.61630389e-01 -2.66891208e+00 8.67523858e-02 -2.66891208e+00 6.60597369e-01 2.11035113e+00 8.67523858e-02 2.11035113e+00 -2.64382222e+01
2.24414706e+00 -4.02767379e-02 -4.67492384e+00 -4.02767379e-02 1.59009871e+00 3.82204264e+00 -4.67492384e+00 3.82204264e+00 -2.63870754e+01
-1.19584412e+00 -4.63281786e-01 -2.28845716e+00 -4.63281786e-01 1.77656421e+00 -1.09612019e+00 -2.28845716e+00 -1.09612019e+00 -2.96105227e+01
8.86575162e-01 2.10961926e+00 1.11387217e+00 2.10961926e+00 6.21892702e-01 -1.50396895e+00 1.11387217e+00 -1.50396895e+00 -2.87039232e+01
-1.06153336e+00 -1.28373471e+00 1.42988841e+00 -1.28373471e+00 9.56623048e-01 -2.08871728e-01 1.42988841e+00 -2.08871728e-01 -3.11085238e+01
-3.79124749e+00 -6.39037728e-01 2.64553910e+00 -6.39037728e-01 -4.06677151e+00 5.82502294e+00 2.64553910e+00 5.82502294e+00 -3.74524555e+01
-4.40388806e-02 -3.32113191e-01 8.13332945e-03 -3.32113191e-01 1.25698116e-01 -2.69104689e-02 8.13332945e-03 -2.69104689e-02 -2.46424533e-01
-6.67259432e-02 -1.00558773e-01 -9.77523923e-02 -1.00558773e-01 2.64652997e-01 -9.28774439e-02 -9.77523923e-02 -9.28774439e-02 -3.62685686e-01
1.31312098e-01 -1.97407138e-02 1.87692285e-01 -1.97407138e-02 -4.67143953e-04 1.03363298e-01 1.87692285e-01 1.03363298e-01 -2.95610562e-01
6.47997111e-03 -2.51304939e-01 -6.77897707e-02 -2.51304939e-01 -2.86896221e-01 -1.29950136e-01 -6.77897707e-02 -1.29950136e-01 1.15649864e-01
6.80631295e-01 1.12679432e-03 2.16356957e+00 1.12679432e-03 6.84041888e-01 -1.12211776e+00 2.16356957e+00 -1.12211776e+00 -2.82922173e+01
8.93130958e-01 -2.19025664e-01 2.38749605e+00 -2.19025664e-01 -2.22685188e-01 -1.51531205e-01 2.38749605e+00 -1.51531205e-01 -2.89536419e+01
3.00092794e-01 -1.85043712e+00 2.78064770e+00 -1.85043712e+00 -2.37122336e-02 6.97040673e-01 2.78064770e+00 6.97040673e-01 -2.90238965e+01
-3.47673886e-01 -8.91349465e-02 2.41492525e+00 -8.91349465e-02 1.14456189e+00 -9.32041720e-01 2.41492525e+00 -9.32041720e-01 -2.87137141e+01
2.28944427e+00 -1.41556081e+00 3.64143753e+00 -1.41556081e+00 -2.51506466e+00 2.41244998e-01 3.64143753e+00 2.41244998e-01 -2.91985641e+01
6.15774323e-01 -2.69858405e+00 1.19134069e+00 -2.69858405e+00 -2.70556614e+00 2.40168236e-01 1.19134069e+00 2.40168236e-01 -3.14451737e+01
3.85633129e+00 -5.53103024e-03 1.41858611e+00 -5.53103024e-03 -4.51904488e+00 1.12529604e+00 1.41858611e+00 1.12529604e+00 -2.95176601e+01
1.45045916e-01 -1.43644417e+00 -1.10576792e+00 -1.43644417e+00 -3.81335372e+00 -1.30538090e+00 -1.10576792e+00 -1.30538090e+00 -3.31090310e+01
4.09217882e+00 -5.80070959e-02 -1.45897397e+00 -5.80070959e-02 -3.93696636e+00 -4.03714560e-01 -1.45897397e+00 -4.03714560e-01 -2.89564104e+01
-9.59266365e-01 6.88923445e-01 -3.39411217e-01 6.88923445e-01 -2.42854600e+00 -3.81276250e-01 -3.39411217e-01 -3.81276250e-01 -3.31325657e+01
2.85054913e+00 8.45923826e-01 7.04922169e-01 8.45923826e-01 -1.40133661e+00 -1.33447874e+00 7.04922169e-01 -1.33447874e+00 -2.81814494e+01
3.70174984e-01 8.35708790e-01 -1.39106981e-01 8.35708790e-01 -1.32772113e+00 2.22647522e-01 -1.39106981e-01 2.22647522e-01 -3.08889866e+01
3.77206957e+00 2.14006728e+00 1.51973784e+00 2.14006728e+00 -2.32213718e+00 -1.88165241e+00 1.51973784e+00 -1.88165241e+00 -2.75424862e+01
2.06516901e+00 9.96352214e-01 3.50068156e-01 9.96352214e-01 -1.13695815e+00 -1.06498812e+00 3.50068156e-01 -1.06498812e+00 -2.86651368e+01
-2.91513175e+00 -3.17222002e+00 5.71601528e+00 -3.17222002e+00 -2.34442949e-03 -1.63228050e+00 5.71601528e+00 -1.63228050e+00 -2.88386202e+01
-1.95241486e+00 -1.98106799e+00 3.94190890e+00 -1.98106799e+00 3.81589794e+00 -1.04486920e+00 3.94190890e+00 -1.04486920e+00 -2.65125237e+01
-2.20756715e+00 -8.98912289e-01 2.40922503e+00 -8.98912289e-01 -2.43313812e+00 -2.34345393e+00 2.40922503e+00 -2.34345393e+00 -3.52528330e+01
-6.43228312e+00 -1.33446157e+00 -7.61910429e+00 -1.33446157e+00 -8.54124594e+00 7.73593140e-01 -7.61910429e+00 7.73593140e-01 -4.23202023e+01
-5.31165940e+00 3.14108193e-01 -1.23120387e+00 3.14108193e-01 -4.40864691e+00 1.64039138e+00 -1.23120387e+00 1.64039138e+00 -4.05713797e+01
-1.96280026e+00 -5.83789669e-01 -1.00807711e+00 -5.83789669e-01 -2.13453026e+00 4.41746689e-01 -1.00807711e+00 4.41746689e-01 -3.42577324e+01
2.64442638e-01 1.17380157e-01 -7.33901143e-01 1.17380157e-01 -1.06761205e+00 4.21624817e-02 -7.33901143e-01 4.21624817e-02 -3.06679029e+01
-4.95283525e+00 -1.93953973e+00 6.76474816e+00 -1.93953973e+00 -7.95714442e-01 -8.43211481e-01 6.76474816e+00 -8.43211481e-01 -2.99322521e+01
-3.22100148e+00 -3.75404563e-01 6.07089734e+00 -3.75404563e-01 6.38544083e+00 4.20375651e+00 6.07089734e+00 4.20375651e+00 -2.29916539e+01
-1.02113053e+01 -2.74518371e+00 7.87300909e+00 -2.74518371e+00 -8.42879915e+00 -6.71476808e+00 7.87300909e+00 -6.71476808e+00 -4.51557207e+01
-3.05659520e+00 -9.10254768e-01 3.85898612e+00 -9.10254768e-01 3.67059653e+00 5.47018284e+00 3.85898612e+00 5.47018284e+00 -2.50559935e+01
-1.55420068e+00 -1.71606025e+00 7.24512982e+00 -1.71606025e+00 3.69832782e+00 3.69400203e+00 7.24512982e+00 3.69400203e+00 -2.09049587e+01
-9.85399306e+00 -3.94596040e-01 -1.15701056e+00 -3.94596040e-01 -1.38685650e+00 8.76782662e+00 -1.15701056e+00 8.76782662e+00 -2.47644877e+01
2.47278972e+00 1.52403478e+00 3.73148596e+00 1.52403478e+00 3.95287322e+00 1.60911548e+00 3.73148596e+00 1.60911548e+00 -2.38372210e+01
1.73374777e+00 2.72174644e+00 1.30459267e+00 2.72174644e+00 2.58476720e+00 -1.41703030e+00 1.30459267e+00 -1.41703030e+00 -2.33158684e+01
6.72105432e-01 -1.89153421e+00 -3.21863079e+00 -1.89153421e+00 3.50003856e+00 3.89258759e+00 -3.21863079e+00 3.89258759e+00 -2.61074881e+01
-1.03008490e+01 1.44516611e+01 -1.56643257e+01 1.44516611e+01 -1.16189289e+01 7.07776260e+00 -1.56643257e+01 7.07776260e+00 6.83689952e-01
-9.84205643e+00 3.36504992e+00 -1.25407499e+01 3.36504992e+00 -7.48562125e+00 5.40820249e+00 -1.25407499e+01 5.40820249e+00 -3.86445071e+01
-1.75827173e+00 2.49440551e+00 4.79855584e+00 2.49440551e+00 -4.44914967e-01 4.32184458e-01 4.79855584e+00 4.32184458e-01 -2.74048972e+01
-3.75253463e+00 -4.13868308e-01 3.26470470e+00 -4.13868308e-01 2.10370374e+00 3.90807760e+00 3.26470470e+00 3.90807760e+00 -2.89622087e+01
</DataArray>
<DataArray type="Float32" Name="Logarithmic_strain_components" NumberOfComponents="9" format="ascii">
5.79863263e-04 -5.70742031e-08 -8.65824248e-08 -5.70742031e-08 1.95195619e-03 -7.43575583e-08 -8.65824248e-08 -7.43575583e-08 -2.45403964e-03
6.69694971e-04 1.19368240e-04 -8.46683097e-08 1.19368240e-04 2.09204992e-03 4.21127534e-05 -8.46683097e-08 4.21127534e-05 -2.67402409e-03
7.43968048e-04 3.87494591e-04 -2.62447720e-04 3.87494591e-04 1.71361965e-03 -7.37002301e-05 -2.62447720e-04 -7.37002301e-05 -2.40570807e-03
6.83405291e-04 1.47412742e-04 -1.40927797e-04 1.47412742e-04 1.61712617e-03 -9.31358528e-08 -1.40927797e-04 -9.31358528e-08 -2.26540561e-03
6.24175853e-04 1.64060452e-07 2.03771626e-04 1.64060452e-07 1.81497243e-03 -2.12613035e-04 2.03771626e-04 -2.12613035e-04 -2.37505452e-03
7.10166976e-04 4.09590632e-06 2.44877097e-04 4.09590632e-06 1.84003881e-03 -2.80131025e-04 2.44877097e-04 -2.80131025e-04 -2.48575868e-03
7.21856726e-04 1.25892153e-04 1.27633565e-04 1.25892153e-04 1.62413935e-03 -2.27493427e-04 1.27633565e-04 -2.27493427e-04 -2.31438928e-03
6.25325789e-04 2.61201094e-05 1.04295135e-04 2.61201094e-05 1.59027011e-03 -1.71465705e-04 1.04295135e-04 -1.71465705e-04 -2.18826346e-03
8.89974384e-04 1.01699494e-04 1.02384980e-08 1.01699494e-04 2.46319792e-03 5.92608958e-05 1.02384980e-08 5.92608958e-05 -3.23710195e-03
8.48792726e-04 5.03329924e-04 -4.81577030e-04 5.03329924e-04 1.88882751e-03 -6.48923765e-06 -4.81577030e-04 -6.48923765e-06 -2.65239336e-03
9.13098396e-04 3.54224503e-05 5.48340846e-04 3.54224503e-05 1.93254161e-03 -2.98839022e-04 5.48340846e-04 -2.98839022e-04 -2.77186692e-03
9.58277778e-04 1.85810164e-04 1.70021187e-04 1.85810164e-04 1.81176697e-03 -3.02317172e-04 1.70021187e-04 -3.02317172e-04 -2.72082142e-03
1.13400019e-03 -3.84068044e-05 1.44852947e-08 -3.84068044e-05 2.80841533e-03 1.86099904e-04 1.44852947e-08 1.86099904e-04 -3.78105976e-03
1.05412706e-03 3.06815746e-04 -6.87115811e-04 3.06815746e-04 2.13025775e-03 1.43375604e-04 -6.87115811e-04 1.43375604e-04 -3.06100911e-03
1.23731044e-03 -8.03612402e-05 6.12725271e-04 -8.03612402e-05 2.10905485e-03 -7.07312724e-05 6.12725271e-04 -7.07312724e-05 -3.24138021e-03
1.19530944e-03 -6.84700112e-05 3.25177861e-04 -6.84700112e-05 1.95179283e-03 -2.25800868e-04 3.25177861e-04 -2.25800868e-04 -3.06722304e-03
1.50955550e-03 -2.71011944e-04 -1.69457053e-08 -2.71011944e-04 2.96654692e-03 2.90483906e-04 -1.69457053e-08 2.90483906e-04 -4.23708395e-03
1.45789050e-03 -3.61683860e-05 -8.98936632e-04 -3.61683860e-05 2.46342595e-03 2.93679128e-04 -8.98936632e-04 2.93679128e-04 -3.73633060e-03
1.68131592e-03 -2.67977295e-04 2.11605235e-04 -2.67977295e-04 2.28572264e-03 -9.60396787e-05 2.11605235e-04 -9.60396787e-05 -3.78721231e-03
1.45073577e-03 -3.22401093e-04 2.85552785e-04 -3.22401093e-04 1.95086091e-03 -1.52643155e-04 2.85552785e-04 -1.52643155e-04 -3.27716884e-03
2.15833128e-03 -7.15910690e-04 1.12375005e-07 -7.15910690e-04 3.37019784e-03 9.23895532e-05 1.12375005e-07 9.23895532e-05 -5.09333657e-03
1.88684705e-03 -1.82705648e-04 -1.15073303e-03 -1.82705648e-04 2.80706579e-03 3.81838981e-04 -1.15073303e-03 3.81838981e-04 -4.37603740e-03
1.98611949e-03 -4.26016093e-04 3.59228055e-04 -4.26016093e-04 2.54433230e-03 -4.39569347e-04 3.59228055e-04 -4.39569347e-04 -4.20256489e-03
1.84158706e-03 -4.86222929e-04 5.40819281e-04 -4.86222929e-04 2.18301822e-03 -1.61750523e-04 5.40819281e-04 -1.61750523e-04 -3.79624579e-03
2.14794092e-03 -1.52911677e-03 -6.72582701e-07 -1.52911677e-03 4.39540530e-03 -7.04004080e-04 -6.72582701e-07 -7.04004080e-04 -5.97030809e-03
2.04572565e-03 -7.60320050e-04 -1.80913485e-03 -7.60320050e-04 3.51534819e-03 6.15969911e-04 -1.80913485e-03 6.15969911e-04 -5.15451119e-03
1.89059938e-03 -2.08919751e-04 1.02073562e-04 -2.08919751e-04 3.12530447e-03 -1.03826151e-03 1.02073562e-04 -1.03826151e-03 -4.59548947e-03
1.91403361e-03 -5.77993153e-04 -2.88027222e-05 -5.77993153e-04 2.70750979e-03 -3.47111094e-04 -2.88027222e-05 -3.47111094e-04 -4.31818608e-03
7.86949677e-04 3.02906206e-04 -1.41868626e-04 3.02906206e-04 9.03456123e-04 -1.40662851e-04 -1.41868626e-04 -1.40662851e-04 -1.71873046e-03
8.21232039e-04 1.30862842e-04 -8.38691267e-05 1.30862842e-04 9.48322122e-04 7.33258503e-08 -8.38691267e-05 7.33258503e-08 -1.81510812e-03
7.48198923e-04 2.33707832e-04 3.60422080e-04 2.33707832e-04 1.07842718e-03 -9.47613789e-05 3.60422080e-04 -9.47613789e-05 -1.86222156e-03
6.56064396e-04 7.30777974e-05 2.55164905e-04 7.30777974e-05 1.01483623e-03 9.21266146e-05 2.55164905e-04 9.21266146e-05 -1.71860782e-03
7.17182120e-04 4.15288334e-04 -1.56890728e-04 4.15288334e-04 8.04138799e-04 -1.51081869e-04 -1.56890728e-04 -1.51081869e-04 -1.52252911e-03
7.57639256e-04 2.42804532e-04 4.45986685e-04 2.42804532e-04 1.08405828e-03 7.90242807e-05 4.45986685e-04 7.90242807e-05 -1.84276175e-03
6.15097895e-04 3.52341991e-04 -3.38652419e-04 3.52341991e-04 6.89498964e-04 -1.47341012e-04 -3.38652419e-04 -1.47341012e-04 -1.25665279e-03
8.00659227e-04 -1.30570066e-04 9.54245685e-04 -1.30570066e-04 1.12002042e-03 1.92096440e-04 9.54245685e-04 1.92096440e-04 -1.88185238e-03
7.09276581e-04 -3.33787830e-05 -7.73479987e-04 -3.33787830e-05 8.31282792e-04 1.83628134e-04 -7.73479987e-04 1.83628134e-04 -1.39635257e-03
1.01130246e-03 -4.34542388e-04 1.39599051e-03 -4.34542388e-04 1.34226076e-03 4.40239600e-04 1.39599051e-03 4.40239600e-04 -2.25864052e-03
6.59398072e-04 -2.04321448e-04 -8.36528794e-04 -2.04321448e-04 8.59855634e-04 3.98749500e-04 -8.36528794e-04 3.98749500e-04 -1.38723326e-03
1.03418267e-03 -4.77550793e-04 1.69584744e-03 -4.77550793e-04 1.48048873e-03 8.86693420e-04 1.69584744e-03 8.86693420e-04 -2.40867342e-03
7.29513253e-04 -7.32382388e-04 -8.90330179e-04 -7.32382388e-04 8.36489999e-04 9.81137971e-04 -8.90330179e-04 9.81137971e-04 -1.50162814e-03
1.11871517e-03 -1.04203362e-03 1.56588994e-03 -1.04203362e-03 1.84950033e-03 1.47832034e-03 1.56588994e-03 1.47832034e-03 -2.88129000e-03
7.30155953e-04 6.62052585e-05 1.42109852e-05 6.62052585e-05 3.41954132e-04 -1.38866446e-04 1.42109852e-05 -1.38866446e-04 -1.16986074e-03
8.42317007e-04 4.79632436e-05 4.08754768e-05 4.79632436e-05 4.40328251e-04 1.86886382e-08 4.08754768e-05 1.86886382e-08 -1.38916390e-03
6.99748336e-04 5.40741842e-05 3.89981904e-04 5.40741842e-05 5.04174313e-04 3.88993121e-05 3.89981904e-04 3.88993121e-05 -1.30145224e-03
6.58140838e-04 2.10715029e-05 3.27340651e-04 2.10715029e-05 4.70967090e-04 2.38808683e-04 3.27340651e-04 2.38808683e-04 -1.23811854e-03
5.28492106e-04 6.01030979e-05 -8.83371217e-06 6.01030979e-05 2.10343935e-04 -1.54679066e-04 -8.83371217e-06 -1.54679066e-04 -8.14303188e-04
4.81216892e-04 8.63084051e-06 4.02588626e-04 8.63084051e-06 2.79645710e-04 9.31484396e-05 4.02588626e-04 9.31484396e-05 -8.15320600e-04
2.64080321e-04 7.67688107e-07 -7.52520227e-05 7.67688107e-07 4.31538019e-05 -2.22244063e-04 -7.52520227e-05 -2.22244063e-04 -2.73093909e-04
1.55607795e-04 -2.11021778e-04 4.08634539e-04 -2.11021778e-04 6.77006028e-05 1.86328010e-05 4.08634539e-04 1.86328010e-05 -1.94226126e-04
1.82203291e-04 -2.03414000e-04 -3.65715367e-04 -2.03414000e-04 -1.23845767e-04 -1.48486943e-04 -3.65715367e-04 -1.48486943e-04 1.09905149e-04
1.05221494e-04 -6.04856265e-04 6.82521417e-04 -6.04856265e-04 1.18680740e-04 1.52962699e-04 6.82521417e-04 1.52962699e-04 -5.66655932e-05
6.88620858e-05 -3.22874306e-05 -4.20345585e-04 -3.22874306e-05 -1.65458521e-04 -2.68360970e-05 -4.20345585e-04 -2.68360970e-05 1.46174083e-04
5.55335040e-06 -1.51806878e-04 6.16410767e-04 -1.51806878e-04 8.57309302e-05 -1.29205401e-04 6.16410767e-04 -1.29205401e-04 -4.02188698e-05
1.07619926e-04 -1.49042899e-04 -1.59546391e-04 -1.49042899e-04 -3.16388978e-04 9.88840657e-05 -1.59546391e-04 9.88840657e-05 1.65636928e-04
3.44276996e-05 -3.61516897e-04 6.61650825e-04 -3.61516897e-04 -4.35852489e-05 -7.41740005e-05 6.61650825e-04 -7.41740005e-05 -3.32886157e-05
6.54492076e-04 -7.51408379e-05 8.85002901e-05 -7.51408379e-05 2.12455598e-04 -1.15153933e-04 8.85002901e-05 -1.15153933e-04 -1.02209339e-03
7.61382689e-04 -2.60011502e-05 6.78507131e-05 -2.60011502e-05 2.64914095e-04 8.43715497e-09 6.78507131e-05 8.43715497e-09 -1.18285592e-03
5.75523802e-04 -9.40783102e-05 1.86404746e-04 -9.40783102e-05 2.32077486e-04 7.61839165e-05 1.86404746e-04 7.61839165e-05 -9.61978047e-04
6.47283334e-04 -5.68784390e-06 1.82076848e-04 -5.68784390e-06 2.63857499e-04 1.53996931e-04 1.82076848e-04 1.53996931e-04 -1.06722876e-03
4.03481543e-04 -1.02431559e-04 -7.57738530e-06 -1.02431559e-04 1.23951640e-04 -1.64566005e-04 -7.57738530e-06 -1.64566005e-04 -6.61648868e-04
3.37308546e-04 -1.70707109e-04 1.28313194e-04 -1.70707109e-04 1.33364637e-04 1.15633687e-04 1.28313194e-04 1.15633687e-04 -6.03276258e-04
1.21379525e-04 -9.67704345e-05 -2.83719000e-05 -9.67704345e-05 5.96104551e-05 -2.23713047e-04 -2.83719000e-05 -2.23713047e-04 -1.84395447e-04
1.51744600e-04 -8.70428745e-05 -8.33597134e-05 -8.70428745e-05 6.98361800e-05 7.43684505e-05 -8.33597134e-05 7.43684505e-05 -2.60915564e-04
4.28610989e-05 5.83216024e-06 4.66996244e-05 5.83216024e-06 1.57830938e-05 -5.22649085e-05 4.66996244e-05 -5.22649085e-05 4.46926558e-05
9.39062423e-05 7.87812108e-05 -1.31193786e-05 7.87812108e-05 4.41574703e-05 1.02468125e-04 -1.31193786e-05 1.02468125e-04 -3.52945602e-05
8.65619568e-05 -1.14508293e-05 5.32964150e-05 -1.14508293e-05 -1.93798929e-04 3.71482347e-05 5.32964150e-05 3.71482347e-05 9.66428479e-05
1.78631447e-05 -1.79133676e-05 6.20195618e-05 -1.79133676e-05 -2.31553488e-05 -7.58538230e-07 6.20195618e-05 -7.58538230e-07 3.09057047e-05
8.84350011e-05 -6.63100873e-05 8.69297673e-06 -6.63100873e-05 -1.59954296e-04 -1.14386162e-05 8.69297673e-06 -1.14386162e-05 6.09173530e-05
5.44582205e-06 7.41380427e-06 -3.53870264e-05 7.41380427e-06 4.37844016e-05 -2.89551166e-05 -3.53870264e-05 -2.89551166e-05 -2.40961569e-05
5.67351395e-04 -7.56223467e-05 4.70100022e-05 -7.56223467e-05 3.03549874e-04 -1.00968968e-04 4.70100022e-05 -1.00968968e-04 -1.07336382e-03
7.12989742e-04 -7.04546583e-05 3.68990459e-05 -7.04546583e-05 3.77192497e-04 -1.52614462e-07 3.68990459e-05 -1.52614462e-07 -1.26249157e-03
4.99996157e-04 -1.06505489e-04 3.67115133e-05 -1.06505489e-04 2.82127126e-04 8.84657620e-05 3.67115133e-05 8.84657620e-05 -9.91528235e-04
5.94487661e-04 -5.98861216e-05 -1.91649833e-05 -5.98861216e-05 3.35269662e-04 2.10058610e-04 -1.91649833e-05 2.10058610e-04 -1.12529099e-03
3.00613025e-04 -9.42827464e-05 3.38181853e-05 -9.42827464e-05 1.73651304e-04 -1.74421682e-04 3.38181853e-05 -1.74421682e-04 -7.05940824e-04
2.58201866e-04 -1.22886207e-04 1.99939575e-05 -1.22886207e-04 1.99706477e-04 1.62924638e-04 1.99939575e-05 1.62924638e-04 -6.94995048e-04
5.13127070e-05 -4.06947912e-05 5.76492084e-06 -4.06947912e-05 7.33654879e-05 -1.54824917e-04 5.76492084e-06 -1.54824917e-04 -2.71739089e-04
1.27284732e-04 -3.42796660e-05 -9.25658411e-05 -3.42796660e-05 1.38684746e-04 2.72173260e-04 -9.25658411e-05 2.72173260e-04 -4.54238162e-04
-6.99795792e-05 7.42862112e-05 3.83475231e-06 7.42862112e-05 3.68525552e-05 -7.34673904e-05 3.83475231e-06 -7.34673904e-05 1.80012212e-05
-1.74736851e-06 5.51611920e-05 1.07547913e-05 5.51611920e-05 -1.04807973e-05 6.06539452e-05 1.07547913e-05 6.06539452e-05 -3.17191177e-06
-3.30227507e-05 4.99568628e-05 3.87688050e-06 4.99568628e-05 2.43897920e-05 2.50445073e-05 3.87688050e-06 2.50445073e-05 6.12412896e-06
2.24574648e-06 4.39731441e-05 -9.84904864e-06 4.39731441e-05 -5.95473003e-06 5.09341680e-06 -9.84904864e-06 5.09341680e-06 1.60237505e-07
3.20687341e-05 5.31610312e-05 -2.04133676e-05 5.31610312e-05 -6.71617527e-05 7.14585030e-06 -2.04133676e-05 7.14585030e-06 -3.09879169e-06
2.73087304e-05 2.55054044e-05 -2.38151829e-05 2.55054044e-05 -6.33309398e-05 -8.28541185e-07 -2.38151829e-05 -8.28541185e-07 8.86676745e-06
5.77782921e-04 -1.14475904e-04 5.59928822e-06 -1.14475904e-04 3.85628795e-04 -1.73886139e-04 5.59928822e-06 -1.73886139e-04 -1.17990602e-03
8.06964585e-04 -1.31526016e-04 1.93714859e-05 -1.31526016e-04 4.60670009e-04 -2.54552560e-07 1.93714859e-05 -2.54552560e-07 -1.43116107e-03
5.36735541e-04 -1.59139548e-04 3.02121589e-06 -1.59139548e-04 3.93853552e-04 -6.76445052e-06 3.02121589e-06 -6.76445052e-06 -1.16610943e-03
5.87173141e-04 -1.45389487e-04 -1.94840635e-04 -1.45389487e-04 3.97384763e-04 2.63782145e-04 -1.94840635e-04 2.63782145e-04 -1.19404343e-03
2.24521344e-04 -1.60902769e-04 7.56324771e-05 -1.60902769e-04 2.57494336e-04 -1.80801864e-04 7.56324771e-05 -1.80801864e-04 -7.72919302e-04
2.89790816e-04 -1.30379826e-04 1.83444868e-04 -1.30379826e-04 3.28934224e-04 1.01977698e-04 1.83444868e-04 1.01977698e-04 -9.09961338e-04
-5.31407568e-05 -4.03205777e-05 8.05136588e-05 -4.03205777e-05 1.27865114e-04 -1.03767215e-04 8.05136588e-05 -1.03767215e-04 -2.99793726e-04
6.75542537e-05 -6.96174538e-05 8.26271944e-05 -6.96174538e-05 2.38343874e-04 4.03290440e-04 8.26271944e-05 4.03290440e-04 -5.66679722e-04
-1.87752565e-04 2.19722751e-05 -6.02248201e-06 2.19722751e-05 5.61029501e-05 -8.77282473e-05 -6.02248201e-06 -8.77282473e-05 4.54697074e-05
-1.50843531e-04 -2.83714762e-05 1.25242359e-05 -2.83714762e-05 3.31028259e-05 1.02737766e-04 1.25242359e-05 1.02737766e-04 3.23119293e-05
-8.63587920e-05 5.77123737e-05 7.70533097e-06 5.77123737e-05 2.01262230e-05 -2.49034758e-06 7.70533097e-06 -2.49034758e-06 3.91131762e-05
-4.52448173e-05 2.86162000e-05 1.54759058e-05 2.86162000e-05 5.29693966e-06 -2.04825325e-05 1.54759058e-05 -2.04825325e-05 1.99266336e-05
-2.79516189e-05 2.53042108e-05 -1.73202661e-05 2.53042108e-05 -2.16252465e-05 1.28309475e-05 -1.73202661e-05 1.28309475e-05 2.76346163e-05
-1.49905077e-05 5.63770823e-06 3.66208769e-06 5.63770823e-06 -2.05657907e-05 1.21402886e-05 3.66208769e-06 1.21402886e-05 2.18030636e-05
8.06674769e-04 1.08051665e-07 3.78817582e-04 1.08051665e-07 1.50244479e-03 -2.22355717e-04 3.78817582e-04 -2.22355717e-04 -2.27392779e-03
9.21281942e-04 -1.19538501e-04 3.55114753e-04 -1.19538501e-04 1.39678636e-03 -7.05060293e-05 3.55114753e-04 -7.05060293e-05 -2.29535106e-03
7.66044701e-04 -4.16994011e-04 2.60760638e-04 -4.16994011e-04 1.39890470e-03 -3.33968042e-04 2.60760638e-04 -3.33968042e-04 -2.16900406e-03
6.85379797e-04 -1.10656103e-04 3.96349333e-04 -1.10656103e-04 1.44614014e-03 -2.46020310e-04 3.96349333e-04 -2.46020310e-04 -2.12109915e-03
1.18163810e-03 -2.72948419e-04 -7.50096551e-05 -2.72948419e-04 1.15598811e-03 -1.39539427e-04 -7.50096551e-05 -1.39539427e-04 -2.32557085e-03
1.08472368e-03 -4.73645185e-04 2.56576495e-04 -4.73645185e-04 1.26023776e-03 -4.14813816e-04 2.56576495e-04 -4.14813816e-04 -2.38360210e-03
1.45730967e-03 -1.16902856e-05 1.26692732e-04 -1.16902856e-05 1.02241176e-03 -4.13886559e-04 1.26692732e-04 -4.13886559e-04 -2.47214024e-03
1.39314857e-03 -1.99041943e-04 3.89018609e-04 -1.99041943e-04 1.36787001e-03 2.21122822e-04 3.89018609e-04 2.21122822e-04 -2.78115590e-03
1.62139550e-03 -1.29913813e-04 1.13243089e-03 -1.29913813e-04 1.12505160e-03 -3.94986022e-04 1.13243089e-03 -3.94986022e-04 -2.71316967e-03
1.52766820e-03 -8.01334276e-05 2.24018592e-04 -8.01334276e-05 1.55236575e-03 2.49992465e-04 2.24018592e-04 2.49992465e-04 -3.04766686e-03
1.47868221e-03 -4.77171534e-05 1.15904256e-03 -4.77171534e-05 1.25725640e-03 -3.19121536e-04 1.15904256e-03 -3.19121536e-04 -2.65688036e-03
1.52702307e-03 -6.45476073e-05 5.80719980e-04 -6.45476073e-05 1.54719954e-03 -1.35028038e-04 5.80719980e-04 -1.35028038e-04 -2.99901766e-03
1.35964237e-03 3.73483083e-04 9.38878366e-04 3.73483083e-04 1.24748686e-03 -5.77927451e-04 9.38878366e-04 -5.77927451e-04 -2.51500006e-03
1.46092792e-03 3.76284843e-04 -1.28859778e-04 3.76284843e-04 1.43331860e-03 -5.41819216e-04 -1.28859778e-04 -5.41819216e-04 -2.79186107e-03
6.16821249e-04 -2.67251768e-04 4.75666044e-04 -2.67251768e-04 1.28549397e-03 -2.52135200e-04 4.75666044e-04 -2.52135200e-04 -1.96744887e-03
4.33604990e-04 -6.90979086e-05 7.36969916e-04 -6.90979086e-05 1.25087303e-03 -4.19941622e-04 7.36969916e-04 -4.19941622e-04 -1.71388479e-03
1.16993715e-03 -3.23375329e-04 1.16855659e-03 -3.23375329e-04 1.57279847e-03 4.65046240e-05 1.16855659e-03 4.65046240e-05 -2.83360139e-03
1.66149393e-03 -4.35560370e-04 1.84308770e-03 -4.35560370e-04 1.96510842e-03 -1.79714680e-04 1.84308770e-03 -1.79714680e-04 -3.66151538e-03
1.78317731e-03 -1.84974961e-05 2.99494903e-04 -1.84974961e-05 2.12033553e-03 3.91146950e-04 2.99494903e-04 3.91146950e-04 -3.87411320e-03
2.07620038e-03 -7.98222945e-05 5.17157794e-04 -7.98222945e-05 2.19882891e-03 1.01157351e-03 5.17157794e-04 1.01157351e-03 -4.20970086e-03
2.20635079e-03 3.99503493e-04 -6.67135464e-04 3.99503493e-04 2.08092807e-03 6.55312149e-04 -6.67135464e-04 6.55312149e-04 -4.18272498e-03
3.55604421e-04 8.87060810e-05 8.45682342e-04 8.87060810e-05 7.65896330e-04 1.78571023e-04 8.45682342e-04 1.78571023e-04 -1.23134097e-03
4.25927563e-04 1.11594116e-04 6.00933228e-04 1.11594116e-04 8.51701712e-04 -2.72732163e-04 6.00933228e-04 -2.72732163e-04 -1.35680634e-03
4.81217880e-04 -2.43871526e-04 1.08884571e-03 -2.43871526e-04 1.05287165e-03 1.18192710e-03 1.08884571e-03 1.18192710e-03 -1.62443569e-03
-4.07967585e-04 -8.14760497e-04 1.56168424e-03 -8.14760497e-04 3.15509078e-04 6.85630977e-04 1.56168424e-03 6.85630977e-04 1.11804235e-04
3.73156374e-04 -4.91027531e-05 5.08932902e-04 -4.91027531e-05 3.13152643e-04 2.14924582e-04 5.08932902e-04 2.14924582e-04 -8.31494959e-04
4.27928440e-04 1.14237894e-05 3.42140915e-04 1.14237894e-05 3.95193645e-04 1.92822419e-04 3.42140915e-04 1.92822419e-04 -9.72636306e-04
1.67626979e-04 -2.00290674e-04 3.14938962e-04 -2.00290674e-04 1.87613302e-04 3.56957308e-04 3.14938962e-04 3.56957308e-04 -4.92648284e-04
2.93216484e-06 -1.97623103e-05 -4.71974422e-04 -1.97623103e-05 9.07092896e-05 1.41946043e-04 -4.71974422e-04 1.41946043e-04 -2.28678638e-04
3.55507327e-04 -2.39182820e-04 7.85594816e-05 -2.39182820e-04 3.00580177e-04 2.47008366e-04 7.85594816e-05 2.47008366e-04 -8.82771841e-04
3.09325780e-04 -6.86640942e-05 9.23003226e-05 -6.86640942e-05 2.02784409e-04 2.32886399e-04 9.23003226e-05 2.32886399e-04 -7.43118988e-04
3.91633967e-04 -2.51012252e-04 6.02130392e-05 -2.51012252e-04 3.96024194e-04 2.30286219e-04 6.02130392e-05 2.30286219e-04 -9.94715418e-04
3.94014925e-04 -3.64176831e-05 -4.16315739e-04 -3.64176831e-05 4.03507540e-04 4.03651957e-04 -4.16315739e-04 4.03651957e-04 -9.88134445e-04
2.60667301e-04 -4.05909665e-05 -2.04607757e-04 -4.05909665e-05 3.71293954e-04 -1.05299843e-04 -2.04607757e-04 -1.05299843e-04 -9.19931132e-04
2.89937860e-04 1.55819616e-04 8.18922708e-05 1.55819616e-04 2.79643107e-04 -1.08390566e-04 8.18922708e-05 -1.08390566e-04 -8.46151233e-04
5.01754657e-04 -2.09179385e-04 1.80862527e-04 -2.09179385e-04 6.33765492e-04 -1.28751977e-05 1.80862527e-04 -1.28751977e-05 -1.37472610e-03
1.20534221e-03 -1.72804823e-04 9.34677606e-04 -1.72804823e-04 1.20306757e-03 1.29024417e-03 9.34677606e-04 1.29024417e-03 -2.59437406e-03
-5.39144025e-07 -1.56495153e-05 1.82554231e-07 -1.56495153e-05 3.93905987e-06 -9.16160161e-07 1.82554231e-07 -9.16160161e-07 -5.78915137e-06
-9.50700098e-07 -4.93071752e-06 -4.28858357e-06 -4.93071752e-06 6.95420931e-06 -4.84418194e-06 -4.28858357e-06 -4.84418194e-06 -7.78033200e-06
3.50158399e-06 -8.73056166e-07 9.04613671e-06 -8.73056166e-07 6.13820362e-07 5.52560789e-06 9.04613671e-06 5.52560789e-06 -6.64710433e-06
8.92576736e-07 -1.14774807e-05 -3.40446422e-06 -1.14774807e-05 -6.49871140e-06 -6.91567675e-06 -3.40446422e-06 -6.91567675e-06 3.76374510e-06
1.15990086e-03 2.90464186e-09 5.12124738e-04 2.90464186e-09 1.18083699e-03 -2.64401038e-04 5.12124738e-04 -2.64401038e-04 -2.33127468e-03
1.21079551e-03 -6.91588339e-05 5.34798281e-04 -6.91588339e-05 1.08981974e-03 -4.50683074e-05 5.34798281e-04 -4.50683074e-05 -2.31319800e-03
1.19174662e-03 -4.56934311e-04 6.52997915e-04 -4.56934311e-04 1.16633349e-03 1.34609280e-04 6.52997915e-04 1.34609280e-04 -2.36334986e-03
1.09008513e-03 -4.77607227e-05 5.92592150e-04 -4.77607227e-05 1.29549255e-03 -2.41602174e-04 5.92592150e-04 -2.41602174e-04 -2.37952441e-03
1.37642707e-03 -2.86734496e-04 7.31840672e-04 -2.86734496e-04 8.29942481e-04 2.23369716e-05 7.31840672e-04 2.23369716e-05 -2.24090216e-03
1.37327375e-03 -6.23850596e-04 2.00554290e-04 -6.23850596e-04 9.79305143e-04 5.52452457e-05 2.00554290e-04 5.52452457e-05 -2.41227220e-03
1.51898188e-03 -1.68466213e-05 2.66490773e-04 -1.68466213e-05 6.07139737e-04 2.00077255e-04 2.66490773e-04 2.00077255e-04 -2.18065438e-03
1.48437955e-03 -3.66793894e-04 -3.60865066e-04 -3.66793894e-04 9.84358849e-04 -3.27357944e-04 -3.60865066e-04 -3.27357944e-04 -2.54574016e-03
1.37612913e-03 -9.85048609e-06 -3.05002242e-04 -9.85048609e-06 5.75091181e-04 -6.64567979e-05 -3.05002242e-04 -6.64567979e-05 -2.01988517e-03
1.44508167e-03 1.89540421e-04 -3.01796317e-05 1.89540421e-04 1.27307965e-03 -8.81737960e-05 -3.01796317e-05 -8.81737960e-05 -2.75763136e-03
9.82381811e-04 1.35600658e-04 7.98436522e-05 1.35600658e-04 6.23763583e-04 -2.17432300e-04 7.98436522e-05 -2.17432300e-04 -1.71089818e-03
1.28496720e-03 2.02532630e-04 -5.11858184e-05 2.02532630e-04 1.09532655e-03 8.26586488e-05 -5.11858184e-05 8.26586488e-05 -2.42184621e-03
8.53225414e-04 3.02913410e-04 1.90602543e-04 3.02913410e-04 4.43918718e-04 -2.48147269e-04 1.90602543e-04 -2.48147269e-04 -1.44030293e-03
1.12328047e-03 2.03091844e-04 6.41505940e-05 2.03091844e-04 8.47789488e-04 -1.80262257e-04 6.41505940e-05 -1.80262257e-04 -2.02958923e-03
8.85350521e-04 -7.10932145e-04 1.39500479e-03 -7.10932145e-04 1.26170861e-03 -4.50110730e-04 1.39500479e-03 -4.50110730e-04 -2.18481195e-03
7.03969330e-04 -4.22748868e-04 8.88566341e-04 -4.22748868e-04 1.40879548e-03 -2.60586938e-04 8.88566341e-04 -2.60586938e-04 -2.10283062e-03
1.41579610e-03 -3.22677743e-04 6.51491499e-04 -3.22677743e-04 1.37305567e-03 -6.46358194e-04 6.51491499e-04 -6.46358194e-04 -2.86769069e-03
2.15234293e-03 -5.26087932e-04 -2.59909013e-03 -5.26087932e-04 1.68535620e-03 2.67071807e-04 -2.59909013e-03 2.67071807e-04 -3.89858852e-03
1.93042832e-03 1.63299228e-04 -2.12327368e-04 1.63299228e-04 2.00108992e-03 5.94618665e-04 -2.12327368e-04 5.94618665e-04 -3.94407957e-03
1.64681528e-03 -1.34973801e-04 -3.31714149e-04 -1.34973801e-04 1.59893039e-03 1.91800646e-04 -3.31714149e-04 1.91800646e-04 -3.22592969e-03
1.47109886e-03 5.51367375e-05 -2.39209330e-04 5.51367375e-05 1.31421379e-03 6.87358024e-05 -2.39209330e-04 6.87358024e-05 -2.75739131e-03
7.18366061e-04 -4.07159624e-04 1.52802604e-03 -4.07159624e-04 1.24875943e-03 -1.33462508e-04 1.52802604e-03 -1.33462508e-04 -2.06961767e-03
2.34645887e-04 -1.01656649e-04 9.45127293e-04 -1.01656649e-04 1.04389840e-03 7.42190125e-04 9.45127293e-04 7.42190125e-04 -1.33636985e-03
1.69051017e-03 -9.13238007e-04 2.66267647e-03 -9.13238007e-04 2.20032668e-03 -2.85999447e-03 2.66267647e-03 -2.85999447e-03 -3.97615344e-03
2.63879756e-04 -7.65826695e-05 4.70502207e-04 -7.65826695e-05 6.74845663e-04 7.14600656e-04 4.70502207e-04 7.14600656e-04 -1.10712961e-03
1.94200168e-04 -1.77573365e-04 8.52088855e-04 -1.77573365e-04 5.34482719e-04 4.19715143e-04 8.52088855e-04 4.19715143e-04 -8.51277509e-04
1.89701921e-04 -1.48644025e-04 5.16861415e-04 -1.48644025e-04 7.31842767e-04 1.25245677e-03 5.16861415e-04 1.25245677e-03 -1.14049065e-03
2.36064474e-04 1.15304413e-04 3.31781146e-04 1.15304413e-04 2.68236693e-04 1.07092066e-04 3.31781146e-04 1.07092066e-04 -6.87348111e-04
2.77231560e-04 2.13556243e-04 1.46835737e-04 2.13556243e-04 2.75814389e-04 -1.20963423e-04 1.46835737e-04 -1.20963423e-04 -7.32004104e-04
5.14774521e-04 -4.05694551e-04 -5.00214864e-04 -4.05694551e-04 7.30495418e-04 8.04323378e-04 -5.00214864e-04 8.04323378e-04 -1.36312912e-03
-2.48979573e-04 1.29076187e-03 -1.29486038e-03 1.29076187e-03 -2.01150542e-04 6.82952639e-04 -1.29486038e-03 6.82952639e-04 2.67833646e-04
1.33338399e-03 7.49384208e-04 -3.43915599e-03 7.49384208e-04 2.25080824e-03 1.85957085e-03 -3.43915599e-03 1.85957085e-03 -3.62514825e-03
6.14383876e-04 2.94067635e-04 1.03884711e-03 2.94067635e-04 6.49075173e-04 2.45522679e-04 1.03884711e-03 2.45522679e-04 -1.43446299e-03
3.28696275e-04 -3.57784775e-05 4.92561463e-04 -3.57784775e-05 6.02901986e-04 3.80301208e-04 4.92561463e-04 3.80301208e-04 -1.17800423e-03
</DataArray>
<DataArray type="Float32" Name="Plastic_strain_components" NumberOfComponents="9" format="ascii">
5.93844859e-04 -1.65334768e-08 -5.43649321e-08 -1.65334768e-08 1.70528004e-03 -1.66283826e-07 -5.43649321e-08 -1.66283826e-07 -1.92056410e-03
6.82970189e-04 9.79983270e-05 8.92595153e-09 9.79983270e-05 1.85201783e-03 3.13055571e-05 8.92595153e-09 3.13055571e-05 -2.11934152e-03
7.19231888e-04 3.10396779e-04 -2.12647828e-04 3.10396779e-04 1.50014623e-03 -6.12067688e-05 -2.12647828e-04 -6.12067688e-05 -1.85863939e-03
6.60246267e-04 1.16807973e-04 -1.12935846e-04 1.16807973e-04 1.39745889e-03 8.12829626e-08 -1.12935846e-04 8.12829626e-08 -1.72430224e-03
6.22201042e-04 6.17471869e-08 1.64649784e-04 6.17471869e-08 1.57870864e-03 -1.76410023e-04 1.64649784e-04 -1.76410023e-04 -1.84086635e-03
7.00235003e-04 3.97102383e-06 2.08373604e-04 3.97102383e-06 1.61420988e-03 -2.34514491e-04 2.08373604e-04 -2.34514491e-04 -1.93759432e-03
6.94924180e-04 9.98781538e-05 1.07863564e-04 9.98781538e-05 1.41019246e-03 -1.78810694e-04 1.07863564e-04 -1.78810694e-04 -1.76474657e-03
6.07130889e-04 2.06879345e-05 8.24976059e-05 2.06879345e-05 1.36578016e-03 -1.29145235e-04 8.24976059e-05 -1.29145235e-04 -1.65237390e-03
9.06400179e-04 8.77057610e-05 -7.53383063e-08 8.77057610e-05 2.23719212e-03 4.87401539e-05 -7.53383063e-08 4.87401539e-05 -2.63212936e-03
8.20480229e-04 4.13390117e-04 -3.96888609e-04 4.13390117e-04 1.68325467e-03 -9.44315298e-06 -3.96888609e-04 -9.44315298e-06 -2.09581113e-03
8.90287483e-04 2.78309399e-05 4.70237770e-04 2.78309399e-05 1.72434215e-03 -2.53741522e-04 4.70237770e-04 -2.53741522e-04 -2.19269528e-03
9.21051287e-04 1.49985523e-04 1.52562596e-04 1.49985523e-04 1.61743375e-03 -2.47329774e-04 1.52562596e-04 -2.47329774e-04 -2.13209918e-03
1.14890927e-03 -3.14096578e-05 -1.32099160e-07 -3.14096578e-05 2.59490754e-03 1.59996474e-04 -1.32099160e-07 1.59996474e-04 -3.13800655e-03
1.02012853e-03 2.66473558e-04 -5.81687578e-04 2.66473558e-04 1.93621364e-03 1.18864897e-04 -5.81687578e-04 1.18864897e-04 -2.47798575e-03
1.19754094e-03 -6.65652497e-05 5.34333463e-04 -6.65652497e-05 1.92461576e-03 -6.28763946e-05 5.34333463e-04 -6.28763946e-05 -2.62434833e-03
1.14818860e-03 -5.98266474e-05 2.87368718e-04 -5.98266474e-05 1.77431254e-03 -1.96929950e-04 2.87368718e-04 -1.96929950e-04 -2.45524166e-03
1.49623206e-03 -2.33049403e-04 -2.58540922e-08 -2.33049403e-04 2.77502893e-03 2.56825762e-04 -2.58540922e-08 2.56825762e-04 -3.58640018e-03
1.41782558e-03 -1.58996399e-05 -7.85551325e-04 -1.58996399e-05 2.28875427e-03 2.55922852e-04 -7.85551325e-04 2.55922852e-04 -3.11192556e-03
1.61465775e-03 -2.26898101e-04 1.91816573e-04 -2.26898101e-04 2.12888181e-03 -8.71892557e-05 1.91816573e-04 -8.71892557e-05 -3.15216178e-03
1.38400326e-03 -2.64695789e-04 2.58953558e-04 -2.64695789e-04 1.79296087e-03 -1.41586565e-04 2.58953558e-04 -1.41586565e-04 -2.66766065e-03
2.11338274e-03 -6.37188088e-04 -9.06624678e-08 -6.37188088e-04 3.19519138e-03 8.75479855e-05 -9.06624678e-08 8.75479855e-05 -4.46522585e-03
1.82550534e-03 -1.40720646e-04 -1.02361673e-03 -1.40720646e-04 2.64900230e-03 3.39598446e-04 -1.02361673e-03 3.39598446e-04 -3.75897769e-03
1.90402757e-03 -3.72727198e-04 3.21517640e-04 -3.72727198e-04 2.38651870e-03 -3.85644324e-04 3.21517640e-04 -3.85644324e-04 -3.61208228e-03
1.75758066e-03 -3.99620667e-04 4.75404093e-04 -3.99620667e-04 2.04312662e-03 -1.47669722e-04 4.75404093e-04 -1.47669722e-04 -3.19044953e-03
2.15238542e-03 -1.39538478e-03 -4.24728114e-07 -1.39538478e-03 4.19333111e-03 -6.45440537e-04 -4.24728114e-07 -6.45440537e-04 -5.32129174e-03
2.01372098e-03 -6.77209580e-04 -1.62707182e-03 -6.77209580e-04 3.36035201e-03 5.46829047e-04 -1.62707182e-03 5.46829047e-04 -4.49889665e-03
1.84385106e-03 -1.90609608e-04 9.48607449e-05 -1.90609608e-04 2.93359393e-03 -9.36305849e-04 9.48607449e-05 -9.36305849e-04 -4.01699799e-03
1.85904143e-03 -4.92270301e-04 -3.45875160e-05 -4.92270301e-04 2.55063796e-03 -3.13264944e-04 -3.45875160e-05 -3.13264944e-04 -3.69825691e-03
6.69460089e-04 2.16547862e-04 -1.02107964e-04 2.16547862e-04 7.56319932e-04 -1.04213335e-04 -1.02107964e-04 -1.04213335e-04 -1.19855755e-03
7.08809908e-04 9.35953722e-05 -5.91071694e-05 9.35953722e-05 8.02222115e-04 -3.98665705e-08 -5.91071694e-05 -3.98665705e-08 -1.27152348e-03
6.62742597e-04 1.70840060e-04 2.76445568e-04 1.70840060e-04 9.10458351e-04 -6.19994585e-05 2.76445568e-04 -6.19994585e-05 -1.32144091e-03
5.74076330e-04 4.97534884e-05 1.91474795e-04 4.97534884e-05 8.35329105e-04 8.18031804e-05 1.91474795e-04 8.18031804e-05 -1.18485402e-03
5.88169467e-04 2.91788998e-04 -1.08004082e-04 2.91788998e-04 6.55328542e-04 -1.11560590e-04 -1.08004082e-04 -1.11560590e-04 -1.04456053e-03
6.61696511e-04 1.78189324e-04 3.41643568e-04 1.78189324e-04 9.19140577e-04 6.44914782e-05 3.41643568e-04 6.44914782e-05 -1.32613932e-03
4.66463141e-04 2.57988180e-04 -2.32292776e-04 2.57988180e-04 5.34839521e-04 -1.24293463e-04 -2.32292776e-04 -1.24293463e-04 -8.42023481e-04
6.95402110e-04 -1.10438967e-04 7.57523311e-04 -1.10438967e-04 9.60382134e-04 1.59663470e-04 7.57523311e-04 1.59663470e-04 -1.38297839e-03
5.62183704e-04 -1.05767886e-05 -6.10090035e-04 -1.05767886e-05 6.58790519e-04 1.16680838e-04 -6.10090035e-04 1.16680838e-04 -1.02215192e-03
9.22699032e-04 -3.31363347e-04 1.17636845e-03 -3.31363347e-04 1.17829053e-03 3.60296058e-04 1.17636845e-03 3.60296058e-04 -1.75005511e-03
4.87049496e-04 -1.54330897e-04 -6.66753083e-04 -1.54330897e-04 7.06680621e-04 2.94237558e-04 -6.66753083e-04 2.94237558e-04 -9.96686416e-04
9.47970625e-04 -3.64413802e-04 1.44435640e-03 -3.64413802e-04 1.34226390e-03 7.12652842e-04 1.44435640e-03 7.12652842e-04 -1.89570356e-03
5.79031417e-04 -6.18766797e-04 -6.91773836e-04 -6.18766797e-04 7.26633054e-04 7.36232789e-04 -6.91773836e-04 7.36232789e-04 -1.07398958e-03
1.05163963e-03 -8.24358023e-04 1.32302038e-03 -8.24358023e-04 1.73711731e-03 1.21585133e-03 1.32302038e-03 1.21585133e-03 -2.30770853e-03
5.20515641e-04 3.14378685e-05 1.20883449e-05 3.14378685e-05 2.81750810e-04 -8.60020573e-05 1.20883449e-05 -8.60020573e-05 -6.73606002e-04
6.42771542e-04 2.67046662e-05 2.90880444e-05 2.67046662e-05 3.79835765e-04 -6.26206685e-07 2.90880444e-05 -6.26206685e-07 -8.59405613e-04
5.31807822e-04 2.53126586e-05 2.60128595e-04 2.53126586e-05 4.07132611e-04 2.83868110e-05 2.60128595e-04 2.83868110e-05 -7.88681158e-04
4.88111807e-04 1.01247904e-05 2.11691258e-04 1.01247904e-05 3.75184394e-04 1.58157320e-04 2.11691258e-04 1.58157320e-04 -7.25039296e-04
3.05809466e-04 1.22756400e-05 -7.09628023e-06 1.22756400e-05 1.36901886e-04 -8.23761002e-05 -7.09628023e-06 -8.23761002e-05 -3.71777816e-04
2.80242622e-04 -8.26908558e-06 2.25222158e-04 -8.26908558e-06 1.70061796e-04 3.09899388e-05 2.25222158e-04 3.09899388e-05 -3.77460949e-04
-1.23094627e-05 -1.96818851e-05 -2.69699292e-05 -1.96818851e-05 -2.73311953e-05 -3.29954451e-05 -2.69699292e-05 -3.29954451e-05 3.23122322e-05
2.47163969e-06 -3.04691087e-05 1.67526666e-04 -3.04691087e-05 1.24193784e-05 -1.79444449e-05 1.67526666e-04 -1.79444449e-05 -1.07535364e-05
-9.83105917e-05 6.01028108e-05 -7.72838175e-05 6.01028108e-05 -7.73551268e-05 -4.19851470e-05 -7.72838175e-05 -4.19851470e-05 1.41102986e-04
5.34796745e-05 -2.74820350e-04 4.45609233e-04 -2.74820350e-04 9.30451764e-06 2.22722204e-05 4.45609233e-04 2.22722204e-05 -1.90312254e-05
-5.41952686e-05 -6.09804071e-05 -4.44160857e-05 -6.09804071e-05 -6.75626313e-05 -3.04918140e-05 -4.44160857e-05 -3.04918140e-05 1.02217503e-04
-6.34675962e-06 -1.54001655e-04 2.87620103e-04 -1.54001655e-04 -1.61729422e-05 -1.71834436e-05 2.87620103e-04 -1.71834436e-05 4.17587914e-05
-1.39680909e-04 1.21983110e-04 -4.72497268e-05 1.21983110e-04 -3.52486531e-05 -1.00380523e-04 -4.72497268e-05 -1.00380523e-04 1.33989801e-04
8.42193549e-06 -2.75738683e-04 3.94230214e-04 -2.75738683e-04 3.18704806e-05 -1.80004572e-05 3.94230214e-04 -1.80004572e-05 -1.11698137e-06
4.25963735e-04 -4.87959278e-05 4.97657547e-05 -4.87959278e-05 1.85991965e-04 -6.17085279e-05 4.97657547e-05 -6.17085279e-05 -5.12489270e-04
5.35986241e-04 -1.87217238e-05 4.22640223e-05 -1.87217238e-05 2.41915739e-04 -2.48089236e-07 4.22640223e-05 -2.48089236e-07 -6.52057934e-04
3.61908875e-04 -5.50056188e-05 9.60852442e-05 -5.50056188e-05 1.84226228e-04 4.18810187e-05 9.60852442e-05 4.18810187e-05 -4.57791932e-04
4.35282374e-04 -4.84456109e-06 1.07374968e-04 -4.84456109e-06 2.23173658e-04 8.52608537e-05 1.07374968e-04 8.52608537e-05 -5.51556324e-04
1.71519056e-04 -4.88792853e-05 -2.86087834e-06 -4.88792853e-05 6.33611053e-05 -5.93976220e-05 -2.86087834e-06 -5.93976220e-05 -1.96178124e-04
1.31432625e-04 -6.53337447e-05 2.76812460e-05 -6.53337447e-05 5.82965747e-05 3.55022988e-05 2.76812460e-05 3.55022988e-05 -1.57847522e-04
-1.85004242e-05 5.34199376e-06 1.01158400e-06 5.34199376e-06 -8.20133641e-06 9.67069218e-06 1.01158400e-06 9.67069218e-06 2.23315210e-05
-2.39355062e-05 1.03072922e-05 6.15297715e-06 1.03072922e-05 -1.99023725e-05 -1.89655913e-05 6.15297715e-06 -1.89655913e-05 3.64253519e-05
0.00000000e+00 0.00000000e+00 0.00000000e+00 0.00000000e+00 0.00000000e+00 0.00000000e+00 0.00000000e+00 0.00000000e+00 0.00000000e+00
0.00000000e+00 0.00000000e+00 0.00000000e+00 0.00000000e+00 0.00000000e+00 0.00000000e+00 0.00000000e+00 0.00000000e+00 0.00000000e+00
0.00000000e+00 0.00000000e+00 0.00000000e+00 0.00000000e+00 0.00000000e+00 0.00000000e+00 0.00000000e+00 0.00000000e+00 0.00000000e+00
0.00000000e+00 0.00000000e+00 0.00000000e+00 0.00000000e+00 0.00000000e+00 0.00000000e+00 0.00000000e+00 0.00000000e+00 0.00000000e+00
0.00000000e+00 0.00000000e+00 0.00000000e+00 0.00000000e+00 0.00000000e+00 0.00000000e+00 0.00000000e+00 0.00000000e+00 0.00000000e+00
0.00000000e+00 0.00000000e+00 0.00000000e+00 0.00000000e+00 0.00000000e+00 0.00000000e+00 0.00000000e+00 0.00000000e+00 0.00000000e+00
3.81558166e-04 -4.36333881e-05 2.66478050e-05 -4.36333881e-05 2.37969431e-04 -5.07158229e-05 2.66478050e-05 -5.07158229e-05 -5.20564310e-04
5.20839181e-04 -4.04265720e-05 2.55813729e-05 -4.04265720e-05 3.19634099e-04 -3.69122290e-07 2.55813729e-05 -3.69122290e-07 -7.06487917e-04
3.20421947e-04 -5.20321055e-05 1.65133337e-05 -5.20321055e-05 2.10125088e-04 3.94357135e-05 1.65133337e-05 3.94357135e-05 -4.45762122e-04
4.12076108e-04 -3.23834597e-05 -8.91671516e-06 -3.23834597e-05 2.69774537e-04 1.08826633e-04 -8.91671516e-06 1.08826633e-04 -5.72805380e-04
1.22787594e-04 -3.92646878e-05 9.96418362e-06 -3.92646878e-05 7.12927340e-05 -4.86040344e-05 9.96418362e-06 -4.86040344e-05 -1.62712452e-04
1.09923245e-04 -3.85568746e-05 4.29978979e-06 -3.85568746e-05 8.37272337e-05 4.15505579e-05 4.29978979e-06 4.15505579e-05 -1.62657776e-04
-7.23197468e-06 1.41044018e-06 -8.67312764e-07 1.41044018e-06 -6.99236307e-06 4.85409464e-06 -8.67312764e-07 4.85409464e-06 1.19838342e-05
3.44318951e-05 -1.12359958e-05 -1.02701536e-05 -1.12359958e-05 3.19634006e-05 3.14287545e-05 -1.02701536e-05 3.14287545e-05 -5.56538210e-05
0.00000000e+00 0.00000000e+00 0.00000000e+00 0.00000000e+00 0.00000000e+00 0.00000000e+00 0.00000000e+00 0.00000000e+00 0.00000000e+00
0.00000000e+00 0.00000000e+00 0.00000000e+00 0.00000000e+00 0.00000000e+00 0.00000000e+00 0.00000000e+00 0.00000000e+00 0.00000000e+00
0.00000000e+00 0.00000000e+00 0.00000000e+00 0.00000000e+00 0.00000000e+00 0.00000000e+00 0.00000000e+00 0.00000000e+00 0.00000000e+00
0.00000000e+00 0.00000000e+00 0.00000000e+00 0.00000000e+00 0.00000000e+00 0.00000000e+00 0.00000000e+00 0.00000000e+00 0.00000000e+00
0.00000000e+00 0.00000000e+00 0.00000000e+00 0.00000000e+00 0.00000000e+00 0.00000000e+00 0.00000000e+00 0.00000000e+00 0.00000000e+00
0.00000000e+00 0.00000000e+00 0.00000000e+00 0.00000000e+00 0.00000000e+00 0.00000000e+00 0.00000000e+00 0.00000000e+00 0.00000000e+00
4.18975877e-04 -5.80097612e-05 5.18741604e-06 -5.80097612e-05 3.02507397e-04 -8.83500543e-05 5.18741604e-06 -8.83500543e-05 -6.06462738e-04
6.19567465e-04 -8.04973242e-05 1.62235137e-05 -8.04973242e-05 4.03411919e-04 -6.54104269e-07 1.62235137e-05 -6.54104269e-07 -8.60334723e-04
3.85175212e-04 -8.17752079e-05 2.04263506e-06 -8.17752079e-05 3.03951172e-04 -8.12792132e-06 2.04263506e-06 -8.12792132e-06 -5.79773216e-04
4.22878671e-04 -7.62900818e-05 -1.00339472e-04 -7.62900818e-05 3.20333987e-04 1.36680097e-04 -1.00339472e-04 1.36680097e-04 -6.24716180e-04
1.16786352e-04 -5.42474495e-05 1.95066946e-05 -5.42474495e-05 1.04840481e-04 -5.07005007e-05 1.95066946e-05 -5.07005007e-05 -1.86018493e-04
1.89541664e-04 -4.99593260e-05 8.18341937e-05 -4.99593260e-05 1.94511182e-04 2.73007272e-05 8.18341937e-05 2.73007272e-05 -3.22364038e-04
-5.64641323e-06 1.66483471e-06 -1.98232419e-06 1.66483471e-06 -1.02622980e-05 5.15701777e-06 -1.98232419e-06 5.15701777e-06 1.33752847e-05
6.82143454e-05 -1.78338575e-05 3.71021319e-05 -1.78338575e-05 7.98099075e-05 7.17124767e-05 3.71021319e-05 7.17124767e-05 -1.23696022e-04
0.00000000e+00 0.00000000e+00 0.00000000e+00 0.00000000e+00 0.00000000e+00 0.00000000e+00 0.00000000e+00 0.00000000e+00 0.00000000e+00
0.00000000e+00 0.00000000e+00 0.00000000e+00 0.00000000e+00 0.00000000e+00 0.00000000e+00 0.00000000e+00 0.00000000e+00 0.00000000e+00
0.00000000e+00 0.00000000e+00 0.00000000e+00 0.00000000e+00 0.00000000e+00 0.00000000e+00 0.00000000e+00 0.00000000e+00 0.00000000e+00
0.00000000e+00 0.00000000e+00 0.00000000e+00 0.00000000e+00 0.00000000e+00 0.00000000e+00 0.00000000e+00 0.00000000e+00 0.00000000e+00
0.00000000e+00 0.00000000e+00 0.00000000e+00 0.00000000e+00 0.00000000e+00 0.00000000e+00 0.00000000e+00 0.00000000e+00 0.00000000e+00
0.00000000e+00 0.00000000e+00 0.00000000e+00 0.00000000e+00 0.00000000e+00 0.00000000e+00 0.00000000e+00 0.00000000e+00 0.00000000e+00
7.54119945e-04 -1.12533399e-07 3.02337576e-04 -1.12533399e-07 1.30547059e-03 -1.75297479e-04 3.02337576e-04 -1.75297479e-04 -1.72937498e-03
8.47011688e-04 -9.78995267e-05 2.76157996e-04 -9.78995267e-05 1.21939322e-03 -6.09625504e-05 2.76157996e-04 -6.09625504e-05 -1.73802796e-03
7.16341085e-04 -3.30896364e-04 2.02860672e-04 -3.30896364e-04 1.20880367e-03 -2.68975902e-04 2.02860672e-04 -2.68975902e-04 -1.61370318e-03
6.44340296e-04 -8.99170336e-05 3.13420155e-04 -8.99170336e-05 1.24153247e-03 -1.97944242e-04 3.13420155e-04 -1.97944242e-04 -1.58042283e-03
1.05695387e-03 -2.16132710e-04 -5.93255490e-05 -2.16132710e-04 1.02468007e-03 -1.19055324e-04 -5.93255490e-05 -1.19055324e-04 -1.75458071e-03
1.00066086e-03 -3.77139993e-04 2.11195231e-04 -3.77139993e-04 1.12716939e-03 -3.36237817e-04 2.11195231e-04 -3.36237817e-04 -1.78206692e-03
1.29896373e-03 -1.29843168e-05 1.07662036e-04 -1.29843168e-05 9.35652948e-04 -3.34993093e-04 1.07662036e-04 -3.34993093e-04 -1.88192044e-03
1.29293121e-03 -1.69370966e-04 3.38222491e-04 -1.69370966e-04 1.25801255e-03 1.77193468e-04 3.38222491e-04 1.77193468e-04 -2.14095220e-03
1.46926055e-03 -1.02372755e-04 9.22344057e-04 -1.02372755e-04 1.05290604e-03 -3.22623473e-04 9.22344057e-04 -3.22623473e-04 -2.11571323e-03
1.42406039e-03 -6.17913996e-05 1.83260728e-04 -6.17913996e-05 1.43306874e-03 2.03569297e-04 1.83260728e-04 2.03569297e-04 -2.40635462e-03
1.34639145e-03 -3.77317247e-05 9.44978936e-04 -3.77317247e-05 1.15511449e-03 -2.57897805e-04 9.44978936e-04 -2.57897805e-04 -2.09703061e-03
1.41547923e-03 -5.28387756e-05 4.78765063e-04 -5.28387756e-05 1.42445024e-03 -1.15788851e-04 4.78765063e-04 -1.15788851e-04 -2.39053994e-03
1.22873503e-03 2.97567167e-04 7.51200365e-04 2.97567167e-04 1.13033562e-03 -4.79245449e-04 7.51200365e-04 -4.79245449e-04 -1.98069634e-03
1.33348798e-03 3.12944616e-04 -1.24731792e-04 3.12944616e-04 1.30913217e-03 -4.52448687e-04 -1.24731792e-04 -4.52448687e-04 -2.22422960e-03
5.79367061e-04 -2.04999371e-04 3.66544189e-04 -2.04999371e-04 1.08947618e-03 -1.77953869e-04 3.66544189e-04 -1.77953869e-04 -1.39859499e-03
4.17784089e-04 -4.97486344e-05 5.53684586e-04 -4.97486344e-05 1.03174927e-03 -3.10505951e-04 5.53684586e-04 -3.10505951e-04 -1.20648666e-03
1.11377773e-03 -2.74078707e-04 9.57557258e-04 -2.74078707e-04 1.43815293e-03 4.69618067e-05 9.57557258e-04 4.69618067e-05 -2.14276368e-03
1.62134194e-03 -3.69926174e-04 1.57320197e-03 -3.69926174e-04 1.85958459e-03 -1.75656914e-04 1.57320197e-03 -1.75656914e-04 -2.91078193e-03
1.72467204e-03 -1.10184210e-05 2.47991327e-04 -1.10184210e-05 2.00031706e-03 3.05825753e-04 2.47991327e-04 3.05825753e-04 -3.13620153e-03
2.00593256e-03 -7.17053231e-05 4.41361168e-04 -7.17053231e-05 2.10321462e-03 8.51560431e-04 4.41361168e-04 8.51560431e-04 -3.45719885e-03
2.11429951e-03 3.50541770e-04 -5.86819020e-04 3.50541770e-04 1.99985848e-03 5.68435149e-04 -5.86819020e-04 5.68435149e-04 -3.45721876e-03
3.00678796e-04 6.12088097e-05 5.71020017e-04 6.12088097e-05 5.89022293e-04 1.38294721e-04 5.71020017e-04 1.38294721e-04 -7.36737002e-04
3.68176414e-04 7.59151644e-05 4.22664652e-04 7.59151644e-05 6.57052609e-04 -1.73252905e-04 4.22664652e-04 -1.73252905e-04 -8.56108527e-04
4.71157345e-04 -1.91066136e-04 7.77561865e-04 -1.91066136e-04 8.96819006e-04 8.65962094e-04 7.77561865e-04 8.65962094e-04 -1.11836011e-03
-1.83284104e-04 -7.29156740e-04 1.55090183e-03 -7.29156740e-04 2.77040994e-04 2.56657384e-04 1.55090183e-03 2.56657384e-04 7.33165034e-05
2.39559271e-04 -1.85447449e-05 2.80663279e-04 -1.85447449e-05 2.13522468e-04 1.07899722e-04 2.80663279e-04 1.07899722e-04 -3.72635492e-04
2.87414223e-04 4.11795901e-06 1.90271864e-04 4.11795901e-06 2.69422802e-04 1.02430206e-04 1.90271864e-04 1.02430206e-04 -4.67361249e-04
4.20033379e-05 -3.41222071e-05 1.01082757e-04 -3.41222071e-05 4.16679387e-05 7.86552919e-05 1.01082757e-04 7.86552919e-05 -7.07436493e-05
-3.09874886e-05 -6.68094419e-05 2.92651384e-05 -6.68094419e-05 -2.08297658e-05 -7.80819538e-05 2.92651384e-05 -7.80819538e-05 3.55564040e-05
2.21815055e-04 -1.01316491e-04 3.23628822e-05 -1.01316491e-04 1.94780629e-04 1.09549479e-04 3.23628822e-05 1.09549479e-04 -3.48558653e-04
1.40648491e-04 -2.13951657e-05 2.37490315e-05 -2.13951657e-05 1.08324838e-04 7.65373898e-05 2.37490315e-05 7.65373898e-05 -2.09495425e-04
2.69073662e-04 -1.23001822e-04 5.61073816e-05 -1.23001822e-04 2.80840000e-04 1.28988842e-04 5.61073816e-05 1.28988842e-04 -4.59539724e-04
2.49673474e-04 -3.45643823e-05 -1.92171303e-04 -3.45643823e-05 2.75084487e-04 2.20297605e-04 -1.92171303e-04 2.20297605e-04 -4.45078986e-04
1.73300625e-04 -1.85590927e-05 -9.49225323e-05 -1.85590927e-05 2.13010153e-04 -5.28509153e-05 -9.49225323e-05 -5.28509153e-05 -3.25390602e-04
1.59870899e-04 5.42863545e-05 2.83232184e-05 5.42863545e-05 1.55694004e-04 -3.62386290e-05 2.83232184e-05 -3.62386290e-05 -2.66236057e-04
4.02226753e-04 -1.47591832e-04 1.12502230e-04 -1.47591832e-04 4.85662706e-04 -3.10300703e-06 1.12502230e-04 -3.10300703e-06 -7.53385902e-04
1.11764175e-03 -1.42017750e-04 8.08123223e-04 -1.42017750e-04 1.12149963e-03 1.01108628e-03 8.08123223e-04 1.01108628e-03 -1.87767969e-03
0.00000000e+00 0.00000000e+00 0.00000000e+00 0.00000000e+00 0.00000000e+00 0.00000000e+00 0.00000000e+00 0.00000000e+00 0.00000000e+00
0.00000000e+00 0.00000000e+00 0.00000000e+00 0.00000000e+00 0.00000000e+00 0.00000000e+00 0.00000000e+00 0.00000000e+00 0.00000000e+00
0.00000000e+00 0.00000000e+00 0.00000000e+00 0.00000000e+00 0.00000000e+00 0.00000000e+00 0.00000000e+00 0.00000000e+00 0.00000000e+00
0.00000000e+00 0.00000000e+00 0.00000000e+00 0.00000000e+00 0.00000000e+00 0.00000000e+00 0.00000000e+00 0.00000000e+00 0.00000000e+00
1.03565928e-03 1.19551666e-08 4.08495805e-04 1.19551666e-08 1.05647428e-03 -2.10351551e-04 4.08495805e-04 -2.10351551e-04 -1.76029716e-03
1.07599626e-03 -5.85682646e-05 4.20094126e-04 -5.85682646e-05 9.82121084e-04 -3.77481119e-05 4.20094126e-04 -3.77481119e-05 -1.73125439e-03
1.06954313e-03 -3.68220080e-04 5.19739875e-04 -3.68220080e-04 1.05183319e-03 1.01098515e-04 5.19739875e-04 1.01098515e-04 -1.78207437e-03
9.86997256e-04 -4.36515293e-05 4.76618647e-04 -4.36515293e-05 1.15660741e-03 -1.97095273e-04 4.76618647e-04 -1.97095273e-04 -1.80197504e-03
1.20358978e-03 -2.18843787e-04 5.56978513e-04 -2.18843787e-04 7.72179512e-04 1.06901052e-05 5.56978513e-04 1.06901052e-05 -1.65819636e-03
1.22401543e-03 -4.94296706e-04 1.43597306e-04 -4.94296706e-04 9.09977447e-04 4.38781572e-05 1.43597306e-04 4.38781572e-05 -1.79194717e-03
1.30551180e-03 -1.66065993e-05 1.98721285e-04 -1.66065993e-05 5.94678422e-04 1.46001024e-04 1.98721285e-04 1.46001024e-04 -1.59314391e-03
1.33314647e-03 -2.97614266e-04 -3.07644606e-04 -2.97614266e-04 9.28245216e-04 -2.64698094e-04 -3.07644606e-04 -2.64698094e-04 -1.89833496e-03
1.16216252e-03 -7.00591045e-06 -2.34823165e-04 -7.00591045e-06 5.53693317e-04 -4.70276291e-05 -2.34823165e-04 -4.70276291e-05 -1.44031484e-03
1.32191119e-03 1.56384133e-04 -1.37680636e-05 1.56384133e-04 1.18510964e-03 -6.98716940e-05 -1.37680636e-05 -6.98716940e-05 -2.10856601e-03
8.06475990e-04 9.50202593e-05 4.63352371e-05 9.50202593e-05 5.50000499e-04 -1.53339159e-04 4.63352371e-05 -1.53339159e-04 -1.14164286e-03
1.14834370e-03 1.62445066e-04 -4.44960924e-05 1.62445066e-04 9.99618649e-04 7.19597433e-05 -4.44960924e-05 7.19597433e-05 -1.80826595e-03
6.57859113e-04 2.00365866e-04 1.17693278e-04 2.00365866e-04 3.94741364e-04 -1.57626011e-04 1.17693278e-04 -1.57626011e-04 -8.84186476e-04
9.62692618e-04 1.55651775e-04 4.76054938e-05 1.55651775e-04 7.63971620e-04 -1.28984540e-04 4.76054938e-05 -1.28984540e-04 -1.45299544e-03
8.27788412e-04 -5.58691860e-04 1.12053523e-03 -5.58691860e-04 1.13428885e-03 -3.71560656e-04 1.12053523e-03 -3.71560656e-04 -1.61999455e-03
6.52369839e-04 -3.27892041e-04 6.99585653e-04 -3.27892041e-04 1.21869307e-03 -2.10414055e-04 6.99585653e-04 -2.10414055e-04 -1.56551140e-03
1.30962077e-03 -2.79491227e-04 5.35829001e-04 -2.79491227e-04 1.27213145e-03 -5.33661686e-04 5.35829001e-04 -5.33661686e-04 -2.18106291e-03
2.08074269e-03 -4.62429695e-04 -2.23423763e-03 -4.62429695e-04 1.66437983e-03 2.29394413e-04 -2.23423763e-03 2.29394413e-04 -3.11050136e-03
1.85751758e-03 1.48317311e-04 -1.53101780e-04 1.48317311e-04 1.90677695e-03 5.15887856e-04 -1.53101780e-04 5.15887856e-04 -3.17028794e-03
1.54147868e-03 -1.06980990e-04 -2.83454734e-04 -1.06980990e-04 1.49748099e-03 1.70619105e-04 -2.83454734e-04 1.70619105e-04 -2.55769485e-03
1.33848272e-03 4.95638524e-05 -2.04026379e-04 4.95638524e-05 1.21371570e-03 6.65329771e-05 -2.04026379e-04 6.65329771e-05 -2.14815175e-03
6.94811605e-04 -3.14058097e-04 1.20331861e-03 -3.14058097e-04 1.12558890e-03 -9.27362125e-05 1.20331861e-03 -9.27362125e-05 -1.49403600e-03
2.31951287e-04 -8.36285708e-05 6.53489667e-04 -8.36285708e-05 8.10854282e-04 5.40309004e-04 6.53489667e-04 5.40309004e-04 -8.64287555e-04
1.68216435e-03 -7.82308336e-04 2.28582695e-03 -7.82308336e-04 2.14924139e-03 -2.54039585e-03 2.28582695e-03 -2.54039585e-03 -3.14929005e-03
2.39177571e-04 -3.29718033e-05 2.85235737e-04 -3.29718033e-05 4.88700838e-04 4.51868497e-04 2.85235737e-04 4.51868497e-04 -6.03563119e-04
1.56283149e-04 -9.53471863e-05 5.04420710e-04 -9.53471863e-05 3.70570346e-04 2.42290254e-04 5.04420710e-04 2.42290254e-04 -4.24966682e-04
2.82464129e-04 -1.29598174e-04 5.71837387e-04 -1.29598174e-04 6.21480354e-04 8.31962454e-04 5.71837387e-04 8.31962454e-04 -6.90515712e-04
1.06996540e-04 4.22226320e-05 1.52402626e-04 4.22226320e-05 1.03547708e-04 2.97965165e-05 1.52402626e-04 2.97965165e-05 -1.84913378e-04
1.59360150e-04 8.29567207e-05 8.41761921e-05 8.29567207e-05 1.37637162e-04 -5.28940709e-05 8.41761921e-05 -5.28940709e-05 -2.48794940e-04
4.10263726e-04 -3.14656218e-04 -3.45729316e-04 -3.14656218e-04 5.57853865e-04 6.16941610e-04 -3.45729316e-04 6.16941610e-04 -8.24493406e-04
-8.77406055e-05 5.97040169e-04 -5.43288770e-04 5.97040169e-04 -7.98113706e-06 3.43046006e-04 -5.43288770e-04 3.43046006e-04 1.65969323e-04
1.35123681e-03 5.88205080e-04 -2.83891653e-03 5.88205080e-04 2.21246735e-03 1.60194217e-03 -2.83891653e-03 1.60194217e-03 -2.92196829e-03
5.39215407e-04 1.74412635e-04 8.09253910e-04 1.74412635e-04 5.42292153e-04 2.24868387e-04 8.09253910e-04 2.24868387e-04 -8.96093864e-04
2.96284212e-04 -1.57065206e-05 3.35710683e-04 -1.57065206e-05 4.30051718e-04 1.92831190e-04 3.35710683e-04 1.92831190e-04 -6.05839945e-04
</DataArray>
<DataArray type="Float32" Name="Spatial_displacement" NumberOfComponents="3" format="ascii">
0.00000000e+00 0.00000000e+00 0.00000000e+00
5.69304160e-04 0.00000000e+00 0.00000000e+00
6.88699307e-04 2.09130533e-03 0.00000000e+00
0.00000000e+00 1.94347114e-03 0.00000000e+00
0.00000000e+00 0.00000000e+00 -2.46126414e-03
6.11146213e-04 0.00000000e+00 -2.67332024e-03
6.15112134e-04 1.82855828e-03 -2.42913351e-03
0.00000000e+00 1.80245761e-03 -2.25763372e-03
1.33425149e-03 0.00000000e+00 0.00000000e+00
1.43599650e-03 2.45502777e-03 0.00000000e+00
1.39363646e-03 0.00000000e+00 -3.24358954e-03
1.42926525e-03 1.97263551e-03 -2.69700796e-03
2.32844730e-03 0.00000000e+00 0.00000000e+00
2.29001115e-03 2.84510292e-03 0.00000000e+00
2.51398701e-03 0.00000000e+00 -3.74145899e-03
2.43352400e-03 2.15670187e-03 -3.13024805e-03
3.66876600e-03 0.00000000e+00 0.00000000e+00
3.39749921e-03 3.14933504e-03 0.00000000e+00
3.95997893e-03 0.00000000e+00 -4.04948788e-03
3.69175337e-03 2.24841852e-03 -3.83847486e-03
5.70632424e-03 0.00000000e+00 0.00000000e+00
4.98874485e-03 3.57284048e-03 0.00000000e+00
5.79881202e-03 0.00000000e+00 -4.88446839e-03
5.37178665e-03 2.41910480e-03 -4.52685729e-03
8.38412531e-03 0.00000000e+00 0.00000000e+00
6.85163820e-03 4.93376795e-03 0.00000000e+00
7.67917652e-03 0.00000000e+00 -5.42398635e-03
7.46951345e-03 3.11829057e-03 -5.32245170e-03
8.33672530e-04 3.37773398e-03 0.00000000e+00
0.00000000e+00 3.24640982e-03 0.00000000e+00
6.92911330e-04 3.23559553e-03 -1.70977006e-03
0.00000000e+00 3.16256238e-03 -1.80195097e-03
1.58898835e-03 3.68465926e-03 0.00000000e+00
1.43770711e-03 3.52755678e-03 -1.53147790e-03
2.24931701e-03 4.11669863e-03 0.00000000e+00
2.10182788e-03 3.77775822e-03 -1.23031263e-03
2.86961789e-03 4.71386500e-03 0.00000000e+00
3.05338250e-03 3.93992011e-03 -1.45038369e-03
3.55768204e-03 5.30000217e-03 0.00000000e+00
3.95668531e-03 4.46294528e-03 -1.40770630e-03
4.14292095e-03 6.67625573e-03 0.00000000e+00
5.12532936e-03 5.78502193e-03 -1.64271588e-03
8.56662460e-04 3.91314272e-03 0.00000000e+00
0.00000000e+00 3.86520196e-03 0.00000000e+00
7.17741787e-04 3.92736122e-03 -1.13530981e-03
0.00000000e+00 3.90609796e-03 -1.37386029e-03
1.52806588e-03 4.04406199e-03 0.00000000e+00
1.37327565e-03 4.03516134e-03 -7.87695870e-04
1.96606759e-03 4.27467562e-03 0.00000000e+00
1.74375973e-03 4.19942942e-03 -2.27176119e-04
2.14765361e-03 4.70166095e-03 0.00000000e+00
1.99912325e-03 4.33606002e-03 2.06104014e-04
2.61822622e-03 5.24777826e-03 0.00000000e+00
2.59159133e-03 4.82750870e-03 2.46009789e-04
2.63462029e-03 6.32047653e-03 0.00000000e+00
2.73312954e-03 6.16099592e-03 7.46410806e-05
7.87196099e-04 4.12943540e-03 0.00000000e+00
0.00000000e+00 4.15561302e-03 0.00000000e+00
6.72007445e-04 4.21788171e-03 -1.00252382e-03
0.00000000e+00 4.22359398e-03 -1.15631567e-03
1.34743785e-03 4.15793573e-03 0.00000000e+00
1.18282344e-03 4.15041577e-03 -6.62222272e-04
1.59303681e-03 4.29472234e-03 0.00000000e+00
1.36922440e-03 4.26635332e-03 -1.89316459e-04
1.58052170e-03 4.64282325e-03 0.00000000e+00
1.52846554e-03 4.68948018e-03 3.66773456e-05
1.69807591e-03 5.86052053e-03 0.00000000e+00
1.70843001e-03 5.15267067e-03 0.00000000e+00
1.73491752e-03 5.91375399e-03 4.23286110e-07
1.70767237e-03 5.21472283e-03 4.87798825e-05
7.03907805e-04 4.37614974e-03 0.00000000e+00
0.00000000e+00 4.44658194e-03 0.00000000e+00
6.02867571e-04 4.42319224e-03 -1.06099795e-03
0.00000000e+00 4.48324997e-03 -1.27088814e-03
1.15768751e-03 4.29088390e-03 0.00000000e+00
9.83264064e-04 4.32459312e-03 -7.14606605e-04
1.28754624e-03 4.38457960e-03 0.00000000e+00
1.13274704e-03 4.39014938e-03 -2.66915420e-04
1.26990094e-03 4.68312576e-03 0.00000000e+00
1.19637814e-03 4.68674861e-03 3.16342339e-05
1.17391860e-03 5.19181322e-03 0.00000000e+00
1.19890203e-03 5.19560464e-03 1.62934884e-06
1.19478244e-03 5.73936477e-03 0.00000000e+00
1.20227202e-03 5.71866799e-03 -1.40233897e-05
7.91279017e-04 4.75922506e-03 0.00000000e+00
0.00000000e+00 4.89131454e-03 0.00000000e+00
6.17395912e-04 4.76505887e-03 -1.18192972e-03
0.00000000e+00 4.91041690e-03 -1.44576246e-03
1.15086325e-03 4.48742928e-03 0.00000000e+00
9.69949760e-04 4.56312019e-03 -8.32609134e-04
1.11932796e-03 4.45073470e-03 0.00000000e+00
1.01559062e-03 4.53112926e-03 -3.61174811e-04
9.21404688e-04 4.74325474e-03 0.00000000e+00
8.33537662e-04 4.73767333e-03 4.98702284e-05
7.51844957e-04 5.19237202e-03 0.00000000e+00
7.49386265e-04 5.19958511e-03 2.00669747e-05
7.09237298e-04 5.70298824e-03 0.00000000e+00
7.21963064e-04 5.68610989e-03 1.26548111e-05
0.00000000e+00 0.00000000e+00 -4.77084285e-03
7.93284154e-04 0.00000000e+00 -4.99279983e-03
6.73683360e-04 1.37987430e-03 -4.63829469e-03
0.00000000e+00 1.49091147e-03 -4.39287722e-03
1.80811272e-03 0.00000000e+00 -5.45978593e-03
1.53449643e-03 1.07616535e-03 -5.53449709e-03
2.99656298e-03 0.00000000e+00 -6.38218038e-03
2.98481900e-03 9.73696995e-04 -6.25547953e-03
4.62593976e-03 0.00000000e+00 -7.64047820e-03
4.49579163e-03 1.10955595e-03 -6.51100278e-03
6.20846031e-03 0.00000000e+00 -8.64562299e-03
6.16039243e-03 1.16080476e-03 -7.48952897e-03
7.39008421e-03 0.00000000e+00 -9.19442624e-03
7.76361208e-03 1.06953376e-03 -8.25796276e-03
3.73226358e-04 2.80167954e-03 -3.78020713e-03
0.00000000e+00 2.87083117e-03 -3.36090825e-03
1.26633653e-03 2.66246777e-03 -3.78934131e-03
2.56562745e-03 2.91103474e-03 -4.01074253e-03
4.27961443e-03 3.22547439e-03 -5.57377702e-03
6.12036558e-03 3.30787851e-03 -5.80807216e-03
8.32621660e-03 3.14906775e-03 -6.83714449e-03
3.46896413e-04 3.98492161e-03 -2.62792315e-03
0.00000000e+00 3.87334474e-03 -2.35563377e-03
8.05318763e-04 3.97900818e-03 -1.56707142e-03
6.89731445e-04 4.01365664e-03 1.74298882e-04
4.45162936e-04 4.42826236e-03 -1.89160730e-03
0.00000000e+00 4.41664737e-03 -2.08409131e-03
7.64772878e-04 4.34171921e-03 -1.18312228e-03
8.67633265e-04 4.13200585e-03 -5.16880071e-04
3.24006542e-04 4.62963851e-03 -1.99926738e-03
0.00000000e+00 4.69827652e-03 -2.23205611e-03
6.88709901e-04 4.50117653e-03 -1.37659127e-03
1.06372032e-03 4.35924623e-03 -1.11350557e-03
1.63952645e-04 5.00724465e-03 -2.43484695e-03
0.00000000e+00 4.85166628e-03 -2.32651457e-03
5.32938691e-04 5.09031489e-03 -1.99946924e-03
1.07830786e-03 4.90081497e-03 -1.63206074e-03
1.23151042e-03 5.17086871e-03 7.84406438e-07
1.23143476e-03 5.64971659e-03 -2.94591300e-05
7.47768616e-04 5.65759279e-03 1.91503204e-05
7.36727030e-04 5.17487433e-03 3.72820068e-05
0.00000000e+00 0.00000000e+00 -7.03095458e-03
1.16087310e-03 0.00000000e+00 -7.29455659e-03
1.09169260e-03 1.13379047e-03 -6.76106941e-03
0.00000000e+00 1.18185068e-03 -6.51979726e-03
2.50885030e-03 0.00000000e+00 -8.04987457e-03
2.22168304e-03 8.09863152e-04 -7.31974980e-03
3.87437502e-03 0.00000000e+00 -8.77963472e-03
3.85750039e-03 5.54304570e-04 -8.51340499e-03
5.44214202e-03 0.00000000e+00 -9.50303115e-03
5.43236732e-03 6.21185929e-04 -9.80729051e-03
6.72022952e-03 0.00000000e+00 -1.03867743e-02
6.85602240e-03 7.31475244e-04 -1.03067532e-02
7.62272580e-03 0.00000000e+00 -1.08070411e-02
7.92608038e-03 4.92866733e-04 -1.06167067e-02
6.18062622e-04 2.17122422e-03 -5.60920872e-03
0.00000000e+00 2.59489124e-03 -5.34891617e-03
1.83914602e-03 1.97817176e-03 -7.62501825e-03
3.32889846e-03 2.21069041e-03 -9.47699044e-03
5.64478524e-03 2.65488517e-03 -9.19777248e-03
7.25456420e-03 2.11455440e-03 -9.91998706e-03
8.50760750e-03 1.58854248e-03 -9.99601278e-03
2.84540351e-04 3.72770894e-03 -3.50309396e-03
0.00000000e+00 3.82902217e-03 -4.24409611e-03
1.61948963e-03 3.44062154e-03 -5.52260270e-03
2.00102397e-04 4.60687559e-03 -2.64653820e-03
0.00000000e+00 4.78451978e-03 -3.06573627e-03
5.43059141e-04 4.69561853e-03 -1.50130072e-03
2.40632507e-04 5.12430631e-03 -2.84834858e-03
0.00000000e+00 4.91067488e-03 -2.72758608e-03
5.56887011e-04 5.26272692e-03 -2.74667516e-03
2.97559076e-04 4.87028435e-03 -2.47086864e-04
1.41335430e-03 4.67350055e-03 -2.28077825e-03
7.88570615e-05 5.22753596e-03 -3.00953211e-03
0.00000000e+00 5.26314043e-03 -3.38947913e-03
</DataArray>
<DataArray type="Float32" Name="Spatial_acceleration" NumberOfComponents="3" format="ascii">
0.00000000e+00 0.00000000e+00 0.00000000e+00
1.59565604e-06 0.00000000e+00 0.00000000e+00
-4.54937407e-07 8.28027737e-07 0.00000000e+00
0.00000000e+00 -1.46087007e-06 0.00000000e+00
0.00000000e+00 0.00000000e+00 -2.32696536e-07
-1.04602179e-06 0.00000000e+00 -4.42822767e-07
7.12037092e-07 5.83330788e-08 -1.47438050e-06
0.00000000e+00 6.51915855e-07 7.65800451e-07
5.88893897e-07 0.00000000e+00 0.00000000e+00
-2.37395369e-07 1.65732695e-06 0.00000000e+00
-1.07884404e-07 0.00000000e+00 2.08218893e-07
-4.80612101e-08 1.17719175e-07 9.31421880e-07
-1.37567520e-06 0.00000000e+00 0.00000000e+00
-1.12730265e-06 -6.93400693e-07 0.00000000e+00
1.75913169e-06 0.00000000e+00 -7.10805239e-07
-1.83061752e-06 -5.38289555e-07 1.50394442e-06
3.58740493e-07 0.00000000e+00 0.00000000e+00
-2.39453720e-06 -2.73625062e-07 0.00000000e+00
-1.52826303e-07 0.00000000e+00 1.35453536e-06
7.08301855e-07 -5.84562599e-07 7.19706236e-07
-1.26783050e-06 0.00000000e+00 0.00000000e+00
-7.52349706e-07 5.44706950e-07 0.00000000e+00
1.62519518e-06 0.00000000e+00 1.02424622e-06
-2.33300534e-06 -1.15181010e-07 -4.35352320e-07
3.44109276e-06 0.00000000e+00 0.00000000e+00
-3.22484971e-06 8.11894722e-07 0.00000000e+00
1.77105264e-07 0.00000000e+00 6.40869132e-07
-1.66892999e-09 1.72416364e-07 -1.54940290e-06
6.74009300e-07 1.43543878e-06 0.00000000e+00
0.00000000e+00 -1.07685722e-07 0.00000000e+00
-4.62909526e-07 8.78294315e-07 -1.65685015e-06
0.00000000e+00 1.97879467e-06 9.73065653e-07
1.06414156e-07 1.10197061e-06 0.00000000e+00
6.22173175e-08 8.84532909e-08 1.39435133e-06
-1.07614198e-06 -1.73497199e-06 0.00000000e+00
2.61942546e-07 4.02087267e-07 3.54857661e-07
-4.80969732e-07 -1.88946728e-07 0.00000000e+00
-1.54329678e-06 2.41210728e-06 -1.38176813e-06
4.30424990e-07 2.05961851e-06 0.00000000e+00
8.33246474e-07 4.12358190e-07 -2.93731688e-07
7.27653514e-07 -3.78529222e-07 0.00000000e+00
1.29318244e-06 -2.94346273e-06 -5.65422908e-07
-5.15381487e-07 1.98304656e-06 0.00000000e+00
0.00000000e+00 -1.11480551e-06 0.00000000e+00
6.78340598e-07 2.51094491e-07 -1.43639249e-06
0.00000000e+00 2.83936652e-06 -1.16793308e-06
1.90973287e-06 1.03432990e-06 0.00000000e+00
1.29127500e-06 8.93493507e-07 -2.79951087e-06
3.21427979e-06 1.70429544e-07 0.00000000e+00
1.94607833e-06 -4.73704603e-07 -4.54372838e-07
-9.70416636e-07 3.79403446e-07 0.00000000e+00
3.01318710e-06 2.05548599e-06 -2.85307578e-06
3.28238798e-06 1.72869363e-06 0.00000000e+00
-9.31315981e-07 4.46955346e-06 -1.90268622e-06
1.42423312e-06 -3.94439712e-06 0.00000000e+00
1.94275367e-06 2.55036343e-06 -8.76267734e-07
5.49634308e-07 2.30252749e-06 0.00000000e+00
0.00000000e+00 1.05166430e-06 0.00000000e+00
1.96592009e-06 7.13010650e-07 -2.18232481e-06
0.00000000e+00 1.46931404e-06 -3.70852149e-06
3.88387843e-06 -4.71775735e-07 0.00000000e+00
3.97487474e-06 4.27067278e-07 -1.37408574e-06
3.55001293e-06 1.37933091e-06 0.00000000e+00
2.30900446e-06 1.65801578e-06 1.60068942e-06
2.43949899e-06 3.20593517e-06 0.00000000e+00
7.21740753e-06 3.30130263e-07 -2.58345085e-06
6.53823190e-06 7.21565857e-06 0.00000000e+00
3.71079977e-06 6.22769221e-06 0.00000000e+00
1.66575106e-07 -3.51905828e-06 -2.06931441e-06
3.92320408e-06 3.13576061e-06 -1.90307037e-06
1.53053804e-06 1.32111711e-06 0.00000000e+00
0.00000000e+00 3.64820153e-06 0.00000000e+00
1.99927149e-06 -3.87072561e-07 -2.79585521e-07
0.00000000e+00 1.84416763e-07 -1.17619834e-08
1.10002361e-06 2.66406937e-06 0.00000000e+00
1.75501896e-06 -2.99195449e-07 -2.20076231e-06
7.73191459e-07 -1.32703781e-06 0.00000000e+00
7.67426991e-06 3.77222568e-06 -1.73483954e-06
4.40009444e-06 7.73942429e-06 0.00000000e+00
7.41715212e-07 1.47088372e-06 1.55627731e-07
5.05860635e-06 1.56638021e-06 0.00000000e+00
2.54616339e-06 6.07074526e-06 1.58692308e-06
-1.03310742e-06 3.55521843e-06 0.00000000e+00
8.55361122e-06 3.77763649e-06 6.35053038e-06
-2.92531649e-06 3.52064762e-06 0.00000000e+00
0.00000000e+00 -2.99803901e-06 0.00000000e+00
2.12494524e-06 2.27546684e-06 -2.03545892e-06
0.00000000e+00 -8.24113670e-07 4.15293380e-06
5.23593008e-06 4.58606064e-06 0.00000000e+00
2.60605407e-06 -9.74992872e-07 -1.78591404e-06
4.62166463e-06 1.66674454e-06 0.00000000e+00
-2.89747459e-06 1.44039257e-06 4.29619695e-06
-8.55127951e-07 1.78758296e-06 0.00000000e+00
7.37031314e-06 7.00569126e-06 -4.04119476e-07
3.51254153e-06 7.07228992e-06 0.00000000e+00
3.97872918e-06 5.24098368e-06 -5.12752285e-06
1.08091444e-05 -1.09628163e-05 0.00000000e+00
-1.33898607e-06 9.36420020e-06 -2.98761324e-06
0.00000000e+00 0.00000000e+00 4.01178994e-07
-4.81486325e-07 0.00000000e+00 1.15903219e-06
2.64247255e-08 4.86675617e-07 -4.81605511e-08
0.00000000e+00 -8.48054867e-07 -1.47692356e-06
2.47627497e-07 0.00000000e+00 1.04745232e-06
-2.45253250e-06 -1.70918304e-06 -7.83920257e-07
-1.01514661e-06 0.00000000e+00 2.01924649e-06
-9.63211022e-08 -5.58942531e-07 -3.67482500e-07
-3.56833141e-08 0.00000000e+00 2.69730890e-06
6.89446892e-07 4.39604122e-07 -3.56674178e-07
-1.02400776e-07 0.00000000e+00 1.74522398e-07
1.65512165e-06 1.80151062e-06 -1.00167597e-06
1.10844769e-06 0.00000000e+00 -1.37456254e-06
1.03239222e-06 1.18184084e-06 -5.39779649e-07
-7.10169445e-07 -1.03709596e-07 -4.04675802e-07
0.00000000e+00 5.90960155e-07 3.65575161e-08
6.84828976e-08 9.87098360e-07 -1.31879528e-06
1.49698258e-06 -1.57705941e-07 -1.18255616e-06
-1.12334888e-07 1.67471171e-06 2.01861053e-06
-2.34569114e-07 1.27013027e-06 -1.95058192e-06
8.20557311e-09 2.82690917e-06 6.74565626e-07
8.69323799e-07 1.83540578e-06 -2.91919696e-06
0.00000000e+00 -2.30010346e-06 -9.07580045e-07
5.04841410e-07 1.49408983e-08 1.18785431e-06
1.15680689e-06 -1.54813131e-06 -3.34103902e-06
1.04971730e-06 -2.99780572e-06 -2.65264498e-06
0.00000000e+00 -4.02450553e-07 -2.43314093e-06
3.49090215e-07 -1.42399472e-06 -4.76383036e-07
3.55550992e-06 7.59760553e-07 -2.22312087e-06
2.45966521e-06 -2.20676256e-07 -3.14935050e-06
0.00000000e+00 -3.20517029e-06 -3.86238099e-07
3.05261210e-06 -1.85275076e-06 -2.62975686e-06
-4.43434692e-06 -7.17759121e-07 3.50983942e-06
-7.17878322e-07 -1.11631550e-06 -2.27419537e-06
0.00000000e+00 -1.51058032e-06 -3.35121149e-06
-7.85589236e-07 3.73738999e-06 -2.39149722e-06
8.57700888e-06 -1.50068604e-06 -2.20870970e-06
-1.90689843e-06 1.44787909e-05 3.25926135e-06
4.77636831e-07 1.90095398e-05 6.71493490e-06
-9.82764504e-07 1.86654997e-05 -2.01536955e-06
-1.06725099e-06 1.39512322e-05 -1.11580093e-05
0.00000000e+00 0.00000000e+00 -1.30589797e-06
7.31950024e-07 0.00000000e+00 3.98953745e-07
-8.44798990e-07 8.06013759e-07 -2.68777200e-07
0.00000000e+00 1.92360085e-06 2.04308822e-06
-1.07924144e-07 0.00000000e+00 2.85720830e-06
6.87340901e-07 -2.58366271e-07 -6.75519289e-07
-6.69558844e-08 0.00000000e+00 1.16189324e-06
-5.14785427e-07 -2.67028810e-07 -1.81229905e-06
2.29557349e-06 0.00000000e+00 1.25026702e-06
5.80529388e-07 5.77787546e-07 -1.64063772e-06
3.28171245e-06 0.00000000e+00 4.34239695e-07
1.63326661e-06 -7.39127415e-07 -1.04586286e-06
8.39610891e-07 0.00000000e+00 -2.78282164e-06
2.92557479e-06 1.06076399e-07 -4.15801992e-07
9.59873205e-07 -1.50402393e-08 -1.11516317e-06
0.00000000e+00 1.16125739e-06 -3.08259314e-06
6.02540524e-07 -1.25317342e-06 -2.37782797e-06
-1.36591598e-06 2.51261383e-07 -3.22036749e-06
2.29358670e-06 3.50038221e-07 4.31060784e-07
2.02099477e-06 -2.52564746e-07 6.18616752e-07
-1.73894557e-06 1.53213733e-07 1.61234539e-06
-1.58537000e-06 -1.86211719e-06 2.03450526e-07
0.00000000e+00 2.31703120e-06 -1.54876705e-06
-1.16316471e-06 1.10300380e-06 -1.84313456e-06
4.28923528e-07 1.39627002e-06 -3.03613569e-06
0.00000000e+00 -7.94410710e-07 -3.02076342e-06
-6.32603928e-07 2.75135051e-07 8.04901106e-07
9.76522756e-07 -1.42365695e-06 -3.01965065e-06
0.00000000e+00 -1.07840697e-06 -5.34343735e-06
1.48282732e-06 1.22624351e-06 -2.46901732e-06
-1.13586589e-06 -2.24832684e-06 3.03538627e-06
1.55798591e-06 1.07150606e-06 -2.33544256e-06
1.01514661e-06 -2.50875951e-06 -3.63667800e-06
0.00000000e+00 -2.69337488e-06 7.76926640e-07
</DataArray>
<DataArray type="Float32" Name="Spatial_velocity" NumberOfComponents="3" format="ascii">
0.00000000e+00 0.00000000e+00 0.00000000e+00
1.34849543e-05 0.00000000e+00 0.00000000e+00
1.56409569e-05 4.46091835e-05 0.00000000e+00
0.00000000e+00 4.08652159e-05 0.00000000e+00
0.00000000e+00 0.00000000e+00 -4.60664596e-05
1.42668978e-05 0.00000000e+00 -4.93168482e-05
1.41253577e-05 3.89062989e-05 -4.52996246e-05
0.00000000e+00 3.87801665e-05 -4.08581909e-05
3.04047753e-05 0.00000000e+00 0.00000000e+00
3.29180075e-05 5.18330853e-05 0.00000000e+00
3.26364534e-05 0.00000000e+00 -5.99992454e-05
3.29831455e-05 4.18800591e-05 -5.17478620e-05
5.36051339e-05 0.00000000e+00 0.00000000e+00
5.25273608e-05 6.10965653e-05 0.00000000e+00
5.74154947e-05 0.00000000e+00 -7.03636397e-05
5.57145904e-05 4.62233947e-05 -6.05814967e-05
8.37539992e-05 0.00000000e+00 0.00000000e+00
7.69493709e-05 6.75859410e-05 0.00000000e+00
8.98285434e-05 0.00000000e+00 -7.73198553e-05
8.29584242e-05 4.92668078e-05 -7.37913433e-05
1.27976760e-04 0.00000000e+00 0.00000000e+00
1.11069741e-04 7.60462644e-05 0.00000000e+00
1.28707776e-04 0.00000000e+00 -9.39735401e-05
1.19359189e-04 5.17534609e-05 -8.65584807e-05
1.80106028e-04 0.00000000e+00 0.00000000e+00
1.47714512e-04 1.03487720e-04 0.00000000e+00
1.66716010e-04 0.00000000e+00 -1.05049970e-04
1.63016040e-04 6.63269893e-05 -1.03682294e-04
1.87723690e-05 7.19110831e-05 0.00000000e+00
0.00000000e+00 6.89045773e-05 0.00000000e+00
1.56920742e-05 6.90318557e-05 -3.17836930e-05
0.00000000e+00 6.79166478e-05 -3.16198893e-05
3.57061435e-05 7.99945992e-05 0.00000000e+00
3.27710113e-05 7.56170193e-05 -2.90372845e-05
4.95858476e-05 8.88233481e-05 0.00000000e+00
4.84335906e-05 8.21917056e-05 -2.25464919e-05
6.39542850e-05 1.03535793e-04 0.00000000e+00
6.91311579e-05 8.91853633e-05 -2.98777886e-05
7.85813972e-05 1.12618276e-04 0.00000000e+00
8.58546264e-05 9.77987656e-05 -2.58741566e-05
9.18123842e-05 1.37724332e-04 0.00000000e+00
1.11289271e-04 1.23755657e-04 -2.73030419e-05
1.89068396e-05 8.47620977e-05 0.00000000e+00
0.00000000e+00 8.24682356e-05 0.00000000e+00
1.62613524e-05 8.42247755e-05 -1.94937420e-05
0.00000000e+00 8.34896346e-05 -2.40057525e-05
3.42394196e-05 8.81516535e-05 0.00000000e+00
3.11549775e-05 8.80511070e-05 -1.30691460e-05
4.18061099e-05 9.36865545e-05 0.00000000e+00
3.95903444e-05 9.24860360e-05 -3.36681273e-06
4.41796947e-05 1.02437079e-04 0.00000000e+00
4.22100857e-05 9.94254660e-05 -5.44834336e-07
6.23675151e-05 1.08289780e-04 0.00000000e+00
5.84322406e-05 1.07760534e-04 1.06002494e-06
6.20141582e-05 1.33174952e-04 0.00000000e+00
6.10129428e-05 1.31586785e-04 2.84196744e-06
1.82622880e-05 8.97230129e-05 0.00000000e+00
0.00000000e+00 8.97749196e-05 0.00000000e+00
1.50395999e-05 9.16059580e-05 -1.55430553e-05
0.00000000e+00 9.10125891e-05 -2.01422718e-05
3.09180214e-05 9.05684719e-05 0.00000000e+00
2.72484231e-05 9.03919135e-05 -8.84232668e-06
3.44932159e-05 9.51984330e-05 0.00000000e+00
3.19700448e-05 9.40749305e-05 -6.83220776e-07
3.53200958e-05 1.01010235e-04 0.00000000e+00
3.46755915e-05 1.01626028e-04 1.93197195e-07
3.98411612e-05 1.26754690e-04 0.00000000e+00
4.00269491e-05 1.10449269e-04 0.00000000e+00
4.10119101e-05 1.27490464e-04 -8.01767754e-08
3.94653034e-05 1.10465146e-04 -2.23491099e-07
1.69599061e-05 9.52331902e-05 0.00000000e+00
0.00000000e+00 9.73350543e-05 0.00000000e+00
1.38025780e-05 9.72646085e-05 -1.75541263e-05
0.00000000e+00 9.86512532e-05 -2.30617497e-05
2.77240561e-05 9.26588327e-05 0.00000000e+00
2.32027687e-05 9.50948888e-05 -8.96038364e-06
2.84476773e-05 9.65209110e-05 0.00000000e+00
2.77406198e-05 9.60605685e-05 3.04565447e-07
2.89050331e-05 1.01007987e-04 0.00000000e+00
2.88987758e-05 1.00863210e-04 -2.00590830e-06
2.80641034e-05 1.11311878e-04 0.00000000e+00
2.76503961e-05 1.11286259e-04 2.69564453e-06
2.71890694e-05 1.22548445e-04 0.00000000e+00
2.93550020e-05 1.23040503e-04 -9.96903964e-07
1.94137792e-05 1.04855746e-04 0.00000000e+00
0.00000000e+00 1.09336826e-04 0.00000000e+00
1.43690258e-05 1.06413288e-04 -2.26478824e-05
0.00000000e+00 1.08266126e-04 -2.60290653e-05
2.86325230e-05 9.87291642e-05 0.00000000e+00
2.31688282e-05 1.01299913e-04 -1.16455913e-05
2.65165581e-05 9.58441233e-05 0.00000000e+00
2.51647871e-05 9.88023094e-05 -2.07194421e-06
2.24915020e-05 1.03660605e-04 0.00000000e+00
2.08472375e-05 9.99893091e-05 2.21737901e-06
1.80980132e-05 1.10358422e-04 0.00000000e+00
2.05728247e-05 1.13093847e-04 -9.14722307e-08
1.79567633e-05 1.21621517e-04 0.00000000e+00
1.93274500e-05 1.20515702e-04 -4.54168548e-06
0.00000000e+00 0.00000000e+00 -8.94800978e-05
1.81637151e-05 0.00000000e+00 -9.36122306e-05
1.60994769e-05 3.00106440e-05 -8.52898593e-05
0.00000000e+00 3.24230641e-05 -8.09157573e-05
4.07305524e-05 0.00000000e+00 -1.01883255e-04
3.51646595e-05 2.41709749e-05 -1.03094353e-04
6.68873690e-05 0.00000000e+00 -1.20195589e-04
6.76227355e-05 2.23870247e-05 -1.18161486e-04
1.02906080e-04 0.00000000e+00 -1.45595011e-04
9.98418764e-05 2.46464442e-05 -1.23632286e-04
1.36637522e-04 0.00000000e+00 -1.65627716e-04
1.35511087e-04 2.58945129e-05 -1.43550176e-04
1.60884374e-04 0.00000000e+00 -1.77175680e-04
1.70011961e-04 2.31823669e-05 -1.58614173e-04
1.00922280e-05 6.01284919e-05 -6.79650475e-05
0.00000000e+00 6.13106822e-05 -5.93085533e-05
3.01669133e-05 5.85702692e-05 -7.20926109e-05
5.92209835e-05 6.54814939e-05 -7.76390079e-05
9.43780469e-05 7.17351068e-05 -1.00935671e-04
1.35745606e-04 7.36396250e-05 -1.05842446e-04
1.82843942e-04 6.86292769e-05 -1.26942788e-04
8.53014353e-06 8.48482741e-05 -4.63889810e-05
0.00000000e+00 8.36078179e-05 -3.96785981e-05
2.10623766e-05 8.56345578e-05 -2.81592038e-05
1.87516798e-05 8.97243226e-05 6.03419312e-06
9.77744367e-06 9.61878395e-05 -3.16079568e-05
0.00000000e+00 9.58698583e-05 -3.49337824e-05
1.92478165e-05 9.41631733e-05 -1.75203240e-05
2.25863587e-05 8.83484245e-05 -5.81121412e-06
7.54541861e-06 1.01945829e-04 -3.24688444e-05
0.00000000e+00 1.03120234e-04 -3.74422416e-05
1.62535016e-05 9.87534004e-05 -2.03205764e-05
2.80466156e-05 9.45553547e-05 -1.37485804e-05
4.39757468e-06 1.11609566e-04 -4.02810438e-05
0.00000000e+00 1.07980784e-04 -4.06341096e-05
1.39786544e-05 1.14579430e-04 -3.38928294e-05
2.93092289e-05 1.11103443e-04 -2.53291364e-05
3.50735972e-05 1.22781232e-04 1.37495026e-05
3.78035329e-05 1.30021406e-04 9.86298346e-07
2.75876810e-05 1.31914334e-04 -1.39154163e-05
2.96741728e-05 1.21576675e-04 -3.69095369e-06
0.00000000e+00 0.00000000e+00 -1.31276785e-04
2.53329927e-05 0.00000000e+00 -1.35490933e-04
2.50379308e-05 2.51605870e-05 -1.25273829e-04
0.00000000e+00 2.46146119e-05 -1.21079596e-04
5.57317253e-05 0.00000000e+00 -1.50909909e-04
4.96176799e-05 1.84255041e-05 -1.34378875e-04
8.48314157e-05 0.00000000e+00 -1.63970515e-04
8.48137352e-05 1.29084456e-05 -1.58809416e-04
1.19418910e-04 0.00000000e+00 -1.77127527e-04
1.19563621e-04 1.41467672e-05 -1.83965647e-04
1.46838182e-04 0.00000000e+00 -1.95329310e-04
1.49612577e-04 1.64946487e-05 -1.93652100e-04
1.66490863e-04 0.00000000e+00 -2.03945689e-04
1.72283137e-04 1.15705143e-05 -1.99630478e-04
1.51321501e-05 4.71036255e-05 -1.00919904e-04
0.00000000e+00 5.67924653e-05 -9.67393935e-05
4.37729432e-05 4.45671940e-05 -1.36285336e-04
7.55250148e-05 5.15898355e-05 -1.72774045e-04
1.22959973e-04 5.87170871e-05 -1.74193177e-04
1.59168296e-04 4.68137769e-05 -1.84582226e-04
1.85027951e-04 3.40125152e-05 -1.86646255e-04
7.55149313e-06 8.10739512e-05 -6.05464884e-05
0.00000000e+00 8.19187117e-05 -7.46250807e-05
3.93212213e-05 7.77546375e-05 -9.75169969e-05
5.80324695e-06 9.85165098e-05 -4.48060018e-05
0.00000000e+00 1.02367223e-04 -4.99411799e-05
1.42816662e-05 9.90951012e-05 -2.43185550e-05
6.36183267e-06 1.10702342e-04 -4.66267156e-05
0.00000000e+00 1.06800988e-04 -4.39000942e-05
1.60727850e-05 1.13642149e-04 -4.63146498e-05
9.98495398e-06 1.02316662e-04 6.67501126e-06
3.52220413e-05 1.01489873e-04 -3.96784271e-05
4.06123263e-06 1.16378716e-04 -4.95930035e-05
0.00000000e+00 1.17889685e-04 -5.64905567e-05
</DataArray>
<DataArray type="Float32" Name="Reaction_force" NumberOfComponents="3" format="ascii">
1.13535225e+00 -1.58189821e+00 6.70248127e+00
0.00000000e+00 -2.84346533e+00 1.38388443e+01
0.00000000e+00 0.00000000e+00 2.66269417e+01
1.69595742e+00 0.00000000e+00 1.34475231e+01
1.88851845e+00 -2.98457336e+00 0.00000000e+00
0.00000000e+00 -5.19280434e+00 0.00000000e+00
0.00000000e+00 0.00000000e+00 0.00000000e+00
3.26400399e+00 0.00000000e+00 0.00000000e+00
0.00000000e+00 -2.29358029e+00 1.46470490e+01
0.00000000e+00 0.00000000e+00 2.67050877e+01
0.00000000e+00 -3.27877927e+00 0.00000000e+00
0.00000000e+00 0.00000000e+00 0.00000000e+00
0.00000000e+00 -1.61318111e+00 1.56045189e+01
0.00000000e+00 0.00000000e+00 2.75073910e+01
0.00000000e+00 -1.87415183e+00 0.00000000e+00
0.00000000e+00 0.00000000e+00 0.00000000e+00
0.00000000e+00 -8.15392554e-01 1.64646645e+01
0.00000000e+00 0.00000000e+00 2.84570084e+01
0.00000000e+00 -1.70811296e+00 0.00000000e+00
0.00000000e+00 0.00000000e+00 0.00000000e+00
0.00000000e+00 -1.26609457e+00 1.52700443e+01
0.00000000e+00 0.00000000e+00 2.73795433e+01
0.00000000e+00 -3.08924603e+00 0.00000000e+00
0.00000000e+00 0.00000000e+00 0.00000000e+00
0.00000000e+00 -1.29279304e+00 6.92575502e+00
0.00000000e+00 0.00000000e+00 1.34619598e+01
0.00000000e+00 -2.19622755e+00 0.00000000e+00
0.00000000e+00 0.00000000e+00 0.00000000e+00
0.00000000e+00 0.00000000e+00 2.50781631e+01
-1.31800294e-01 0.00000000e+00 1.31758823e+01
0.00000000e+00 0.00000000e+00 0.00000000e+00
1.45078850e+00 0.00000000e+00 0.00000000e+00
0.00000000e+00 0.00000000e+00 2.26993179e+01
0.00000000e+00 0.00000000e+00 0.00000000e+00
0.00000000e+00 0.00000000e+00 2.03260002e+01
0.00000000e+00 0.00000000e+00 0.00000000e+00
0.00000000e+00 0.00000000e+00 1.67164822e+01
0.00000000e+00 0.00000000e+00 0.00000000e+00
0.00000000e+00 0.00000000e+00 1.82725220e+01
0.00000000e+00 0.00000000e+00 0.00000000e+00
0.00000000e+00 0.00000000e+00 1.22581787e+01
0.00000000e+00 0.00000000e+00 0.00000000e+00
0.00000000e+00 0.00000000e+00 2.42928448e+01
-2.21459842e+00 0.00000000e+00 1.27226162e+01
0.00000000e+00 0.00000000e+00 0.00000000e+00
-1.98521852e+00 0.00000000e+00 0.00000000e+00
0.00000000e+00 0.00000000e+00 2.10392227e+01
0.00000000e+00 0.00000000e+00 0.00000000e+00
0.00000000e+00 0.00000000e+00 1.36477537e+01
0.00000000e+00 0.00000000e+00 0.00000000e+00
0.00000000e+00 0.00000000e+00 3.50130367e+00
0.00000000e+00 0.00000000e+00 0.00000000e+00
0.00000000e+00 0.00000000e+00 3.89486957e+00
0.00000000e+00 0.00000000e+00 0.00000000e+00
0.00000000e+00 0.00000000e+00 3.70609117e+00
0.00000000e+00 0.00000000e+00 0.00000000e+00
0.00000000e+00 0.00000000e+00 2.50959816e+01
-2.84451127e+00 0.00000000e+00 1.30875778e+01
0.00000000e+00 0.00000000e+00 0.00000000e+00
-4.67472601e+00 0.00000000e+00 0.00000000e+00
0.00000000e+00 0.00000000e+00 2.14367638e+01
0.00000000e+00 0.00000000e+00 0.00000000e+00
0.00000000e+00 0.00000000e+00 9.78367043e+00
0.00000000e+00 0.00000000e+00 0.00000000e+00
0.00000000e+00 0.00000000e+00 -1.82362580e+00
0.00000000e+00 0.00000000e+00 0.00000000e+00
0.00000000e+00 0.00000000e+00 -1.91728663e+00
0.00000000e+00 0.00000000e+00 -2.53191233e+00
0.00000000e+00 0.00000000e+00 0.00000000e+00
0.00000000e+00 0.00000000e+00 0.00000000e+00
0.00000000e+00 0.00000000e+00 2.73624611e+01
-2.45280337e+00 0.00000000e+00 1.34725304e+01
0.00000000e+00 0.00000000e+00 0.00000000e+00
-3.91758323e+00 0.00000000e+00 0.00000000e+00
0.00000000e+00 0.00000000e+00 2.50429325e+01
0.00000000e+00 0.00000000e+00 0.00000000e+00
0.00000000e+00 0.00000000e+00 1.40148411e+01
0.00000000e+00 0.00000000e+00 0.00000000e+00
0.00000000e+00 0.00000000e+00 1.62910891e+00
0.00000000e+00 0.00000000e+00 0.00000000e+00
0.00000000e+00 0.00000000e+00 -8.75849843e-01
0.00000000e+00 0.00000000e+00 0.00000000e+00
0.00000000e+00 0.00000000e+00 3.03522050e-01
0.00000000e+00 0.00000000e+00 0.00000000e+00
0.00000000e+00 0.00000000e+00 1.40932045e+01
-1.28207505e+00 0.00000000e+00 6.69335175e+00
0.00000000e+00 0.00000000e+00 0.00000000e+00
-1.53477120e+00 0.00000000e+00 0.00000000e+00
0.00000000e+00 0.00000000e+00 1.38295612e+01
0.00000000e+00 0.00000000e+00 0.00000000e+00
0.00000000e+00 0.00000000e+00 8.35508156e+00
0.00000000e+00 0.00000000e+00 0.00000000e+00
0.00000000e+00 0.00000000e+00 1.58724582e+00
0.00000000e+00 0.00000000e+00 0.00000000e+00
0.00000000e+00 0.00000000e+00 -4.47817177e-01
0.00000000e+00 0.00000000e+00 0.00000000e+00
0.00000000e+00 0.00000000e+00 -2.42558550e-02
0.00000000e+00 0.00000000e+00 0.00000000e+00
8.77681375e-01 -2.17521906e+00 0.00000000e+00
0.00000000e+00 -3.38093829e+00 0.00000000e+00
0.00000000e+00 0.00000000e+00 0.00000000e+00
2.30157804e+00 0.00000000e+00 0.00000000e+00
0.00000000e+00 -1.62341118e+00 0.00000000e+00
0.00000000e+00 0.00000000e+00 0.00000000e+00
0.00000000e+00 9.37520504e-01 0.00000000e+00
0.00000000e+00 0.00000000e+00 0.00000000e+00
0.00000000e+00 1.65219438e+00 0.00000000e+00
0.00000000e+00 0.00000000e+00 0.00000000e+00
0.00000000e+00 -4.99816716e-01 0.00000000e+00
0.00000000e+00 0.00000000e+00 0.00000000e+00
0.00000000e+00 -3.23772490e-01 0.00000000e+00
0.00000000e+00 0.00000000e+00 0.00000000e+00
0.00000000e+00 0.00000000e+00 0.00000000e+00
2.09878683e+00 0.00000000e+00 0.00000000e+00
0.00000000e+00 0.00000000e+00 0.00000000e+00
0.00000000e+00 0.00000000e+00 0.00000000e+00
0.00000000e+00 0.00000000e+00 0.00000000e+00
0.00000000e+00 0.00000000e+00 0.00000000e+00
0.00000000e+00 0.00000000e+00 0.00000000e+00
0.00000000e+00 0.00000000e+00 0.00000000e+00
-1.38677999e-01 0.00000000e+00 0.00000000e+00
0.00000000e+00 0.00000000e+00 0.00000000e+00
0.00000000e+00 0.00000000e+00 0.00000000e+00
0.00000000e+00 0.00000000e+00 0.00000000e+00
-2.25456333e+00 0.00000000e+00 0.00000000e+00
0.00000000e+00 0.00000000e+00 0.00000000e+00
0.00000000e+00 0.00000000e+00 0.00000000e+00
0.00000000e+00 0.00000000e+00 0.00000000e+00
-2.27612901e+00 0.00000000e+00 0.00000000e+00
0.00000000e+00 0.00000000e+00 0.00000000e+00
0.00000000e+00 0.00000000e+00 0.00000000e+00
0.00000000e+00 0.00000000e+00 0.00000000e+00
-4.69095826e-01 0.00000000e+00 0.00000000e+00
0.00000000e+00 0.00000000e+00 0.00000000e+00
0.00000000e+00 0.00000000e+00 0.00000000e+00
0.00000000e+00 0.00000000e+00 0.00000000e+00
0.00000000e+00 0.00000000e+00 0.00000000e+00
0.00000000e+00 0.00000000e+00 0.00000000e+00
0.00000000e+00 0.00000000e+00 0.00000000e+00
-3.07344973e-01 -1.77770734e-01 0.00000000e+00
0.00000000e+00 8.67334306e-01 0.00000000e+00
0.00000000e+00 0.00000000e+00 0.00000000e+00
6.14649296e-01 0.00000000e+00 0.00000000e+00
0.00000000e+00 2.12667799e+00 0.00000000e+00
0.00000000e+00 0.00000000e+00 0.00000000e+00
0.00000000e+00 3.68987203e+00 0.00000000e+00
0.00000000e+00 0.00000000e+00 0.00000000e+00
0.00000000e+00 4.89396763e+00 0.00000000e+00
0.00000000e+00 0.00000000e+00 0.00000000e+00
0.00000000e+00 4.39392519e+00 0.00000000e+00
0.00000000e+00 0.00000000e+00 0.00000000e+00
0.00000000e+00 2.93139291e+00 0.00000000e+00
0.00000000e+00 0.00000000e+00 0.00000000e+00
0.00000000e+00 0.00000000e+00 0.00000000e+00
1.66715455e+00 0.00000000e+00 0.00000000e+00
0.00000000e+00 0.00000000e+00 0.00000000e+00
0.00000000e+00 0.00000000e+00 0.00000000e+00
0.00000000e+00 0.00000000e+00 0.00000000e+00
0.00000000e+00 0.00000000e+00 0.00000000e+00
0.00000000e+00 0.00000000e+00 0.00000000e+00
0.00000000e+00 0.00000000e+00 0.00000000e+00
4.20454311e+00 0.00000000e+00 0.00000000e+00
0.00000000e+00 0.00000000e+00 0.00000000e+00
0.00000000e+00 0.00000000e+00 0.00000000e+00
1.35878623e+00 0.00000000e+00 0.00000000e+00
0.00000000e+00 0.00000000e+00 0.00000000e+00
0.00000000e+00 0.00000000e+00 0.00000000e+00
-4.00406122e-03 0.00000000e+00 0.00000000e+00
0.00000000e+00 0.00000000e+00 0.00000000e+00
0.00000000e+00 0.00000000e+00 0.00000000e+00
0.00000000e+00 0.00000000e+00 0.00000000e+00
0.00000000e+00 0.00000000e+00 0.00000000e+00
1.85381293e+00 0.00000000e+00 0.00000000e+00
</DataArray>
<DataArray type="Float32" Name="Equivalent_plastic_strain" format="ascii">
2.02074437e-03
2.21869908e-03
1.92555474e-03
1.77968462e-03
1.92193239e-03
2.01164358e-03
1.81689656e-03
1.71103398e-03
2.73016270e-03
2.17750686e-03
2.25223665e-03
2.16926739e-03
3.23383184e-03
2.55343260e-03
2.65726337e-03
2.49423643e-03
3.65555077e-03
3.17414949e-03
3.15674301e-03
2.71865274e-03
4.50170040e-03
3.81940207e-03
3.62157676e-03
3.25755423e-03
5.46799833e-03
4.67165629e-03
4.05926607e-03
3.79749713e-03
1.21290731e-03
1.27848418e-03
1.34385496e-03
1.19863937e-03
1.06194068e-03
1.35956018e-03
8.50216209e-04
1.45622122e-03
1.06132204e-03
1.87326461e-03
1.05180060e-03
2.10597833e-03
1.23665744e-03
2.56781905e-03
6.86786530e-04
8.71158787e-04
8.02078983e-04
7.38017043e-04
3.78633973e-04
3.88834374e-04
-3.91151897e-05
2.20846284e-05
-1.84494517e-04
2.33552671e-04
-1.04304835e-04
1.02696188e-04
-2.18534362e-04
2.09115999e-04
5.30948368e-04
6.71748538e-04
4.71572803e-04
5.70630989e-04
2.06587034e-04
1.70182826e-04
-2.33283099e-05
-3.95676949e-05
0.00000000e+00
0.00000000e+00
0.00000000e+00
0.00000000e+00
0.00000000e+00
0.00000000e+00
5.28257959e-04
7.15205708e-04
4.52577631e-04
5.82079498e-04
1.67440574e-04
1.65436900e-04
-1.19597435e-05
5.73377814e-05
0.00000000e+00
0.00000000e+00
0.00000000e+00
0.00000000e+00
0.00000000e+00
0.00000000e+00
6.13960408e-04
8.68178962e-04
5.83722387e-04
6.32538911e-04
1.90076989e-04
3.29291925e-04
-1.35233449e-05
1.29862793e-04
0.00000000e+00
0.00000000e+00
0.00000000e+00
0.00000000e+00
0.00000000e+00
0.00000000e+00
1.76270551e-03
1.75288456e-03
1.66245297e-03
1.63045849e-03
1.74578093e-03
1.84566405e-03
1.88263765e-03
2.18847851e-03
2.16967717e-03
2.40619885e-03
2.15907441e-03
2.39885974e-03
2.01977778e-03
2.23331674e-03
1.44257191e-03
1.29736905e-03
2.18410863e-03
3.04341260e-03
3.14290798e-03
3.48005921e-03
3.50672030e-03
8.16513813e-04
9.02755390e-04
1.33244012e-03
8.91825404e-04
4.29416537e-04
4.77618458e-04
6.90078218e-05
-8.67992027e-05
3.63179446e-04
2.10729457e-04
4.82415509e-04
4.25319420e-04
3.25192150e-04
2.63310132e-04
7.17976014e-04
1.92946169e-03
0.00000000e+00
0.00000000e+00
0.00000000e+00
0.00000000e+00
1.77136587e-03
1.74481104e-03
1.81115294e-03
1.82363761e-03
1.69517403e-03
1.82583858e-03
1.63903571e-03
1.93795975e-03
1.47080136e-03
2.12694978e-03
1.14679485e-03
1.81324937e-03
8.98973958e-04
1.46088991e-03
1.82601673e-03
1.63102767e-03
2.13887246e-03
3.38759101e-03
3.17073276e-03
2.56900140e-03
2.15669768e-03
1.74211509e-03
9.52911119e-04
3.64109571e-03
6.63586560e-04
5.43866379e-04
1.13927964e-03
1.36816156e-04
2.57301617e-04
7.66660586e-04
3.74977797e-04
3.42552907e-03
9.89723966e-04
6.43186388e-04
</DataArray>
<DataArray type="Float32" Name="Stress_Mises" format="ascii">
2.86559124e+01
2.93204441e+01
2.88839440e+01
2.85898914e+01
2.85411568e+01
2.89567795e+01
2.89105844e+01
2.85015836e+01
3.08831310e+01
2.93082151e+01
2.99302435e+01
3.01614683e+01
3.20417671e+01
3.01718245e+01
3.10016952e+01
3.09472311e+01
3.20631104e+01
3.14099736e+01
3.13907857e+01
3.09399669e+01
3.12277203e+01
3.12585893e+01
2.99492040e+01
3.10186410e+01
3.22443848e+01
3.30210018e+01
2.98153496e+01
3.19514780e+01
2.76951251e+01
2.83218918e+01
2.84958768e+01
2.81679640e+01
2.66015849e+01
2.80287499e+01
2.49426384e+01
2.84692080e+01
2.41454067e+01
2.89772984e+01
2.59027662e+01
3.01569751e+01
2.80728283e+01
3.35006021e+01
2.70921888e+01
2.80377817e+01
2.77663753e+01
2.77274179e+01
2.56491747e+01
2.69265735e+01
2.32768822e+01
2.47696590e+01
2.22340075e+01
2.61509590e+01
2.06026128e+01
3.13755620e+01
2.89246197e+01
2.78242979e+01
2.76991024e+01
2.82560892e+01
2.75681114e+01
2.78527927e+01
2.68300705e+01
2.64182515e+01
1.72601466e+01
2.07941349e+01
7.01047881e+00
1.11519683e+01
1.49735718e+01
6.84059111e+00
1.30473328e+01
1.05711614e+01
2.88200264e+01
2.88214931e+01
2.86263940e+01
2.88105860e+01
2.95427423e+01
2.87144485e+01
1.67330914e+01
2.32999338e+01
6.48632979e+00
7.84858370e+00
4.19624084e+00
2.30845289e+00
4.39404976e+00
4.22194012e+00
2.95576448e+01
2.93049240e+01
2.99385195e+01
2.96238279e+01
3.11675043e+01
3.06470833e+01
1.85077610e+01
2.68390471e+01
1.08647518e+01
1.20414977e+01
5.77349317e+00
2.99886203e+00
2.47987604e+00
1.76054132e+00
2.85745916e+01
2.88961511e+01
2.91635630e+01
2.86206450e+01
2.92855544e+01
3.10349915e+01
3.00632281e+01
3.22213652e+01
3.08620086e+01
3.17283752e+01
2.95080910e+01
3.07500811e+01
2.87648211e+01
2.96744871e+01
2.98980803e+01
2.81939754e+01
3.41347803e+01
3.67770786e+01
3.48445978e+01
3.56367493e+01
3.50759621e+01
2.91280453e+01
2.80876236e+01
3.26209650e+01
3.67810173e+01
2.72216012e+01
2.76832595e+01
2.85804209e+01
2.64196612e+01
2.89796705e+01
2.86404099e+01
2.92346408e+01
3.07743897e+01
3.12913752e+01
3.03755045e+01
3.16254086e+01
3.58949776e+01
8.03950042e-01
8.73126358e-01
7.05338746e-01
1.21009910e+00
2.92805595e+01
2.96807494e+01
2.99538679e+01
2.95999050e+01
3.01712828e+01
3.14945593e+01
3.02552104e+01
3.24848251e+01
3.00113454e+01
3.23181798e+01
2.94767504e+01
3.07913120e+01
2.93312817e+01
2.96981058e+01
3.10901525e+01
2.90039692e+01
3.47153408e+01
4.06072113e+01
3.62424269e+01
3.26222577e+01
3.07115355e+01
3.37356148e+01
2.90371037e+01
4.39018860e+01
3.02653024e+01
2.78868546e+01
3.65670805e+01
2.90545628e+01
2.88050909e+01
3.16549849e+01
4.06180382e+01
4.18561249e+01
3.26670303e+01
3.20122414e+01
</DataArray>
<DataArray type="Float32" Name="Stress_Max_Principal" format="ascii">
6.08573437e+00
5.44528532e+00
5.03988618e+00
5.07531452e+00
5.73352623e+00
5.10402548e+00
4.70926803e+00
5.29410279e+00
3.99295461e+00
4.77381456e+00
3.91693044e+00
3.31250800e+00
2.77603614e+00
3.46367881e+00
2.33746266e+00
2.27361906e+00
1.90457213e+00
2.05838522e+00
1.05912349e+00
2.04647230e+00
2.14139326e+00
2.32185179e+00
2.13690118e+00
2.27466748e+00
3.08748698e+00
2.34167613e+00
3.40717161e+00
3.15794132e+00
4.79786837e+00
3.52004540e+00
3.92785089e+00
3.86539933e+00
6.69533646e+00
5.03760570e+00
8.89707232e+00
6.05883016e+00
1.00355878e+01
6.34452241e+00
1.14970617e+01
6.21271301e+00
9.92042279e+00
5.57230783e+00
5.85923254e+00
4.57168901e+00
4.32888767e+00
4.26164621e+00
7.86612153e+00
8.24750817e+00
1.35310278e+01
1.42935899e+01
1.82597167e+01
1.87769400e+01
1.36418956e+01
1.94436798e+01
1.60787287e+01
1.36172519e+01
6.06528318e+00
5.47441697e+00
5.68351102e+00
5.25135815e+00
7.60939503e+00
7.42330217e+00
8.92339885e+00
9.80801018e+00
6.67514785e+00
9.69625139e+00
5.71361482e+00
4.00116698e+00
5.48296261e+00
7.13026937e+00
3.78674899e+00
3.82872772e+00
3.89574227e+00
3.58391392e+00
5.54735434e+00
4.70999131e+00
4.18118505e+00
4.56080959e+00
2.54816887e+00
4.03152472e+00
2.00261281e+00
1.17079889e+00
1.16379362e+00
1.04139656e+00
3.32449079e+00
3.49610257e+00
2.74843073e+00
3.11173606e+00
5.25836849e+00
3.14049238e+00
4.47089100e+00
3.96456450e+00
1.56868441e+00
2.72282302e+00
1.46807370e+00
8.67167234e-01
9.00434315e-01
7.76989251e-01
4.23109007e+00
3.26833457e+00
4.22156858e+00
4.61807942e+00
2.20041746e+00
2.30146074e+00
1.89394468e+00
9.27927211e-01
1.41750342e+00
6.87289500e-01
1.66371983e+00
1.63022444e+00
2.89545715e+00
3.19661918e+00
4.02629103e+00
5.86988354e+00
-1.84678810e-01
-1.83415956e+00
-2.64482039e+00
-3.61825126e+00
-2.59257336e+00
5.48278537e+00
5.37509149e+00
5.31173397e+00
1.74147725e+01
5.28826225e+00
4.23057163e+00
8.82731376e+00
9.18912721e+00
4.28820768e+00
3.88515568e+00
4.83126217e+00
4.93536776e+00
2.49028149e+00
3.03805768e+00
2.36001564e+00
-1.74470205e+00
4.21054140e-01
4.43453461e-01
2.79546849e-01
7.44253457e-01
8.86588782e-01
1.02551776e+00
2.10932059e+00
1.42569829e+00
2.69498801e+00
2.43916206e+00
3.89665741e+00
1.90666527e+00
4.10872555e+00
1.57938093e+00
3.17242011e+00
1.77943083e+00
4.51765442e+00
3.02583724e+00
3.70826022e+00
4.98230863e+00
-7.10667201e-02
-3.36235571e+00
-2.81826973e+00
-9.76266444e-01
2.75402546e-01
3.83176427e+00
7.62732160e+00
-3.00867538e+00
5.30191490e+00
6.76134449e+00
5.07855022e+00
6.56102014e+00
6.12288129e+00
6.83293588e+00
1.17217188e+01
1.23983828e+00
5.00817287e+00
3.78296912e+00
</DataArray>
<DataArray type="Float32" Name="Stress_Mid_Principal" format="ascii">
-4.78936720e+00
-5.13850069e+00
-3.65023875e+00
-3.22023571e+00
-3.98611975e+00
-3.86717767e+00
-3.18413824e+00
-3.29761499e+00
-6.10711646e+00
-3.90344816e+00
-3.85431123e+00
-3.42657992e+00
-6.73924732e+00
-3.61814525e+00
-3.79506737e+00
-3.48010106e+00
-5.67307246e+00
-4.16499844e+00
-3.08602846e+00
-3.10346340e+00
-4.19245899e+00
-3.81666204e+00
-1.73606828e+00
-3.13027391e+00
-7.06201839e+00
-6.73133707e+00
-2.53527275e+00
-5.05574687e+00
-8.27097237e-01
-6.21264324e-01
-1.18076700e+00
-5.32466516e-01
-6.47765219e-01
-9.69708489e-01
8.13878826e-01
-5.55623686e-01
2.31166913e+00
-1.92821888e+00
9.75173920e-01
-3.08873868e+00
-1.98713723e+00
-6.65781101e+00
-8.71077411e-01
-1.29360630e+00
2.06204087e-01
2.93472588e-01
4.64601174e-01
2.10855190e+00
2.88496691e+00
1.68012174e+00
5.54245814e+00
2.38388186e+00
1.99888021e+00
-8.89821370e-01
-6.69787169e-01
-2.42209971e+00
-2.45067759e+00
-2.94246888e+00
-1.28444786e+00
-1.73228924e+00
-4.23762202e-02
3.59233722e-01
1.54199708e+00
1.28554155e+00
3.21610210e+00
1.59734794e+00
3.53500208e+00
1.73769325e+00
2.45338207e+00
-4.19872612e-01
-1.66354501e+00
-1.92638916e+00
-1.45265229e+00
-1.56472396e+00
-9.35756179e-01
-8.05642704e-01
-1.60443300e+00
-4.57927316e-01
8.13758329e-01
-3.78014490e-01
4.44260053e-01
1.63086742e-02
-5.67583904e-01
1.79535568e-01
-2.38219845e+00
-2.33730078e+00
-2.17373863e+00
-1.81794596e+00
-3.20214486e+00
-2.57605642e+00
-6.21883631e+00
-2.45954156e+00
8.69090587e-01
3.94146219e-01
8.61179188e-01
-4.04539729e-02
-8.08909416e-01
-8.08143318e-01
-1.87366766e+00
-1.19445385e+00
-2.76689616e+00
-2.40558574e+00
-2.61988662e-01
-3.26951202e+00
-1.19595997e+00
-3.59097807e+00
-1.70660678e+00
-2.92668175e+00
-9.68087912e-02
-2.09923998e+00
3.27488244e-01
-1.26167703e+00
-3.26309213e+00
-2.96896613e+00
-4.97633093e+00
-7.38041840e+00
-5.16877073e+00
-5.02705729e+00
-4.54861212e+00
-1.25627925e+00
-9.21218809e-01
-3.33112091e+00
-4.99348888e+00
7.82901468e-02
8.25400895e-01
1.27653413e+00
1.19246815e+00
-1.68710771e+00
5.89774847e-02
-2.38117216e+00
3.57898936e-01
-1.12060710e+00
-1.05662781e+00
-2.26677507e+00
-4.59024060e+00
-7.95388012e-02
-6.06057327e-02
6.29107486e-02
-3.63146931e-01
6.81726396e-01
-1.10436365e-01
-1.45302339e+00
-3.43111686e-01
-2.41722929e+00
-4.17221022e+00
-4.43890584e+00
-5.21995477e+00
-3.85236019e+00
-4.71696267e+00
-1.56959772e+00
-2.66070214e+00
-2.82979918e+00
-1.94736232e+00
-4.78388599e+00
-2.58912453e+00
-3.47285609e+00
-7.93859968e+00
-6.64942634e+00
-2.87367404e+00
-7.91609712e-01
-6.08388821e+00
-2.40789984e+00
-1.07039349e+01
-2.05325186e+00
-1.66820073e+00
-6.03671855e+00
8.55508313e-01
6.56439960e-02
-9.16504025e-01
3.98595214e-01
-1.20962422e+01
-3.88737936e+00
-3.23726583e+00
</DataArray>
<DataArray type="Float32" Name="Stress_Min_Principal" format="ascii">
-2.64158211e+01
-2.76864538e+01
-2.71211658e+01
-2.66794462e+01
-2.63976002e+01
-2.72658377e+01
-2.72873108e+01
-2.64785671e+01
-3.06660347e+01
-2.77746758e+01
-2.90929136e+01
-2.96160765e+01
-3.29297943e+01
-2.93747644e+01
-3.12476239e+01
-3.11093068e+01
-3.32271824e+01
-3.18415737e+01
-3.21862998e+01
-3.11189978e+01
-3.17599049e+01
-3.14292955e+01
-2.95584207e+01
-3.10347791e+01
-3.30105019e+01
-3.41603699e+01
-2.89245043e+01
-3.20390086e+01
-2.52510881e+01
-2.66219206e+01
-2.66726012e+01
-2.61144781e+01
-2.27848544e+01
-2.54003096e+01
-1.90734591e+01
-2.50250882e+01
-1.70045428e+01
-2.57896929e+01
-1.79760580e+01
-2.73365157e+01
-2.20171919e+01
-3.20641778e+01
-2.38584108e+01
-2.58431711e+01
-2.51915002e+01
-2.51245618e+01
-2.05602007e+01
-2.10173879e+01
-1.29219370e+01
-1.39349887e+01
-6.96370888e+00
-1.08486932e+01
-9.82454864e+00
-1.59692494e+01
-1.55808716e+01
-1.80433459e+01
-2.48379464e+01
-2.60335321e+01
-2.46532357e+01
-2.54172144e+01
-2.19657011e+01
-2.14910202e+01
-1.04277568e+01
-1.37347542e+01
-1.28399103e+00
-2.68633501e+00
-1.01223729e+01
-3.60722555e+00
-8.81008434e+00
-4.57875979e+00
-2.72508616e+01
-2.74142437e+01
-2.69510324e+01
-2.74132895e+01
-2.65237074e+01
-2.62514429e+01
-1.46139750e+01
-2.07207923e+01
-4.62470046e+00
-4.91628826e+00
-2.66925780e+00
-1.45416062e+00
-3.78270257e+00
-3.49385158e+00
-2.86264477e+01
-2.82867908e+01
-2.93363600e+01
-2.86559963e+01
-2.92539568e+01
-2.99566569e+01
-1.68143864e+01
-2.52308858e+01
-9.62247372e+00
-1.03016605e+01
-4.58486378e+00
-2.47903911e+00
-1.94380867e+00
-1.11785629e+00
-2.69024982e+01
-2.75855217e+01
-2.77946458e+01
-2.68585825e+01
-2.82380943e+01
-3.10726671e+01
-2.95476975e+01
-3.32948606e+01
-3.08823733e+01
-3.26848614e+01
-2.86785522e+01
-3.08099339e+01
-2.70592499e+01
-2.84516120e+01
-2.87272210e+01
-2.56414161e+01
-3.64107200e+01
-4.09747055e+01
-3.86721115e+01
-3.99367390e+01
-3.86015320e+01
-2.62211754e+01
-2.51687193e+01
-3.02369677e+01
-2.49605589e+01
-2.41458163e+01
-2.49955959e+01
-2.26524748e+01
-2.02362696e+01
-2.72052541e+01
-2.64460387e+01
-2.72660842e+01
-2.78460965e+01
-3.03994775e+01
-2.91768847e+01
-3.13066754e+01
-3.89755325e+01
-5.06280616e-01
-5.47606371e-01
-5.07223204e-01
-5.45872897e-01
-2.84958591e+01
-2.91982775e+01
-2.94038134e+01
-2.89994130e+01
-2.97019434e+01
-3.18019171e+01
-2.96381249e+01
-3.34640496e+01
-2.90575628e+01
-3.33827960e+01
-2.83350592e+01
-3.09652615e+01
-2.77804089e+01
-2.88154006e+01
-3.06804705e+01
-2.70422249e+01
-3.63496154e+01
-4.59927757e+01
-4.08239899e+01
-3.45051222e+01
-3.09548655e+01
-3.34286780e+01
-2.50466361e+01
-5.00832148e+01
-2.76906553e+01
-2.38539758e+01
-3.50471692e+01
-2.48280866e+01
-2.51858792e+01
-2.78517759e+01
-3.33564034e+01
-4.51157811e+01
-3.07288775e+01
-3.11567430e+01
</DataArray>
<DataArray type="Float32" Name="Stress_Pressure" format="ascii">
8.37315178e+00
9.12655592e+00
8.57717276e+00
8.27478909e+00
8.21673107e+00
8.67633009e+00
8.58739376e+00
8.16069329e+00
1.09267321e+01
8.96810317e+00
9.67676497e+00
9.91004932e+00
1.22976685e+01
9.84307718e+00
1.09017432e+01
1.07719299e+01
1.23318939e+01
1.13160625e+01
1.14044013e+01
1.07253299e+01
1.12703233e+01
1.09747016e+01
9.71919584e+00
1.06301285e+01
1.23283443e+01
1.28500104e+01
9.35086846e+00
1.13122718e+01
7.09343898e+00
7.90771341e+00
7.97517252e+00
7.59384859e+00
5.57909429e+00
7.11080426e+00
3.12083599e+00
6.50729401e+00
1.55242857e+00
7.12446298e+00
1.83460745e+00
8.07084749e+00
4.69463569e+00
1.10498935e+01
6.29008508e+00
7.52169609e+00
6.88546944e+00
6.85648108e+00
4.07649273e+00
3.55377597e+00
-1.16468602e+00
-6.79574318e-01
-5.61282198e+00
-3.43737618e+00
-1.93874232e+00
-8.61536324e-01
5.73096871e-02
2.28273138e+00
7.07444692e+00
7.83386135e+00
6.75139076e+00
7.29938197e+00
4.79956073e+00
4.56949481e+00
-1.25463232e-02
8.80400881e-01
-2.86908638e+00
-2.86908798e+00
2.91251928e-01
-7.10544844e-01
2.91246623e-01
-7.10545679e-01
8.37588584e+00
8.50396872e+00
8.16931409e+00
8.46469998e+00
7.30403638e+00
7.44903147e+00
4.01240780e+00
5.53930340e+00
4.20924358e-01
4.20926012e-01
7.41282851e-02
8.90176982e-02
1.06216425e+00
7.57639791e-01
9.22805166e+00
9.04266262e+00
9.58722246e+00
9.12073565e+00
9.06591082e+00
9.79740691e+00
6.18744385e+00
7.90862139e+00
2.39489958e+00
2.39489710e+00
7.51870245e-01
5.50775260e-01
6.17427945e-01
3.83003436e-01
8.18169212e+00
8.50388026e+00
8.77999085e+00
8.21536279e+00
8.76655483e+00
1.06802394e+01
9.61657071e+00
1.19859705e+01
1.03904920e+01
1.16414177e+01
9.03721380e+00
1.04263164e+01
7.94543505e+00
8.83888984e+00
9.32134056e+00
7.58016634e+00
1.38572430e+01
1.67297615e+01
1.54952343e+01
1.61940155e+01
1.52475719e+01
7.33155644e+00
6.90494871e+00
9.41878470e+00
4.17975831e+00
6.25975472e+00
6.64654100e+00
4.18287581e+00
3.28489161e+00
8.20138490e+00
7.50063503e+00
8.27199805e+00
7.51760978e+00
9.67660093e+00
9.06515169e+00
1.04044780e+01
1.51034918e+01
5.49217705e-02
5.49195409e-02
5.49218673e-02
5.49221318e-02
8.97584820e+00
9.42773199e+00
9.58250523e+00
9.30560863e+00
9.80806160e+00
1.11783217e+01
1.00601246e+01
1.22591131e+01
9.60039926e+00
1.21734595e+01
8.91074574e+00
1.06155109e+01
8.69751787e+00
9.24564183e+00
1.05853653e+01
8.21634674e+00
1.32978459e+01
1.90979109e+01
1.67638953e+01
1.27850211e+01
1.04903579e+01
1.18936008e+01
6.60907155e+00
2.12652750e+01
8.14733069e+00
6.25361055e+00
1.20017794e+01
5.80385262e+00
6.33245099e+00
7.31178121e+00
7.07869577e+00
1.86573947e+01
9.86936128e+00
1.02036796e+01
</DataArray>
<DataArray type="Float32" Name="Stress_Tresca" format="ascii">
3.25015564e+01
3.31317387e+01
3.21610513e+01
3.17547607e+01
3.21311264e+01
3.23698626e+01
3.19965796e+01
3.17726693e+01
3.46589890e+01
3.25484900e+01
3.30098438e+01
3.29285843e+01
3.57058296e+01
3.28384433e+01
3.35850868e+01
3.33829253e+01
3.51317539e+01
3.38999591e+01
3.32454233e+01
3.31654701e+01
3.39012985e+01
3.37511473e+01
3.16953225e+01
3.33094463e+01
3.60979881e+01
3.65020466e+01
3.23316755e+01
3.51969495e+01
3.00489559e+01
3.01419659e+01
3.06004519e+01
2.99798775e+01
2.94801912e+01
3.04379156e+01
2.79705315e+01
3.10839182e+01
2.70401306e+01
3.21342150e+01
2.94731197e+01
3.35492287e+01
3.19376144e+01
3.76364861e+01
2.97176433e+01
3.04148607e+01
2.95203879e+01
2.93862081e+01
2.84263225e+01
2.92648959e+01
2.64529643e+01
2.82285789e+01
2.52234255e+01
2.96256332e+01
2.34664434e+01
3.54129295e+01
3.16596003e+01
3.16605988e+01
3.09032292e+01
3.15079489e+01
3.03367469e+01
3.06685724e+01
2.95750961e+01
2.89143226e+01
1.93511555e+01
2.35427645e+01
7.95913871e+00
1.23825868e+01
1.58359871e+01
7.60839224e+00
1.42930474e+01
1.17090289e+01
3.10376105e+01
3.12429714e+01
3.08467746e+01
3.09972038e+01
3.20710621e+01
3.09614348e+01
1.87951598e+01
2.52816016e+01
7.17286921e+00
8.94781303e+00
4.67187065e+00
2.62495956e+00
4.94649625e+00
4.53524828e+00
3.19509382e+01
3.17828941e+01
3.20847902e+01
3.17677336e+01
3.45123253e+01
3.30971498e+01
2.12852774e+01
2.91954498e+01
1.11911583e+01
1.30244832e+01
6.05293751e+00
3.34620627e+00
2.84424305e+00
1.89484555e+00
3.11335878e+01
3.08538561e+01
3.20162144e+01
3.14766622e+01
3.04385114e+01
3.33741281e+01
3.14416428e+01
3.42227883e+01
3.22998762e+01
3.33721511e+01
3.03422718e+01
3.24401584e+01
2.99547062e+01
3.16482315e+01
3.27535121e+01
3.15112996e+01
3.62260410e+01
3.91405457e+01
3.60272913e+01
3.63184881e+01
3.60089588e+01
3.17039607e+01
3.05438108e+01
3.55487026e+01
4.23753300e+01
2.94340785e+01
2.92261677e+01
3.14797889e+01
2.94253966e+01
3.14934616e+01
3.03311944e+01
3.20973465e+01
3.27814636e+01
3.28897591e+01
3.22149420e+01
3.36666913e+01
3.72308311e+01
9.27334726e-01
9.91059840e-01
7.86770046e-01
1.29012638e+00
2.93824472e+01
3.02237949e+01
3.15131345e+01
3.04251113e+01
3.23969307e+01
3.42410793e+01
3.35347824e+01
3.53707144e+01
3.31662884e+01
3.49621768e+01
3.15074797e+01
3.27446918e+01
3.22980633e+01
3.18412380e+01
3.43887308e+01
3.20245328e+01
3.62785484e+01
4.26304199e+01
3.80057201e+01
3.35288563e+01
3.12302685e+01
3.72604425e+01
3.26739578e+01
4.70745392e+01
3.29925698e+01
3.06153197e+01
4.01257191e+01
3.13891072e+01
3.13087602e+01
3.46847115e+01
4.50781212e+01
4.63556201e+01
3.57370505e+01
3.49397125e+01
</DataArray>
<DataArray type="Float32" Name="Stress_Third_Invariant" format="ascii">
-2.32829075e+01
-2.43661556e+01
-2.53592010e+01
-2.53710709e+01
-2.43753214e+01
-2.54864278e+01
-2.61431048e+01
-2.51640801e+01
-2.67218132e+01
-2.56247282e+01
-2.73557968e+01
-2.82719362e+01
-2.85227852e+01
-2.72442665e+01
-2.95028954e+01
-2.95773201e+01
-2.97892113e+01
-2.94109473e+01
-3.07274623e+01
-2.98629210e+01
-2.97028093e+01
-2.94384551e+01
-2.93716097e+01
-2.97343063e+01
-2.83009815e+01
-2.95557652e+01
-2.84107313e+01
-2.91847830e+01
-2.62665777e+01
-2.75544987e+01
-2.70806582e+01
-2.69490485e+01
-2.40638065e+01
-2.61183565e+01
-2.16317272e+01
-2.62153072e+01
-2.09775062e+01
-2.57565091e+01
-1.98364563e+01
-2.58033307e+01
-1.96860628e+01
-2.61656335e+01
-2.46748486e+01
-2.62712908e+01
-2.68122063e+01
-2.67091513e+01
-2.24962044e+01
-2.44497855e+01
-9.23105907e+00
-1.98769331e-01
5.67289797e+00
-1.81430721e+00
3.34280268e+00
-1.21094386e+00
5.09134007e+00
3.91609955e+00
-2.42267766e+01
-2.51945066e+01
-2.52843449e+01
-2.57243104e+01
-2.30189447e+01
-2.27344303e+01
-5.61336374e+00
-1.40524557e+01
-1.47377992e+00
3.64001656e+00
-1.42283032e+01
-5.38910023e+00
-1.22081890e+01
5.07385588e+00
-2.72079034e+01
-2.74063301e+01
-2.71980751e+01
-2.76068411e+01
-2.71665864e+01
-2.70621605e+01
-1.38384075e+01
-2.15621613e+01
-5.91324764e+00
-1.82774282e+00
-1.96916428e+00
-2.42666996e-01
-1.90188229e+00
-3.71344630e+00
-2.81234417e+01
-2.79535122e+01
-2.89744196e+01
-2.86399708e+01
-2.83567162e+01
-2.93915319e+01
-5.94175816e-01
-2.37612886e+01
-1.07941093e+01
-1.14796774e+01
-5.70097268e+00
-2.65465450e+00
1.73295391e+00
1.69761825e+00
-2.70482244e+01
-2.80586805e+01
-2.71569195e+01
-2.65681119e+01
-2.90497274e+01
-2.96302061e+01
-2.95548887e+01
-3.14332862e+01
-3.04864407e+01
-3.12336085e+01
-2.93692713e+01
-3.02204435e+01
-2.84804735e+01
-2.88962932e+01
-2.73288345e+01
-2.45653529e+01
-3.31969564e+01
-3.54899593e+01
-3.46054096e+01
-3.55686560e+01
-3.49405003e+01
-2.64296019e+01
-2.57955909e+01
-2.29999539e+01
2.91288185e+00
-2.60092821e+01
-2.71992669e+01
-2.57155350e+01
-2.31653601e+01
-2.75131209e+01
-2.79600267e+01
-2.68551672e+01
-2.99114118e+01
-3.06551151e+01
-2.97444191e+01
-3.07935939e+01
-3.56330509e+01
4.14512455e-01
-1.38797671e-01
-6.16762936e-01
1.17534059e+00
-2.92789316e+01
-2.96057577e+01
-2.92702508e+01
-2.94211740e+01
-2.91599221e+01
-2.97434108e+01
-2.74274259e+01
-3.03322048e+01
-2.73869157e+01
-3.07448523e+01
-2.84222846e+01
-2.99726737e+01
-2.71093006e+01
-2.86387606e+01
-2.80004442e+01
-2.65834317e+01
-3.42983150e+01
-3.97900505e+01
-3.57823000e+01
-3.24956465e+01
-3.06671715e+01
-2.79305280e+01
-2.43666043e+01
-4.17759380e+01
-2.68467650e+01
-2.19740171e+01
-2.79061832e+01
-2.73855803e+01
-2.71577125e+01
-2.89265028e+01
-3.68081779e+01
-3.10181726e+01
-2.68951931e+01
-3.02065163e+01
</DataArray>
<DataArray type="Float32" Name="Logarithmic_strain_Max_Principal" format="ascii">
1.95195619e-03
2.09456182e-03
1.76541091e-03
1.62491872e-03
1.81745453e-03
1.84351730e-03
1.63601323e-03
1.59276187e-03
2.46484869e-03
1.98071229e-03
1.94876522e-03
1.83105214e-03
2.80863803e-03
2.18916169e-03
2.12872672e-03
1.99564424e-03
2.97979044e-03
2.51953411e-03
2.31930916e-03
2.09562278e-03
3.47288302e-03
3.00650339e-03
2.62496376e-03
2.47826116e-03
4.63184575e-03
3.97027680e-03
3.13526369e-03
3.13576119e-03
1.09296619e-03
1.06946516e-03
1.16136049e-03
1.03251649e-03
1.06695380e-03
1.24070256e-03
9.94937247e-04
1.35822943e-03
1.19621360e-03
1.70378501e-03
1.30936987e-03
1.93480575e-03
1.57219317e-03
2.42407379e-03
7.42698467e-04
8.44022841e-04
7.41664371e-04
6.92479400e-04
5.47904121e-04
5.56437066e-04
3.05860878e-04
4.35315475e-04
2.75691190e-04
6.72217817e-04
3.21046129e-04
6.46780294e-04
2.33098253e-04
6.14691744e-04
6.59976969e-04
7.61723320e-04
5.85846145e-04
6.50802336e-04
4.18758551e-04
3.79544546e-04
1.94997468e-04
2.16901438e-04
1.25838242e-04
1.98254517e-04
1.40772434e-04
8.76786532e-05
1.35056132e-04
1.62577640e-04
5.79695137e-04
7.16831360e-04
5.21411421e-04
6.04798974e-04
3.54726457e-04
3.30113709e-04
1.40266819e-04
2.18085648e-04
6.63088576e-05
1.01600561e-04
4.89778038e-05
2.89431624e-05
4.06116069e-05
3.44027576e-05
6.33633812e-04
8.19034292e-04
5.92959666e-04
6.25854096e-04
3.84521685e-04
4.31963672e-04
1.71906438e-04
2.74587971e-04
6.64171712e-05
9.45669708e-05
4.44285324e-05
2.74837433e-05
2.94393212e-05
2.33744759e-05
1.51196454e-03
1.41359374e-03
1.48293038e-03
1.46977865e-03
1.31622292e-03
1.53074363e-03
1.47188484e-03
1.71817932e-03
1.64959184e-03
1.80474928e-03
1.53269220e-03
1.81076679e-03
1.50381727e-03
1.78852380e-03
1.34178057e-03
1.30070493e-03
1.71599589e-03
2.28971161e-03
2.13281997e-03
2.28155655e-03
2.39350682e-03
8.98754311e-04
9.09171722e-04
1.31250899e-03
1.52953711e-03
5.14480806e-04
5.07405843e-04
3.43655190e-04
2.72706670e-04
4.70231775e-04
3.31505522e-04
5.74267920e-04
5.25707896e-04
4.03926359e-04
3.68689056e-04
7.22131997e-04
1.39607876e-03
1.07112146e-05
1.12753096e-05
7.23263815e-06
1.85448207e-05
1.20188179e-03
1.23176206e-03
1.42166633e-03
1.33163849e-03
1.41366900e-03
1.58161168e-03
1.52196069e-03
1.67265427e-03
1.37738322e-03
1.74490026e-03
1.00728443e-03
1.43643271e-03
9.07107955e-04
1.21916077e-03
1.68679678e-03
1.52706253e-03
1.72921882e-03
2.59698618e-03
2.29965983e-03
1.76257844e-03
1.47631293e-03
1.67305207e-03
1.13647041e-03
3.11932166e-03
7.68839806e-04
7.09112421e-04
1.24257927e-03
4.03275377e-04
4.23034464e-04
1.04139919e-03
7.35574227e-04
3.07173165e-03
9.88955540e-04
6.94415663e-04
</DataArray>
<DataArray type="Float32" Name="Logarithmic_strain_Min_Principal" format="ascii">
-2.45403964e-03
-2.67415680e-03
-2.41022295e-03
-2.26669328e-03
-2.38129182e-03
-2.49788066e-03
-2.32452687e-03
-2.19322735e-03
-3.23731487e-03
-2.66539195e-03
-2.79548089e-03
-2.73736738e-03
-3.78282240e-03
-3.08579498e-03
-3.26092937e-03
-3.10316391e-03
-4.24076780e-03
-3.77327640e-03
-3.79411690e-03
-3.34374770e-03
-5.09363203e-03
-4.42786131e-03
-4.21626348e-03
-3.89254407e-03
-5.98565023e-03
-5.26053342e-03
-4.63722763e-03
-4.43783647e-03
-1.72244379e-03
-1.81575451e-03
-1.87748592e-03
-1.72617906e-03
-1.52738183e-03
-1.87586437e-03
-1.27435889e-03
-1.99194204e-03
-1.47276075e-03
-2.42266979e-03
-1.49069921e-03
-2.68296331e-03
-1.67768419e-03
-3.22233886e-03
-1.17244711e-03
-1.38939411e-03
-1.32864552e-03
-1.26156295e-03
-8.18788831e-04
-8.73630830e-04
-3.00524400e-04
-4.41972338e-04
-2.64205291e-04
-5.75313000e-04
-2.99300193e-04
-5.44123749e-04
-3.80518657e-04
-6.23104148e-04
-1.02556996e-03
-1.18365051e-03
-9.74897826e-04
-1.08277149e-03
-6.68179011e-04
-6.24734355e-04
-2.28285511e-04
-2.82108776e-04
-6.51645484e-05
-9.90371094e-05
-2.39393652e-04
-9.51926613e-05
-2.07717945e-04
-1.18579800e-04
-1.07528648e-03
-1.26269960e-03
-9.96751332e-04
-1.13325796e-03
-7.13859423e-04
-7.05960752e-04
-2.90598051e-04
-4.89783983e-04
-1.05836983e-04
-1.13041393e-04
-6.31617177e-05
-3.39136456e-05
-7.76450725e-05
-7.49620206e-05
-1.18426495e-03
-1.43121067e-03
-1.17125636e-03
-1.21000566e-03
-7.82314426e-04
-9.32216470e-04
-3.15608675e-04
-6.42907777e-04
-2.02001764e-04
-2.18369263e-04
-1.00897199e-04
-5.28194723e-05
-3.94453054e-05
-2.21563296e-05
-2.28738994e-03
-2.30598549e-03
-2.19830350e-03
-2.14478542e-03
-2.33262376e-03
-2.46708437e-03
-2.48762220e-03
-2.87021196e-03
-2.80752004e-03
-3.06725432e-03
-2.75459239e-03
-3.03105041e-03
-2.60234036e-03
-2.84568267e-03
-2.00428200e-03
-1.77826511e-03
-2.92442074e-03
-3.88373020e-03
-3.90460063e-03
-4.27664246e-03
-4.30284534e-03
-1.38913933e-03
-1.41986628e-03
-1.99185411e-03
-1.39699518e-03
-9.30854425e-04
-1.00641942e-03
-5.97938030e-04
-4.37732650e-04
-9.16945319e-04
-7.59508504e-04
-1.03338073e-03
-1.05983918e-03
-9.52541712e-04
-8.61901121e-04
-1.38721784e-03
-2.78757821e-03
-1.16415927e-05
-1.23101897e-05
-1.16405386e-05
-1.25736847e-05
-2.35480093e-03
-2.33909249e-03
-2.40486817e-03
-2.41372822e-03
-2.28498649e-03
-2.45125362e-03
-2.18999264e-03
-2.59795264e-03
-2.03006525e-03
-2.78770403e-03
-1.72108749e-03
-2.42904527e-03
-1.45354605e-03
-2.04175277e-03
-2.41492473e-03
-2.16196512e-03
-3.04205516e-03
-4.49465392e-03
-3.98670248e-03
-3.26167990e-03
-2.78986688e-03
-2.42943912e-03
-1.51772061e-03
-4.92052425e-03
-1.26715361e-03
-1.02346747e-03
-1.88580024e-03
-7.36180751e-04
-8.07064775e-04
-1.53567519e-03
-1.20608043e-03
-4.40487180e-03
-1.65895317e-03
-1.28964288e-03
</DataArray>
<DataArray type="Float32" Name="Plastic_strain_Max_Principal" format="ascii">
1.70528004e-03
1.85407785e-03
1.54160679e-03
1.40368380e-03
1.58069469e-03
1.61727739e-03
1.41969479e-03
1.36773806e-03
2.23864347e-03
1.75859340e-03
1.73865436e-03
1.63311817e-03
2.59508018e-03
1.98851648e-03
1.94208929e-03
1.81194229e-03
2.78619491e-03
2.33573141e-03
2.15757755e-03
1.91782141e-03
3.28679511e-03
2.82133039e-03
2.45786272e-03
2.29612770e-03
4.40997118e-03
3.76241957e-03
2.94300437e-03
2.92404473e-03
8.92716678e-04
8.90685682e-04
9.71567206e-04
8.48069132e-04
8.39498884e-04
1.03461741e-03
7.44155754e-04
1.13505352e-03
9.39578196e-04
1.46777766e-03
1.01360180e-03
1.68949345e-03
1.28025346e-03
2.15743785e-03
5.26746240e-04
6.43581792e-04
5.55468494e-04
5.08054065e-04
3.11997384e-04
3.18622919e-04
4.45983651e-05
1.28495682e-04
1.52538434e-04
2.65725287e-04
1.17596137e-04
2.13437044e-04
1.49509040e-04
2.62057583e-04
4.29625448e-04
5.36284584e-04
3.68462148e-04
4.37153474e-04
1.79290833e-04
1.47064520e-04
2.29232764e-05
3.84831413e-05
0.00000000e+00
0.00000000e+00
0.00000000e+00
0.00000000e+00
0.00000000e+00
0.00000000e+00
3.88292567e-04
5.22945717e-04
3.30067669e-04
4.17139549e-04
1.34256572e-04
1.28480187e-04
1.22954084e-05
6.20551418e-05
0.00000000e+00
0.00000000e+00
0.00000000e+00
0.00000000e+00
0.00000000e+00
0.00000000e+00
4.43346275e-04
6.26820722e-04
4.11956455e-04
4.41831624e-04
1.49529107e-04
2.39477580e-04
1.37503930e-05
1.10227529e-04
0.00000000e+00
0.00000000e+00
0.00000000e+00
0.00000000e+00
0.00000000e+00
0.00000000e+00
1.31301698e-03
1.23293203e-03
1.27615550e-03
1.26031664e-03
1.15893030e-03
1.34758149e-03
1.31083239e-03
1.55185070e-03
1.49091662e-03
1.64831166e-03
1.38479401e-03
1.64622669e-03
1.34002400e-03
1.60453501e-03
1.13338458e-03
1.06880532e-03
1.55590922e-03
2.13619624e-03
2.01119954e-03
2.17638811e-03
2.27475812e-03
6.79950226e-04
6.97309682e-04
1.07388793e-03
1.07758702e-03
3.12868955e-04
3.26015681e-04
1.16618096e-04
1.22750887e-04
2.68814523e-04
1.49431770e-04
3.59551139e-04
3.21890486e-04
2.30361949e-04
1.86777230e-04
5.42417874e-04
1.25977356e-03
0.00000000e+00
0.00000000e+00
0.00000000e+00
0.00000000e+00
1.07292749e-03
1.09394925e-03
1.25620818e-03
1.18611095e-03
1.23126956e-03
1.38883023e-03
1.30759110e-03
1.47975760e-03
1.16303761e-03
1.56086373e-03
8.23716415e-04
1.26605648e-03
6.93959941e-04
1.03554249e-03
1.47054734e-03
1.30943680e-03
1.57482589e-03
2.45528894e-03
2.16770865e-03
1.63356811e-03
1.34378666e-03
1.43913353e-03
8.73897137e-04
2.94024765e-03
5.44967246e-04
4.72470310e-04
9.81148551e-04
1.88553325e-04
2.02965073e-04
7.91612846e-04
3.69737594e-04
2.82563989e-03
7.54976306e-04
4.81966039e-04
</DataArray>
<DataArray type="Float32" Name="Plastic_strain_Min_Principal" format="ascii">
-1.92056410e-03
-2.11942894e-03
-1.86228962e-03
-1.72533060e-03
-1.84600032e-03
-1.94784423e-03
-1.77270916e-03
-1.65606334e-03
-2.63229734e-03
-2.10640475e-03
-2.21328528e-03
-2.14575345e-03
-3.13950051e-03
-2.49883463e-03
-2.64173938e-03
-2.48598211e-03
-3.58965585e-03
-3.14434187e-03
-3.15830996e-03
-2.72620312e-03
-4.46551829e-03
-3.80499766e-03
-3.62415781e-03
-3.27546027e-03
-5.33529790e-03
-4.59323800e-03
-4.05457243e-03
-3.80375382e-03
-1.20121703e-03
-1.27195008e-03
-1.33297278e-03
-1.19082953e-03
-1.04794241e-03
-1.35170487e-03
-8.54380603e-04
-1.47006598e-03
-1.08493555e-03
-1.89183532e-03
-1.08339517e-03
-2.12772167e-03
-1.20721091e-03
-2.58752832e-03
-6.75202755e-04
-8.59577674e-04
-8.06783180e-04
-7.40559786e-04
-3.74344854e-04
-4.13632184e-04
-4.14100446e-05
-1.31435231e-04
-1.47312506e-04
-2.75696502e-04
-1.23005976e-04
-2.13205310e-04
-1.72076529e-04
-2.19751179e-04
-5.14337618e-04
-6.52557210e-04
-4.64396122e-04
-5.60247201e-04
-1.98755408e-04
-1.63924171e-04
-1.96596866e-05
-2.95630037e-05
0.00000000e+00
0.00000000e+00
0.00000000e+00
0.00000000e+00
0.00000000e+00
0.00000000e+00
-5.21494469e-04
-7.06647697e-04
-4.48021226e-04
-5.76726365e-04
-1.64986714e-04
-1.65566767e-04
-8.51249570e-06
-7.92887940e-05
0.00000000e+00
0.00000000e+00
0.00000000e+00
0.00000000e+00
0.00000000e+00
0.00000000e+00
-6.08387345e-04
-8.60386819e-04
-5.82400797e-04
-6.31891002e-04
-1.88577695e-04
-3.30743274e-04
-1.04965175e-05
-1.57804518e-04
0.00000000e+00
0.00000000e+00
0.00000000e+00
0.00000000e+00
0.00000000e+00
0.00000000e+00
-1.73995906e-03
-1.74625992e-03
-1.63675501e-03
-1.59913464e-03
-1.76020619e-03
-1.84958824e-03
-1.89452895e-03
-2.21542324e-03
-2.19156069e-03
-2.42272977e-03
-2.17507521e-03
-2.41680417e-03
-2.04941258e-03
-2.26889388e-03
-1.42703617e-03
-1.25418269e-03
-2.21697753e-03
-3.10146678e-03
-3.16217123e-03
-3.51192575e-03
-3.55905190e-03
-8.49852473e-04
-8.99011749e-04
-1.38056380e-03
-8.76273039e-04
-4.26441224e-04
-4.86197001e-04
-1.37992391e-04
-1.01407238e-04
-3.62802817e-04
-2.15990447e-04
-4.78814154e-04
-4.82485695e-04
-3.41367597e-04
-2.70832534e-04
-7.61264600e-04
-2.03475170e-03
0.00000000e+00
0.00000000e+00
0.00000000e+00
0.00000000e+00
-1.77894760e-03
-1.75128866e-03
-1.81455722e-03
-1.82933986e-03
-1.69043045e-03
-1.82278988e-03
-1.59970389e-03
-1.94234239e-03
-1.44808050e-03
-2.13271996e-03
-1.14828079e-03
-1.81367646e-03
-8.91825068e-04
-1.46159276e-03
-1.80628033e-03
-1.61199213e-03
-2.33081625e-03
-3.61910453e-03
-3.20727075e-03
-2.58759770e-03
-2.17389874e-03
-1.77038023e-03
-9.99081123e-04
-3.97701061e-03
-7.01486395e-04
-5.27275904e-04
-1.19070814e-03
-2.36587739e-04
-2.80191047e-04
-9.58636029e-04
-4.95002139e-04
-3.54698615e-03
-1.05156604e-03
-6.65948464e-04
</DataArray>
</PointData>
<Cells>
<DataArray type="Int32" Name="connectivity" format="ascii">
0 1 2 3 4 5 6 7
1 8 9 2 5 10 11 6
8 12 13 9 10 14 15 11
12 16 17 13 14 18 19 15
16 20 21 17 18 22 23 19
20 24 25 21 22 26 27 23
3 2 28 29 7 6 30 31
2 9 32 28 6 11 33 30
9 13 34 32 11 15 35 33
13 17 36 34 15 19 37 35
17 21 38 36 19 23 39 37
21 25 40 38 23 27 41 39
29 28 42 43 31 30 44 45
28 32 46 42 30 33 47 44
32 34 48 46 33 35 49 47
34 36 50 48 35 37 51 49
36 38 52 50 37 39 53 51
38 40 54 52 39 41 55 53
43 42 56 57 45 44 58 59
42 46 60 56 44 47 61 58
46 48 62 60 47 49 63 61
48 50 64 62 49 51 65 63
52 54 66 67 53 55 68 69
57 56 70 71 59 58 72 73
56 60 74 70 58 61 75 72
60 62 76 74 61 63 77 75
62 64 78 76 63 65 79 77
64 67 80 78 65 69 81 79
67 66 82 80 69 68 83 81
71 70 84 85 73 72 86 87
70 74 88 84 72 75 89 86
74 76 90 88 75 77 91 89
76 78 92 90 77 79 93 91
78 80 94 92 79 81 95 93
80 82 96 94 81 83 97 95
4 5 6 7 98 99 100 101
5 10 11 6 99 102 103 100
10 14 15 11 102 104 105 103
14 18 19 15 104 106 107 105
18 22 23 19 106 108 109 107
22 26 27 23 108 110 111 109
7 6 30 31 101 100 112 113
6 11 33 30 100 103 114 112
11 15 35 33 103 105 115 114
15 19 37 35 105 107 116 115
19 23 39 37 107 109 117 116
23 27 41 39 109 111 118 117
31 30 44 45 113 112 119 120
30 33 47 44 112 114 121 119
33 35 49 47 114 115 122 121
45 44 58 59 120 119 123 124
44 47 61 58 119 121 125 123
47 49 63 61 121 122 126 125
59 58 72 73 124 123 127 128
58 61 75 72 123 125 129 127
61 63 77 75 125 126 130 129
73 72 86 87 128 127 131 132
72 75 89 86 127 129 133 131
75 77 91 89 129 130 134 133
81 83 97 95 135 136 137 138
98 99 100 101 139 140 141 142
99 102 103 100 140 143 144 141
102 104 105 103 143 145 146 144
104 106 107 105 145 147 148 146
106 108 109 107 147 149 150 148
108 110 111 109 149 151 152 150
101 100 112 113 142 141 153 154
100 103 114 112 141 144 155 153
103 105 115 114 144 146 156 155
105 107 116 115 146 148 157 156
107 109 117 116 148 150 158 157
109 111 118 117 150 152 159 158
113 112 119 120 154 153 160 161
112 114 121 119 153 155 162 160
120 119 123 124 161 160 163 164
119 121 125 123 160 162 165 163
124 123 127 128 164 163 166 167
123 125 129 127 163 165 168 166
125 126 130 129 165 169 170 168
128 127 131 132 167 166 171 172
</DataArray>
<DataArray type="Int32" Name="offsets" format="ascii">
8
16
24
32
40
48
56
64
72
80
88
96
104
112
120
128
136
144
152
160
168
176
184
192
200
208
216
224
232
240
248
256
264
272
280
288
296
304
312
320
328
336
344
352
360
368
376
384
392
400
408
416
424
432
440
448
456
464
472
480
488
496
504
512
520
528
536
544
552
560
568
576
584
592
600
608
616
624
632
640
</DataArray>
<DataArray type="UInt8" Name="types" format="ascii">
12
12
12
12
12
12
12
12
12
12
12
12
12
12
12
12
12
12
12
12
12
12
12
12
12
12
12
12
12
12
12
12
12
12
12
12
12
12
12
12
12
12
12
12
12
12
12
12
12
12
12
12
12
12
12
12
12
12
12
12
12
12
12
12
12
12
12
12
12
12
12
12
12
12
12
12
12
12
12
12
</DataArray>
</Cells>
</Piece>
</UnstructuredGrid>
</VTKFile>
