<VTKFile type="UnstructuredGrid" version="0.1" byte_order="LittleEndian">
<UnstructuredGrid>
<Piece NumberOfPoints="191" NumberOfCells="79">
<Points>
<DataArray type="Float64" NumberOfComponents="3" format="ascii">
 1.04610181e+00  5.25233126e+00  1.87596166e+00
 2.07670498e+00  5.23956776e+00  1.89855075e+00
 2.07843685e+00  6.30326176e+00  1.85349488e+00
 1.04071867e+00  6.29678917e+00  1.84461534e+00
 1.03744864e+00  5.29088306e+00  2.80988646e+00
 2.08204174e+00  5.28613663e+00  2.82094097e+00
 2.06901717e+00  6.36762524e+00  2.76559258e+00
 1.04096448e+00  6.33476973e+00  2.77229142e+00
 3.12984705e+00  5.22152185e+00  1.92171848e+00
 3.14092541e+00  6.28959513e+00  1.85688019e+00
 3.12424469e+00  5.27721882e+00  2.79802060e+00
 3.17957973e+00  6.34050322e+00  2.71409535e+00
 5.13738108e+00  5.20758629e+00  2.00003386e+00
 6.13738203e+00  5.20892715e+00  2.00003195e+00
 6.13603926e+00  6.20893526e+00  1.99998271e+00
 5.13601160e+00  6.20760059e+00  1.99996555e+00
 5.13736963e+00  5.20764971e+00  3.00002050e+00
 6.13736296e+00  5.20899916e+00  3.00004053e+00
 6.13601494e+00  6.20899010e+00  2.99997330e+00
 5.13603020e+00  6.20763922e+00  2.99997449e+00
 0.00000000e+00  0.00000000e+00  2.72094202e+00
 1.05311680e+00  0.00000000e+00  2.71895695e+00
 1.05635226e+00  1.05836987e+00  2.72483540e+00
 0.00000000e+00  1.05612707e+00  2.73008752e+00
 0.00000000e+00  0.00000000e+00  3.62590051e+00
 1.07136142e+00  0.00000000e+00  3.62675500e+00
 1.07335305e+00  1.05846262e+00  3.62836671e+00
 0.00000000e+00  1.05469787e+00  3.63712025e+00
 2.11795235e+00  0.00000000e+00  2.70456743e+00
 2.10542846e+00  1.05023372e+00  2.71364450e+00
 2.13820553e+00  0.00000000e+00  3.61634779e+00
 2.14125681e+00  1.06179070e+00  3.61600733e+00
 3.17548442e+00  0.00000000e+00  2.68875098e+00
 3.17667341e+00  1.04555237e+00  2.69266939e+00
 3.20619917e+00  0.00000000e+00  3.59927654e+00
 3.19908905e+00  1.05417156e+00  3.60112953e+00
 4.24475145e+00  0.00000000e+00  2.67513108e+00
 4.24776936e+00  1.04726219e+00  2.67016172e+00
 4.26617241e+00  0.00000000e+00  3.58692122e+00
 4.26283646e+00  1.04539812e+00  3.58013153e+00
 5.31793022e+00  0.00000000e+00  2.65845752e+00
 5.31827927e+00  1.05015957e+00  2.66075444e+00
 5.32450199e+00  0.00000000e+00  3.57786465e+00
 5.32348156e+00  1.04457402e+00  3.56585956e+00
 6.38569212e+00  0.00000000e+00  2.65322375e+00
 6.38508940e+00  1.05115831e+00  2.65476346e+00
 6.37175703e+00  0.00000000e+00  3.57434797e+00
 6.38689756e+00  1.04528081e+00  3.56604147e+00
 1.04001606e+00  2.11046457e+00  2.74625373e+00
 0.00000000e+00  2.12553978e+00  2.74970484e+00
 1.07313013e+00  2.11787391e+00  3.65188694e+00
 0.00000000e+00  2.11785340e+00  3.65349770e+00
 2.10548043e+00  2.11268806e+00  2.72447252e+00
 2.15118504e+00  2.12528324e+00  3.62437105e+00
 3.16596460e+00  2.11924076e+00  2.68118310e+00
 3.20943809e+00  2.11867332e+00  3.56755328e+00
 4.24266148e+00  2.13165808e+00  2.66994238e+00
 4.25199842e+00  2.10397625e+00  3.54888439e+00
 5.31207943e+00  2.12425089e+00  2.67244935e+00
 5.31775236e+00  2.11651111e+00  3.54969597e+00
 6.37168026e+00  2.13249254e+00  2.66688800e+00
 6.37472963e+00  2.12064695e+00  3.54867411e+00
 1.03599000e+00  3.18895245e+00  2.79113150e+00
 0.00000000e+00  3.18564963e+00  2.78722692e+00
 1.06964803e+00  3.18628621e+00  3.68825150e+00
 0.00000000e+00  3.18507409e+00  3.69779396e+00
 2.09483933e+00  3.16600227e+00  2.75972652e+00
 2.16937995e+00  3.19098592e+00  3.61410975e+00
 3.07411218e+00  3.14069319e+00  2.44627905e+00
 3.23854136e+00  3.17026711e+00  3.49176097e+00
 1.03654516e+00  4.23415375e+00  2.82434630e+00
 0.00000000e+00  4.24280453e+00  2.81653833e+00
 1.05643153e+00  4.25718594e+00  3.75329971e+00
 0.00000000e+00  4.26535892e+00  3.73056364e+00
 0.00000000e+00  5.28438330e+00  2.80547142e+00
 1.05012596e+00  5.33704185e+00  3.73128438e+00
 0.00000000e+00  5.31598377e+00  3.71703458e+00
 2.08520365e+00  4.23471832e+00  2.85976267e+00
 2.12578249e+00  4.27104950e+00  3.72868085e+00
 2.12059116e+00  5.31439590e+00  3.73662186e+00
 0.00000000e+00  6.33924341e+00  2.76072645e+00
 1.07052517e+00  6.39555454e+00  3.65845871e+00
 0.00000000e+00  6.41297579e+00  3.67795110e+00
 2.12015319e+00  6.41865396e+00  3.66173220e+00
 3.15877652e+00  5.29161739e+00  3.60615897e+00
 3.25061798e+00  6.33129597e+00  3.60904980e+00
 0.00000000e+00  0.00000000e+00  4.52213001e+00
 1.08839679e+00  0.00000000e+00  4.51934671e+00
 1.09227169e+00  1.06046462e+00  4.52253056e+00
 0.00000000e+00  1.05626512e+00  4.52573109e+00
 2.16175032e+00  0.00000000e+00  4.51450205e+00
 2.17257047e+00  1.07001817e+00  4.51311445e+00
 3.22431898e+00  0.00000000e+00  4.50572824e+00
 3.23098683e+00  1.07227385e+00  4.50508022e+00
 4.28185654e+00  0.00000000e+00  4.49693584e+00
 4.27475548e+00  1.06538117e+00  4.49651957e+00
 5.32826805e+00  0.00000000e+00  4.49268675e+00
 5.32125282e+00  1.05922484e+00  4.48818445e+00
 6.36587429e+00  0.00000000e+00  4.48975229e+00
 6.36756134e+00  1.06458449e+00  4.49110889e+00
 1.10519028e+00  2.12786174e+00  4.52965260e+00
 0.00000000e+00  2.11697316e+00  4.53735352e+00
 2.19215822e+00  2.14092565e+00  4.51236773e+00
 3.24892211e+00  2.14242029e+00  4.48491621e+00
 4.28203058e+00  2.12805486e+00  4.46197414e+00
 5.30614328e+00  2.11008048e+00  4.44914007e+00
 6.33630991e+00  2.11772394e+00  4.44920301e+00
 1.10699439e+00  3.17781925e+00  4.56839037e+00
 0.00000000e+00  3.19746089e+00  4.58398008e+00
 2.21477008e+00  3.18506098e+00  4.50544119e+00
 3.28788447e+00  3.17762184e+00  4.42938232e+00
 4.27179861e+00  3.07682443e+00  3.35873222e+00
 4.30561543e+00  3.15957689e+00  4.40617561e+00
 1.11295891e+00  4.25199366e+00  4.64753008e+00
 0.00000000e+00  4.23811865e+00  4.60477257e+00
 2.22657299e+00  4.23239136e+00  4.54726410e+00
 1.09319866e+00  5.37048244e+00  4.57688761e+00
 0.00000000e+00  5.37925243e+00  4.57744598e+00
 1.11325157e+00  6.48315811e+00  4.54214525e+00
 0.00000000e+00  6.47683477e+00  4.55654287e+00
 2.17218161e+00  5.34162283e+00  4.58420658e+00
 2.25976992e+00  6.42172670e+00  4.55285025e+00
 3.26431656e+00  5.24810362e+00  4.45938969e+00
 3.37280631e+00  6.27919960e+00  4.49077225e+00
 4.06332302e+00  5.22007036e+00  3.28095126e+00
 4.22512531e+00  6.21122742e+00  3.37291431e+00
 4.34101820e+00  5.15954447e+00  4.40489435e+00
 4.36018705e+00  6.16083765e+00  4.40523052e+00
 5.34132671e+00  5.14190483e+00  3.40504956e+00
 6.34115124e+00  5.12405062e+00  3.40502715e+00
 6.35901308e+00  6.12389517e+00  3.40507054e+00
 5.35913420e+00  6.14178514e+00  3.40514421e+00
 5.34129477e+00  5.14188385e+00  4.40504980e+00
 6.34121275e+00  5.12401056e+00  4.40504742e+00
 6.35901546e+00  6.12386703e+00  4.40506458e+00
 5.35926914e+00  6.14162827e+00  4.40513659e+00
 0.00000000e+00  0.00000000e+00  5.40507889e+00
 1.09372914e+00  0.00000000e+00  5.40507889e+00
 1.10105646e+00  1.06473827e+00  5.40507889e+00
 0.00000000e+00  1.05822194e+00  5.40507889e+00
 2.17384243e+00  0.00000000e+00  5.40507889e+00
 2.18107700e+00  1.07520378e+00  5.40507889e+00
 3.23212504e+00  0.00000000e+00  5.40507889e+00
 3.24393821e+00  1.08045149e+00  5.40507889e+00
 4.28467464e+00  0.00000000e+00  5.40507889e+00
 4.28523636e+00  1.07971501e+00  5.40507889e+00
 5.32759953e+00  0.00000000e+00  5.40507889e+00
 5.32300854e+00  1.07445538e+00  5.40507889e+00
 6.37248468e+00  0.00000000e+00  5.40507889e+00
 6.34781027e+00  1.08418810e+00  5.40507889e+00
 1.12179267e+00  2.11736631e+00  5.40507889e+00
 0.00000000e+00  2.11162472e+00  5.40507889e+00
 2.21545434e+00  2.14208364e+00  5.40507889e+00
 3.26402545e+00  2.15439153e+00  5.40507889e+00
 4.29375172e+00  2.14360237e+00  5.40507889e+00
 5.30311346e+00  2.12784815e+00  5.40507889e+00
 6.32350206e+00  2.12871957e+00  5.40507889e+00
 1.13000798e+00  3.21996546e+00  5.40507889e+00
 0.00000000e+00  3.22613096e+00  5.40507889e+00
 2.24948931e+00  3.19388628e+00  5.40507889e+00
 3.30394578e+00  3.18839455e+00  5.40507889e+00
 4.30627871e+00  3.16030264e+00  5.40507889e+00
 5.30597019e+00  3.14127016e+00  4.40436649e+00
 5.30652666e+00  3.14195728e+00  5.40507889e+00
 6.30804777e+00  3.12624907e+00  4.40368271e+00
 6.30829811e+00  3.12802505e+00  5.40507889e+00
 3.32361460e+00  4.17891169e+00  4.38773155e+00
 3.33364224e+00  4.19155407e+00  5.40507889e+00
 2.32032943e+00  4.22269058e+00  5.40507889e+00
 4.32377195e+00  4.15929890e+00  4.40533781e+00
 4.32392216e+00  4.15950584e+00  5.40507889e+00
 5.32354069e+00  4.14209890e+00  4.40503263e+00
 5.32362652e+00  4.14200115e+00  5.40507889e+00
 6.32325315e+00  4.12442303e+00  4.40512896e+00
 6.32316303e+00  4.12427950e+00  5.40507889e+00
 0.00000000e+00  4.20718622e+00  5.40507889e+00
 1.14234614e+00  4.23819542e+00  5.40507889e+00
 1.12734497e+00  5.39925432e+00  5.40507889e+00
 0.00000000e+00  5.42367363e+00  5.40507889e+00
 5.34123945e+00  5.14188242e+00  5.40507889e+00
 4.34141254e+00  5.15962505e+00  5.40507889e+00
 6.34124994e+00  5.12403631e+00  5.40507889e+00
 1.13739955e+00  6.50537825e+00  5.40507889e+00
 0.00000000e+00  6.49417162e+00  5.40507889e+00
 2.21601748e+00  5.34820271e+00  5.40507889e+00
 2.31038713e+00  6.41684294e+00  5.40507889e+00
 3.28291512e+00  5.22606897e+00  5.40507889e+00
 3.39516664e+00  6.26302958e+00  5.40507889e+00
 4.36055470e+00  6.16006613e+00  5.40507889e+00
 5.35928249e+00  6.14156675e+00  5.40507889e+00
 6.35901213e+00  6.12386465e+00  5.40507889e+00
</DataArray>
</Points>
<PointData Tensors="Stress_Components,Plastic_strain_components" Vevtors="Spatial_displacement,Reaction_force" Scalars="Equivalent_plastic_strain,Stress_Mises,Stress_Max_Principal,Stress_Mid_Principal,Stress_Min_Principal,Stress_Pressure,Stress_Tresca,Stress_Third_Invariant,Plastic_strain_Max_Principal,Plastic_strain_Min_Principal">
<DataArray type="Float32" Name="Stress_Components" NumberOfComponents="9" format="ascii">
1.77380376e+01 7.56466538e-02 1.75880490e-01 7.56466538e-02 1.48452216e+01 3.19442777e-02 1.75880490e-01 3.19442777e-02 5.41832554e+00
5.87364739e+00 -2.81883096e+00 8.99288909e-01 -2.81883096e+00 5.02700931e+00 2.49047366e+00 8.99288909e-01 2.49047366e+00 -1.57464748e+01
-1.29591503e+01 -4.29041378e-01 1.42896926e+00 -4.29041378e-01 -6.33341932e+00 -2.88081390e+00 1.42896926e+00 -2.88081390e+00 -5.02213268e+01
-3.11711001e+00 -9.11265999e-01 3.41278948e-02 -9.11265999e-01 -3.77787316e+00 -7.72045841e-02 3.41278948e-02 -7.72045841e-02 -3.75350266e+01
1.63538320e+01 6.03061849e-02 8.60637087e-01 6.03061849e-02 1.69654683e+01 -3.26146904e-01 8.60637087e-01 -3.26146904e-01 5.98241162e+00
2.34892957e+01 -2.45913877e+00 3.25335978e+00 -2.45913877e+00 2.60610591e+01 1.20472687e-01 3.25335978e+00 1.20472687e-01 1.90754640e+01
-1.25441301e+01 -2.03991950e-01 7.16901004e-01 -2.03991950e-01 8.96935105e-01 -5.92469275e-02 7.16901004e-01 -5.92469275e-02 -4.06322029e+01
1.22859106e+01 -2.84478895e-01 3.62828489e-01 -2.84478895e-01 1.09136019e+01 4.46570121e-01 3.62828489e-01 4.46570121e-01 -5.32668400e+00
-2.23208382e+01 -2.03506768e+00 -1.33742942e-01 -2.03506768e+00 -2.02981518e+01 6.34540218e+00 -1.33742942e-01 6.34540218e+00 -7.84775735e+01
-9.10301170e+01 -4.31637526e+00 -6.65915871e+00 -4.31637526e+00 -8.55020618e+01 4.88498235e+00 -6.65915871e+00 4.88498235e+00 -2.20889153e+02
-7.52742774e+01 9.09137774e+00 -2.81210949e+01 9.09137774e+00 -7.98365451e+01 -1.79652047e+00 -2.81210949e+01 -1.79652047e+00 -1.76204559e+02
-5.34713578e+01 -6.28151894e-02 -5.02285933e+00 -6.28151894e-02 -7.81867676e+01 -1.07923830e+00 -5.02285933e+00 -1.07923830e+00 -1.70429323e+02
-2.34679345e-01 -5.95512271e-01 -2.75076635e-01 -5.95512271e-01 3.28068692e-01 2.69832194e-01 -2.75076635e-01 2.69832194e-01 -4.79917273e-01
-4.31236971e-01 -3.95011883e-02 -9.18677747e-02 -3.95011883e-02 -1.22560248e-01 -2.28391808e-01 -9.18677747e-02 -2.28391808e-01 1.67416066e-01
6.94715649e-01 -1.66478224e-01 -1.28706552e-01 -1.66478224e-01 -1.08744688e-01 5.73818829e-01 -1.28706552e-01 5.73818829e-01 -9.72423762e-01
3.66545945e-01 -7.22702086e-01 3.87878120e-02 -7.22702086e-01 -1.82815636e-01 -5.16771704e-01 3.87878120e-02 -5.16771704e-01 -5.70294008e-01
2.33210176e-01 2.02983230e-01 3.79613489e-01 2.02983230e-01 5.64693585e-02 1.59378201e-01 3.79613489e-01 1.59378201e-01 -2.39960738e-02
-5.56666143e-02 2.51329001e-02 1.12713985e-01 2.51329001e-02 -1.54421389e-01 8.80131125e-03 1.12713985e-01 8.80131125e-03 4.75891620e-01
-5.26107028e-02 6.40717745e-02 -2.42924049e-01 6.40717745e-02 2.04357967e-01 -5.39885163e-01 -2.42924049e-01 -5.39885163e-01 1.14002392e-01
-3.11390489e-01 2.41952285e-01 -1.42949179e-01 2.41952285e-01 -1.32471785e-01 3.44401687e-01 -1.42949179e-01 3.44401687e-01 7.09415555e-01
1.46194553e+00 4.02601752e-02 1.42550740e-01 4.02601752e-02 2.23429751e+00 -4.13180655e-03 1.42550740e-01 -4.13180655e-03 -2.60251322e+01
2.20729872e+00 4.68594760e-01 1.85371796e-02 4.68594760e-01 2.18471861e+00 2.68399373e-01 1.85371796e-02 2.68399373e-01 -2.52160238e+01
6.66217190e+00 -1.84376800e-01 1.75991915e-02 -1.84376800e-01 7.25093868e+00 4.51134296e-01 1.75991915e-02 4.51134296e-01 -1.49159284e+01
2.00240028e+00 1.84842158e-01 1.25559379e-01 1.84842158e-01 3.40659350e+00 -1.95408862e-01 1.25559379e-01 -1.95408862e-01 -2.41277335e+01
6.83752871e+00 -3.02051567e-02 5.47239095e-01 -3.02051567e-02 5.86449623e+00 2.09403701e-01 5.47239095e-01 2.09403701e-01 -1.62538509e+01
3.47363532e-01 2.28681408e-01 -2.29635013e-01 2.28681408e-01 -3.29453945e-02 1.09689021e+00 -2.29635013e-01 1.09689021e+00 -2.95736980e+01
4.59011954e+00 3.58477616e-01 2.22737178e-01 3.58477616e-01 4.09812206e+00 3.94956477e-01 2.22737178e-01 3.94956477e-01 -2.05947302e+01
1.32222144e+00 3.40839583e-01 5.72569445e-01 3.40839583e-01 -6.69122934e-02 -6.24960113e-01 5.72569445e-01 -6.24960113e-01 -2.85834198e+01
7.24263763e+00 -7.94256039e-01 1.63713196e-01 -7.94256039e-01 6.53717768e+00 -6.91117318e-02 1.63713196e-01 -6.91117318e-02 -1.50759495e+01
6.03669429e+00 -4.85231076e-01 8.28649846e-01 -4.85231076e-01 6.03650171e+00 8.88455483e-01 8.28649846e-01 8.88455483e-01 -1.67227978e+01
1.26684427e-01 9.99145461e-02 -8.75593023e-03 9.99145461e-02 2.56992042e-01 3.16950267e-01 -8.75593023e-03 3.16950267e-01 -2.96404687e+01
-1.40289360e+00 5.98029114e-02 1.04108699e+00 5.98029114e-02 1.15936190e-01 1.80662460e+00 1.04108699e+00 1.80662460e+00 -3.11115667e+01
6.49963886e+00 1.25655787e-01 2.86308754e-01 1.25655787e-01 5.56664586e+00 6.38963234e-01 2.86308754e-01 6.38963234e-01 -1.68577819e+01
1.14141307e+01 -4.02144282e-02 5.36814351e-02 -4.02144282e-02 1.00089946e+01 -6.98351562e-02 5.36814351e-02 -6.98351562e-02 -6.83159010e+00
3.45621282e+00 -7.64137402e-01 3.29744268e-01 -7.64137402e-01 2.48389534e+00 8.55154516e-01 3.29744268e-01 8.55154516e-01 -2.34920869e+01
3.61326629e+00 -6.30456149e-01 5.43269706e-01 -6.30456149e-01 3.63632119e+00 7.51887097e-01 5.43269706e-01 7.51887097e-01 -2.20237572e+01
9.07463752e+00 8.71477183e-02 -1.85938681e-01 8.71477183e-02 7.17901385e+00 4.91942644e-01 -1.85938681e-01 4.91942644e-01 -1.22978106e+01
6.01361215e+00 -2.69515160e-03 -4.71649925e-01 -2.69515160e-03 3.93467677e+00 1.30858525e-01 -4.71649925e-01 1.30858525e-01 -1.91482412e+01
7.31516457e+00 -2.99186207e-01 -1.21456767e-01 -2.99186207e-01 5.67775202e+00 5.82535155e-01 -1.21456767e-01 5.82535155e-01 -1.59027195e+01
1.53020214e+01 -3.72879785e-01 3.36260427e-01 -3.72879785e-01 1.41430344e+01 -2.16939729e-01 3.36260427e-01 -2.16939729e-01 1.79785848e+00
1.23425797e+01 -1.97001269e-01 -4.36556572e-02 -1.97001269e-01 1.08102430e+01 4.07364648e-02 -4.36556572e-02 4.07364648e-02 -4.87758106e+00
1.01459224e+01 6.20467048e-02 -3.09950768e-01 6.20467048e-02 7.58929121e+00 1.03155744e-01 -3.09950768e-01 1.03155744e-01 -1.07195673e+01
1.70296272e+01 -1.56280140e-01 -1.33901836e-01 -1.56280140e-01 1.71787646e+01 -2.85421868e-01 -1.33901836e-01 -2.85421868e-01 6.97517014e+00
8.46749115e+00 -2.27044635e-01 -1.17895219e-01 -2.27044635e-01 7.16681220e+00 -2.97440736e-01 -1.17895219e-01 -2.97440736e-01 -1.30537295e+01
1.26203179e+01 -9.02815289e-02 -1.33352347e-01 -9.02815289e-02 1.19590945e+01 -2.54630506e-01 -1.33352347e-01 -2.54630506e-01 -3.29078436e+00
1.77420342e+01 3.53519984e-01 -4.30215886e-01 3.53519984e-01 1.57636842e+01 7.65483137e-02 -4.30215886e-01 7.65483137e-02 6.20827913e+00
1.87113302e+01 4.46762919e-01 3.07061542e-02 4.46762919e-01 1.95476909e+01 -6.79196108e-01 3.07061542e-02 -6.79196108e-01 1.14503183e+01
1.18549373e+01 5.44997260e-01 3.91841491e-01 5.44997260e-01 1.07096885e+01 -9.16929131e-01 3.91841491e-01 -9.16929131e-01 -5.41817641e+00
2.42725539e+00 -7.46120486e-01 1.32660274e+00 -7.46120486e-01 4.69361085e+00 1.30134635e-02 1.32660274e+00 1.30134635e-02 -2.18008356e+01
3.78368258e+00 -1.06143926e+00 8.54626562e-01 -1.06143926e+00 7.04409504e+00 -2.50843371e-01 8.54626562e-01 -2.50843371e-01 -1.79642980e+01
-5.04463091e+00 4.60234016e-01 2.22539232e+00 4.60234016e-01 -6.19159871e+00 2.08236716e+00 2.22539232e+00 2.08236716e+00 -4.16466899e+01
7.49655485e-01 -1.09005557e-01 3.35935758e-01 -1.09005557e-01 1.07293820e+00 -5.02907811e-02 3.35935758e-01 -5.02907811e-02 -2.80888908e+01
1.77310886e+01 3.00174503e+00 4.34953827e+00 3.00174503e+00 1.61991709e+01 3.60803387e+00 4.34953827e+00 3.60803387e+00 -3.58587674e-01
-6.99211279e+00 8.83027090e-01 -1.80710942e-01 8.83027090e-01 -6.73196977e+00 3.22660371e-01 -1.80710942e-01 3.22660371e-01 -4.33807626e+01
-8.35025650e+01 -7.26456308e+00 -1.83889988e+01 -7.26456308e+00 -8.44519562e+01 -2.15438857e+00 -1.83889988e+01 -2.15438857e+00 -1.90414249e+02
1.36845646e+01 1.44759290e+00 6.71750903e-01 1.44759290e+00 1.78624417e+01 1.27655693e+00 6.71750903e-01 1.27655693e+00 -7.93019295e-01
-5.32367468e+01 -1.38020115e+00 -4.00143760e+00 -1.38020115e+00 -4.84825611e+01 1.06658445e+00 -4.00143760e+00 1.06658445e+00 -1.39560921e+02
-3.80731461e+01 -2.03313161e+00 -1.79127324e+01 -2.03313161e+00 -4.85672363e+01 -1.41168205e+00 -1.79127324e+01 -1.41168205e+00 -1.00770720e+02
-3.55246840e+01 -1.74623281e+00 -1.55885693e-01 -1.74623281e+00 -3.09375162e+01 1.59716436e+00 -1.55885693e-01 1.59716436e+00 -1.01642193e+02
-4.79452686e+01 -4.54892157e-01 -4.26158917e+00 -4.54892157e-01 -4.22295704e+01 -1.73814822e+00 -4.26158917e+00 -1.73814822e+00 -1.27012793e+02
-3.05851126e+01 -2.84735906e+00 -7.71870300e-01 -2.84735906e+00 -2.13585887e+01 3.50469992e-01 -7.71870300e-01 3.50469992e-01 -8.52859612e+01
-4.81671543e+01 -4.58062971e+00 -4.87973452e+00 -4.58062971e+00 -3.64426250e+01 -3.76994038e+00 -4.87973452e+00 -3.76994038e+00 -1.19029591e+02
3.54632684e+00 1.35309196e-01 2.65523475e+00 1.35309196e-01 6.09644069e+00 5.76430321e-01 2.65523475e+00 5.76430321e-01 -1.88717277e+01
1.29252236e+01 5.69383753e-02 1.09325132e+00 5.69383753e-02 1.39037523e+01 -2.39079786e-01 1.09325132e+00 -2.39079786e-01 -8.38067532e-01
-1.05052919e+01 -4.12430324e-01 3.74794913e+00 -4.12430324e-01 -1.08283871e+01 1.69884807e+00 3.74794913e+00 1.69884807e+00 -5.20615559e+01
3.88754439e+00 4.04319875e-02 1.53866616e+00 4.04319875e-02 5.40899789e+00 1.08912839e-01 1.53866616e+00 1.08912839e-01 -1.98973789e+01
-1.13242790e+02 -1.24265883e+01 8.91612050e+00 -1.24265883e+01 -1.03396810e+02 -1.58963001e+01 8.91612050e+00 -1.58963001e+01 -2.36371128e+02
-2.09808868e+01 2.53989179e+00 2.60841229e+00 2.53989179e+00 -2.84961988e+01 -2.88717596e+00 2.60841229e+00 -2.88717596e+00 -8.44358840e+01
1.32884537e+02 1.50144815e+01 2.38871536e+01 1.50144815e+01 1.28449921e+02 2.34637489e+01 2.38871536e+01 2.34637489e+01 2.02347244e+02
8.06849925e+00 -5.56642868e+00 -8.25781266e+00 -5.56642868e+00 5.81565603e+00 -5.27294151e+00 -8.25781266e+00 -5.27294151e+00 -7.66139666e-01
2.47372956e+01 -6.19401932e-02 -2.44343609e+00 -6.19401932e-02 2.47868342e+01 2.10837909e-01 -2.44343609e+00 2.10837909e-01 2.27783788e+01
1.40560061e+01 -3.79477330e-01 1.19532146e+00 -3.79477330e-01 1.42717119e+01 6.60404686e-01 1.19532146e+00 6.60404686e-01 9.99005795e-01
2.15745815e+01 -5.88585988e-01 -2.76355155e-01 -5.88585988e-01 2.34731346e+01 1.03191473e+00 -2.76355155e-01 1.03191473e+00 1.95047712e+01
6.78877568e+00 -9.34493458e-01 2.46379463e+00 -9.34493458e-01 7.40814543e+00 1.80330595e+00 2.46379463e+00 1.80330595e+00 -1.39396873e+01
1.47629168e+01 -6.08946327e-02 7.17425989e-02 -6.08946327e-02 1.46623648e+01 2.54231818e-01 7.17425989e-02 2.54231818e-01 1.86834013e+00
2.16762665e+01 3.38550257e-01 1.07181462e+00 3.38550257e-01 2.24510856e+01 7.96858243e-02 1.07181462e+00 7.96858243e-02 1.78817027e+01
1.70533133e+00 1.94324653e+00 1.35689698e-01 1.94324653e+00 4.34781957e+00 1.18666359e+00 1.35689698e-01 1.18666359e+00 -2.31988066e+01
-6.11695340e+01 2.07213624e+00 6.06092398e+00 2.07213624e+00 -5.72666828e+01 1.98051013e+01 6.06092398e+00 1.98051013e+01 -1.36605632e+02
-1.06729408e+02 -3.84191489e+00 1.27859116e+01 -3.84191489e+00 -1.03823997e+02 1.22073202e+01 1.27859116e+01 1.22073202e+01 -2.54164467e+02
-5.88983221e+00 -3.04873610e+00 -3.05454363e+00 -3.04873610e+00 2.21477604e-01 5.14335928e+00 -3.05454363e+00 5.14335928e+00 -3.45298801e+01
4.34044456e+00 -4.35941160e-01 -3.10844123e-01 -4.35941160e-01 6.35705757e+00 7.66851552e-01 -3.10844123e-01 7.66851552e-01 -1.84358597e+01
9.05367851e-01 1.25965155e+00 -1.36860904e+00 1.25965155e+00 -9.31603432e-01 8.51650253e-01 -1.36860904e+00 8.51650253e-01 -2.99867086e+01
2.72900581e+00 -1.82794660e+00 2.25749624e+00 -1.82794660e+00 6.49814034e+00 -1.36232358e+00 2.25749624e+00 -1.36232358e+00 -1.97561455e+01
-2.30626984e+01 -3.58996459e+00 -4.39678770e+00 -3.58996459e+00 -1.79418745e+01 3.86000931e+00 -4.39678770e+00 3.86000931e+00 -7.00816059e+01
-8.98214149e+01 1.22904323e+01 6.74626072e-01 1.22904323e+01 -5.26079699e+01 -3.91779582e+01 6.74626072e-01 -3.91779582e+01 -1.26401883e+02
-1.71005236e+00 -4.14228721e+00 -7.09184694e-01 -4.14228721e+00 -7.40042241e+00 -3.32641085e+00 -7.09184694e-01 -3.32641085e+00 -3.57978929e+01
5.29515317e+00 -3.86288315e-02 1.94563031e-01 -3.86288315e-02 2.91355705e+00 -4.63213492e-03 1.94563031e-01 -4.63213492e-03 -2.10125036e+01
1.77784801e-01 1.24264614e-01 -7.90885724e-02 1.24264614e-01 -1.05066955e+00 7.26797648e-01 -7.90885724e-02 7.26797648e-01 -3.08690314e+01
8.82277224e-01 6.75804624e-01 2.26483647e-01 6.75804624e-01 -8.04355860e-01 3.70987473e-01 2.26483647e-01 3.70987473e-01 -2.98312174e+01
-4.81972337e-01 2.95984417e-01 3.83777790e-01 2.95984417e-01 -3.60993430e+00 -2.95412805e-01 3.83777790e-01 -2.95412805e-01 -3.42656851e+01
-5.68716973e+00 8.15940142e-01 -1.74529243e-01 8.15940142e-01 -3.96685421e+00 7.72969015e-01 -1.74529243e-01 7.72969015e-01 -4.03481095e+01
-6.53424269e+00 1.24063174e+00 4.80711377e-01 1.24063174e+00 -4.85546719e+00 1.51943067e+00 4.80711377e-01 1.51943067e+00 -4.20086654e+01
-6.76987046e+00 2.93051817e-01 5.83341792e-01 2.93051817e-01 -5.07191062e+00 3.90052505e-01 5.83341792e-01 3.90052505e-01 -4.28243823e+01
-1.38345744e+01 5.32132725e-01 7.96611968e-01 5.32132725e-01 -7.58960788e+00 1.81607325e+00 7.96611968e-01 1.81607325e+00 -5.24372517e+01
-4.45938790e+00 -1.28358164e+00 3.75679620e-01 -1.28358164e+00 -2.50606114e+00 5.82968241e-01 3.75679620e-01 5.82968241e-01 -3.74146507e+01
-2.11000484e+00 -7.04508197e-01 -1.08806185e-01 -7.04508197e-01 1.53396636e+00 -9.83480053e-02 -1.08806185e-01 -9.83480053e-02 -3.03749106e+01
5.17817691e+00 -5.26944511e-01 3.71742062e-03 -5.26944511e-01 7.43685564e+00 -5.96090443e-01 3.71742062e-03 -5.96090443e-01 -1.62255087e+01
9.68092054e+00 -1.03195436e+00 -1.68825925e-01 -1.03195436e+00 1.05701289e+01 -1.10358428e-02 -1.68825925e-01 -1.10358428e-02 -8.06267512e+00
6.46107197e-01 4.01922017e-01 8.61487418e-01 4.01922017e-01 5.25226283e+00 -1.34520118e+00 8.61487418e-01 -1.34520118e+00 -2.31018222e+01
-3.83755278e+00 -1.12742206e+00 1.87621027e-01 -1.12742206e+00 -8.05360079e-02 -2.08656254e+00 1.87621027e-01 -2.08656254e+00 -3.35266628e+01
-6.56295921e+00 1.33488370e+00 8.46912310e-01 1.33488370e+00 -1.02363098e+01 1.76407130e+00 8.46912310e-01 1.76407130e+00 -4.77620459e+01
-2.50231361e+00 7.66959369e-01 1.75458301e-01 7.66959369e-01 -6.10757589e+00 -9.19929715e-02 1.75458301e-01 -9.19929715e-02 -3.91331387e+01
-8.93479979e+00 2.86394027e+00 3.27594168e-01 2.86394027e+00 -9.12409890e+00 1.04128196e+00 3.27594168e-01 1.04128196e+00 -4.90739014e+01
6.39322925e+00 1.73053434e+00 -5.59316449e+00 1.73053434e+00 8.41947436e+00 -6.33379692e-01 -5.59316449e+00 -6.33379692e-01 -1.08520191e+01
1.28340721e+01 -2.43417197e-01 -2.43585478e+00 -2.43417197e-01 1.85928570e+01 -7.80520907e-02 -2.43585478e+00 -7.80520907e-02 2.71329171e+00
-1.15138477e+01 -2.86123491e+00 -7.58895612e+00 -2.86123491e+00 -4.45008190e+00 -1.90483531e+00 -7.58895612e+00 -1.90483531e+00 -4.35974483e+01
-6.76359685e+00 -6.12813020e+00 -9.34090900e+00 -6.12813020e+00 -1.00849476e+01 -2.29436417e+00 -9.34090900e+00 -2.29436417e+00 -4.25576859e+01
-2.48018355e+01 2.59317199e-01 4.42896624e+00 2.59317199e-01 -3.36315248e+01 4.38320090e-02 4.42896624e+00 4.38320090e-02 -9.17857167e+01
-2.86782777e+01 -1.40832841e+00 3.82232571e+00 -1.40832841e+00 -3.28178498e+01 -1.70595954e-01 3.82232571e+00 -1.70595954e-01 -9.60973838e+01
1.39278886e+01 2.38455961e+00 -6.54061495e-01 2.38455961e+00 9.64118989e+00 -4.35797905e+00 -6.54061495e-01 -4.35797905e+00 -3.11473101e+00
3.72759190e+01 1.60502601e+00 -2.15237622e+00 1.60502601e+00 3.24882088e+01 1.78779960e-02 -2.15237622e+00 1.78779960e-02 4.35178789e+01
8.16286545e+01 4.27980089e+00 2.65629215e+01 4.27980089e+00 9.95560837e+01 7.05219078e+00 2.65629215e+01 7.05219078e+00 1.28501968e+02
2.14021655e+01 -2.56040258e+00 -5.88433051e-01 -2.56040258e+00 1.51144429e+01 -3.10301224e+00 -5.88433051e-01 -3.10301224e+00 1.73634587e+01
-2.59176502e+01 -4.28107202e-01 8.10140371e-02 -4.28107202e-01 -2.31904082e+01 5.85930978e+00 8.10140371e-02 5.85930978e+00 -8.06879592e+01
2.68434461e+00 9.26832209e-02 -1.72003384e+00 9.26832209e-02 8.90914917e-01 2.91618724e+00 -1.72003384e+00 2.91618724e+00 -2.59941788e+01
-1.08517345e+02 -1.22808137e+01 1.18717616e+01 -1.22808137e+01 -1.59902954e+02 -1.33548687e+01 1.18717616e+01 -1.33548687e+01 -3.06763832e+02
-3.44086658e+01 3.22700200e-01 -1.86387796e+00 3.22700200e-01 -2.95188170e+01 4.89346526e+00 -1.86387796e+00 4.89346526e+00 -9.81657950e+01
-1.34552010e+01 -6.04488015e-01 3.99483757e+00 -6.04488015e-01 -1.04595470e+01 -2.66590633e-01 3.99483757e+00 -2.66590633e-01 -5.56322107e+01
2.14258516e+01 -2.52584100e-01 2.21207808e+00 -2.52584100e-01 1.99348685e+01 1.39896214e-01 2.21207808e+00 1.39896214e-01 1.46217607e+01
1.05742643e+01 4.93727818e-01 4.08579022e-01 4.93727818e-01 9.47819757e+00 -7.13696916e-01 4.08579022e-01 -7.13696916e-01 -8.19210625e+00
-3.28210599e+01 7.77867436e-01 -5.29740930e-01 7.77867436e-01 -4.13707775e+01 -3.71440256e+00 -5.29740930e-01 -3.71440256e+00 -1.08206594e+02
-1.16080631e+01 -1.43982577e+00 -3.27596453e+00 -1.43982577e+00 -2.14574431e+01 6.75868315e+00 -3.27596453e+00 6.75868315e+00 -6.10983599e+01
8.90331709e+00 -1.46426996e+00 -6.08993270e-01 -1.46426996e+00 -9.76295114e+00 6.26512337e+00 -6.08993270e-01 6.26512337e+00 -4.15320413e+01
1.29579902e+01 -1.87412074e+00 2.15543504e+00 -1.87412074e+00 2.13077960e+01 -3.94239184e+00 2.15543504e+00 -3.94239184e+00 8.92181647e+00
9.29007721e+01 -4.34694481e+00 7.06255138e-01 -4.34694481e+00 6.53087234e+01 2.21727962e+01 7.06255138e-01 2.21727962e+01 8.96272202e+01
4.17422218e+01 2.86914277e+00 -3.86131525e-01 2.86914277e+00 3.76620178e+01 5.82624435e+00 -3.86131525e-01 5.82624435e+00 5.53083878e+01
8.95772898e+00 -2.43043283e+00 -2.24468694e+00 -2.43043283e+00 1.00912971e+01 1.11110745e+00 -2.24468694e+00 1.11110745e+00 1.10143052e+01
4.71610844e+00 -4.71242834e+00 -1.85094945e+00 -4.71242834e+00 1.45254505e+01 -3.55167268e+00 -1.85094945e+00 -3.55167268e+00 7.55532058e+00
-1.17387903e+00 -9.46672857e-01 1.53538346e+00 -9.46672857e-01 1.17766547e+00 -1.09640205e+00 1.53538346e+00 -1.09640205e+00 -4.75949854e-01
-9.36822712e-01 1.67726099e-01 9.91903618e-02 1.67726099e-01 -1.10073864e-01 8.11982751e-01 9.91903618e-02 8.11982751e-01 5.74490964e-01
9.35623586e-01 -5.94438076e-01 3.58985364e-01 -5.94438076e-01 -4.67089415e-01 -1.46230757e+00 3.58985364e-01 -1.46230757e+00 -9.41084325e-01
4.16947871e-01 -1.70946789e+00 -1.28077602e+00 -1.70946789e+00 5.39175749e-01 1.31932127e+00 -1.28077602e+00 1.31932127e+00 -1.42865765e+00
7.10125504e+00 2.54435093e+00 1.59792762e+00 2.54435093e+00 -3.00715280e+00 9.82246101e-01 1.59792762e+00 9.82246101e-01 -7.08190726e-01
1.15235605e+00 -4.33569193e-01 -2.49952485e-01 -4.33569193e-01 -5.10685849e+00 8.89650047e-01 -2.49952485e-01 8.89650047e-01 -8.75761227e-01
-3.63302445e+00 9.13720042e-01 6.32459223e-02 9.13720042e-01 9.20145556e-01 -1.52709556e+00 6.32459223e-02 -1.52709556e+00 5.01595706e-01
-5.18724799e+00 -2.33566205e+00 -3.71117582e-01 -2.33566205e+00 2.45060595e+00 -5.98891854e-01 -3.71117582e-01 -5.98891854e-01 3.40713626e+00
2.17855644e+00 -3.54201049e-02 4.20479383e-03 -3.54201049e-02 -8.51333261e-01 3.45036900e-03 4.20479383e-03 3.45036900e-03 -2.84055080e+01
-6.47617698e-01 2.44713366e-01 -1.38655198e-02 2.44713366e-01 -2.25728762e+00 2.71368779e-01 -1.38655198e-02 2.71368779e-01 -3.30964642e+01
1.62178993e+00 8.78484055e-01 2.07435310e-01 8.78484055e-01 -3.61638308e-01 3.35820418e-01 2.07435310e-01 3.35820418e-01 -2.85192577e+01
8.64439964e-01 3.70391048e-01 1.28658216e-01 3.70391048e-01 -2.65373039e+00 -7.18053523e-03 1.28658216e-01 -7.18053523e-03 -3.17387228e+01
-8.76614213e+00 5.91216877e-01 -8.44462262e-03 5.91216877e-01 -6.52064943e+00 1.03993255e+00 -8.44462262e-03 1.03993255e+00 -4.63906536e+01
-6.53803511e+00 1.95060524e+00 2.48619251e-01 1.95060524e+00 -5.38830020e+00 6.40220423e-01 2.48619251e-01 6.40220423e-01 -4.26560895e+01
-1.16667206e+01 1.28485388e+00 2.93084092e-02 1.28485388e+00 -7.61890459e+00 5.50207213e-01 2.93084092e-02 5.50207213e-01 -5.06362371e+01
-2.33069855e+01 1.68631777e+00 1.18670358e+00 1.68631777e+00 -1.41147746e+01 1.97061831e+00 1.18670358e+00 1.97061831e+00 -6.93021560e+01
-1.22893932e+01 -7.86941409e-01 6.41249046e-02 -7.86941409e-01 -6.12524837e+00 3.53637189e-01 6.41249046e-02 3.53637189e-01 -4.94430628e+01
-1.98945020e+01 -8.66349608e-01 2.07916328e+00 -8.66349608e-01 -1.04197359e+01 1.32007158e+00 2.07916328e+00 1.32007158e+00 -6.16951210e+01
-9.65249252e+00 -2.67046750e-01 1.24105446e-01 -2.67046750e-01 -3.14314258e+00 -5.46191230e-01 1.24105446e-01 -5.46191230e-01 -4.33037891e+01
-4.73581505e+00 -2.11614767e+00 1.67988519e+00 -2.11614767e+00 2.64048588e+00 5.85141219e-02 1.67988519e+00 5.85141219e-02 -3.09667035e+01
-2.50219784e+01 -3.51385188e+00 2.28662699e-01 -3.51385188e+00 -1.38523474e+01 1.50119528e-01 2.28662699e-01 1.50119528e-01 -7.06029510e+01
-2.19906750e+01 -1.74123931e+00 2.35592288e+00 -1.74123931e+00 -7.29255247e+00 -3.89000440e+00 2.35592288e+00 -3.89000440e+00 -5.87292061e+01
1.28924239e+00 2.86512389e+00 -1.16775659e+00 2.86512389e+00 -3.24229562e+00 1.20790321e+00 -1.16775659e+00 1.20790321e+00 -3.14254150e+01
3.07670593e-01 4.31209736e-01 -6.08612001e-01 4.31209736e-01 -6.93079185e+00 1.18990492e-01 -6.08612001e-01 1.18990492e-01 -3.64929428e+01
-9.69784108e+00 5.13291523e+00 5.36142476e-01 5.13291523e+00 -9.83129108e+00 2.26931350e+00 5.36142476e-01 2.26931350e+00 -4.93998594e+01
8.67081118e+00 1.09207137e+00 1.97554509e+00 1.09207137e+00 1.21658320e+01 9.18309649e-01 1.97554509e+00 9.18309649e-01 -7.75512123e+00
2.88106644e+01 -1.13787263e+00 2.13820142e+00 -1.13787263e+00 2.72791654e+01 2.40760617e-01 2.13820142e+00 2.40760617e-01 2.89613609e+01
2.00381742e+01 3.77345383e-02 2.77459955e+00 3.77345383e-02 1.84353285e+01 -4.44526517e-01 2.77459955e+00 -4.44526517e-01 1.02183766e+01
1.59240475e+01 -5.37087093e+00 2.15861684e+00 -5.37087093e+00 7.65354919e+00 -7.77506888e-01 2.15861684e+00 -7.77506888e-01 -2.55145836e+00
-9.35903091e+01 -3.01513684e+00 5.24232054e+00 -3.01513684e+00 -1.10859169e+02 3.42230010e+00 5.24232054e+00 3.42230010e+00 -2.49761086e+02
-1.06437080e+02 -7.05095679e-02 2.67065620e+00 -7.05095679e-02 -1.11546410e+02 1.48013979e-01 2.67065620e+00 1.48013979e-01 -2.65932037e+02
2.82897924e+01 4.03560817e+00 -9.57373207e-01 4.03560817e+00 2.76323247e+01 1.37982190e+00 -9.57373207e-01 1.37982190e+00 3.14567761e+01
3.09398539e+01 -2.15193713e+00 2.85013931e+00 -2.15193713e+00 3.15873098e+01 2.00546150e+00 2.85013931e+00 2.00546150e+00 3.51326733e+01
2.74291472e+01 -1.33384845e+00 -2.51288362e-01 -1.33384845e+00 2.67164478e+01 1.70466314e+00 -2.51288362e-01 1.70466314e+00 2.93583591e+01
2.14304302e+01 9.30887163e-01 3.92416719e+00 9.30887163e-01 1.89590687e+01 -2.92673749e+00 3.92416719e+00 -2.92673749e+00 2.70392246e+01
2.11142295e+01 1.02368364e+00 2.57149884e+00 1.02368364e+00 1.53863446e+01 1.38518536e+00 2.57149884e+00 1.38518536e+00 2.42603035e+01
5.87818336e+00 -5.89860481e+00 4.50314999e-01 -5.89860481e+00 -7.02337265e-01 -9.40475151e-01 4.50314999e-01 -9.40475151e-01 9.19611287e+00
2.66088023e+01 3.44721894e+00 2.86742663e+00 3.44721894e+00 1.26918297e+01 6.43627241e-01 2.86742663e+00 6.43627241e-01 3.26122098e+01
1.04237595e+01 5.57057571e+00 -1.01150453e+01 5.57057571e+00 2.11949749e+01 2.05295620e+01 -1.01150453e+01 2.05295620e+01 6.12120070e+01
2.44094563e+01 -2.75153518e+00 3.51533440e+00 -2.75153518e+00 2.86064615e+01 -3.93243492e+00 3.51533440e+00 -3.93243492e+00 3.73625965e+01
-7.08022952e-01 1.13219271e+01 -2.89021564e+00 1.13219271e+01 1.24240503e+01 2.13678589e+01 -2.89021564e+00 2.13678589e+01 -1.81283493e+01
2.10830568e+01 4.77901737e+00 -2.77768811e+00 4.77901737e+00 2.79433446e+01 -4.83518640e+00 -2.77768811e+00 -4.83518640e+00 1.39872114e+01
1.64644776e+01 7.90875077e-01 3.04830114e+00 7.90875077e-01 8.83622042e+00 2.44756130e+00 3.04830114e+00 2.44756130e+00 6.10243050e+00
2.79455543e-01 4.60072318e+00 4.79024482e+00 4.60072318e+00 1.00877165e+01 -8.87856543e-01 4.79024482e+00 -8.87856543e-01 3.41859917e+00
7.59531558e-02 -4.38864291e+00 -5.11174932e-01 -4.38864291e+00 7.05685762e+00 2.04374647e+00 -5.11174932e-01 2.04374647e+00 9.38468438e+00
2.99624944e+00 -1.66196847e+00 -4.61811423e-01 -1.66196847e+00 -6.50034857e+00 1.27326675e-01 -4.61811423e-01 1.27326675e-01 4.96694079e+00
-2.30856681e+00 -5.19087315e-01 -1.33248737e+00 -5.19087315e-01 -6.26602674e+00 -1.17666672e+00 -1.33248737e+00 -1.17666672e+00 2.75448778e+00
-1.01192833e+02 2.85677171e+00 -3.49133372e+00 2.85677171e+00 -6.86567612e+01 1.23002028e+00 -3.49133372e+00 1.23002028e+00 -2.09827255e+02
-1.44964447e+02 6.28252220e+00 1.46033561e+00 6.28252220e+00 -1.31157837e+02 1.27120054e+00 1.46033561e+00 1.27120054e+00 -3.28804382e+02
5.34894689e+00 -1.47744032e+00 1.24347635e+00 -1.47744032e+00 4.02032884e+00 2.02167100e+00 1.24347635e+00 2.02167100e+00 -1.99535472e+01
1.03340559e+01 -2.63954878e+00 4.01336056e+00 -2.63954878e+00 -1.00994682e+00 -1.85015202e-01 4.01336056e+00 -1.85015202e-01 -1.85464172e+01
1.99720326e+00 2.04961264e+00 -4.21852185e-02 2.04961264e+00 -7.05738187e-01 -8.93447294e-01 -4.21852185e-02 -8.93447294e-01 2.92738900e+00
1.20643004e+01 1.29132795e+00 4.51625903e-01 1.29132795e+00 2.57979717e+01 5.01949501e+00 4.51625903e-01 5.01949501e+00 2.37323271e+01
2.65672112e+00 1.54699105e+00 5.32813907e-01 1.54699105e+00 -6.49904847e+00 7.80997425e-01 5.32813907e-01 7.80997425e-01 -3.16553676e+00
7.69172955e+00 -1.32605767e+00 7.45047994e-01 -1.32605767e+00 4.39969730e+00 7.31622636e-01 7.45047994e-01 7.31622636e-01 -1.62670736e+01
2.00394955e+01 1.72984385e+00 -1.20785797e+00 1.72984385e+00 1.74475021e+01 4.66870982e-03 -1.20785797e+00 4.66870982e-03 1.06978884e+01
-1.39499140e+00 -9.44405079e-01 4.37558040e-01 -9.44405079e-01 -3.39021158e+00 3.98523986e+00 4.37558040e-01 3.98523986e+00 -3.51767106e+01
-6.03207731e+00 -2.31068407e+00 -3.28598104e-01 -2.31068407e+00 -1.67362247e+01 3.19969177e+00 -3.28598104e-01 3.19969177e+00 -5.25491238e+01
1.13375926e+01 3.01828283e+00 -2.44557638e+00 3.01828283e+00 3.48400784e+00 1.03881580e+00 -2.44557638e+00 1.03881580e+00 -1.42996330e+01
1.40429490e+01 -5.85173965e-01 -1.21014349e+00 -5.85173965e-01 2.76113644e+01 2.67563862e+00 -1.21014349e+00 2.67563862e+00 1.71312447e+01
1.96107657e+01 2.69444280e+00 -2.03513706e+00 2.69444280e+00 2.33092604e+01 1.08115348e+00 -2.03513706e+00 1.08115348e+00 2.16774712e+01
-5.71713775e+00 1.38256884e+00 -1.16274029e+00 1.38256884e+00 1.77564895e+00 5.79146981e-01 -1.16274029e+00 5.79146981e-01 3.88311979e+00
-4.45314264e+00 1.28224909e+00 -4.91129756e-02 1.28224909e+00 -3.63832951e-01 -7.64989406e-02 -4.91129756e-02 -7.64989406e-02 8.66739988e-01
</DataArray>
<DataArray type="Float32" Name="Logarithmic_strain_components" NumberOfComponents="9" format="ascii">
4.03527103e-02 -8.43663923e-03 2.76429043e-03 -8.43663923e-03 3.46144033e-02 7.84307748e-03 2.76429043e-03 7.84307748e-03 -6.21417831e-02
3.87813367e-02 -1.65936239e-02 -7.44214252e-04 -1.65936239e-02 4.28998044e-02 1.77369622e-02 -7.44214252e-04 1.77369622e-02 -6.85221883e-02
4.51272149e-02 -2.44612270e-03 2.49540329e-03 -2.44612270e-03 5.92851322e-02 -7.78407465e-03 2.49540329e-03 -7.78407465e-03 -8.84692036e-02
4.12707906e-02 -1.77969059e-03 -3.12440615e-03 -1.77969059e-03 4.66637854e-02 -3.34164710e-04 -3.12440615e-03 -3.34164710e-04 -7.48509131e-02
4.04683738e-02 2.99789674e-03 1.22862034e-02 2.99789674e-03 5.00977137e-02 1.01446102e-02 1.22862034e-02 1.01446102e-02 -7.43912971e-02
3.99852826e-02 -1.37046418e-02 -1.61752390e-02 -1.37046418e-02 6.40680604e-02 1.54998267e-02 -1.61752390e-02 1.54998267e-02 -8.66488814e-02
5.76285119e-02 -8.91223969e-03 -7.58525246e-03 -8.91223969e-03 7.08385948e-02 -1.21963758e-02 -7.58525246e-03 -1.21963758e-02 -1.09345673e-01
4.50558104e-02 1.75201003e-02 5.66190400e-03 1.75201003e-02 5.52630574e-02 1.65996008e-02 5.66190400e-03 1.65996008e-02 -8.43103100e-02
5.27983289e-02 2.28451565e-04 -2.52481455e-02 2.28451565e-04 5.58412150e-02 2.36095567e-02 -2.52481455e-02 2.36095567e-02 -9.67903659e-02
6.68572783e-02 -8.00046728e-04 -2.19563739e-02 -8.00046728e-04 7.32151419e-02 2.52731754e-02 -2.19563739e-02 2.52731754e-02 -1.25886217e-01
7.10732204e-02 3.31428184e-02 -1.05083945e-01 3.31428184e-02 6.34970336e-02 -2.06552353e-02 -1.05083945e-01 -2.06552353e-02 -1.16209678e-01
1.00968428e-01 2.53316835e-02 -7.44622294e-02 2.53316835e-02 5.47035635e-02 -1.30285327e-02 -7.44622294e-02 -1.30285327e-02 -1.35562491e-01
-3.79780897e-06 -2.85820979e-05 -1.37068391e-05 -2.85820979e-05 1.02843867e-05 1.08245572e-05 -1.37068391e-05 1.08245572e-05 -9.74435966e-06
-9.26799009e-06 -2.33676474e-06 -4.59176499e-06 -2.33676474e-06 -1.96366670e-06 -1.28270178e-05 -4.59176499e-06 -1.28270178e-05 5.84069676e-06
1.78340333e-05 -7.44499357e-06 -6.07392212e-06 -7.44499357e-06 -1.51358705e-06 2.61543373e-05 -6.07392212e-06 2.61543373e-05 -2.12860177e-05
1.04896285e-05 -3.45486987e-05 1.05159233e-06 -3.45486987e-05 -2.47054936e-06 -2.60893848e-05 1.05159233e-06 -2.60893848e-05 -1.38223809e-05
4.89455533e-06 9.93832509e-06 1.77437487e-05 9.93832509e-06 4.23304897e-07 8.97202062e-06 1.77437487e-05 8.97202062e-06 -2.87325497e-06
-3.08542872e-06 1.66714813e-06 4.68110466e-06 1.66714813e-06 -5.15764850e-06 1.26994678e-06 4.68110466e-06 1.26994678e-06 1.08904087e-05
-2.30809678e-06 3.19028459e-06 -1.24194821e-05 3.19028459e-06 4.55535655e-06 -2.50393005e-05 -1.24194821e-05 -2.50393005e-05 2.21216101e-06
-7.96571658e-06 1.21422399e-05 -7.48442335e-06 1.21422399e-05 -4.30387126e-06 1.76614030e-05 -7.48442335e-06 1.76614030e-05 1.50303213e-05
5.46743516e-02 8.40657503e-06 1.00188339e-02 8.40657503e-06 5.75022660e-02 -2.17987853e-03 1.00188339e-02 -2.17987853e-03 -9.46425572e-02
5.63849043e-02 3.04377364e-03 6.43197855e-03 3.04377364e-03 5.57409693e-02 3.10768609e-03 6.43197855e-03 3.10768609e-03 -9.46319085e-02
5.44716455e-02 -9.05467058e-03 1.18907890e-02 -9.05467058e-03 5.66937383e-02 4.27202300e-03 1.18907890e-02 4.27202300e-03 -9.32482369e-02
5.29869264e-02 2.12125026e-03 1.05312971e-02 2.12125026e-03 5.90447020e-02 -5.75263321e-03 1.05312971e-02 -5.75263321e-03 -9.45413448e-02
6.96619824e-02 -1.71889405e-05 1.24078332e-02 -1.71889405e-05 5.39680868e-02 9.47476714e-04 1.24078332e-02 9.47476714e-04 -1.03789888e-01
6.71501439e-02 1.84693371e-03 1.77538450e-03 1.84693371e-03 5.70503939e-02 1.11410838e-02 1.77538450e-03 1.11410838e-02 -1.04885306e-01
6.86959969e-02 4.14616390e-03 1.48569387e-02 4.14616390e-03 5.75216278e-02 4.99017056e-03 1.48569387e-02 4.99017056e-03 -1.06113496e-01
7.06876032e-02 3.61778890e-03 1.53544175e-02 3.61778890e-03 5.71280373e-02 -9.72828688e-03 1.53544175e-02 -9.72828688e-03 -1.07801840e-01
6.05633873e-02 -1.18024398e-02 9.93674994e-03 -1.18024398e-02 4.99853166e-02 4.85737517e-04 9.93674994e-03 4.85737517e-04 -9.27541498e-02
5.92127792e-02 -1.18734907e-02 1.27551535e-02 -1.18734907e-02 5.53220864e-02 5.71496242e-03 1.27551535e-02 5.71496242e-03 -9.61524472e-02
6.32377397e-02 2.85221689e-03 -3.70779700e-04 2.85221689e-03 5.77495126e-02 5.30778402e-03 -3.70779700e-04 5.30778402e-03 -1.02336138e-01
6.22367198e-02 4.26224919e-03 1.37021515e-02 4.26224919e-03 6.15932569e-02 1.63797837e-02 1.37021515e-02 1.63797837e-02 -1.04739266e-01
6.43866714e-02 1.11426451e-03 4.29162267e-03 1.11426451e-03 4.72540595e-02 6.41454650e-03 4.29162267e-03 6.41454650e-03 -9.36414767e-02
6.51317276e-02 -5.89479657e-03 -5.87994367e-03 -5.89479657e-03 5.40573113e-02 -4.70089950e-03 -5.87994367e-03 -4.70089950e-03 -9.95295290e-02
6.18976280e-02 -6.70800754e-03 2.05743226e-03 -6.70800754e-03 5.23592383e-02 6.71309681e-03 2.05743226e-03 6.71309681e-03 -9.63036716e-02
5.92343220e-02 -5.85653869e-03 -4.73388482e-03 -5.85653869e-03 5.75600793e-02 5.66934515e-03 -4.73388482e-03 5.66934515e-03 -9.82478587e-02
6.77896366e-02 2.82830157e-03 -5.45903575e-03 2.82830157e-03 4.50025033e-02 4.25003818e-05 -5.45903575e-03 4.25003818e-05 -9.45015866e-02
6.58343630e-02 1.05806653e-03 -8.91639871e-03 1.05806653e-03 6.09543021e-02 9.05310153e-05 -8.91639871e-03 9.05310153e-05 -1.06724321e-01
6.02843557e-02 -3.11055215e-03 -7.41599360e-03 -3.11055215e-03 4.70830761e-02 5.73844960e-03 -7.41599360e-03 5.73844960e-03 -9.01421364e-02
5.97629836e-02 -1.11926471e-02 -1.21559816e-02 -1.11926471e-02 5.00212284e-02 -6.50985999e-03 -1.21559816e-02 -6.50985999e-03 -9.11835115e-02
6.57367501e-02 3.33832148e-04 2.49648467e-03 3.33832148e-04 4.65114061e-02 -2.92618305e-03 2.49648467e-03 -2.92618305e-03 -9.39239189e-02
6.61007757e-02 -1.01616161e-03 3.66927095e-04 -1.01616161e-03 5.98829323e-02 3.52546574e-03 3.66927095e-04 3.52546574e-03 -1.05615942e-01
5.40974224e-02 -9.72004753e-04 -1.30464123e-02 -9.72004753e-04 4.62495238e-02 -1.92807282e-03 -1.30464123e-02 -1.92807282e-03 -8.34090542e-02
5.73791303e-02 -3.29452942e-03 -1.11494752e-02 -3.29452942e-03 5.38067576e-02 -6.30120226e-03 -1.11494752e-02 -6.30120226e-03 -9.33913114e-02
6.34222049e-02 -5.90711541e-04 1.66957942e-03 -5.90711541e-04 4.76581175e-02 -2.42525805e-03 1.66957942e-03 -2.42525805e-03 -9.28489380e-02
6.17593955e-02 -5.73060141e-03 -3.27776565e-03 -5.73060141e-03 6.12158868e-02 -2.08376953e-03 -3.27776565e-03 -2.08376953e-03 -1.02530990e-01
4.99034841e-02 1.43575966e-02 -8.92432220e-03 1.43575966e-02 4.79334742e-02 -1.32500292e-02 -8.92432220e-03 -1.32500292e-02 -8.10642503e-02
5.62266745e-02 1.88821601e-03 -7.69077806e-03 1.88821601e-03 5.32091251e-02 -8.06795675e-03 -7.69077806e-03 -8.06795675e-03 -9.15251952e-02
5.05380011e-02 -1.57031546e-02 3.18162949e-02 -1.57031546e-02 6.20002090e-02 2.02493818e-03 3.18162949e-02 2.02493818e-03 -9.41222962e-02
4.26474735e-02 -1.41092197e-02 2.34963223e-02 -1.41092197e-02 6.60531688e-02 -3.58574354e-03 2.34963223e-02 -3.58574354e-03 -9.10134632e-02
7.33489729e-02 1.74529603e-03 4.14441600e-02 1.74529603e-03 6.17219331e-02 1.38155560e-02 4.14441600e-02 1.38155560e-02 -1.14360452e-01
7.03860875e-02 -1.34711609e-05 2.97464509e-02 -1.34711609e-05 6.27156179e-02 -1.78666174e-03 2.97464509e-02 -1.78666174e-03 -1.12041939e-01
6.31512212e-02 -3.33604370e-04 2.44482787e-02 -3.33604370e-04 5.81949087e-02 -3.47412697e-03 2.44482787e-02 -3.47412697e-03 -1.04310370e-01
6.67058369e-02 1.41144404e-02 1.21494858e-02 1.41144404e-02 6.26446484e-02 -6.33543031e-03 1.21494858e-02 -6.33543031e-03 -1.11191420e-01
7.16800161e-02 -1.73861035e-02 -6.73471205e-02 -1.73861035e-02 6.49237078e-02 -1.35216378e-03 -6.73471205e-02 -1.35216378e-03 -1.21901539e-01
5.29504695e-02 8.16725733e-03 -4.39981153e-02 8.16725733e-03 5.92669068e-02 -6.97942743e-03 -4.39981153e-02 -6.97942743e-03 -9.64934826e-02
7.11263511e-02 -2.68414733e-03 -1.97608366e-02 -2.68414733e-03 8.16450939e-02 1.24096660e-02 -1.97608366e-02 1.24096660e-02 -1.33971281e-01
6.04589731e-02 -7.94387967e-03 -6.43785870e-02 -7.94387967e-03 4.86779856e-02 7.50577874e-03 -6.43785870e-02 7.50577874e-03 -9.25449505e-02
6.99131247e-02 -5.63901124e-03 -1.55218458e-03 -5.63901124e-03 7.88985211e-02 1.17533488e-02 -1.55218458e-03 1.17533488e-02 -1.28613442e-01
6.14067297e-02 2.34514504e-03 -2.46952474e-02 2.34514504e-03 7.11927917e-02 -2.86130758e-03 -2.46952474e-02 -2.86130758e-03 -1.16217036e-01
6.27329592e-02 -5.20830578e-03 -4.43162152e-03 -5.20830578e-03 8.30501691e-02 3.73132445e-03 -4.43162152e-03 3.73132445e-03 -1.25354461e-01
5.68866208e-02 -7.78962811e-03 -2.62890738e-02 -7.78962811e-03 7.38171041e-02 -1.77567615e-02 -2.62890738e-02 -1.77567615e-02 -1.13895539e-01
4.38637893e-02 -9.55043236e-03 4.45545592e-02 -9.55043236e-03 6.07934216e-02 2.34251622e-03 4.45545592e-02 2.34251622e-03 -8.73857183e-02
3.90369250e-02 3.06654640e-03 3.47423535e-02 3.06654640e-03 6.03025891e-02 4.20183036e-03 3.47423535e-02 4.20183036e-03 -8.23340900e-02
7.75553254e-02 -4.52315290e-03 4.89133394e-02 -4.52315290e-03 6.45625751e-02 -9.16940586e-03 4.89133394e-02 -9.16940586e-03 -1.19972707e-01
6.41984716e-02 1.43772157e-03 4.82167648e-02 1.43772157e-03 6.75441734e-02 -1.05484582e-02 4.82167648e-02 -1.05484582e-02 -1.10582018e-01
5.35493442e-02 -2.99971569e-02 5.80635546e-02 -2.99971569e-02 7.30737271e-02 -6.74646092e-02 5.80635546e-02 -6.74646092e-02 -1.08252050e-01
8.33894044e-02 1.01163976e-03 2.29759339e-02 1.01163976e-03 6.42553143e-02 -5.42444512e-02 2.29759339e-02 -5.42444512e-02 -1.28176071e-01
-2.19224021e-02 -1.27101541e-01 -1.96642831e-01 -1.27101541e-01 2.19082762e-03 -1.28929898e-01 -1.96642831e-01 -1.28929898e-01 8.60853121e-02
3.77412488e-02 -1.41899271e-02 -6.18462575e-02 -1.41899271e-02 2.91888007e-02 -5.14778427e-02 -6.18462575e-02 -5.14778427e-02 -4.18994107e-02
3.80905606e-02 -3.77724012e-03 1.65050012e-02 -3.77724012e-03 4.77611327e-02 2.89941636e-02 1.65050012e-02 2.89941636e-02 -7.02204981e-02
3.78852608e-02 -8.34564818e-03 2.82038592e-02 -8.34564818e-03 5.00554098e-02 8.47014203e-03 2.82038592e-02 8.47014203e-03 -7.30114579e-02
5.41411061e-02 -1.04788469e-02 3.21284693e-02 -1.04788469e-02 6.70976471e-02 4.34208085e-02 3.21284693e-02 4.34208085e-02 -9.83107301e-02
5.97625729e-02 -7.76522572e-03 8.82420363e-03 -7.76522572e-03 6.83104917e-02 2.51305318e-02 8.82420363e-03 2.51305318e-02 -1.05662072e-01
3.95757956e-02 6.21576118e-03 -3.56996083e-03 6.21576118e-03 5.01357410e-02 4.72604530e-03 -3.56996083e-03 4.72604530e-03 -7.50695523e-02
6.21811396e-02 1.15528721e-02 -1.91303124e-02 1.15528721e-02 7.09017584e-02 3.49058535e-02 -1.91303124e-02 3.49058535e-02 -1.10586583e-01
5.57368072e-02 1.93623332e-02 1.41533851e-02 1.93623332e-02 7.88932135e-02 1.58144822e-02 1.41533851e-02 1.58144822e-02 -1.12283837e-01
3.64799609e-02 9.46806421e-03 1.95647834e-02 9.46806421e-03 5.26737403e-02 8.40340955e-02 1.95647834e-02 8.40340955e-02 -7.73456497e-02
8.69938098e-02 -1.12527232e-02 7.05581736e-02 -1.12527232e-02 7.66340028e-02 3.41494582e-02 7.05581736e-02 3.41494582e-02 -1.45546075e-01
5.29171877e-02 -2.09767029e-02 -3.90800998e-02 -2.09767029e-02 8.51588257e-02 -1.45925887e-02 -3.90800998e-02 -1.45925887e-02 -1.16963689e-01
4.13563512e-02 -4.26796987e-03 6.80418336e-03 -4.26796987e-03 5.61762396e-02 1.25841857e-02 6.80418336e-03 1.25841857e-02 -8.12063329e-02
6.78540235e-02 2.42441767e-02 -1.23796227e-02 2.42441767e-02 6.81765657e-02 2.31101015e-02 -1.23796227e-02 2.31101015e-02 -1.07949555e-01
5.73874582e-02 -1.59415854e-02 1.91403171e-02 -1.59415854e-02 8.41296017e-02 -2.15334035e-02 1.91403171e-02 -2.15334035e-02 -1.19514510e-01
7.08707599e-02 -2.64116097e-02 -5.72864832e-02 -2.64116097e-02 8.21951646e-02 5.79657266e-02 -5.72864832e-02 5.79657266e-02 -1.32150970e-01
4.08660546e-02 5.10399714e-02 -4.24313452e-03 5.10399714e-02 8.36677228e-02 -1.35055927e-01 -4.24313452e-03 -1.35055927e-01 -1.01690851e-01
8.39391000e-02 -1.20776421e-02 -1.84554640e-02 -1.20776421e-02 4.61365742e-02 -2.78115876e-02 -1.84554640e-02 -2.78115876e-02 -1.09186781e-01
8.46453086e-02 5.77616447e-06 4.03779047e-03 5.77616447e-06 5.46775423e-02 -3.10594239e-03 4.03779047e-03 -3.10594239e-03 -1.17053881e-01
7.86008425e-02 3.56669142e-03 3.55426857e-03 3.56669142e-03 5.94990561e-02 6.03579085e-03 3.55426857e-03 6.03579085e-03 -1.16527425e-01
8.15262273e-02 1.42168308e-02 8.63907777e-03 1.42168308e-02 6.06102929e-02 5.63751734e-03 8.63907777e-03 5.63751734e-03 -1.19945941e-01
8.85464195e-02 3.97162058e-03 1.02239561e-02 3.97162058e-03 5.71210496e-02 -3.61920596e-03 1.02239561e-02 -3.61920596e-03 -1.22935738e-01
6.53404593e-02 1.01352730e-02 -1.58618789e-03 1.01352730e-02 6.70912173e-02 9.03387694e-03 -1.58618789e-03 9.03387694e-03 -1.12308586e-01
6.60737180e-02 1.98639772e-02 4.90753827e-03 1.98639772e-02 6.68779397e-02 8.77184542e-03 4.90753827e-03 8.77184542e-03 -1.12851806e-01
5.59872929e-02 6.28178031e-03 -7.08812149e-04 6.28178031e-03 6.73897583e-02 2.48548383e-03 -7.08812149e-04 2.48548383e-03 -1.04928510e-01
5.07265744e-02 9.81345147e-03 6.80685334e-04 9.81345147e-03 6.94596544e-02 1.18810394e-02 6.80685334e-04 1.18810394e-02 -1.02363926e-01
5.02013760e-02 -6.75724831e-03 -4.50790591e-04 -6.75724831e-03 6.28106389e-02 1.60324509e-03 -4.50790591e-04 1.60324509e-03 -9.58958231e-02
4.47072145e-02 -5.86978604e-03 -2.94678402e-03 -5.86978604e-03 6.26300168e-02 1.35519191e-03 -2.94678402e-03 1.35519191e-03 -9.07141957e-02
4.37879236e-02 -6.71324716e-03 -4.92028415e-03 -6.71324716e-03 6.01075599e-02 -2.41686520e-03 -4.92028415e-03 -2.41686520e-03 -8.73419605e-02
4.56035966e-02 -1.09475726e-02 -9.47104872e-03 -1.09475726e-02 5.38078435e-02 -2.91940455e-03 -9.47104872e-03 -2.91940455e-03 -8.31812238e-02
3.84962764e-02 1.67268654e-03 1.44666329e-03 1.67268654e-03 6.41691498e-02 -2.85264733e-03 1.44666329e-03 -2.85264733e-03 -8.65938850e-02
4.44561020e-02 -9.36592626e-03 -3.69167002e-03 -9.36592626e-03 5.61643504e-02 -1.50207051e-02 -3.69167002e-03 -1.50207051e-02 -8.47592335e-02
9.41111138e-02 1.78840351e-02 2.54293531e-02 1.78840351e-02 5.90785611e-02 7.85891962e-03 2.54293531e-02 7.85891962e-03 -1.28727351e-01
9.68668647e-02 1.02608977e-02 3.03134646e-02 1.02608977e-02 6.47285134e-02 -8.89668893e-03 3.03134646e-02 -8.89668893e-03 -1.36116680e-01
7.30973496e-02 2.67462020e-02 3.26863278e-03 2.67462020e-02 5.91164455e-02 4.76730341e-03 3.26863278e-03 4.76730341e-03 -1.12098404e-01
4.58044610e-02 2.15704057e-02 -2.38815592e-02 2.15704057e-02 5.23655894e-02 -2.29258160e-03 -2.38815592e-02 -2.29258160e-03 -8.23154096e-02
3.14257696e-02 -9.89412756e-04 -2.81745112e-02 -9.89412756e-04 5.05217175e-02 -1.72175311e-03 -2.81745112e-02 -1.72175311e-03 -6.87002971e-02
2.90035137e-02 -1.49549932e-02 -3.40535774e-02 -1.49549932e-02 4.53588118e-02 -1.22987179e-02 -3.40535774e-02 -1.22987179e-02 -6.19502055e-02
3.32019261e-02 -2.23771998e-02 -3.97242842e-02 -2.23771998e-02 3.99861950e-02 -1.96558305e-02 -3.97242842e-02 -1.96558305e-02 -6.09527268e-02
1.04871462e-01 -2.43531028e-03 6.73431146e-02 -2.43531028e-03 5.84165783e-02 -1.53410471e-02 6.73431146e-02 -1.53410471e-02 -1.39328251e-01
1.02665213e-01 -1.79067732e-02 6.03050366e-02 -1.79067732e-02 6.54157723e-02 -1.73628330e-02 6.03050366e-02 -1.73628330e-02 -1.44550147e-01
8.62542912e-02 1.75882301e-02 1.17249078e-02 1.75882301e-02 4.34630786e-02 -4.01051985e-02 1.17249078e-02 -4.01051985e-02 -1.08868486e-01
3.90568976e-02 2.38926516e-02 -4.32064934e-02 2.38926516e-02 1.69583102e-02 -2.72483641e-02 -4.32064934e-02 -2.72483641e-02 -4.23191466e-02
1.63911544e-02 -7.79984072e-02 -9.17268917e-02 -7.79984072e-02 -3.80967706e-02 -1.02913931e-01 -9.17268917e-02 -1.02913931e-01 5.19423485e-02
2.64731341e-04 4.19555692e-03 -1.67897730e-02 4.19555692e-03 8.32856877e-03 -7.91605732e-03 -1.67897730e-02 -7.91605732e-03 -1.69200744e-03
1.00820279e-01 -4.32970526e-04 -3.38637829e-03 -4.32970526e-04 8.39915536e-02 5.47420336e-02 -3.38637829e-03 5.47420336e-02 -1.57531882e-01
1.01719958e-01 1.30589468e-02 -3.90930972e-02 1.30589468e-02 9.65489844e-02 5.00638187e-02 -3.90930972e-02 5.00638187e-02 -1.69325233e-01
1.14071436e-01 -2.46432093e-02 2.90251640e-02 -2.46432093e-02 5.88672590e-02 -6.06992077e-02 2.90251640e-02 -6.06992077e-02 -1.51352018e-01
8.92652944e-02 -6.20359539e-03 -2.73594988e-02 -6.20359539e-03 1.12875438e-01 3.69407693e-02 -2.73594988e-02 3.69407693e-02 -1.71657441e-01
8.87980498e-02 -8.02928396e-03 1.93047305e-02 -8.02928396e-03 1.13475127e-01 -6.73516610e-04 1.93047305e-02 -6.73516610e-04 -1.69419758e-01
1.02142978e-01 -5.52096684e-03 9.52317193e-03 -5.52096684e-03 8.83786585e-02 2.68695971e-02 9.52317193e-03 2.68695971e-02 -1.60958719e-01
9.93674174e-02 5.76250977e-03 1.29010235e-02 5.76250977e-03 8.59809555e-02 -1.67022785e-02 1.29010235e-02 -1.67022785e-02 -1.56653531e-01
9.59456507e-02 2.49260617e-02 -1.51739588e-02 2.49260617e-02 9.03657582e-02 -2.81749638e-02 -1.51739588e-02 -2.81749638e-02 -1.62374053e-01
1.14543499e-01 -1.52051919e-02 -3.23847481e-02 -1.52051919e-02 6.78059878e-02 5.15507101e-02 -3.23847481e-02 5.15507101e-02 -1.54379405e-01
8.63603279e-02 1.01567341e-02 1.23455732e-02 1.01567341e-02 3.30250203e-02 -4.07377398e-02 1.23455732e-02 -4.07377398e-02 -1.03891967e-01
6.54770532e-02 -2.51462234e-02 1.17929136e-02 -2.51462234e-02 4.81875255e-02 -9.72105563e-03 1.17929136e-02 -9.72105563e-03 -9.42217438e-02
-5.83727844e-02 8.15078989e-02 4.38025519e-02 8.15078989e-02 -1.90263242e-02 2.20903978e-02 4.38025519e-02 2.20903978e-02 1.50729194e-01
-1.41944755e-02 3.90470810e-02 6.74966648e-02 3.90470810e-02 -7.76685728e-03 -7.70917907e-02 6.74966648e-02 -7.70917907e-02 5.18941134e-02
1.86193038e-02 -3.98946305e-02 -1.24087007e-02 -3.98946305e-02 -2.24321502e-02 3.95455720e-02 -1.24087007e-02 3.95455720e-02 3.61194031e-03
-1.14564663e-02 -6.76514709e-02 -1.16026148e-02 -6.76514709e-02 2.02095710e-03 -1.08668480e-02 -1.16026148e-02 -1.08668480e-02 8.86133633e-03
-2.71003501e-05 -4.58364921e-05 7.34633504e-05 -4.58364921e-05 2.98289997e-05 -5.25264477e-05 7.34633504e-05 -5.25264477e-05 -1.00325215e-05
-2.10201433e-05 7.22285768e-06 4.65869789e-06 7.22285768e-06 -9.79392098e-07 3.98913580e-05 4.65869789e-06 3.98913580e-05 1.58389557e-05
2.45810588e-05 -2.86701070e-05 1.62062152e-05 -2.86701070e-05 -8.73524368e-06 -6.99593584e-05 1.62062152e-05 -6.99593584e-05 -2.00674476e-05
1.17445188e-05 -8.20477653e-05 -6.10352872e-05 -8.20477653e-05 1.46733182e-05 6.25149405e-05 -6.10352872e-05 6.25149405e-05 -3.28894494e-05
1.75995515e-04 9.26616718e-05 5.27083055e-05 9.26616718e-05 -1.26581025e-04 1.16134142e-05 5.27083055e-05 1.16134142e-05 -2.20560633e-05
4.79853115e-05 -2.05961308e-05 -1.23061182e-05 -2.05961308e-05 -1.02942957e-04 4.29413327e-05 -1.23061182e-05 4.29413327e-05 -1.73568454e-06
-7.91033126e-05 4.34148023e-05 2.60866227e-06 4.34148023e-05 3.00878328e-05 -7.23406156e-05 2.60866227e-06 -7.23406156e-05 1.99604019e-05
-1.58801846e-04 -2.65321204e-04 -4.92237935e-06 -2.65321204e-04 6.56252099e-05 -2.41191058e-05 -4.92237935e-06 -2.41191058e-05 1.14053906e-04
9.00623053e-02 -5.08379890e-06 4.38265852e-06 -5.08379890e-06 5.70739359e-02 -2.68955773e-06 4.38265852e-06 -2.68955773e-06 -1.23907030e-01
8.26555192e-02 6.74315752e-03 -1.01382138e-05 6.74315752e-03 6.19961899e-02 4.87424410e-03 -1.01382138e-05 4.87424410e-03 -1.22210190e-01
8.80556572e-02 2.08518959e-02 3.93246475e-03 2.08518959e-02 5.83824264e-02 7.95244286e-03 3.93246475e-03 7.95244286e-03 -1.23231562e-01
9.68512669e-02 6.15684572e-03 1.85390387e-03 6.15684572e-03 5.49438987e-02 -7.14285488e-06 1.85390387e-03 -7.14285488e-06 -1.27829514e-01
6.60443380e-02 6.77293586e-03 -4.72531865e-05 6.77293586e-03 7.16088191e-02 1.12557719e-02 -4.72531865e-05 1.12557719e-02 -1.16994403e-01
6.82848301e-02 2.67873909e-02 4.71713732e-03 2.67873909e-02 6.76801223e-02 7.82641408e-03 4.71713732e-03 7.82641408e-03 -1.15272645e-01
5.19776996e-02 1.12070455e-02 -3.59219048e-05 1.12070455e-02 7.53934383e-02 7.37832673e-03 -3.59219048e-05 7.37832673e-03 -1.08447172e-01
5.01673939e-02 1.73318610e-02 7.44044641e-03 1.73318610e-02 7.36577343e-02 1.21869554e-02 7.44044641e-03 1.21869554e-02 -1.06192127e-01
4.35490962e-02 5.21481648e-04 1.02580434e-05 5.21481648e-04 7.37135634e-02 2.67489906e-03 1.02580434e-05 2.67489906e-03 -9.98978689e-02
3.98844089e-02 1.64565746e-03 1.32990060e-02 1.64565746e-03 7.04355929e-02 1.00199927e-02 1.32990060e-02 1.00199927e-02 -9.47415978e-02
4.08631414e-02 -4.40178439e-03 -4.78106813e-06 -4.40178439e-03 6.97549097e-02 -6.45763590e-04 -4.78106813e-06 -6.45763590e-04 -9.40929763e-02
3.36674335e-02 -9.70293011e-03 1.42670481e-02 -9.70293011e-03 6.47330852e-02 1.78296314e-03 1.42670481e-02 1.78296314e-03 -8.36459231e-02
3.73676196e-02 -2.36975644e-02 6.25078246e-05 -2.36975644e-02 7.43278041e-02 6.41209586e-03 6.25078246e-05 6.41209586e-03 -9.60162878e-02
3.03057740e-02 -1.47734806e-02 1.81766450e-02 -1.47734806e-02 6.77349921e-02 -1.89635335e-02 1.81766450e-02 -1.89635335e-02 -8.39414336e-02
9.66284797e-02 2.71701824e-02 -9.84687125e-03 2.71701824e-02 6.88038319e-02 1.50201572e-02 -9.84687125e-03 1.50201572e-02 -1.40151706e-01
1.06864471e-01 5.31273033e-03 -4.78166901e-03 5.31273033e-03 7.21381325e-02 -9.18460864e-06 -4.78166901e-03 -9.18460864e-06 -1.52267359e-01
7.11934939e-02 4.93695289e-02 4.69139239e-04 4.93695289e-02 5.97697394e-02 2.15598964e-02 4.69139239e-04 2.15598964e-02 -1.10549388e-01
4.09884392e-02 2.97036895e-02 1.10618272e-02 2.97036895e-02 5.46696046e-02 1.43043643e-02 1.10618272e-02 1.43043643e-02 -8.06591623e-02
2.31486410e-02 -2.25914246e-03 1.49371952e-02 -2.25914246e-03 4.32327148e-02 1.15378515e-02 1.49371952e-02 1.15378515e-02 -5.46527468e-02
1.71218868e-02 -1.53050879e-02 1.71872228e-02 -1.53050879e-02 3.55051281e-02 -2.83387018e-03 1.71872228e-02 -2.83387018e-03 -4.26309044e-02
2.45078616e-02 -1.85144008e-02 1.06586264e-02 -1.85144008e-02 2.57381331e-02 -1.24826892e-02 1.06586264e-02 -1.24826892e-02 -4.07354869e-02
1.12666842e-01 -7.14041677e-03 3.84800378e-02 -7.14041677e-03 9.30121467e-02 2.01525437e-02 3.84800378e-02 2.01525437e-02 -1.85439907e-01
1.18551768e-01 -5.63476468e-03 2.56528743e-02 -5.63476468e-03 1.04960598e-01 -7.30141910e-05 2.56528743e-02 -7.30141910e-05 -2.02237025e-01
7.62866934e-02 3.13157338e-02 8.08498574e-03 3.13157338e-02 4.51325600e-02 3.18988481e-02 8.08498574e-03 3.18988481e-02 -1.03545497e-01
2.52264587e-02 1.78344235e-02 1.05433448e-02 1.78344235e-02 1.52495679e-02 1.55992189e-02 1.05433448e-02 1.55992189e-02 -2.81287474e-02
1.52991270e-04 -7.94798062e-03 8.05498596e-04 -7.94798062e-03 6.97056704e-03 7.40917952e-04 8.05498596e-04 7.40917952e-04 -2.33182222e-03
-3.70865577e-03 -7.79766664e-03 -2.15012719e-02 -7.79766664e-03 1.08168607e-02 -8.57823190e-04 -2.15012719e-02 -8.57823190e-04 -4.00877364e-03
-8.56292697e-04 -5.78838674e-03 7.18883020e-04 -5.78838674e-03 5.26344403e-03 5.51226971e-04 7.18883020e-04 5.51226971e-04 -1.21509706e-03
7.78490125e-04 -2.15340350e-02 -2.02632548e-02 -2.15340350e-02 1.68465066e-03 -3.10211421e-04 -2.02632548e-02 -3.10211421e-04 3.44169908e-04
2.39832525e-03 -1.41053379e-02 1.78930030e-03 -1.41053379e-02 -1.57434511e-03 2.15033237e-04 1.78930030e-03 2.15033237e-04 2.01322185e-03
2.67845409e-02 -2.69613508e-03 -2.68127508e-02 -2.69613508e-03 -1.72138019e-02 -6.28346549e-02 -2.68127508e-02 -6.28346549e-02 1.90948183e-03
-1.45785138e-03 -1.29206979e-03 1.25808325e-02 -1.29206979e-03 -3.90624889e-04 1.06186811e-02 1.25808325e-02 1.06186811e-02 1.31796873e-02
5.62138110e-02 3.68488617e-02 -1.05609298e-02 3.68488617e-02 6.64965361e-02 8.97731930e-02 -1.05609298e-02 8.97731930e-02 -1.10388197e-01
3.33749585e-04 -1.72483175e-04 -6.34410428e-04 -1.72483175e-04 3.43325519e-04 5.83097270e-03 -6.34410428e-04 5.83097270e-03 -7.32893386e-06
-1.78141127e-03 -4.70169423e-03 2.03930438e-04 -4.70169423e-03 1.27553366e-03 1.44903252e-04 2.03930438e-04 1.44903252e-04 1.26561590e-03
-1.84023744e-04 2.33741464e-04 2.45882145e-04 2.33741464e-04 3.77981982e-04 -1.26674458e-05 2.45882145e-04 -1.26674458e-05 -3.41386722e-05
-1.54254069e-04 -2.51059846e-04 -9.77601503e-05 -2.51059846e-04 1.91726549e-04 8.59132433e-05 -9.77601503e-05 8.59132433e-05 1.20772273e-04
2.83497387e-04 -1.10746169e-03 5.36494234e-04 -1.10746169e-03 -5.30358346e-04 1.78502951e-05 5.36494234e-04 1.78502951e-05 3.83935914e-04
4.56654321e-04 -1.27161886e-03 -1.43512050e-04 -1.27161886e-03 -1.05522915e-03 -8.94594632e-05 -1.43512050e-04 -8.94594632e-05 7.33512885e-04
1.10269599e-01 2.59074029e-02 -2.55259406e-02 2.59074029e-02 1.74744636e-01 6.35312637e-04 -2.55259406e-02 6.35312637e-04 -2.55393714e-01
1.39640570e-01 1.30421920e-02 -1.22750401e-02 1.30421920e-02 1.55754060e-01 2.52356865e-02 -1.22750401e-02 2.52356865e-02 -2.68613845e-01
1.07641712e-01 -2.75078096e-02 2.54973335e-02 -2.75078096e-02 1.16989781e-01 3.04296178e-02 2.54973335e-02 3.04296178e-02 -1.90049425e-01
1.10909607e-01 -2.15696217e-02 3.84128131e-02 -2.15696217e-02 1.24919612e-01 2.64334798e-04 3.84128131e-02 2.64334798e-04 -2.01581031e-01
7.30603169e-05 3.08747403e-05 -1.30964710e-06 3.08747403e-05 -6.35500819e-05 -5.53245345e-05 -1.30964710e-06 -5.53245345e-05 2.44817143e-05
1.29770747e-02 -1.59928507e-02 3.82479144e-05 -1.59928507e-02 -5.07391386e-03 3.61647767e-04 3.82479144e-05 3.61647767e-04 -5.97475485e-03
9.25656532e-05 7.43962410e-05 2.54193628e-05 7.43962410e-05 -1.27272611e-04 3.71215592e-05 2.54193628e-05 3.71215592e-05 -4.78852835e-05
1.23712581e-01 -2.65517524e-02 2.06788490e-02 -2.65517524e-02 8.12219344e-02 2.12131785e-02 2.06788490e-02 2.12131785e-02 -1.74599469e-01
1.28775671e-01 1.03815831e-02 1.61283761e-02 1.03815831e-02 6.82299435e-02 -1.99290458e-04 1.61283761e-02 -1.99290458e-04 -1.64320782e-01
1.01568758e-01 6.87684026e-03 6.20576879e-03 6.87684026e-03 9.26643275e-02 3.92019972e-02 6.20576879e-03 3.92019972e-02 -1.68344207e-01
1.21912111e-01 -2.89221411e-02 -3.59285343e-03 -2.89221411e-02 7.01251961e-02 4.42078281e-02 -3.59285343e-03 4.42078281e-02 -1.64013907e-01
5.73024563e-02 1.41659435e-02 -2.12364634e-02 1.41659435e-02 3.15329321e-02 1.77211799e-02 -2.12364634e-02 1.77211799e-02 -6.63821623e-02
4.24897114e-02 -1.44708157e-02 -1.50759085e-02 -1.44708157e-02 5.67167271e-02 2.13203114e-02 -1.50759085e-02 2.13203114e-02 -7.55664837e-02
-1.19453810e-02 -4.04366260e-02 -7.97234912e-04 -4.04366260e-02 9.13708509e-03 3.82423386e-04 -7.97234912e-04 3.82423386e-04 6.50917303e-03
-3.25998907e-04 -4.92061081e-05 -6.11674222e-05 -4.92061081e-05 1.30839271e-04 1.33965368e-05 -6.11674222e-05 1.33965368e-05 2.24411346e-04
-9.20745006e-05 6.16272810e-05 -2.28729459e-06 6.16272810e-05 5.90304353e-06 -3.55576708e-06 -2.28729459e-06 -3.55576708e-06 3.52174648e-05
</DataArray>
<DataArray type="Float32" Name="Plastic_strain_components" NumberOfComponents="9" format="ascii">
3.99711712e-02 -8.42585354e-03 2.78993591e-03 -8.42585354e-03 3.42493793e-02 7.87654784e-03 2.78993591e-03 7.87654784e-03 -6.22623991e-02
3.41991519e-02 -1.60087393e-02 6.09831302e-04 -1.60087393e-02 3.68524472e-02 1.72479386e-02 6.09831302e-04 1.72479386e-02 -5.74132977e-02
3.67228799e-02 6.68146342e-04 1.75846496e-03 6.68146342e-04 5.06155933e-02 -5.73737611e-03 1.75846496e-03 -5.73737611e-03 -7.07772784e-02
4.14027981e-02 -1.76139564e-03 -3.15834256e-03 -1.76139564e-03 4.68484825e-02 -3.22136446e-04 -3.15834256e-03 -3.22136446e-04 -7.43525922e-02
2.18985851e-02 4.63210628e-04 1.49305917e-02 4.63210628e-04 2.78693005e-02 6.71258720e-04 1.49305917e-02 6.71258720e-04 -3.49357398e-02
2.66539530e-02 -9.35605930e-03 -6.86660196e-03 -9.35605930e-03 4.07493796e-02 2.45417218e-02 -6.86660196e-03 2.45417218e-02 -5.06348466e-02
6.61325706e-02 -1.15848174e-02 -1.17385109e-02 -1.15848174e-02 8.41210913e-02 -1.64893870e-02 -1.17385109e-02 -1.64893870e-02 -1.29863070e-01
5.50654009e-02 1.90948698e-02 4.17367514e-03 1.90948698e-02 6.74266499e-02 2.19438024e-02 4.17367514e-03 2.19438024e-02 -1.06567886e-01
5.65877818e-02 1.96496607e-04 -2.28214029e-02 1.96496607e-04 6.17575832e-02 3.07504251e-02 -2.28214029e-02 3.07504251e-02 -1.02227768e-01
7.33466893e-02 -2.12877127e-03 -2.15778491e-02 -2.12877127e-03 7.96357282e-02 2.39125388e-02 -2.15778491e-02 2.39125388e-02 -1.30351383e-01
8.36405009e-02 3.08931290e-02 -1.14035269e-01 3.08931290e-02 8.21280020e-02 -2.74197905e-02 -1.14035269e-01 -2.74197905e-02 -1.42177443e-01
9.57583860e-02 2.64748633e-02 -7.10383747e-02 2.64748633e-02 4.72698193e-02 -1.11462038e-02 -7.10383747e-02 -1.11462038e-02 -1.16818748e-01
0.00000000e+00 0.00000000e+00 0.00000000e+00 0.00000000e+00 0.00000000e+00 0.00000000e+00 0.00000000e+00 0.00000000e+00 0.00000000e+00
0.00000000e+00 0.00000000e+00 0.00000000e+00 0.00000000e+00 0.00000000e+00 0.00000000e+00 0.00000000e+00 0.00000000e+00 0.00000000e+00
0.00000000e+00 0.00000000e+00 0.00000000e+00 0.00000000e+00 0.00000000e+00 0.00000000e+00 0.00000000e+00 0.00000000e+00 0.00000000e+00
0.00000000e+00 0.00000000e+00 0.00000000e+00 0.00000000e+00 0.00000000e+00 0.00000000e+00 0.00000000e+00 0.00000000e+00 0.00000000e+00
0.00000000e+00 0.00000000e+00 0.00000000e+00 0.00000000e+00 0.00000000e+00 0.00000000e+00 0.00000000e+00 0.00000000e+00 0.00000000e+00
0.00000000e+00 0.00000000e+00 0.00000000e+00 0.00000000e+00 0.00000000e+00 0.00000000e+00 0.00000000e+00 0.00000000e+00 0.00000000e+00
0.00000000e+00 0.00000000e+00 0.00000000e+00 0.00000000e+00 0.00000000e+00 0.00000000e+00 0.00000000e+00 0.00000000e+00 0.00000000e+00
0.00000000e+00 0.00000000e+00 0.00000000e+00 0.00000000e+00 0.00000000e+00 0.00000000e+00 0.00000000e+00 0.00000000e+00 0.00000000e+00
5.46794515e-02 8.86411772e-06 1.00638149e-02 8.86411772e-06 5.74871954e-02 -2.18949153e-03 1.00638149e-02 -2.18949153e-03 -9.44554955e-02
5.61637646e-02 3.02496215e-03 6.43825438e-03 3.02496215e-03 5.55226980e-02 3.10874134e-03 6.43825438e-03 3.10874134e-03 -9.40389317e-02
5.43641816e-02 -9.06524376e-03 1.19676269e-02 -9.06524376e-03 5.65672568e-02 4.24354953e-03 1.19676269e-02 4.24354953e-03 -9.33373123e-02
5.27594658e-02 2.12582387e-03 1.05155360e-02 2.12582387e-03 5.87509563e-02 -5.75030933e-03 1.05155360e-02 -5.75030933e-03 -9.38763209e-02
6.94174469e-02 -1.51060303e-05 1.23967878e-02 -1.51060303e-05 5.37236631e-02 9.34367446e-04 1.23967878e-02 9.34367446e-04 -1.03637405e-01
6.70391237e-02 1.83597699e-03 1.79549176e-03 1.83597699e-03 5.69420578e-02 1.10846793e-02 1.79549176e-03 1.10846793e-02 -1.04357766e-01
6.84798835e-02 4.14324371e-03 1.48754008e-02 4.14324371e-03 5.72991720e-02 4.97115127e-03 1.48754008e-02 4.97115127e-03 -1.05811619e-01
7.05376919e-02 3.60171968e-03 1.53504312e-02 3.60171968e-03 5.69893848e-02 -9.70131112e-03 1.53504312e-02 -9.70131112e-03 -1.07289720e-01
6.03241958e-02 -1.17668130e-02 9.95135913e-03 -1.17668130e-02 4.97513041e-02 4.72766391e-04 9.95135913e-03 4.72766391e-04 -9.26314630e-02
5.89801711e-02 -1.18629503e-02 1.27361083e-02 -1.18629503e-02 5.51011083e-02 5.70221987e-03 1.27361083e-02 5.70221987e-03 -9.59245432e-02
6.29938431e-02 2.85148376e-03 -3.85355532e-04 2.85148376e-03 5.75199816e-02 5.28736574e-03 -3.85355532e-04 5.28736574e-03 -1.01490298e-01
6.22345689e-02 4.27084640e-03 1.36517314e-02 4.27084640e-03 6.15545935e-02 1.62912968e-02 1.36517314e-02 1.62912968e-02 -1.04186521e-01
6.42480757e-02 1.10459788e-03 4.29019262e-03 1.10459788e-03 4.71044583e-02 6.37828214e-03 4.29019262e-03 6.37828214e-03 -9.36816521e-02
5.94563643e-02 -5.43370412e-03 -4.65101027e-03 -5.43370412e-03 4.83645992e-02 -4.65743738e-03 -4.65101027e-03 -4.65743738e-03 -8.89827136e-02
6.16592336e-02 -6.66346180e-03 2.03051366e-03 -6.66346180e-03 5.21585941e-02 6.66401081e-03 2.03051366e-03 6.66401081e-03 -9.58312452e-02
5.89897591e-02 -5.83566642e-03 -4.74177860e-03 -5.83566642e-03 5.73026151e-02 5.62141379e-03 -4.74177860e-03 5.62141379e-03 -9.78533225e-02
6.73691407e-02 2.81849928e-03 -5.43894467e-03 2.81849928e-03 4.46526920e-02 9.58942110e-07 -5.43894467e-03 9.58942110e-07 -9.42048654e-02
6.74482835e-02 8.61874956e-04 -9.44090053e-03 8.61874956e-04 6.25883681e-02 8.35506071e-05 -9.44090053e-03 8.35506071e-05 -1.10131045e-01
6.01441553e-02 -3.10489308e-03 -7.43517780e-03 -3.10489308e-03 4.69544912e-02 5.71059398e-03 -7.43517780e-03 5.71059398e-03 -9.01607089e-02
5.65949255e-02 -1.07848802e-02 -1.11647835e-02 -1.07848802e-02 4.68252869e-02 -6.51875981e-03 -1.11647835e-02 -6.51875981e-03 -8.60848315e-02
6.52163466e-02 3.40355764e-04 2.51911668e-03 3.40355764e-04 4.60722307e-02 -2.93833191e-03 2.51911668e-03 -2.93833191e-03 -9.36355554e-02
6.55169631e-02 -9.86267187e-04 4.60115261e-04 -9.86267187e-04 5.93275041e-02 3.51692738e-03 4.60115261e-04 3.51692738e-03 -1.05050661e-01
5.37666585e-02 -9.65253595e-04 -1.30823124e-02 -9.65253595e-04 4.58950792e-02 -1.91748337e-03 -1.30823124e-02 -1.91748337e-03 -8.38896185e-02
5.76573187e-02 -3.36677226e-03 -1.13709041e-02 -3.36677226e-03 5.40932911e-02 -6.26897752e-03 -1.13709041e-02 -6.26897752e-03 -9.42666875e-02
6.29238915e-02 -5.93827979e-04 1.69938902e-03 -5.93827979e-04 4.72063310e-02 -2.38413643e-03 1.69938902e-03 -2.38413643e-03 -9.26305130e-02
6.10962315e-02 -5.71414009e-03 -3.25009396e-03 -5.71414009e-03 6.05511582e-02 -2.10901759e-03 -3.25009396e-03 -2.10901759e-03 -1.02386463e-01
4.95919771e-02 1.43766315e-02 -8.95736087e-03 1.43766315e-02 4.75775544e-02 -1.32633266e-02 -8.95736087e-03 -1.32633266e-02 -8.17406699e-02
5.55839064e-02 1.90807017e-03 -7.63865001e-03 1.90807017e-03 5.25497114e-02 -7.94504781e-03 -7.63865001e-03 -7.94504781e-03 -9.09138862e-02
5.00134672e-02 -1.56474996e-02 3.16045888e-02 -1.56474996e-02 6.13288134e-02 2.05188294e-03 3.16045888e-02 2.05188294e-03 -9.30717392e-02
4.25807284e-02 -1.40800371e-02 2.36091525e-02 -1.40800371e-02 6.59593428e-02 -3.58901720e-03 2.36091525e-02 -3.58901720e-03 -9.10980720e-02
7.34587274e-02 1.74343347e-03 4.13786559e-02 1.74343347e-03 6.18240996e-02 1.36836701e-02 4.13786559e-02 1.36836701e-02 -1.13506783e-01
7.02500995e-02 1.56498954e-05 2.98092540e-02 1.56498954e-05 6.25168486e-02 -1.80710320e-03 2.98092540e-02 -1.80710320e-03 -1.11547619e-01
6.38665796e-02 -4.41231033e-04 2.41095055e-02 -4.41231033e-04 5.88549924e-02 -3.58699788e-03 2.41095055e-02 -3.58699788e-03 -1.04044825e-01
6.64943596e-02 1.39628722e-02 1.34776496e-02 1.39628722e-02 6.27017696e-02 -6.09607581e-03 1.34776496e-02 -6.09607581e-03 -1.08316217e-01
7.59230174e-02 -1.73066269e-02 -6.60652285e-02 -1.73066269e-02 6.94049612e-02 -1.00539820e-03 -6.60652285e-02 -1.00539820e-03 -1.20819521e-01
5.67598572e-02 8.55309144e-03 -4.92733749e-02 8.55309144e-03 6.19927107e-02 -8.61041940e-03 -4.92733749e-02 -8.61041940e-03 -1.01210406e-01
7.13494830e-02 -2.49533844e-03 -1.91859633e-02 -2.49533844e-03 8.17613769e-02 1.24084676e-02 -1.91859633e-02 1.24084676e-02 -1.28491014e-01
6.26555130e-02 -8.52345866e-03 -6.52605349e-02 -8.52345866e-03 5.04470140e-02 6.92649637e-03 -6.52605349e-02 6.92649637e-03 -9.35086846e-02
7.12548252e-02 -5.60453912e-03 -1.56653626e-03 -5.60453912e-03 8.02090280e-02 1.17570361e-02 -1.56653626e-03 1.17570361e-02 -1.27554405e-01
6.22501047e-02 2.44155116e-03 -2.43582781e-02 2.44155116e-03 7.18928762e-02 -2.73313199e-03 -2.43582781e-02 -2.73313199e-03 -1.12779796e-01
6.36343323e-02 -5.11701684e-03 -4.38733236e-03 -5.11701684e-03 8.38160627e-02 3.72060202e-03 -4.38733236e-03 3.72060202e-03 -1.24078292e-01
5.79856988e-02 -7.56348507e-03 -2.60383934e-02 -7.56348507e-03 7.46506713e-02 -1.75129664e-02 -2.60383934e-02 -1.75129664e-02 -1.11363664e-01
4.57324867e-02 -9.70559054e-03 4.62280592e-02 -9.70559054e-03 6.30336617e-02 3.12751611e-03 4.62280592e-02 3.12751611e-03 -9.15225436e-02
3.81132839e-02 3.16378911e-03 3.41410530e-02 3.16378911e-03 5.93659459e-02 3.80815822e-03 3.41410530e-02 3.80815822e-03 -8.13854225e-02
8.05077361e-02 -4.82422308e-03 5.11923688e-02 -4.82422308e-03 6.74713414e-02 -8.87533064e-03 5.11923688e-02 -8.87533064e-03 -1.24845909e-01
6.41163178e-02 1.41596829e-03 4.83164722e-02 1.41596829e-03 6.73603956e-02 -1.05423012e-02 4.83164722e-02 -1.05423012e-02 -1.10191017e-01
5.37839939e-02 -2.97478498e-02 6.01527989e-02 -2.97478498e-02 7.37199737e-02 -6.80432043e-02 6.01527989e-02 -6.80432043e-02 -1.03632493e-01
8.47301029e-02 -7.97402114e-05 1.47358019e-02 -7.97402114e-05 6.51311032e-02 -5.61776038e-02 1.47358019e-02 -5.61776038e-02 -1.26479255e-01
-2.48615667e-02 -1.29480690e-01 -2.28801370e-01 -1.29480690e-01 -6.15224056e-03 -1.38055027e-01 -2.28801370e-01 -1.38055027e-01 4.48852666e-02
2.33234850e-02 -6.45414367e-03 -2.36871963e-02 -6.45414367e-03 1.89019578e-02 -3.86192650e-02 -2.36871963e-02 -3.86192650e-02 -2.55856315e-02
3.37360525e-02 -3.55571146e-03 1.21488417e-02 -3.55571146e-03 4.28264084e-02 2.66378325e-02 1.21488417e-02 2.66378325e-02 -6.25593693e-02
4.01696186e-02 -8.70481366e-03 3.09896488e-02 -8.70481366e-03 5.25613055e-02 1.00319919e-02 3.09896488e-02 1.00319919e-02 -7.84730148e-02
2.39509658e-02 -6.27774400e-03 2.97308677e-02 -6.27774400e-03 3.15035110e-02 2.33728372e-02 2.97308677e-02 2.33728372e-02 -3.46944084e-02
3.89549443e-02 -6.50439202e-03 1.71989194e-02 -6.50439202e-03 4.80043446e-02 1.59449242e-02 1.71989194e-02 1.59449242e-02 -6.56490447e-02
4.20699455e-02 7.04368064e-03 -3.72744282e-03 7.04368064e-03 5.27535789e-02 5.92731172e-03 -3.72744282e-03 5.92731172e-03 -8.06635655e-02
7.57354801e-02 1.41732174e-02 -2.11130177e-02 1.41732174e-02 8.72902934e-02 4.48116028e-02 -2.11130177e-02 4.48116028e-02 -1.41988147e-01
4.28853463e-02 1.64053782e-02 8.90028803e-03 1.64053782e-02 6.22449435e-02 1.02934408e-02 8.90028803e-03 1.02934408e-02 -8.30506200e-02
3.95348021e-02 8.12557695e-03 1.85512369e-02 8.12557695e-03 5.60846739e-02 8.80034659e-02 1.85512369e-02 8.80034659e-02 -7.77269946e-02
1.02702588e-01 -1.26285362e-02 8.18525739e-02 -1.26285362e-02 9.18178353e-02 3.55336647e-02 8.18525739e-02 3.55336647e-02 -1.66966051e-01
5.43516070e-02 -2.20805269e-02 -4.08002630e-02 -2.20805269e-02 8.63557756e-02 -1.44457772e-02 -4.08002630e-02 -1.44457772e-02 -1.17275780e-01
3.95201277e-02 -4.70018084e-03 6.94543379e-03 -4.70018084e-03 5.43137845e-02 1.18475547e-02 6.94543379e-03 1.18475547e-02 -7.84053169e-02
2.29162190e-02 1.31040206e-02 -8.47237883e-03 1.31040206e-02 2.26987745e-02 -5.75427143e-03 -8.47237883e-03 -5.75427143e-03 -2.24053739e-02
5.23240846e-02 -1.35814124e-02 1.61413397e-02 -1.35814124e-02 7.56848678e-02 -1.77168720e-02 1.61413397e-02 -1.77168720e-02 -1.05876110e-01
7.65196690e-02 -2.31904667e-02 -5.68793467e-02 -2.31904667e-02 8.83996058e-02 6.42400477e-02 -5.68793467e-02 6.42400477e-02 -1.39303707e-01
3.63165289e-02 5.60702421e-02 -1.06892494e-03 5.60702421e-02 8.21854547e-02 -1.35850138e-01 -1.06892494e-03 -1.35850138e-01 -9.42865591e-02
8.18316472e-02 -8.43032341e-03 -1.30236558e-02 -8.43032341e-03 4.62900822e-02 -3.68219269e-02 -1.30236558e-02 -3.68219269e-02 -1.06593537e-01
8.43719244e-02 8.25438474e-06 4.02687606e-03 8.25438474e-06 5.44575583e-02 -3.11863807e-03 4.02687606e-03 -3.11863807e-03 -1.16723336e-01
7.84951895e-02 3.56886821e-03 3.57501121e-03 3.56886821e-03 5.94283231e-02 5.99131294e-03 3.57501121e-03 5.99131294e-03 -1.16048880e-01
8.12777607e-02 1.41757284e-02 8.62525485e-03 1.41757284e-02 6.04324811e-02 5.60888048e-03 8.62525485e-03 5.60888048e-03 -1.19186296e-01
8.84476788e-02 3.96264589e-03 1.02277788e-02 3.96264589e-03 5.70717826e-02 -3.59237194e-03 1.02277788e-02 -3.59237194e-03 -1.22326624e-01
6.53061615e-02 1.00934901e-02 -1.57487564e-03 1.00934901e-02 6.70257844e-02 8.98648376e-03 -1.57487564e-03 8.98648376e-03 -1.11405719e-01
6.60492340e-02 1.97794480e-02 4.86963577e-03 1.97794480e-02 6.68438538e-02 8.67282193e-03 4.86963577e-03 8.67282193e-03 -1.11770137e-01
5.59174456e-02 6.25861785e-03 -7.62805561e-04 6.25861785e-03 6.72553293e-02 2.45413708e-03 -7.62805561e-04 2.45413708e-03 -1.03719132e-01
5.07255360e-02 9.82143423e-03 7.06645369e-04 9.82143423e-03 6.90813679e-02 1.18354950e-02 7.06645369e-04 1.18354950e-02 -1.00587111e-01
5.01630623e-02 -6.68943173e-03 -4.77887159e-04 -6.68943173e-03 6.27412582e-02 1.57229212e-03 -4.77887159e-04 1.57229212e-03 -9.50563084e-02
4.52989354e-02 -5.74061833e-03 -3.25198984e-03 -5.74061833e-03 6.38034209e-02 1.17745590e-03 -3.25198984e-03 1.17745590e-03 -9.21108155e-02
4.36995504e-02 -6.70210039e-03 -4.93295700e-03 -6.70210039e-03 6.00162670e-02 -2.38474373e-03 -4.93295700e-03 -2.38474373e-03 -8.72848276e-02
4.63512996e-02 -1.16862870e-02 -9.95611434e-03 -1.16862870e-02 5.52996513e-02 -3.24672763e-03 -9.95611434e-03 -3.24672763e-03 -8.60220063e-02
3.84853836e-02 1.64261163e-03 1.40722113e-03 1.64261163e-03 6.41061701e-02 -2.78026180e-03 1.40722113e-03 -2.78026180e-03 -8.62502530e-02
4.44320487e-02 -9.43993975e-03 -4.03503561e-03 -9.43993975e-03 5.60588436e-02 -1.49502885e-02 -4.03503561e-03 -1.49502885e-02 -8.44363254e-02
8.14015719e-02 1.82459034e-02 2.08452413e-02 1.82459034e-02 5.15267304e-02 6.53311872e-03 2.08452413e-02 6.53311872e-03 -1.07846667e-01
8.78647175e-02 1.00703733e-02 2.89327924e-02 1.00703733e-02 5.59135545e-02 -8.47090094e-03 2.89327924e-02 -8.47090094e-03 -1.17843825e-01
6.32941238e-02 2.33933767e-02 2.12869419e-03 2.33933767e-02 5.41130631e-02 4.69961943e-03 2.12869419e-03 4.69961943e-03 -9.58334457e-02
4.39406484e-02 1.96379589e-02 -2.24547719e-02 1.96379589e-02 5.14582046e-02 -4.76437618e-03 -2.24547719e-02 -4.76437618e-03 -7.94650426e-02
2.89762143e-02 -1.22319697e-03 -2.97539584e-02 -1.22319697e-03 4.54399690e-02 -2.24142458e-03 -2.97539584e-02 -2.24142458e-03 -6.17578713e-02
2.36920177e-02 -1.07065329e-02 -3.16022526e-02 -1.07065329e-02 3.58524946e-02 -1.05944423e-02 -3.16022526e-02 -1.05944423e-02 -4.68441364e-02
3.22427681e-02 -2.10116481e-02 -3.78493462e-02 -2.10116481e-02 3.89475785e-02 -1.93086139e-02 -3.78493462e-02 -1.93086139e-02 -5.87644602e-02
1.12806338e-01 -1.71546793e-03 6.84229167e-02 -1.71546793e-03 6.27130301e-02 -1.51347466e-02 6.84229167e-02 -1.51347466e-02 -1.48186926e-01
1.06856284e-01 -1.77685519e-02 6.08991198e-02 -1.77685519e-02 6.96521128e-02 -1.76675357e-02 6.08991198e-02 -1.76675357e-02 -1.48562518e-01
8.35072535e-02 1.88886292e-02 7.03583945e-03 1.88886292e-02 4.11867651e-02 -4.68029215e-02 7.03583945e-03 -4.68029215e-02 -1.03918249e-01
1.00976859e-02 1.27717401e-02 -2.41231275e-02 1.27717401e-02 6.20306043e-03 -2.67943263e-03 -2.41231275e-02 -2.67943263e-03 -5.21245063e-03
6.59378106e-03 -7.05146492e-02 -8.52469206e-02 -7.05146492e-02 -3.93116809e-02 -9.35813263e-02 -8.52469206e-02 -9.35813263e-02 4.16570120e-02
-2.97575769e-03 3.20980149e-03 -1.40721527e-03 3.20980149e-03 3.60085927e-03 -9.03946592e-04 -1.40721527e-03 -9.03946592e-04 4.72433807e-03
1.21483408e-01 -3.94019100e-03 -6.33276440e-03 -3.94019100e-03 1.08890234e-01 6.57992288e-02 -6.33276440e-03 6.57992288e-02 -1.98996926e-01
1.17412428e-01 1.18534239e-02 -4.08289520e-02 1.18534239e-02 1.17370802e-01 5.38909435e-02 -4.08289520e-02 5.38909435e-02 -2.03525156e-01
1.15501758e-01 -2.54737246e-02 2.56407494e-02 -2.54737246e-02 5.56522273e-02 -7.08912965e-02 2.56407494e-02 -7.08912965e-02 -1.42975919e-01
6.74977507e-02 -2.08754492e-03 -1.74138201e-02 -2.08754492e-03 8.57510896e-02 2.64652910e-02 -1.74138201e-02 2.64652910e-02 -1.19943339e-01
6.87432691e-02 -5.01035663e-03 1.69134757e-02 -5.01035663e-03 7.93298334e-02 -2.37777531e-03 1.69134757e-02 -2.37777531e-03 -1.15200963e-01
1.11608291e-01 -2.63651786e-03 8.40268703e-03 -2.63651786e-03 9.80469380e-02 3.40249916e-02 8.40268703e-03 3.40249916e-02 -1.80594217e-01
9.99209322e-02 5.20723150e-03 1.34863285e-02 5.20723150e-03 8.73901397e-02 -1.74576007e-02 1.34863285e-02 -1.74576007e-02 -1.58249110e-01
1.04122061e-01 2.56447901e-02 -1.44714092e-02 2.56447901e-02 9.52510815e-02 -3.45069654e-02 -1.44714092e-02 -3.45069654e-02 -1.68913331e-01
1.16998764e-01 -1.76927429e-02 -3.05318260e-02 -1.76927429e-02 6.66039418e-02 4.69988845e-02 -3.05318260e-02 4.69988845e-02 -1.54194254e-01
6.92490297e-02 1.04410394e-02 8.01993761e-03 1.04410394e-02 2.82406190e-02 -1.57373169e-02 8.01993761e-03 -1.57373169e-02 -7.81077277e-02
4.40438229e-02 -2.51643794e-02 5.61164570e-03 -2.51643794e-02 4.18983505e-02 4.16232925e-03 5.61164570e-03 4.16232925e-03 -6.75880867e-02
-1.43380882e-02 3.45554911e-02 2.06053518e-02 3.45554911e-02 -9.55333374e-03 -1.11187119e-02 2.06053518e-02 -1.11187119e-02 3.41380350e-02
-2.55154190e-03 -6.68064365e-03 6.59732567e-03 -6.68064365e-03 -1.22820139e-02 2.18583792e-02 6.59732567e-03 2.18583792e-02 2.64373962e-02
1.77923438e-02 -4.55229275e-02 -1.27037701e-02 -4.55229275e-02 -2.30384793e-02 4.49325192e-02 -1.27037701e-02 4.49325192e-02 1.06785574e-02
-8.05746042e-03 -3.17208269e-02 3.91845273e-03 -3.17208269e-02 8.27013051e-03 -4.91903393e-02 3.91845273e-03 -4.91903393e-02 7.12033536e-03
0.00000000e+00 0.00000000e+00 0.00000000e+00 0.00000000e+00 0.00000000e+00 0.00000000e+00 0.00000000e+00 0.00000000e+00 0.00000000e+00
0.00000000e+00 0.00000000e+00 0.00000000e+00 0.00000000e+00 0.00000000e+00 0.00000000e+00 0.00000000e+00 0.00000000e+00 0.00000000e+00
0.00000000e+00 0.00000000e+00 0.00000000e+00 0.00000000e+00 0.00000000e+00 0.00000000e+00 0.00000000e+00 0.00000000e+00 0.00000000e+00
0.00000000e+00 0.00000000e+00 0.00000000e+00 0.00000000e+00 0.00000000e+00 0.00000000e+00 0.00000000e+00 0.00000000e+00 0.00000000e+00
1.92129455e-05 -2.95018144e-05 -2.37888644e-05 -2.95018144e-05 -4.01884701e-05 -3.65492971e-05 -2.37888644e-05 -3.65492971e-05 9.39507136e-06
0.00000000e+00 0.00000000e+00 0.00000000e+00 0.00000000e+00 0.00000000e+00 0.00000000e+00 0.00000000e+00 0.00000000e+00 0.00000000e+00
0.00000000e+00 0.00000000e+00 0.00000000e+00 0.00000000e+00 0.00000000e+00 0.00000000e+00 0.00000000e+00 0.00000000e+00 0.00000000e+00
-3.24310386e-05 -1.53783951e-04 1.33472155e-05 -1.53783951e-04 9.05882189e-06 4.47069851e-06 1.33472155e-05 4.47069851e-06 3.41859874e-05
8.98886323e-02 1.03621278e-06 2.69935117e-06 1.03621278e-06 5.69601208e-02 7.53425411e-07 2.69935117e-06 7.53425411e-07 -1.23457253e-01
8.24621879e-02 6.72993832e-03 -1.21905105e-05 6.72993832e-03 6.18751924e-02 4.86811530e-03 -1.21905105e-05 4.86811530e-03 -1.21453274e-01
8.79627597e-02 2.08631216e-02 3.93682544e-03 2.08631216e-02 5.83173940e-02 7.96073466e-03 3.93682544e-03 7.96073466e-03 -1.22899879e-01
9.67349745e-02 6.14739070e-03 1.84874306e-03 6.14739070e-03 5.48704341e-02 -3.71043279e-06 1.84874306e-03 -3.71043279e-06 -1.27325945e-01
6.60513043e-02 6.74009696e-03 -4.51435262e-05 6.74009696e-03 7.15921186e-02 1.12029742e-02 -4.51435262e-05 1.12029742e-02 -1.15864087e-01
6.82668006e-02 2.66861531e-02 4.71296953e-03 2.66861531e-02 6.76479153e-02 7.80001690e-03 4.71296953e-03 7.80001690e-03 -1.14250403e-01
5.20342011e-02 1.11228819e-02 -3.82945709e-05 1.11228819e-02 7.53103606e-02 7.34107313e-03 -3.82945709e-05 7.34107313e-03 -1.07101738e-01
5.01426179e-02 1.72596928e-02 7.15468568e-03 1.72596928e-02 7.27707036e-02 1.19137610e-02 7.15468568e-03 1.19137610e-02 -1.02984892e-01
4.36123181e-02 5.60350891e-04 1.17695890e-06 5.60350891e-04 7.35452510e-02 2.64945521e-03 1.17695890e-06 2.64945521e-03 -9.84516218e-02
4.20213696e-02 1.97572877e-03 1.39790990e-02 1.97572877e-03 7.48054273e-02 1.07188129e-02 1.39790990e-02 1.07188129e-02 -9.91715323e-02
4.09319550e-02 -4.38657193e-03 -1.14849390e-05 -4.38657193e-03 6.96245506e-02 -6.09143259e-04 -1.14849390e-05 -6.09143259e-04 -9.29160453e-02
3.59836048e-02 -1.27674001e-02 1.59258370e-02 -1.27674001e-02 7.12885894e-02 1.57957757e-03 1.59258370e-02 1.57957757e-03 -9.16278958e-02
3.76527123e-02 -2.34283842e-02 2.65221752e-05 -2.34283842e-02 7.41052851e-02 6.40596449e-03 2.65221752e-05 6.40596449e-03 -9.37165618e-02
3.35773788e-02 -1.65855028e-02 1.88864898e-02 -1.65855028e-02 7.40836374e-02 -2.04546321e-02 1.88864898e-02 -2.04546321e-02 -9.16743614e-02
9.17395642e-02 2.92943430e-02 -8.04431946e-03 2.92943430e-02 6.23641694e-02 1.48347500e-02 -8.04431946e-03 1.48347500e-02 -1.27878781e-01
1.20240897e-01 5.27540292e-03 -3.73963884e-03 5.27540292e-03 8.36841017e-02 8.85918234e-04 -3.73963884e-03 8.85918234e-04 -1.75776429e-01
5.37871546e-02 4.30730851e-02 3.39959006e-05 4.30730851e-02 5.08470761e-02 1.66201602e-02 3.39959006e-05 1.66201602e-02 -8.28395870e-02
3.94089920e-02 2.69287585e-02 1.23799446e-02 2.69287585e-02 5.64848026e-02 1.52678634e-02 1.23799446e-02 1.52678634e-02 -8.07514936e-02
1.68338995e-02 -3.89954215e-03 1.13464135e-02 -3.89954215e-03 3.00046777e-02 9.00239183e-03 1.13464135e-02 9.00239183e-03 -3.64693580e-02
8.76316347e-03 -5.43914354e-03 9.80826354e-03 -5.43914354e-03 1.32849789e-02 -2.20940312e-03 9.80826354e-03 -2.20940312e-03 -1.30496347e-02
1.47624235e-02 -1.45818871e-02 7.03604124e-03 -1.45818871e-02 3.52197071e-03 -6.62242781e-03 7.03604124e-03 -6.62242781e-03 -9.46569629e-03
1.14967778e-01 -8.74498562e-03 3.67134865e-02 -8.74498562e-03 9.81105752e-02 2.02096542e-02 3.67134865e-02 2.02096542e-02 -1.79668270e-01
1.14196621e-01 -5.57369879e-03 2.47304291e-02 -5.57369879e-03 1.01952776e-01 -4.85206168e-04 2.47304291e-02 -4.85206168e-04 -1.79757416e-01
9.86181671e-02 4.31885930e-02 1.05051966e-02 4.31885930e-02 5.44239643e-02 3.65388530e-02 1.05051966e-02 3.65388530e-02 -1.34703353e-01
-3.77680943e-03 -7.60676108e-03 5.96956914e-03 -7.60676108e-03 1.77477463e-03 5.96130715e-03 5.96956914e-03 5.96130715e-03 1.17641253e-02
-1.79852190e-03 -4.60172498e-03 3.01912350e-03 -4.60172498e-03 -2.71811843e-03 -3.16580699e-04 3.01912350e-03 -3.16580699e-04 7.84538817e-03
-3.96930061e-03 -9.03229348e-03 -2.09883516e-02 -9.03229348e-03 1.18116886e-02 -7.75566041e-04 -2.09883516e-02 -7.75566041e-04 -5.70494491e-03
-6.76380131e-04 8.84395282e-04 3.72171910e-03 8.84395282e-04 -3.05192745e-03 1.02532707e-03 3.72171910e-03 1.02532707e-03 5.94599689e-03
1.07724956e-03 -2.41501943e-02 -2.08985561e-02 -2.41501943e-02 2.04998348e-03 -4.01812897e-04 -2.08985561e-02 -4.01812897e-04 -6.08903298e-04
3.29896284e-04 -3.28546090e-03 4.04239312e-03 -3.28546090e-03 -2.86035019e-03 7.21941826e-04 4.04239312e-03 7.21941826e-04 4.35834436e-03
1.27897386e-02 3.03124683e-03 -2.40159295e-02 3.03124683e-03 -1.14112283e-02 -3.00869057e-02 -2.40159295e-02 -3.00869057e-02 6.65165839e-03
-1.85557865e-02 -5.38166595e-03 7.92713172e-03 -5.38166595e-03 -3.59410799e-03 6.78905367e-03 7.92713172e-03 6.78905367e-03 3.02087539e-02
6.81985095e-02 3.93682867e-02 -7.90828466e-03 3.93682867e-02 7.02366605e-02 9.20371041e-02 -7.90828466e-03 9.20371041e-02 -1.22141726e-01
8.91614861e-05 -2.54736101e-04 -4.02342151e-04 -2.54736101e-04 7.31815574e-06 5.72726043e-03 -4.02342151e-04 5.72726043e-03 -4.71330241e-05
-1.94327008e-03 -5.09337113e-03 5.89919728e-05 -5.09337113e-03 1.21123184e-03 1.09423379e-04 5.89919728e-05 1.09423379e-04 1.16064630e-03
-1.38066680e-04 1.32828704e-05 1.59145432e-05 1.32828704e-05 1.88438634e-04 3.01870466e-05 1.59145432e-05 3.01870466e-05 -6.35257163e-05
-9.22082911e-05 -4.04545828e-05 -7.31076259e-05 -4.04545828e-05 8.66187147e-05 -1.22024202e-05 -7.31076259e-05 -1.22024202e-05 -4.03438078e-05
2.16420347e-04 -1.02871016e-03 5.59275795e-04 -1.02871016e-03 -3.70517344e-04 1.13740753e-05 5.59275795e-04 1.13740753e-05 2.69064214e-04
4.88588528e-04 -1.24826573e-03 -7.97113316e-05 -1.24826573e-03 -9.30535141e-04 -3.35073455e-05 -7.97113316e-05 -3.35073455e-05 6.44292857e-04
1.03317782e-01 2.63900142e-02 -2.59070545e-02 2.63900142e-02 1.60897434e-01 -1.32330647e-03 -2.59070545e-02 -1.32330647e-03 -2.18172386e-01
1.46346167e-01 1.32540017e-02 -7.36898649e-03 1.32540017e-02 1.63470075e-01 2.42545698e-02 -7.36898649e-03 2.42545698e-02 -2.61096269e-01
1.07543086e-01 -2.81389141e-02 1.96632190e-02 -2.81389141e-02 1.15691756e-01 3.18013939e-02 1.96632190e-02 3.18013939e-02 -1.87773029e-01
1.27186824e-01 -2.33020112e-02 4.02120464e-02 -2.33020112e-02 1.49911340e-01 2.80759826e-03 4.02120464e-02 2.80759826e-03 -2.40253679e-01
4.31862789e-05 -6.73037680e-05 5.74457601e-07 -6.73037680e-05 -2.86088823e-05 -1.31663450e-05 5.74457601e-07 -1.31663450e-05 -2.74639832e-05
-2.01412139e-03 -2.14480541e-03 6.91179465e-04 -2.14480541e-03 -9.70115541e-04 3.31800434e-03 6.91179465e-04 3.31800434e-03 5.56289167e-03
0.00000000e+00 0.00000000e+00 0.00000000e+00 0.00000000e+00 0.00000000e+00 0.00000000e+00 0.00000000e+00 0.00000000e+00 0.00000000e+00
1.21595103e-01 -2.58456068e-02 2.02483889e-02 -2.58456068e-02 7.99307749e-02 2.08065473e-02 2.02483889e-02 2.08065473e-02 -1.69203736e-01
1.28220439e-01 1.03699239e-02 1.62562486e-02 1.03699239e-02 6.77967444e-02 -1.43107725e-04 1.62562486e-02 -1.43107725e-04 -1.64568365e-01
1.14055816e-01 4.68654744e-03 4.12197865e-03 4.68654744e-03 1.02013856e-01 4.21309005e-02 4.12197865e-03 4.21309005e-02 -1.85968831e-01
1.33782867e-01 -3.48294098e-02 -4.90969350e-03 -3.48294098e-02 7.58542940e-02 4.70673759e-02 -4.90969350e-03 4.70673759e-02 -1.79123111e-01
2.80212064e-02 1.65908086e-02 -1.32977124e-02 1.65908086e-02 4.55703679e-03 6.60239253e-03 -1.32977124e-02 6.60239253e-03 -1.44181941e-02
-6.69341092e-03 -2.85285164e-03 -1.03087621e-02 -2.85285164e-03 3.85790060e-02 7.74223043e-03 -1.03087621e-02 7.74223043e-03 -1.44241545e-02
-2.67697169e-03 -4.67985964e-03 -5.60561777e-04 -4.67985964e-03 -2.73771130e-03 6.98631330e-03 -5.60561777e-04 6.98631330e-03 9.51087895e-03
-1.88718332e-04 -1.15343304e-04 -5.62497962e-06 -1.15343304e-04 8.87601418e-05 -1.44038058e-05 -5.62497962e-06 -1.44038058e-05 1.31785026e-04
0.00000000e+00 0.00000000e+00 0.00000000e+00 0.00000000e+00 0.00000000e+00 0.00000000e+00 0.00000000e+00 0.00000000e+00 0.00000000e+00
</DataArray>
<DataArray type="Float32" Name="Spatial_displacement" NumberOfComponents="3" format="ascii">
4.61018160e-02 2.52331316e-01 -1.24038368e-01
7.67050758e-02 2.39567757e-01 -1.01449281e-01
7.84369633e-02 3.03261727e-01 -1.46505162e-01
4.07186523e-02 2.96789378e-01 -1.55384630e-01
3.74487042e-02 2.90882945e-01 -1.90113500e-01
8.20418075e-02 2.86136448e-01 -1.79059133e-01
6.90172538e-02 3.67625117e-01 -2.34407499e-01
4.09645289e-02 3.34769785e-01 -2.27708593e-01
1.29846960e-01 2.21521646e-01 -7.82815665e-02
1.40925512e-01 2.89595246e-01 -1.43119767e-01
1.24244630e-01 2.77218640e-01 -2.01979339e-01
1.79579735e-01 3.40503156e-01 -2.85904676e-01
1.37381092e-01 2.07586244e-01 3.39150429e-05
1.37381867e-01 2.08927214e-01 3.19778919e-05
1.36039048e-01 2.08935425e-01 -1.73151493e-05
1.36011586e-01 2.07600549e-01 -3.44514847e-05
1.37369618e-01 2.07649857e-01 2.03847885e-05
1.37363136e-01 2.08999157e-01 4.04417515e-05
1.36015102e-01 2.08990276e-01 -2.67922878e-05
1.36030123e-01 2.07639128e-01 -2.55703926e-05
0.00000000e+00 0.00000000e+00 -2.79057920e-01
5.31167686e-02 0.00000000e+00 -2.81043112e-01
5.63522950e-02 5.83698750e-02 -2.75164515e-01
0.00000000e+00 5.61270937e-02 -2.69912422e-01
0.00000000e+00 0.00000000e+00 -3.74099493e-01
7.13613704e-02 0.00000000e+00 -3.73244971e-01
7.33530596e-02 5.84626123e-02 -3.71633232e-01
0.00000000e+00 5.46978489e-02 -3.62879813e-01
1.17952451e-01 0.00000000e+00 -2.95432568e-01
1.05428420e-01 5.02336696e-02 -2.86355466e-01
1.38205454e-01 0.00000000e+00 -3.83652210e-01
1.41256765e-01 6.17906898e-02 -3.83992553e-01
1.75484344e-01 0.00000000e+00 -3.11249048e-01
1.76673457e-01 4.55523580e-02 -3.07330549e-01
2.06199095e-01 0.00000000e+00 -4.00723517e-01
1.99089065e-01 5.41716218e-02 -3.98870498e-01
2.44751602e-01 0.00000000e+00 -3.24868858e-01
2.47769162e-01 4.72621843e-02 -3.29838365e-01
2.66172290e-01 0.00000000e+00 -4.13078725e-01
2.62836248e-01 4.53980938e-02 -4.19868469e-01
3.17930281e-01 0.00000000e+00 -3.41542423e-01
3.18279147e-01 5.01595959e-02 -3.39245468e-01
3.24501902e-01 0.00000000e+00 -4.22135293e-01
3.23481619e-01 4.45740521e-02 -4.34140533e-01
3.85692269e-01 0.00000000e+00 -3.46776307e-01
3.85089338e-01 5.11583015e-02 -3.45236480e-01
3.71756881e-01 0.00000000e+00 -4.25652087e-01
3.86897683e-01 4.52807769e-02 -4.33958590e-01
4.00160998e-02 1.10464588e-01 -2.53746361e-01
0.00000000e+00 1.25539824e-01 -2.50295073e-01
7.31301308e-02 1.17874004e-01 -3.48113060e-01
0.00000000e+00 1.17853403e-01 -3.46502304e-01
1.05480433e-01 1.12688079e-01 -2.75527358e-01
1.51185036e-01 1.25283271e-01 -3.75629038e-01
1.65964589e-01 1.19240850e-01 -3.18816870e-01
2.09438175e-01 1.18673339e-01 -4.32446718e-01
2.42661268e-01 1.31657958e-01 -3.30057532e-01
2.51998305e-01 1.03976272e-01 -4.51115489e-01
3.12079340e-01 1.24250770e-01 -3.27550560e-01
3.17752540e-01 1.16511017e-01 -4.50304121e-01
3.71680439e-01 1.32492453e-01 -3.33112001e-01
3.74729455e-01 1.20646983e-01 -4.51325923e-01
3.59899849e-02 1.88952446e-01 -2.08868593e-01
0.00000000e+00 1.85649663e-01 -2.12773144e-01
6.96479976e-02 1.86286271e-01 -3.11748594e-01
0.00000000e+00 1.85073987e-01 -3.02206159e-01
9.48394164e-02 1.66002229e-01 -2.40273491e-01
1.69379905e-01 1.90985858e-01 -3.85890335e-01
7.41121322e-02 1.40693098e-01 -5.53720951e-01
2.38541424e-01 1.70267150e-01 -5.08239090e-01
3.65451723e-02 2.34153748e-01 -1.75653636e-01
0.00000000e+00 2.42804527e-01 -1.83461547e-01
5.64315170e-02 2.57185757e-01 -2.46700168e-01
0.00000000e+00 2.65358686e-01 -2.69436449e-01
0.00000000e+00 2.84383386e-01 -1.94528699e-01
5.01259714e-02 3.37041616e-01 -2.68715680e-01
0.00000000e+00 3.15983772e-01 -2.82965422e-01
8.52036998e-02 2.34718561e-01 -1.40237421e-01
1.25782430e-01 2.71049559e-01 -2.71319240e-01
1.20591134e-01 3.14395875e-01 -2.63378143e-01
0.00000000e+00 3.39243561e-01 -2.39273578e-01
7.05251098e-02 3.95554632e-01 -3.41541380e-01
0.00000000e+00 4.12975788e-01 -3.22048873e-01
1.20153159e-01 4.18653965e-01 -3.38267893e-01
1.58776626e-01 2.91617393e-01 -3.93840939e-01
2.50617862e-01 3.31296206e-01 -3.90950173e-01
0.00000000e+00 0.00000000e+00 -4.77869898e-01
8.83967355e-02 0.00000000e+00 -4.80653346e-01
9.22716483e-02 6.04645610e-02 -4.77469563e-01
0.00000000e+00 5.62651753e-02 -4.74269122e-01
1.61750212e-01 0.00000000e+00 -4.85498071e-01
1.72570482e-01 7.00181350e-02 -4.86885428e-01
2.24318951e-01 0.00000000e+00 -4.94271636e-01
2.30986834e-01 7.22738504e-02 -4.94919658e-01
2.81856418e-01 0.00000000e+00 -5.03064036e-01
2.74755239e-01 6.53811917e-02 -5.03480434e-01
3.28268290e-01 0.00000000e+00 -5.07313192e-01
3.21252674e-01 5.92248812e-02 -5.11815429e-01
3.65874052e-01 0.00000000e+00 -5.10247767e-01
3.67561579e-01 6.45845234e-02 -5.08890927e-01
1.05190337e-01 1.27861813e-01 -4.70347613e-01
0.00000000e+00 1.16973072e-01 -4.62646365e-01
1.92158133e-01 1.40925556e-01 -4.87632275e-01
2.48922154e-01 1.42420217e-01 -5.15083909e-01
2.82030523e-01 1.28054902e-01 -5.38025737e-01
3.06143165e-01 1.10080563e-01 -5.50859809e-01
3.36309969e-01 1.17723897e-01 -5.50796866e-01
1.06994390e-01 1.77819222e-01 -4.31609631e-01
0.00000000e+00 1.97460860e-01 -4.16019946e-01
2.14770168e-01 1.85060963e-01 -4.94558781e-01
2.87884474e-01 1.77621946e-01 -5.70617914e-01
2.71798611e-01 7.68244117e-02 -6.41267657e-01
3.05615366e-01 1.59576908e-01 -5.93824506e-01
1.12958863e-01 2.51993746e-01 -3.52469862e-01
0.00000000e+00 2.38118649e-01 -3.95227224e-01
2.26573020e-01 2.32391566e-01 -4.52736139e-01
9.31986198e-02 3.70482326e-01 -4.23112333e-01
0.00000000e+00 3.79252553e-01 -4.22554016e-01
1.13251567e-01 4.83158350e-01 -4.57854688e-01
0.00000000e+00 4.76834774e-01 -4.43457127e-01
1.72181591e-01 3.41622949e-01 -4.15793300e-01
2.59769946e-01 4.21726882e-01 -4.47149694e-01
2.64316589e-01 2.48103529e-01 -5.40610194e-01
3.72806311e-01 2.79199749e-01 -5.09227514e-01
6.33230582e-02 2.20070511e-01 -7.19048738e-01
2.25125313e-01 2.11227238e-01 -6.27085626e-01
3.41018349e-01 1.59544304e-01 -5.95105767e-01
3.60187113e-01 1.60837442e-01 -5.94769537e-01
3.41326684e-01 1.41904742e-01 -5.94950438e-01
3.41151178e-01 1.24050476e-01 -5.94972849e-01
3.59013140e-01 1.23895399e-01 -5.94929457e-01
3.59134406e-01 1.41785264e-01 -5.94855905e-01
3.41294765e-01 1.41883686e-01 -5.94950140e-01
3.41212869e-01 1.24010652e-01 -5.94952345e-01
3.59015644e-01 1.23867087e-01 -5.94935656e-01
3.59268904e-01 1.41628101e-01 -5.94863355e-01
0.00000000e+00 0.00000000e+00 -5.94920993e-01
9.37291756e-02 0.00000000e+00 -5.94920993e-01
1.01056449e-01 6.47382289e-02 -5.94920993e-01
0.00000000e+00 5.82219586e-02 -5.94920993e-01
1.73842430e-01 0.00000000e+00 -5.94920993e-01
1.81076974e-01 7.52037913e-02 -5.94920993e-01
2.32124954e-01 0.00000000e+00 -5.94920993e-01
2.43938163e-01 8.04515481e-02 -5.94920993e-01
2.84674883e-01 0.00000000e+00 -5.94920993e-01
2.85236180e-01 7.97150731e-02 -5.94920993e-01
3.27599734e-01 0.00000000e+00 -5.94920993e-01
3.23008478e-01 7.44554028e-02 -5.94920993e-01
3.72484744e-01 0.00000000e+00 -5.94920993e-01
3.47810060e-01 8.41881558e-02 -5.94920993e-01
1.21792674e-01 1.17366195e-01 -5.94920993e-01
0.00000000e+00 1.11624628e-01 -5.94920993e-01
2.15454295e-01 1.42083690e-01 -5.94920993e-01
2.64025509e-01 1.54391587e-01 -5.94920993e-01
2.93751538e-01 1.43602431e-01 -5.94920993e-01
3.03113401e-01 1.27848089e-01 -5.94920993e-01
3.23502123e-01 1.28719658e-01 -5.94920993e-01
1.30007923e-01 2.19965383e-01 -5.94920993e-01
0.00000000e+00 2.26130843e-01 -5.94920993e-01
2.49489248e-01 1.93886176e-01 -5.94920993e-01
3.03945780e-01 1.88394636e-01 -5.94920993e-01
3.06278825e-01 1.60302579e-01 -5.94920993e-01
3.05970401e-01 1.41270056e-01 -5.95633745e-01
3.06526840e-01 1.41957223e-01 -5.94920993e-01
3.08047950e-01 1.26248986e-01 -5.96317291e-01
3.08298290e-01 1.28025174e-01 -5.94920993e-01
3.23614717e-01 1.78911477e-01 -6.12268567e-01
3.33642304e-01 1.91553891e-01 -5.94920993e-01
3.20329368e-01 2.22690821e-01 -5.94920993e-01
3.23772103e-01 1.59298971e-01 -5.94662189e-01
3.23921919e-01 1.59505889e-01 -5.94920993e-01
3.23540807e-01 1.42098799e-01 -5.94967365e-01
3.23626697e-01 1.42001063e-01 -5.94920993e-01
3.23253036e-01 1.24422982e-01 -5.94870985e-01
3.23163271e-01 1.24279618e-01 -5.94920993e-01
0.00000000e+00 2.07186222e-01 -5.94920993e-01
1.42346114e-01 2.38195553e-01 -5.94920993e-01
1.27344981e-01 3.99254262e-01 -5.94920993e-01
0.00000000e+00 4.23673689e-01 -5.94920993e-01
3.41239274e-01 1.41882196e-01 -5.94920993e-01
3.41412336e-01 1.59625053e-01 -5.94920993e-01
3.41250122e-01 1.24036156e-01 -5.94920993e-01
1.37399569e-01 5.05378246e-01 -5.94920993e-01
0.00000000e+00 4.94171560e-01 -5.94920993e-01
2.16017544e-01 3.48202497e-01 -5.94920993e-01
3.10387135e-01 4.16843057e-01 -5.94920993e-01
2.82915086e-01 2.26068914e-01 -5.94920993e-01
3.95166636e-01 2.63029516e-01 -5.94920993e-01
3.60554606e-01 1.60065964e-01 -5.94920993e-01
3.59282404e-01 1.41566679e-01 -5.94920993e-01
3.59012008e-01 1.23864666e-01 -5.94920993e-01
</DataArray>
<DataArray type="Float32" Name="Spatial_acceleration" NumberOfComponents="3" format="ascii">
-2.87493066e-07 -1.27275780e-06 6.84261295e-07
-4.60147845e-07 -1.19320555e-06 5.98430631e-07
-4.86532826e-07 -1.52087205e-06 8.18888338e-07
-2.75254251e-07 -1.51181223e-06 8.03311650e-07
-2.30292471e-07 -1.45858530e-06 1.05659171e-06
-4.83285817e-07 -1.40453517e-06 9.55127575e-07
-4.21206153e-07 -1.82120004e-06 1.20544428e-06
-2.68936162e-07 -1.71407066e-06 1.23325981e-06
-7.27653514e-07 -1.08663733e-06 4.29153431e-07
-8.17656485e-07 -1.39315921e-06 7.65482582e-07
-6.23279163e-07 -1.36523784e-06 1.02912054e-06
-9.38574487e-07 -1.58401326e-06 1.27410885e-06
-8.27215615e-07 -8.80289520e-07 -1.42802792e-08
-8.30749684e-07 -8.73714669e-07 4.81605511e-08
-8.65742550e-07 -8.65974755e-07 7.67409780e-09
-8.53915992e-07 -9.04887884e-07 7.89761534e-10
-7.97214284e-07 -9.67879146e-07 -4.19281410e-09
-8.46344960e-07 -9.22066477e-07 3.91677020e-08
-8.75840556e-07 -9.28702434e-07 4.89304455e-08
-8.90936690e-07 -8.96906442e-07 -2.48663117e-08
0.00000000e+00 0.00000000e+00 1.26266480e-06
-2.53160778e-07 0.00000000e+00 1.24486291e-06
-2.81165029e-07 -2.82982995e-07 1.25169754e-06
0.00000000e+00 -2.65181058e-07 1.24867756e-06
0.00000000e+00 0.00000000e+00 1.67465203e-06
-3.12646222e-07 0.00000000e+00 1.67719520e-06
-3.30547493e-07 -2.91794549e-07 1.67751307e-06
0.00000000e+00 -2.56141021e-07 1.64477024e-06
-5.49435583e-07 0.00000000e+00 1.28491718e-06
-5.03967215e-07 -2.64530371e-07 1.26854582e-06
-6.21984384e-07 0.00000000e+00 1.70453393e-06
-6.24418249e-07 -3.18447746e-07 1.68832139e-06
-8.36223364e-07 0.00000000e+00 1.32179264e-06
-8.33431898e-07 -2.65200924e-07 1.29954014e-06
-9.25600546e-07 0.00000000e+00 1.75476077e-06
-8.78535218e-07 -2.80718012e-07 1.73505146e-06
-1.14436443e-06 0.00000000e+00 1.34086611e-06
-1.16221111e-06 -2.63849898e-07 1.33959452e-06
-1.22447807e-06 0.00000000e+00 1.75984701e-06
-1.18871526e-06 -2.46922184e-07 1.77860261e-06
-1.51413178e-06 0.00000000e+00 1.34944912e-06
-1.49949392e-06 -2.69254059e-07 1.37170150e-06
-1.51254733e-06 0.00000000e+00 1.77637730e-06
-1.50028859e-06 -2.60055060e-07 1.79735821e-06
-1.84783335e-06 0.00000000e+00 1.35040284e-06
-1.83494888e-06 -3.01023334e-07 1.36280062e-06
-1.77359584e-06 0.00000000e+00 1.77637730e-06
-1.84647240e-06 -2.92912119e-07 1.77129107e-06
-2.23080320e-07 -5.44389081e-07 1.21657047e-06
0.00000000e+00 -6.01410875e-07 1.20735172e-06
-3.31242887e-07 -5.71290627e-07 1.64826713e-06
0.00000000e+00 -5.79575669e-07 1.66638688e-06
-5.48498974e-07 -5.82831262e-07 1.20726088e-06
-6.68684606e-07 -6.29703209e-07 1.65907545e-06
-8.09605922e-07 -5.83394353e-07 1.31276454e-06
-9.41866915e-07 -6.13348845e-07 1.77873881e-06
-1.11691156e-06 -6.34193441e-07 1.37138363e-06
-1.12342832e-06 -5.45756052e-07 1.81427004e-06
-1.41815337e-06 -6.09040228e-07 1.34976699e-06
-1.43849843e-06 -6.08523692e-07 1.83614088e-06
-1.65641802e-06 -7.37587584e-07 1.37456254e-06
-1.65693837e-06 -6.65505695e-07 1.83486941e-06
-2.26043511e-07 -9.12007806e-07 1.09717962e-06
0.00000000e+00 -8.96175720e-07 1.09608970e-06
-3.41052100e-07 -8.96408437e-07 1.51661459e-06
0.00000000e+00 -9.06467449e-07 1.56784051e-06
-5.14348358e-07 -8.05854768e-07 1.15585328e-06
-7.43548071e-07 -9.11458358e-07 1.66015627e-06
-3.64700952e-07 -6.73711270e-07 2.20870970e-06
-1.00443094e-06 -8.32027865e-07 2.19747767e-06
-2.44821820e-07 -1.14032196e-06 9.47861452e-07
0.00000000e+00 -1.18254616e-06 1.03282923e-06
-3.15878140e-07 -1.25267775e-06 1.32454772e-06
0.00000000e+00 -1.30919614e-06 1.47565208e-06
0.00000000e+00 -1.43017371e-06 1.08750658e-06
-2.50225980e-07 -1.67247231e-06 1.47265473e-06
0.00000000e+00 -1.56015153e-06 1.52524308e-06
-4.88122282e-07 -1.15150215e-06 8.23974574e-07
-6.13848385e-07 -1.32099785e-06 1.31734214e-06
-5.39016753e-07 -1.52193707e-06 1.34531660e-06
0.00000000e+00 -1.75333025e-06 1.26647944e-06
-3.12447554e-07 -1.90234186e-06 1.72456100e-06
0.00000000e+00 -1.97966892e-06 1.62633262e-06
-5.41289637e-07 -2.02290221e-06 1.64286291e-06
-6.80287712e-07 -1.45318779e-06 1.69711643e-06
-1.12491182e-06 -1.55978739e-06 1.74077354e-06
0.00000000e+00 0.00000000e+00 2.13114413e-06
-3.86575863e-07 0.00000000e+00 2.10507710e-06
-3.85145341e-07 -3.03636000e-07 2.12446844e-06
0.00000000e+00 -2.80181553e-07 2.10380563e-06
-6.88234934e-07 0.00000000e+00 2.14195256e-06
-7.35382230e-07 -3.33070744e-07 2.13972726e-06
-9.74396812e-07 0.00000000e+00 2.17056277e-06
-1.00715954e-06 -3.35812558e-07 2.14004513e-06
-1.26908219e-06 0.00000000e+00 2.18836453e-06
-1.22028587e-06 -3.08672583e-07 2.17246998e-06
-1.51534869e-06 0.00000000e+00 2.20044444e-06
-1.47473816e-06 -3.06526829e-07 2.20108041e-06
-1.70791145e-06 0.00000000e+00 2.21824644e-06
-1.72503792e-06 -3.42051180e-07 2.18709306e-06
-4.12702548e-07 -6.03834792e-07 2.11588531e-06
0.00000000e+00 -5.80628694e-07 2.10825601e-06
-7.98384349e-07 -6.68545567e-07 2.12224313e-06
-1.06036657e-06 -7.10725772e-07 2.17882780e-06
-1.24988105e-06 -6.58126112e-07 2.26702014e-06
-1.38092048e-06 -5.73688112e-07 2.27016881e-06
-1.55872772e-06 -6.50405866e-07 2.27271198e-06
-4.09179279e-07 -8.68691359e-07 2.02263732e-06
0.00000000e+00 -9.26335645e-07 2.05145943e-06
-8.64677986e-07 -9.14785630e-07 2.10232201e-06
-1.22748486e-06 -9.16798911e-07 2.49099730e-06
-1.21223923e-06 -3.72250867e-07 2.76692708e-06
-1.32268269e-06 -8.67462177e-07 2.61510218e-06
-4.17709344e-07 -1.23771031e-06 1.81833900e-06
0.00000000e+00 -1.22388201e-06 1.99042438e-06
-8.30014528e-07 -1.06867151e-06 1.88573199e-06
-3.64727441e-07 -1.73407136e-06 2.03365744e-06
0.00000000e+00 -1.81357063e-06 2.04340608e-06
-4.58240493e-07 -2.19337153e-06 2.12351483e-06
0.00000000e+00 -2.14918441e-06 2.08600363e-06
-6.92367564e-07 -1.64582332e-06 1.87428793e-06
-1.06016796e-06 -1.92467360e-06 2.00653085e-06
-1.10499059e-06 -1.22946494e-06 2.31234230e-06
-1.54081977e-06 -1.36137010e-06 2.21125288e-06
-6.33398685e-08 -1.12660723e-06 3.04857895e-06
-9.00467228e-07 -9.79542733e-07 2.59653734e-06
-1.43094860e-06 -8.29736393e-07 2.59518629e-06
-1.46897639e-06 -8.42518261e-07 2.57704005e-06
-1.39486360e-06 -7.41048780e-07 2.64917730e-06
-1.42465535e-06 -7.94559696e-07 2.65472249e-06
-1.50097412e-06 -6.96450456e-07 2.64173127e-06
-1.47326284e-06 -7.69248857e-07 2.63143488e-06
-1.42738031e-06 -8.05067998e-07 2.61144851e-06
-1.41390501e-06 -7.53641132e-07 2.60356910e-06
-1.49306152e-06 -7.41134102e-07 2.58288787e-06
-1.51093798e-06 -7.63151377e-07 2.59630224e-06
0.00000000e+00 0.00000000e+00 2.58917908e-06
-3.98675610e-07 0.00000000e+00 2.58917908e-06
-4.20669721e-07 -3.16500660e-07 2.58917908e-06
0.00000000e+00 -3.05016840e-07 2.58917908e-06
-7.33097409e-07 0.00000000e+00 2.58917908e-06
-7.69933081e-07 -3.52462138e-07 2.58917908e-06
-9.99053327e-07 0.00000000e+00 2.58917908e-06
-1.07431413e-06 -3.60091519e-07 2.58917908e-06
-1.29524869e-06 0.00000000e+00 2.58917908e-06
-1.26429393e-06 -3.55084723e-07 2.58917908e-06
-1.49765356e-06 0.00000000e+00 2.58917908e-06
-1.50152050e-06 -3.63667795e-07 2.58917908e-06
-1.69745090e-06 0.00000000e+00 2.58917908e-06
-1.61075593e-06 -4.04357905e-07 2.58917908e-06
-4.79459743e-07 -5.61237357e-07 2.58917908e-06
0.00000000e+00 -5.38825986e-07 2.58917908e-06
-8.81592428e-07 -6.81135816e-07 2.58917908e-06
-1.11214320e-06 -7.65005723e-07 2.58917908e-06
-1.26902262e-06 -7.09056849e-07 2.58917908e-06
-1.32106743e-06 -6.79890320e-07 2.58917908e-06
-1.52230257e-06 -7.17798855e-07 2.58917908e-06
-4.63485719e-07 -9.75290959e-07 2.58917908e-06
0.00000000e+00 -9.78946673e-07 2.58917908e-06
-1.00994112e-06 -8.82413644e-07 2.58917908e-06
-1.29938121e-06 -9.54786969e-07 2.58917908e-06
-1.28444037e-06 -8.54015354e-07 2.58917908e-06
-1.30128853e-06 -8.17457817e-07 2.62403478e-06
-1.30701062e-06 -7.78754554e-07 2.58917908e-06
-1.30716955e-06 -7.34925266e-07 2.62324011e-06
-1.32179264e-06 -6.82195036e-07 2.58917908e-06
-1.37329096e-06 -9.38415496e-07 2.70271289e-06
-1.39505664e-06 -9.65277309e-07 2.58917908e-06
-1.33148831e-06 -1.05166430e-06 2.58917908e-06
-1.37201948e-06 -8.44319686e-07 2.62069034e-06
-1.35517780e-06 -8.22703043e-07 2.58917908e-06
-1.36625761e-06 -7.79628749e-07 2.59307035e-06
-1.37535733e-06 -7.68586972e-07 2.58917908e-06
-1.34722393e-06 -7.55310055e-07 2.59534522e-06
-1.36089318e-06 -6.99679049e-07 2.58917908e-06
0.00000000e+00 -1.09656651e-06 2.58917908e-06
-4.28358703e-07 -1.22904771e-06 2.58917908e-06
-4.70161439e-07 -1.80927918e-06 2.58917908e-06
0.00000000e+00 -1.98562930e-06 2.58917908e-06
-1.41040482e-06 -7.82648726e-07 2.58917908e-06
-1.42378281e-06 -8.47710510e-07 2.58917908e-06
-1.38898690e-06 -6.86009741e-07 2.58917908e-06
-5.32597312e-07 -2.28281806e-06 2.58917908e-06
0.00000000e+00 -2.15913360e-06 2.58917908e-06
-8.83738210e-07 -1.65732695e-06 2.58917908e-06
-1.21212008e-06 -1.90877904e-06 2.58917908e-06
-1.13201145e-06 -1.14675356e-06 2.58917908e-06
-1.62776314e-06 -1.33466722e-06 2.58917908e-06
-1.46770481e-06 -8.38438666e-07 2.58917908e-06
-1.47120159e-06 -7.76767706e-07 2.58917908e-06
-1.48068864e-06 -7.10556890e-07 2.58917908e-06
</DataArray>
<DataArray type="Float32" Name="Spatial_velocity" NumberOfComponents="3" format="ascii">
1.61282460e-05 7.16110444e-05 -3.84408268e-05
2.59242079e-05 6.63845567e-05 -3.34931501e-05
2.71959871e-05 8.56383485e-05 -4.60380470e-05
1.53904784e-05 8.50432261e-05 -4.57486130e-05
1.29726432e-05 8.19610359e-05 -5.94442863e-05
2.64815772e-05 7.87945828e-05 -5.38886015e-05
2.25135063e-05 1.02710852e-04 -6.82901955e-05
1.41807632e-05 9.57231096e-05 -6.99553202e-05
4.13927301e-05 6.10468414e-05 -2.37643253e-05
4.49470717e-05 7.93104628e-05 -4.37942072e-05
3.51012641e-05 7.73655629e-05 -5.90538839e-05
5.14835774e-05 8.92644384e-05 -7.27208535e-05
4.68897924e-05 5.07984550e-05 2.19390373e-08
4.69055922e-05 4.91262836e-05 -1.56291868e-08
4.85384735e-05 4.91287938e-05 1.78397244e-08
4.85470919e-05 5.08014091e-05 -3.58819392e-08
4.68774851e-05 5.07960103e-05 -5.51160539e-08
4.68656835e-05 4.91431420e-05 5.71240726e-08
4.85471501e-05 4.91406827e-05 -4.02804936e-08
4.85351447e-05 5.08038283e-05 2.81660348e-08
0.00000000e+00 0.00000000e+00 -7.04391787e-05
1.39421390e-05 0.00000000e+00 -7.04064878e-05
1.54738409e-05 1.58263847e-05 -7.05336206e-05
0.00000000e+00 1.50158521e-05 -7.00171950e-05
0.00000000e+00 0.00000000e+00 -9.40400496e-05
1.78697519e-05 0.00000000e+00 -9.33019983e-05
1.85783556e-05 1.63580808e-05 -9.41019680e-05
0.00000000e+00 1.52599587e-05 -9.23183979e-05
3.13785567e-05 0.00000000e+00 -7.23803169e-05
2.85362185e-05 1.48846693e-05 -7.16796712e-05
3.45263543e-05 0.00000000e+00 -9.52492555e-05
3.52299212e-05 1.76784215e-05 -9.52459595e-05
4.65155208e-05 0.00000000e+00 -7.43019336e-05
4.68984654e-05 1.48973104e-05 -7.33518464e-05
5.20833637e-05 0.00000000e+00 -9.77679665e-05
4.96265820e-05 1.54374029e-05 -9.66348962e-05
6.47529669e-05 0.00000000e+00 -7.49090177e-05
6.51981827e-05 1.48758463e-05 -7.57709349e-05
6.84049228e-05 0.00000000e+00 -9.88047905e-05
6.71258458e-05 1.37131528e-05 -9.91406268e-05
8.50278229e-05 0.00000000e+00 -7.56215668e-05
8.42031877e-05 1.51419972e-05 -7.60575422e-05
8.53264355e-05 0.00000000e+00 -9.96707022e-05
8.44397728e-05 1.46405691e-05 -1.00559460e-04
1.04277126e-04 0.00000000e+00 -7.45436701e-05
1.03417849e-04 1.67288417e-05 -7.59867471e-05
9.95909577e-05 0.00000000e+00 -1.00188110e-04
1.03455081e-04 1.64175781e-05 -9.99824479e-05
1.21347348e-05 3.06104448e-05 -6.85693085e-05
0.00000000e+00 3.40367769e-05 -6.80524608e-05
1.86495236e-05 3.21720727e-05 -9.23755069e-05
0.00000000e+00 3.19730898e-05 -9.26621142e-05
3.07331902e-05 3.23276945e-05 -6.92630783e-05
3.78647856e-05 3.48757858e-05 -9.35435528e-05
4.48466817e-05 3.27179478e-05 -7.48096427e-05
5.28197197e-05 3.41599116e-05 -9.96550007e-05
6.25959947e-05 3.53854630e-05 -7.68426471e-05
6.33450327e-05 3.04609912e-05 -1.03099163e-04
7.93580984e-05 3.49560869e-05 -7.50339459e-05
8.07721735e-05 3.38871250e-05 -1.03834573e-04
9.35302232e-05 4.04564744e-05 -7.58119568e-05
9.37897421e-05 3.80552374e-05 -1.04012812e-04
1.29350801e-05 5.09889032e-05 -6.16201069e-05
0.00000000e+00 5.07237201e-05 -6.17130863e-05
1.91476011e-05 5.06484212e-05 -8.58624917e-05
0.00000000e+00 5.11444268e-05 -8.74981997e-05
2.81329631e-05 4.53213252e-05 -6.44280954e-05
4.19373573e-05 5.06088872e-05 -9.35092248e-05
1.93247524e-05 3.54112854e-05 -1.27872161e-04
5.71430755e-05 4.69469487e-05 -1.23622303e-04
1.37158468e-05 6.46259432e-05 -5.36010666e-05
0.00000000e+00 6.69941146e-05 -5.73325633e-05
1.74181023e-05 6.99761513e-05 -7.46357910e-05
0.00000000e+00 7.32892076e-05 -8.25925381e-05
0.00000000e+00 8.07280157e-05 -6.09271665e-05
1.37861080e-05 9.41161125e-05 -8.28122720e-05
0.00000000e+00 8.80804728e-05 -8.60849686e-05
2.77703039e-05 6.44044703e-05 -4.64848417e-05
3.40473271e-05 7.35905342e-05 -7.40822579e-05
3.13232013e-05 8.56703846e-05 -7.59788745e-05
0.00000000e+00 9.78931275e-05 -7.13933114e-05
1.88378162e-05 1.06448773e-04 -9.63332277e-05
0.00000000e+00 1.11384143e-04 -9.16882564e-05
3.03726811e-05 1.12832662e-04 -9.12326868e-05
3.74453630e-05 8.11835635e-05 -9.52324044e-05
6.22295120e-05 8.79456493e-05 -9.77992459e-05
0.00000000e+00 0.00000000e+00 -1.18815406e-04
2.12818886e-05 0.00000000e+00 -1.18766300e-04
2.18320110e-05 1.69662544e-05 -1.19072683e-04
0.00000000e+00 1.58688290e-05 -1.18273747e-04
3.89182860e-05 0.00000000e+00 -1.19536286e-04
4.13559574e-05 1.91230156e-05 -1.20061777e-04
5.51636258e-05 0.00000000e+00 -1.21507343e-04
5.64597831e-05 1.90380943e-05 -1.20146957e-04
7.17648581e-05 0.00000000e+00 -1.22241981e-04
6.86709900e-05 1.74567485e-05 -1.21465397e-04
8.50977303e-05 0.00000000e+00 -1.22944912e-04
8.30776553e-05 1.69845716e-05 -1.22937592e-04
9.61574260e-05 0.00000000e+00 -1.24580925e-04
9.65563086e-05 1.93025626e-05 -1.21967896e-04
2.35093739e-05 3.39073886e-05 -1.18358352e-04
0.00000000e+00 3.20318250e-05 -1.18521020e-04
4.50329935e-05 3.73529474e-05 -1.19210570e-04
5.99968225e-05 3.97513031e-05 -1.22743077e-04
6.95134804e-05 3.67606081e-05 -1.26649786e-04
7.70271727e-05 3.21541811e-05 -1.28635627e-04
8.69087744e-05 3.65869964e-05 -1.28631160e-04
2.32125331e-05 4.85476376e-05 -1.14496397e-04
0.00000000e+00 5.18902634e-05 -1.14764713e-04
4.91862556e-05 5.07578516e-05 -1.19131408e-04
6.93586335e-05 5.05800417e-05 -1.39065625e-04
6.89311855e-05 1.86868438e-05 -1.55268630e-04
7.36349612e-05 4.72751963e-05 -1.45442202e-04
2.44852308e-05 6.99934753e-05 -1.02533355e-04
0.00000000e+00 6.81296005e-05 -1.11311725e-04
4.81129500e-05 6.12176809e-05 -1.06184467e-04
1.99454371e-05 9.76852316e-05 -1.14808725e-04
0.00000000e+00 1.01070160e-04 -1.14379232e-04
2.54727347e-05 1.23041056e-04 -1.19991557e-04
0.00000000e+00 1.20391451e-04 -1.16878837e-04
3.89473425e-05 9.28634981e-05 -1.06977423e-04
5.91857934e-05 1.08552915e-04 -1.13800634e-04
6.11624127e-05 6.89863373e-05 -1.30983448e-04
8.60538348e-05 7.60697149e-05 -1.24921135e-04
2.22205244e-06 6.63284154e-05 -1.71347187e-04
5.02678595e-05 5.64256443e-05 -1.48519248e-04
7.93873623e-05 4.70078267e-05 -1.45383703e-04
8.22985603e-05 4.69409424e-05 -1.45421334e-04
7.93201471e-05 4.41311749e-05 -1.45340018e-04
7.92693245e-05 4.12224763e-05 -1.45383907e-04
8.21767462e-05 4.11912188e-05 -1.45352344e-04
8.22199072e-05 4.40690019e-05 -1.45342798e-04
7.93292929e-05 4.41148732e-05 -1.45358354e-04
7.92790306e-05 4.12060981e-05 -1.45367638e-04
8.21724971e-05 4.11581204e-05 -1.45356360e-04
8.22336588e-05 4.40606782e-05 -1.45346014e-04
0.00000000e+00 0.00000000e+00 -1.45358863e-04
2.21464197e-05 0.00000000e+00 -1.45358863e-04
2.32004131e-05 1.73817389e-05 -1.45358863e-04
0.00000000e+00 1.60406398e-05 -1.45358863e-04
4.13696471e-05 0.00000000e+00 -1.45358863e-04
4.28733911e-05 1.97565114e-05 -1.45358863e-04
5.63973699e-05 0.00000000e+00 -1.45358863e-04
5.97481485e-05 2.07539906e-05 -1.45358863e-04
7.25503123e-05 0.00000000e+00 -1.45358863e-04
7.11124085e-05 2.06597306e-05 -1.45358863e-04
8.41672445e-05 0.00000000e+00 -1.45358863e-04
8.33834638e-05 2.01485036e-05 -1.45358863e-04
9.69077446e-05 0.00000000e+00 -1.45358863e-04
8.97654536e-05 2.25842305e-05 -1.45358863e-04
2.67809701e-05 3.20036779e-05 -1.45358863e-04
0.00000000e+00 3.10378455e-05 -1.45358863e-04
4.99585622e-05 3.77796532e-05 -1.45358863e-04
6.30136929e-05 4.32032211e-05 -1.45358863e-04
7.15294664e-05 4.08331143e-05 -1.45358863e-04
7.55448855e-05 3.76441021e-05 -1.45358863e-04
8.39824570e-05 4.02058868e-05 -1.45358863e-04
2.52802565e-05 5.41473783e-05 -1.45358863e-04
0.00000000e+00 5.42614471e-05 -1.45358863e-04
5.59127147e-05 4.95436070e-05 -1.45358863e-04
7.26660655e-05 5.41197915e-05 -1.45358863e-04
7.35559152e-05 4.70730411e-05 -1.45358863e-04
7.34552159e-05 4.42376113e-05 -1.45396436e-04
7.35200374e-05 4.42119199e-05 -1.45358863e-04
7.36659567e-05 4.14790993e-05 -1.45593964e-04
7.37361843e-05 4.15637442e-05 -1.45358863e-04
7.59438772e-05 5.02859621e-05 -1.50806125e-04
8.03482471e-05 5.48100943e-05 -1.45358863e-04
7.55716756e-05 5.88108778e-05 -1.45358863e-04
7.64770812e-05 4.70778032e-05 -1.45355298e-04
7.64400102e-05 4.70802806e-05 -1.45358863e-04
7.64288488e-05 4.41788034e-05 -1.45338679e-04
7.64235810e-05 4.41737975e-05 -1.45358863e-04
7.63411590e-05 4.12286863e-05 -1.45333819e-04
7.63558273e-05 4.12508925e-05 -1.45358863e-04
0.00000000e+00 6.19949933e-05 -1.45358863e-04
2.42221086e-05 7.13092886e-05 -1.45358863e-04
2.59336848e-05 1.01495825e-04 -1.45358863e-04
0.00000000e+00 1.12023306e-04 -1.45358863e-04
7.93150248e-05 4.41190132e-05 -1.45358863e-04
7.93688814e-05 4.70221094e-05 -1.45358863e-04
7.92798237e-05 4.12052250e-05 -1.45358863e-04
2.95701120e-05 1.27570354e-04 -1.45358863e-04
0.00000000e+00 1.20171811e-04 -1.45358863e-04
4.85142045e-05 9.36657671e-05 -1.45358863e-04
6.73720351e-05 1.06764193e-04 -1.45358863e-04
6.37682097e-05 6.41801016e-05 -1.45358863e-04
9.17966972e-05 7.25747304e-05 -1.45358863e-04
8.22711736e-05 4.69732804e-05 -1.45358863e-04
8.22221627e-05 4.40557378e-05 -1.45358863e-04
8.21816575e-05 4.11538858e-05 -1.45358863e-04
</DataArray>
<DataArray type="Float32" Name="Reaction_force" NumberOfComponents="3" format="ascii">
0.00000000e+00 0.00000000e+00 0.00000000e+00
0.00000000e+00 0.00000000e+00 0.00000000e+00
0.00000000e+00 0.00000000e+00 0.00000000e+00
0.00000000e+00 0.00000000e+00 0.00000000e+00
0.00000000e+00 0.00000000e+00 0.00000000e+00
0.00000000e+00 0.00000000e+00 0.00000000e+00
0.00000000e+00 0.00000000e+00 0.00000000e+00
0.00000000e+00 0.00000000e+00 0.00000000e+00
0.00000000e+00 0.00000000e+00 0.00000000e+00
0.00000000e+00 0.00000000e+00 0.00000000e+00
0.00000000e+00 0.00000000e+00 0.00000000e+00
0.00000000e+00 0.00000000e+00 0.00000000e+00
0.00000000e+00 0.00000000e+00 0.00000000e+00
0.00000000e+00 0.00000000e+00 0.00000000e+00
0.00000000e+00 0.00000000e+00 0.00000000e+00
0.00000000e+00 0.00000000e+00 0.00000000e+00
0.00000000e+00 0.00000000e+00 0.00000000e+00
0.00000000e+00 0.00000000e+00 0.00000000e+00
0.00000000e+00 0.00000000e+00 0.00000000e+00
0.00000000e+00 0.00000000e+00 0.00000000e+00
1.07263044e-01 -1.17491990e-01 0.00000000e+00
0.00000000e+00 9.99319434e-01 0.00000000e+00
0.00000000e+00 0.00000000e+00 0.00000000e+00
1.84142828e+00 0.00000000e+00 0.00000000e+00
4.28619325e-01 9.45046186e-01 0.00000000e+00
0.00000000e+00 1.34356058e+00 0.00000000e+00
0.00000000e+00 0.00000000e+00 0.00000000e+00
1.24361372e+00 0.00000000e+00 0.00000000e+00
0.00000000e+00 1.58491683e+00 0.00000000e+00
0.00000000e+00 0.00000000e+00 0.00000000e+00
0.00000000e+00 1.18302143e+00 0.00000000e+00
0.00000000e+00 0.00000000e+00 0.00000000e+00
0.00000000e+00 1.99954498e+00 0.00000000e+00
0.00000000e+00 0.00000000e+00 0.00000000e+00
0.00000000e+00 1.62384081e+00 0.00000000e+00
0.00000000e+00 0.00000000e+00 0.00000000e+00
0.00000000e+00 2.71208882e+00 0.00000000e+00
0.00000000e+00 0.00000000e+00 0.00000000e+00
0.00000000e+00 1.51980472e+00 0.00000000e+00
0.00000000e+00 0.00000000e+00 0.00000000e+00
0.00000000e+00 1.00950491e+00 0.00000000e+00
0.00000000e+00 0.00000000e+00 0.00000000e+00
0.00000000e+00 -2.66545355e-01 0.00000000e+00
0.00000000e+00 0.00000000e+00 0.00000000e+00
0.00000000e+00 1.69053823e-02 0.00000000e+00
0.00000000e+00 0.00000000e+00 0.00000000e+00
0.00000000e+00 -5.74914694e-01 0.00000000e+00
0.00000000e+00 0.00000000e+00 0.00000000e+00
0.00000000e+00 0.00000000e+00 0.00000000e+00
1.49278891e+00 0.00000000e+00 0.00000000e+00
0.00000000e+00 0.00000000e+00 0.00000000e+00
1.07047415e+00 0.00000000e+00 0.00000000e+00
0.00000000e+00 0.00000000e+00 0.00000000e+00
0.00000000e+00 0.00000000e+00 0.00000000e+00
0.00000000e+00 0.00000000e+00 0.00000000e+00
0.00000000e+00 0.00000000e+00 0.00000000e+00
0.00000000e+00 0.00000000e+00 0.00000000e+00
0.00000000e+00 0.00000000e+00 0.00000000e+00
0.00000000e+00 0.00000000e+00 0.00000000e+00
0.00000000e+00 0.00000000e+00 0.00000000e+00
0.00000000e+00 0.00000000e+00 0.00000000e+00
0.00000000e+00 0.00000000e+00 0.00000000e+00
0.00000000e+00 0.00000000e+00 0.00000000e+00
2.56664753e-02 0.00000000e+00 0.00000000e+00
0.00000000e+00 0.00000000e+00 0.00000000e+00
1.39381504e+00 0.00000000e+00 0.00000000e+00
0.00000000e+00 0.00000000e+00 0.00000000e+00
0.00000000e+00 0.00000000e+00 0.00000000e+00
0.00000000e+00 0.00000000e+00 0.00000000e+00
0.00000000e+00 0.00000000e+00 0.00000000e+00
0.00000000e+00 0.00000000e+00 0.00000000e+00
9.00437713e-01 0.00000000e+00 0.00000000e+00
0.00000000e+00 0.00000000e+00 0.00000000e+00
7.79659212e-01 0.00000000e+00 0.00000000e+00
4.49126601e-01 0.00000000e+00 0.00000000e+00
0.00000000e+00 0.00000000e+00 0.00000000e+00
6.11639023e-03 0.00000000e+00 0.00000000e+00
0.00000000e+00 0.00000000e+00 0.00000000e+00
0.00000000e+00 0.00000000e+00 0.00000000e+00
0.00000000e+00 0.00000000e+00 0.00000000e+00
-6.85757756e-01 0.00000000e+00 0.00000000e+00
0.00000000e+00 0.00000000e+00 0.00000000e+00
3.53448629e-01 0.00000000e+00 0.00000000e+00
0.00000000e+00 0.00000000e+00 0.00000000e+00
0.00000000e+00 0.00000000e+00 0.00000000e+00
0.00000000e+00 0.00000000e+00 0.00000000e+00
4.44969714e-01 1.39397764e+00 0.00000000e+00
0.00000000e+00 1.65007079e+00 0.00000000e+00
0.00000000e+00 0.00000000e+00 0.00000000e+00
7.23819017e-01 0.00000000e+00 0.00000000e+00
0.00000000e+00 1.79662466e-01 0.00000000e+00
0.00000000e+00 0.00000000e+00 0.00000000e+00
0.00000000e+00 2.98601061e-01 0.00000000e+00
0.00000000e+00 0.00000000e+00 0.00000000e+00
0.00000000e+00 -2.56660372e-01 0.00000000e+00
0.00000000e+00 0.00000000e+00 0.00000000e+00
0.00000000e+00 -1.93082035e+00 0.00000000e+00
0.00000000e+00 0.00000000e+00 0.00000000e+00
0.00000000e+00 -2.09785795e+00 0.00000000e+00
0.00000000e+00 0.00000000e+00 0.00000000e+00
0.00000000e+00 0.00000000e+00 0.00000000e+00
1.22571528e+00 0.00000000e+00 0.00000000e+00
0.00000000e+00 0.00000000e+00 0.00000000e+00
0.00000000e+00 0.00000000e+00 0.00000000e+00
0.00000000e+00 0.00000000e+00 0.00000000e+00
0.00000000e+00 0.00000000e+00 0.00000000e+00
0.00000000e+00 0.00000000e+00 0.00000000e+00
0.00000000e+00 0.00000000e+00 0.00000000e+00
-1.62250534e-01 0.00000000e+00 0.00000000e+00
0.00000000e+00 0.00000000e+00 0.00000000e+00
0.00000000e+00 0.00000000e+00 0.00000000e+00
0.00000000e+00 0.00000000e+00 0.00000000e+00
0.00000000e+00 0.00000000e+00 0.00000000e+00
0.00000000e+00 0.00000000e+00 0.00000000e+00
1.07030761e+00 0.00000000e+00 0.00000000e+00
0.00000000e+00 0.00000000e+00 0.00000000e+00
0.00000000e+00 0.00000000e+00 0.00000000e+00
7.46219158e-02 0.00000000e+00 0.00000000e+00
0.00000000e+00 0.00000000e+00 0.00000000e+00
9.71345007e-01 0.00000000e+00 0.00000000e+00
0.00000000e+00 0.00000000e+00 0.00000000e+00
0.00000000e+00 0.00000000e+00 0.00000000e+00
0.00000000e+00 0.00000000e+00 0.00000000e+00
0.00000000e+00 0.00000000e+00 0.00000000e+00
0.00000000e+00 0.00000000e+00 0.00000000e+00
0.00000000e+00 0.00000000e+00 0.00000000e+00
0.00000000e+00 0.00000000e+00 0.00000000e+00
0.00000000e+00 0.00000000e+00 0.00000000e+00
0.00000000e+00 0.00000000e+00 0.00000000e+00
0.00000000e+00 0.00000000e+00 0.00000000e+00
0.00000000e+00 0.00000000e+00 0.00000000e+00
0.00000000e+00 0.00000000e+00 0.00000000e+00
0.00000000e+00 0.00000000e+00 0.00000000e+00
0.00000000e+00 0.00000000e+00 0.00000000e+00
0.00000000e+00 0.00000000e+00 0.00000000e+00
0.00000000e+00 0.00000000e+00 0.00000000e+00
1.46901578e-01 6.68515563e-01 -9.50230885e+00
0.00000000e+00 9.18729007e-01 -1.90603409e+01
0.00000000e+00 0.00000000e+00 -3.75283165e+01
2.34465629e-01 0.00000000e+00 -1.93025208e+01
0.00000000e+00 5.69689274e-03 -1.92066116e+01
0.00000000e+00 0.00000000e+00 -3.81445084e+01
0.00000000e+00 -3.09304774e-01 -1.94242630e+01
0.00000000e+00 0.00000000e+00 -3.55600662e+01
0.00000000e+00 -7.95935631e-01 -1.76573753e+01
0.00000000e+00 0.00000000e+00 -3.20550308e+01
0.00000000e+00 -1.49886990e+00 -1.44437866e+01
0.00000000e+00 0.00000000e+00 -2.80370808e+01
0.00000000e+00 -1.80809712e+00 -8.06227589e+00
0.00000000e+00 0.00000000e+00 -1.57797432e+01
0.00000000e+00 0.00000000e+00 -4.27238007e+01
1.88490534e+00 0.00000000e+00 -2.33153229e+01
0.00000000e+00 0.00000000e+00 -3.17035675e+01
0.00000000e+00 0.00000000e+00 -2.37636986e+01
0.00000000e+00 0.00000000e+00 -1.98372650e+01
0.00000000e+00 0.00000000e+00 -2.02638054e+01
0.00000000e+00 0.00000000e+00 -1.26126194e+01
0.00000000e+00 0.00000000e+00 -3.16466637e+01
-8.77223432e-01 0.00000000e+00 -1.87368336e+01
0.00000000e+00 0.00000000e+00 -2.32901478e+01
0.00000000e+00 0.00000000e+00 -1.20289669e+01
0.00000000e+00 0.00000000e+00 -6.77011824e+00
0.00000000e+00 0.00000000e+00 0.00000000e+00
0.00000000e+00 0.00000000e+00 -8.36322689e+00
0.00000000e+00 0.00000000e+00 0.00000000e+00
0.00000000e+00 0.00000000e+00 -5.13876247e+00
0.00000000e+00 0.00000000e+00 0.00000000e+00
0.00000000e+00 0.00000000e+00 -3.28033662e+00
0.00000000e+00 0.00000000e+00 -1.22531443e+01
0.00000000e+00 0.00000000e+00 0.00000000e+00
0.00000000e+00 0.00000000e+00 2.38518453e+00
0.00000000e+00 0.00000000e+00 0.00000000e+00
0.00000000e+00 0.00000000e+00 5.31885481e+00
0.00000000e+00 0.00000000e+00 0.00000000e+00
0.00000000e+00 0.00000000e+00 3.26109767e+00
6.03667736e-01 0.00000000e+00 -1.79773903e+01
0.00000000e+00 0.00000000e+00 -2.09804764e+01
0.00000000e+00 0.00000000e+00 -3.33647423e+01
2.21685600e+00 0.00000000e+00 -2.19907913e+01
0.00000000e+00 0.00000000e+00 1.48720086e+00
0.00000000e+00 0.00000000e+00 -5.81535816e+00
0.00000000e+00 0.00000000e+00 -1.08387935e+00
0.00000000e+00 0.00000000e+00 -1.58468447e+01
8.19256082e-02 0.00000000e+00 -5.88400793e+00
0.00000000e+00 0.00000000e+00 -1.90660324e+01
0.00000000e+00 0.00000000e+00 -1.82721233e+01
0.00000000e+00 0.00000000e+00 -1.18276911e+01
0.00000000e+00 0.00000000e+00 -1.08870316e+01
0.00000000e+00 0.00000000e+00 -5.70825100e+00
0.00000000e+00 0.00000000e+00 6.11207426e-01
0.00000000e+00 0.00000000e+00 -8.57526436e-02
</DataArray>
<DataArray type="Float32" Name="Equivalent_plastic_strain" format="ascii">
6.37001987e-02
6.37831191e-02
7.52957501e-02
7.42580853e-02
4.65987867e-02
5.92355233e-02
1.27851235e-01
1.02460405e-01
9.84879527e-02
1.27567299e-01
1.45859996e-01
1.28207535e-01
0.00000000e+00
0.00000000e+00
0.00000000e+00
0.00000000e+00
0.00000000e+00
0.00000000e+00
0.00000000e+00
0.00000000e+00
9.45483930e-02
9.42147337e-02
9.39102946e-02
9.41333026e-02
1.04108069e-01
1.04749961e-01
1.06567123e-01
1.08061232e-01
9.31263790e-02
9.69277807e-02
1.01543872e-01
1.04639390e-01
9.43697523e-02
9.25219595e-02
9.60085131e-02
9.84236943e-02
9.50957648e-02
1.09494392e-01
9.04269032e-02
8.84348890e-02
9.42268651e-02
1.05365859e-01
8.42180122e-02
9.44188396e-02
9.34163220e-02
1.02827599e-01
8.23459327e-02
9.19206720e-02
9.70796822e-02
9.31051895e-02
1.16238743e-01
1.13252481e-01
1.00287076e-01
1.09383859e-01
1.31984292e-01
1.02014489e-01
1.29675826e-01
1.05533084e-01
1.27747679e-01
1.13436602e-01
1.24753118e-01
1.13552246e-01
9.57879318e-02
8.47243257e-02
1.28228365e-01
1.13940656e-01
1.23804320e-01
1.31356522e-01
1.19517170e-01
3.93239657e-02
6.79859633e-02
8.05205032e-02
5.89227024e-02
7.91695062e-02
7.99407046e-02
1.37853988e-01
9.31374794e-02
9.87027008e-02
1.66044258e-01
1.26185153e-01
8.00002553e-02
4.81293243e-02
1.09614618e-01
1.47660261e-01
1.34637030e-01
1.19612125e-01
1.17998794e-01
1.16784532e-01
1.20228115e-01
1.23783542e-01
1.11704616e-01
1.12772236e-01
1.03841679e-01
1.01964499e-01
9.52694379e-02
9.23834471e-02
8.77250340e-02
8.59857379e-02
8.72382373e-02
8.59564580e-02
1.16886855e-01
1.25639800e-01
1.01642639e-01
8.34527106e-02
6.50935467e-02
5.46080152e-02
6.46573131e-02
1.54507004e-01
1.53741454e-01
1.09907249e-01
2.28747094e-02
6.28160015e-02
4.15463882e-03
2.03411542e-01
1.96898058e-01
1.47884846e-01
1.35829934e-01
1.31022741e-01
1.75180912e-01
1.57709397e-01
1.71219636e-01
1.60241302e-01
7.04551758e-02
7.92375207e-02
-1.99059453e-02
1.32768434e-02
4.44175984e-02
1.08477771e-02
0.00000000e+00
0.00000000e+00
0.00000000e+00
0.00000000e+00
-6.18176799e-05
0.00000000e+00
0.00000000e+00
5.77369841e-05
1.24899335e-01
1.22150499e-01
1.24838088e-01
1.29564546e-01
1.16240762e-01
1.15588510e-01
1.08078919e-01
1.05041802e-01
9.98004153e-02
9.91115253e-02
9.41119045e-02
9.12257116e-02
9.62851569e-02
9.29919928e-02
1.32940464e-01
1.70169160e-01
9.44345528e-02
8.27772543e-02
4.23850765e-02
2.29972439e-02
2.07559713e-02
1.79283574e-01
1.83566764e-01
1.28374537e-01
3.73583671e-03
-2.47007812e-03
1.40210757e-02
-2.25454002e-03
1.56394505e-02
1.55859732e-03
3.35264392e-02
-8.29725852e-03
1.14382200e-01
-8.94826626e-05
2.66867608e-03
-7.02100556e-05
-2.45190868e-04
6.13659038e-04
1.08014618e-03
2.26962417e-01
2.60512531e-01
1.88765277e-01
2.31546760e-01
-6.87814913e-05
-1.45870540e-03
0.00000000e+00
1.72563821e-01
1.67787388e-01
1.78507969e-01
1.79466933e-01
3.64948858e-02
3.75183444e-02
-5.33801242e-04
1.69879335e-04
0.00000000e+00
</DataArray>
<DataArray type="Float32" Name="Stress_Mises" format="ascii">
1.89221970e+01
2.94430679e+01
6.37097397e+01
3.48247156e+01
2.42926455e+01
3.94589064e+01
4.19813335e+01
2.86771593e+01
6.13107839e+01
1.33834343e+02
1.20390210e+02
1.08197168e+02
1.71585190e+00
1.26249295e+00
2.09486943e+00
2.95637488e+00
8.27081323e-01
6.20516956e-01
1.05582118e+00
1.21826899e+00
2.78831568e+01
2.74707823e+01
2.30027253e+01
2.69015608e+01
2.26472030e+01
2.98131714e+01
2.83248019e+01
2.92870927e+01
2.20339422e+01
2.45139002e+01
2.98436720e+01
3.24774706e+01
2.29832671e+01
2.44426439e+01
2.65757203e+01
2.82101603e+01
2.09617083e+01
2.73774758e+01
2.24752285e+01
2.35763186e+01
1.65205884e+01
3.11321878e+01
1.59491991e+01
2.54147613e+01
1.57098684e+01
2.53136744e+01
1.73688583e+01
2.48224435e+01
2.58943149e+01
2.52938476e+01
3.74291303e+01
2.91106845e+01
4.50222690e+01
3.90637524e+01
1.20834886e+02
4.31693162e+01
8.92253304e+01
7.48414165e+01
6.87352686e+01
8.25913105e+01
6.00916004e+01
7.87183743e+01
2.45765937e+01
2.92551711e+01
4.27327373e+01
2.47802221e+01
1.47870249e+02
6.48567429e+01
9.58775711e+01
2.92134873e+01
2.70836274e+01
1.80070200e+01
2.78792355e+01
2.91120310e+01
2.24213734e+01
2.93586409e+01
3.73700752e+01
9.32712927e+01
1.52546875e+02
5.91722385e+01
3.99116459e+01
4.45804853e+01
4.37910128e+01
6.77583013e+01
1.28318491e+02
4.22327054e+01
2.52038288e+01
3.05004065e+01
2.99566904e+01
3.23509330e+01
3.56178346e+01
3.65750146e+01
3.69664507e+01
4.23544822e+01
3.40943635e+01
3.04626447e+01
2.26684759e+01
2.41418816e+01
2.65355091e+01
4.15141621e+01
4.93143858e+01
5.45651073e+01
4.31803688e+01
4.04206304e+01
4.25742016e+01
5.09304611e+01
5.68841451e+01
6.38351731e+01
6.58706932e+01
4.79481848e+01
3.74621809e+01
6.32384300e+01
2.14545082e+01
5.94684073e+01
4.52131557e+01
1.85310745e+02
7.69701195e+01
4.45582814e+01
1.98761674e+01
2.05872021e+01
7.37624111e+01
4.94444599e+01
6.63478909e+01
3.57864964e+01
4.70616188e+01
1.95709038e+01
2.66692443e+01
2.25916061e+01
4.21221113e+00
1.95191336e+00
3.27396774e+00
4.74938011e+00
1.34257385e+01
7.20114756e+00
5.37525153e+00
1.76111406e+01
2.91873741e+01
3.16879921e+01
2.92680098e+01
3.10045314e+01
3.88739986e+01
3.69204798e+01
4.12168741e+01
5.15207806e+01
4.06525898e+01
4.74820147e+01
3.73499107e+01
3.11702867e+01
5.24287567e+01
4.66699638e+01
4.87089586e+01
4.31104207e+01
4.60687296e+01
4.33249927e+01
2.47325411e+01
2.25821784e+01
3.02861805e+01
1.48886654e+02
1.57071045e+02
3.41349812e+01
2.16877173e+01
1.43659763e+01
2.30588295e+01
1.84926446e+01
2.44837618e+01
2.41664457e+01
6.61627941e+01
1.77388096e+01
4.98403282e+01
2.45854616e+01
1.93353972e+01
2.25575643e+01
1.82774065e+01
1.86031022e+01
2.00559635e+01
1.28297165e+02
1.91456543e+02
6.25779381e+01
3.91833611e+01
1.32594930e+01
2.26563314e+01
1.02151487e+01
2.48003676e+01
9.11726761e+00
3.40075922e+01
4.29834995e+01
3.56377711e+01
2.02783508e+01
1.60935783e+01
1.59265857e+01
5.31283712e+00
</DataArray>
<DataArray type="Float32" Name="Stress_Max_Principal" format="ascii">
2.15860079e+01
1.26339843e+01
5.85224152e+00
-2.01331377e+00
2.42358333e+01
4.38767330e+01
3.39123261e+00
1.76499890e+01
-1.65428908e+01
-8.25727673e+01
-6.13897320e+01
-5.30076618e+01
9.60741818e-01
6.80822670e-01
1.08301014e+00
1.75999558e+00
5.86058140e-01
4.95746434e-01
6.85488045e-01
8.19618642e-01
2.23789644e+00
2.94323072e+00
8.27723241e+00
3.56488425e+00
6.85857725e+00
5.11556983e-01
6.60631439e+00
1.42507944e+00
7.83010316e+00
7.97783744e+00
3.85649025e-01
1.27571309e+00
6.64717913e+00
1.48894699e+01
3.90510535e+00
6.00704867e+00
9.28968087e+00
7.60373676e+00
7.38825226e+00
2.09070447e+01
1.23766534e+01
1.56282309e+01
2.02314274e+01
1.09390309e+01
1.27092998e+01
2.45450306e+01
2.45458417e+01
1.67527705e+01
5.59553093e+00
8.19389868e+00
-3.94353718e+00
1.36205864e+00
3.26348721e+01
-4.11283012e+00
-7.28995621e+01
3.12347385e+01
-4.78234687e+01
-3.46835182e+01
-2.98810067e+01
-4.19016194e+01
-2.05388894e+01
-3.47060604e+01
6.93142823e+00
2.16810408e+01
-9.31163270e+00
5.54338333e+00
-9.11160240e+01
-1.77019842e+01
2.17879898e+02
1.84457051e+01
3.78165332e+01
1.70600263e+01
3.60793008e+01
1.23103197e+01
1.98796396e+01
3.61916104e+01
1.11362548e+01
-4.90178248e+01
-9.79499283e+01
1.53696487e+01
1.46659451e+01
9.29002237e+00
1.68110437e+01
-4.04861975e+00
-3.31445694e+01
6.73149586e+00
5.29583421e+00
2.32328534e-01
1.17841249e+00
-4.51178461e-01
-3.63320339e+00
-3.97831310e+00
-5.01058900e+00
-7.39743409e+00
-1.77688858e+00
1.88642421e+00
7.56375229e+00
1.43966780e+01
5.32859111e+00
5.81203187e+00
-8.20531979e-01
7.64958239e+00
-4.41949081e+00
2.09668695e+01
3.31824771e+01
4.20116846e+00
8.09269555e+00
-2.44559926e+01
-2.81981567e+01
3.17346365e+01
6.03384581e+01
1.45346786e+02
3.03079098e+01
-2.07048538e+01
1.19330120e+01
-1.02722298e+02
-2.37960270e+01
-9.58467734e+00
2.86200693e+01
1.19185820e+01
-2.97761565e+01
-8.82407510e+00
2.13370934e+01
3.43859444e+01
1.13649254e+02
5.74878693e+01
2.69756842e+01
2.08637441e+01
2.60232878e+00
9.51650798e-01
1.93514216e+00
2.95859122e+00
9.37009653e+00
1.90541005e+00
1.39843580e+00
8.20229197e+00
2.17897081e+00
-5.99629283e-01
2.02657294e+00
9.07520771e-01
-6.30059862e+00
-3.83684489e+00
-7.24449944e+00
-1.36673297e+01
-5.99663287e+00
-1.02567270e+01
-3.13097960e+00
3.68101496e+00
-1.28383322e+01
-6.93198037e+00
1.18956189e+01
4.92557144e+00
-1.48391367e+00
2.58895216e+01
4.15321343e+01
2.63831906e+01
2.46442579e+01
-9.30263519e+01
-1.06436028e+02
4.96765776e+01
4.39142113e+01
3.65947928e+01
3.67919989e+01
3.10902972e+01
1.70574346e+01
3.48877575e+01
7.19799218e+01
4.12665081e+01
2.15275002e+01
3.64995149e+01
2.18271383e+01
1.81336929e+01
1.45094860e+01
8.84463954e+00
7.42878270e+00
-6.83274689e+01
-1.28710464e+02
2.45834990e+01
1.65832386e+01
7.89346957e+00
3.28373960e+01
3.90542436e+00
9.91079855e+00
2.09338264e+01
1.06985855e+00
-4.82683969e+00
1.83108439e+01
3.22916937e+01
3.07305727e+01
6.86851478e+00
8.72753680e-01
</DataArray>
<DataArray type="Float32" Name="Stress_Mid_Principal" format="ascii">
1.52610067e+01
2.28209937e+00
-1.31959057e+01
-4.50151563e+00
1.63768139e+01
2.34475765e+01
-1.19722189e+01
1.20904459e+01
-2.35544251e+01
-9.33753319e+01
-8.02866023e+01
-7.79842644e+01
-3.71998362e-01
-3.66554023e-01
-1.33817803e-01
-6.34008586e-01
4.57101353e-02
-5.15547544e-02
1.13185875e-01
2.93086562e-02
1.45907092e+00
1.46728566e+00
6.23307042e+00
1.85731554e+00
5.86041021e+00
-1.46214485e-01
3.86081308e+00
-1.41367137e-01
5.95231378e+00
4.96983996e+00
4.05710936e-03
-1.48947591e+00
5.46095711e+00
9.98259506e+00
2.07535316e+00
2.59228331e+00
7.22308880e+00
4.07906711e+00
5.62000251e+00
1.40271815e+01
1.07806070e+01
8.13016462e+00
1.71156161e+01
7.05512741e+00
1.19434538e+01
1.69477472e+01
1.87726107e+01
1.01150015e+01
1.69396383e+00
3.52354705e+00
-6.50728154e+00
4.99633551e-01
1.56415613e+01
-8.24676180e+00
-8.61141441e+01
1.43051138e+01
-5.36460056e+01
-4.05649092e+01
-3.65276413e+01
-4.79631710e+01
-3.13783798e+01
-4.92510052e+01
3.08060626e+00
1.29030509e+01
-1.12039773e+01
3.85783523e+00
-1.13167966e+02
-2.93198771e+01
1.30461746e+02
7.91576544e+00
2.45373757e+01
1.38458942e+01
2.18649755e+01
6.07415080e+00
1.47519458e+01
2.12668400e+01
7.20361233e-01
-5.92370919e+01
-1.10444057e+02
-7.08450727e+00
4.32987499e+00
-1.62022829e+00
2.20208549e+00
-2.81618681e+01
-6.46500015e+01
-1.09795431e+01
2.91450554e+00
-1.08217704e+00
-1.08677545e+00
-3.63260883e+00
-5.99618411e+00
-7.31397295e+00
-6.81130356e+00
-1.38711446e+01
-5.16609263e+00
-2.39367105e+00
5.06903374e+00
8.94734120e+00
6.86220169e-01
-4.53229857e+00
-1.07319109e+01
-6.17606688e+00
-1.21371181e+01
5.69129539e+00
1.33710745e+01
-1.23005168e+01
-1.28115044e+01
-3.35218896e+01
-3.30497169e+01
9.44132884e+00
3.40293605e+01
8.37810287e+01
1.63751198e+01
-2.66571683e+01
1.15755781e+00
-1.62317444e+02
-3.45484145e+01
-1.38985244e+01
1.99186493e+01
9.41779947e+00
-4.33060653e+01
-2.20009752e+01
-1.00399418e+01
1.44419270e+01
7.10677948e+01
4.15976830e+01
5.52433950e+00
9.26133601e+00
-1.08756375e+00
-1.22639149e-01
-6.66687489e-01
-1.22945595e+00
-8.58239678e-01
-8.41031591e-01
6.79231003e-01
3.63594830e+00
-8.51746619e-01
-2.30299497e+00
-7.56731987e-01
-2.69552565e+00
-8.95741796e+00
-8.07618544e+00
-1.20332698e+01
-2.36475438e+01
-1.24144995e+01
-1.99291404e+01
-9.65543032e+00
-5.68701148e+00
-2.60344772e+01
-2.18499546e+01
-4.76418138e+00
-6.69086456e+00
-1.51314558e+01
8.55435658e+00
2.90704663e+01
1.99062471e+01
6.44440651e+00
-1.11142340e+02
-1.11501137e+02
2.55232119e+01
3.32674987e+01
2.66962308e+01
1.98487140e+01
1.91178643e+01
7.75092292e+00
2.85454793e+01
2.43638382e+01
2.79481649e+01
6.22903395e+00
1.73612698e+01
9.99227913e+00
3.29807293e+00
7.99582081e+00
4.22738388e+00
1.53589720e+00
-1.01420280e+02
-1.47392868e+02
4.68777068e+00
1.44302940e+00
2.89183924e+00
2.14106283e+01
-3.14900148e+00
3.35614204e+00
1.67726650e+01
-5.35244513e+00
-1.77124033e+01
3.48811531e+00
1.72334670e+01
2.03565917e+01
3.49938026e+00
-4.12493246e-04
</DataArray>
<DataArray type="Float32" Name="Stress_Min_Principal" format="ascii">
1.15457034e+00
-1.97619010e+01
-6.21702318e+01
-3.79151793e+01
-1.31093520e+00
1.30150822e+00
-4.36984120e+01
-1.18676057e+01
-8.09992495e+01
-2.21473228e+02
-1.89639047e+02
-1.71095518e+02
-9.75271434e-01
-7.00649798e-01
-1.33564511e+00
-1.51255059e+00
-3.66084784e-01
-1.78388059e-01
-5.32924235e-01
-5.83374023e-01
-2.60258560e+01
-2.52345229e+01
-1.55131210e+01
-2.41409391e+01
-1.62708139e+01
-2.96246221e+01
-2.23736169e+01
-2.86118231e+01
-1.50785502e+01
-1.75972791e+01
-2.96464987e+01
-3.21847610e+01
-1.68996336e+01
-1.02805294e+01
-2.35324368e+01
-2.33735018e+01
-1.25569284e+01
-2.08827562e+01
-1.59180577e+01
-3.69131112e+00
-4.88201857e+00
-1.67427495e+01
3.83651829e+00
-1.54135835e+01
-3.36412573e+00
-1.77877951e+00
6.39088917e+00
-9.72132254e+00
-2.19694642e+01
-1.88539670e+01
-4.24321008e+01
-2.81279907e+01
-1.47047605e+01
-4.47452521e+01
-1.99355058e+02
-1.47858647e+01
-1.39810753e+02
-1.12162670e+02
-1.01695747e+02
-1.27322840e+02
-8.53123894e+01
-1.19682304e+02
-1.92409943e+01
-8.59318471e+00
-5.28796263e+01
-2.00020556e+01
-2.48726742e+02
-8.68911057e+01
1.15340057e+02
-1.32434555e+01
9.94859879e+00
-1.57919693e+00
6.60821279e+00
-1.81272373e+01
-3.33796406e+00
4.55060387e+00
-2.90022729e+01
-1.46786936e+02
-2.56323883e+02
-4.84833759e+01
-2.67341805e+01
-3.76827412e+01
-2.95421276e+01
-7.88756895e+01
-1.71036688e+02
-4.06603209e+01
-2.10141335e+01
-3.08920673e+01
-2.98449333e+01
-3.42738051e+01
-4.03727462e+01
-4.21060894e+01
-4.28442705e+01
-5.25928556e+01
-3.74371197e+01
-3.04437021e+01
-1.62432620e+01
-1.11556450e+01
-2.32182642e+01
-3.87244840e+01
-5.30088732e+01
-4.92165442e+01
-5.05761910e+01
-2.26974810e+01
-1.24133312e+01
-5.14620304e+01
-5.46874224e+01
-9.22411966e+01
-9.63456383e+01
-2.07216169e+01
1.89141890e+01
8.05588913e+01
7.19703665e+00
-8.24339976e+01
-3.55094897e+01
-3.10144394e+02
-1.03748835e+02
-5.60637569e+01
7.44376242e+00
-9.47602654e+00
-1.09316209e+02
-6.33388151e+01
-5.36888294e+01
-5.64026743e+00
6.31196632e+01
3.56270752e+01
-2.43669188e+00
-3.32820034e+00
-1.98692846e+00
-1.30141723e+00
-1.74100482e+00
-2.20166922e+00
-5.12594519e+00
-5.89464223e+00
-4.28895009e+00
-1.11677459e+01
-2.84055099e+01
-3.30987444e+01
-2.85289465e+01
-3.17400088e+01
-4.64194279e+01
-4.26693945e+01
-5.06440926e+01
-6.94090433e+01
-4.94465723e+01
-6.18234909e+01
-4.33130150e+01
-3.10560352e+01
-7.06044693e+01
-5.92304993e+01
-4.05099058e+01
-4.13507710e+01
-5.23136253e+01
-2.13623581e+01
1.44485893e+01
2.40244222e+00
-1.00625267e+01
-2.50041878e+02
-2.65978363e+02
1.21791037e+01
2.04781275e+01
2.02129304e+01
1.07880106e+01
1.05527153e+01
-1.04363983e+01
8.47960472e+00
-3.51301956e+00
2.11638412e+01
-3.41688576e+01
9.15282822e+00
-4.16288217e-01
-7.64599460e+00
-5.98781122e+00
-1.16091814e+01
-1.47847857e+01
-2.09929108e+02
-3.28823334e+02
-3.98555387e+01
-2.72485771e+01
-6.56645477e+00
7.34657637e+00
-7.76428699e+00
-1.74425869e+01
1.04783955e+01
-3.56793275e+01
-5.27781830e+01
-2.12769928e+01
9.26039696e+00
1.35103328e+01
-1.04262638e+01
-4.82257700e+00
</DataArray>
<DataArray type="Float32" Name="Stress_Pressure" format="ascii">
-1.26671946e+01
1.61527324e+00
2.31712999e+01
1.48100038e+01
-1.31005704e+01
-2.28752741e+01
1.74264665e+01
-5.95760942e+00
4.03655212e+01
1.32473778e+02
1.10438463e+02
1.00695816e+02
1.28842637e-01
1.28793724e-01
1.28817596e-01
1.28854562e-01
-8.85611549e-02
-8.86012018e-02
-8.85832161e-02
-8.85177627e-02
7.44296265e+00
6.94133544e+00
3.34272444e-01
6.23957968e+00
1.18394184e+00
9.75309367e+00
3.96882944e+00
9.10937023e+00
4.32044551e-01
1.54986706e+00
9.75226402e+00
1.07995084e+01
1.59716588e+00
-4.86384496e+00
5.85065961e+00
4.92472315e+00
-1.31861353e+00
3.06665081e+00
9.69934165e-01
-1.04143051e+01
-6.09174702e+00
-2.33854890e+00
-1.37278543e+01
-8.60191301e-01
-7.09620935e+00
-1.32379996e+01
-1.65697792e+01
-5.71548359e+00
4.89332332e+00
2.37884027e+00
1.76276402e+01
8.75543219e+00
-1.11905584e+01
1.90349481e+01
1.19456258e+02
-1.02513286e+01
8.04267435e+01
6.24703676e+01
5.60347967e+01
7.23958769e+01
4.57432213e+01
6.78797913e+01
3.07631969e+00
-8.66363692e+00
2.44650785e+01
3.53361225e+00
1.51003576e+02
4.46376568e+01
-1.54560562e+02
-4.37267240e+00
-2.41008361e+01
-9.77557510e+00
-2.15174955e+01
-8.57453346e-02
-1.04312068e+01
-2.06696840e+01
5.71521902e+00
8.50139492e+01
1.54905952e+02
1.33994123e+01
2.57945251e+00
1.00043144e+01
3.50966644e+00
3.70287266e+01
8.96104215e+01
1.49694564e+01
4.26793098e+00
1.05806385e+01
9.91776516e+00
1.27858636e+01
1.66673780e+01
1.77994586e+01
1.82220547e+01
2.46204779e+01
1.47933661e+01
1.03169829e+01
1.20349216e+00
-4.06279097e+00
5.73448420e+00
1.24815844e+01
2.15204384e+01
1.59143438e+01
2.23775997e+01
-1.32022935e+00
-1.13800735e+01
1.98537931e+01
1.98020770e+01
5.00730256e+01
5.25311693e+01
-6.81811579e+00
-3.77606691e+01
-1.03228905e+02
-1.79600221e+01
4.32653394e+01
7.47297287e+00
1.91728043e+02
5.40310915e+01
2.65156531e+01
-1.86608263e+01
-3.95345116e+00
6.07994785e+01
3.13879551e+01
1.41305596e+01
-1.43958673e+01
-8.26122360e+01
-4.49042091e+01
-1.00211103e+01
-8.93229326e+00
1.57387808e-01
1.57468542e-01
1.57516718e-01
1.57511339e-01
-1.12863715e+00
1.61008789e+00
7.37094402e-01
-2.23498106e-01
9.02609539e+00
1.20004566e+01
9.08636844e+00
1.11760039e+01
2.05591488e+01
1.81941411e+01
2.33072875e+01
3.55746388e+01
2.26192341e+01
3.06697867e+01
1.86998081e+01
1.10206777e+01
3.64924240e+01
2.93374777e+01
1.11261578e+01
1.43720226e+01
2.29763310e+01
-4.36050797e+00
-2.83503971e+01
-1.62306266e+01
-7.00871372e+00
1.51403522e+02
1.61305176e+02
-2.91262978e+01
-3.25532792e+01
-2.78346515e+01
-2.24762417e+01
-2.02536255e+01
-4.79065314e+00
-2.39709473e+01
-3.09435806e+01
-3.01261721e+01
2.13744068e+00
-2.10045371e+01
-1.04677095e+01
-4.59525710e+00
-5.50583160e+00
-4.87613797e-01
1.94003522e+00
1.26558952e+02
2.01642227e+02
3.52808952e+00
3.07410240e+00
-1.40628475e+00
-2.05315334e+01
2.33595467e+00
1.39188290e+00
-1.60616283e+01
1.33206377e+01
2.51058083e+01
-1.73988342e-01
-1.95951853e+01
-2.15324997e+01
1.94563270e-02
1.31674516e+00
</DataArray>
<DataArray type="Float32" Name="Stress_Tresca" format="ascii">
2.04314375e+01
3.23958846e+01
6.80224733e+01
3.59018655e+01
2.55467683e+01
4.25752242e+01
4.70896444e+01
2.95175948e+01
6.44563584e+01
1.38900459e+02
1.28249315e+02
1.18087852e+02
1.93601334e+00
1.38147247e+00
2.41865528e+00
3.27254629e+00
9.52142954e-01
6.74134493e-01
1.21841228e+00
1.40299273e+00
2.82637539e+01
2.81777530e+01
2.37903540e+01
2.77058239e+01
2.31293917e+01
3.01361790e+01
2.89799311e+01
3.00369029e+01
2.29086533e+01
2.55751168e+01
3.00321476e+01
3.34604743e+01
2.35468123e+01
2.51699995e+01
2.74375424e+01
2.93805504e+01
2.18466098e+01
2.84864931e+01
2.33063092e+01
2.45983555e+01
1.72586722e+01
3.23709800e+01
1.63949089e+01
2.63526144e+01
1.60734258e+01
2.63238101e+01
1.81549530e+01
2.64740934e+01
2.75649949e+01
2.70478654e+01
3.84885638e+01
2.94900489e+01
4.73396331e+01
4.06324222e+01
1.26455498e+02
4.60206037e+01
9.19872856e+01
7.74791519e+01
7.18147392e+01
8.54212189e+01
6.47735004e+01
8.49762421e+01
2.61724221e+01
3.02742257e+01
4.35679934e+01
2.55454392e+01
1.57610716e+02
6.91891212e+01
1.02539841e+02
3.16891600e+01
2.78679346e+01
1.86392229e+01
2.94710884e+01
3.04375567e+01
2.32176032e+01
3.16410067e+01
4.01385281e+01
9.77691102e+01
1.58373955e+02
6.38530243e+01
4.14001255e+01
4.69727650e+01
4.63531723e+01
7.48270712e+01
1.37892119e+02
4.73918158e+01
2.63099680e+01
3.11243958e+01
3.10233459e+01
3.38226275e+01
3.67395420e+01
3.81277759e+01
3.78336816e+01
4.51954217e+01
3.56602311e+01
3.23301265e+01
2.38070142e+01
2.55523231e+01
2.85468554e+01
4.45365157e+01
5.21883404e+01
5.68661261e+01
4.61567004e+01
4.36643519e+01
4.55958086e+01
5.56631997e+01
6.27801183e+01
6.77852055e+01
6.81474813e+01
5.24562537e+01
4.14242687e+01
6.47878952e+01
2.31108730e+01
6.17291427e+01
4.74425011e+01
2.07422096e+02
7.99528077e+01
4.64790802e+01
2.11763070e+01
2.13946085e+01
7.95400543e+01
5.45147390e+01
7.50259218e+01
4.00262117e+01
5.05295906e+01
2.18607941e+01
2.94123759e+01
2.41919448e+01
4.58925724e+00
2.25306797e+00
3.67614698e+00
5.16026020e+00
1.44960420e+01
7.80005232e+00
5.68738580e+00
1.93700380e+01
3.05844803e+01
3.24991150e+01
3.05555196e+01
3.26475291e+01
4.01188297e+01
3.88325496e+01
4.33995934e+01
5.57417135e+01
4.34499397e+01
5.15667629e+01
4.01820354e+01
3.47370496e+01
5.77661362e+01
5.22985191e+01
5.24055243e+01
4.62763443e+01
5.08297119e+01
4.72518787e+01
2.70835447e+01
2.39807479e+01
3.47067852e+01
1.57015526e+02
1.59542328e+02
3.74974734e+01
2.34360843e+01
1.63818622e+01
2.60039878e+01
2.05375819e+01
2.74938326e+01
2.64081526e+01
7.54929428e+01
2.01026669e+01
5.56963577e+01
2.73466873e+01
2.22434266e+01
2.57796874e+01
2.04972968e+01
2.04538212e+01
2.22135687e+01
1.41601639e+02
2.00112869e+02
6.44390386e+01
4.38318157e+01
1.44599241e+01
2.54908193e+01
1.16697111e+01
2.73533859e+01
1.04554310e+01
3.67491856e+01
4.79513435e+01
3.95878353e+01
2.30312977e+01
1.72202396e+01
1.72947788e+01
5.69533062e+00
</DataArray>
<DataArray type="Float32" Name="Stress_Third_Invariant" format="ascii">
-1.04228426e+01
-2.00089972e+01
-3.98987856e+01
-3.37546848e+01
-1.08102975e+01
-2.01307913e+00
-2.60679513e+01
-1.86954435e+01
-6.02117012e+01
-1.32824200e+02
-1.15163659e+02
-9.95660400e+01
1.44661790e+00
1.08884063e+00
-8.30467343e-02
2.53377485e+00
5.07675588e-01
5.90286434e-01
-4.97609824e-01
7.32261419e-01
-2.78566895e+01
-2.73775694e+01
-2.18249613e+01
-2.67523532e+01
-2.25964460e+01
-2.97955327e+01
-2.49471714e+01
-2.91866171e+01
-2.18400986e+01
-2.27136763e+01
-2.98367076e+01
-3.06032738e+01
-2.28942966e+01
-1.74884590e+01
-2.64155588e+01
-2.55624644e+01
-2.02930289e+01
-2.40485440e+01
-2.23154252e+01
-1.27998644e+01
-1.63395246e+01
-1.97642969e+01
-1.01851311e+01
-2.08351183e+01
-1.56514821e+01
-1.07236019e+01
-7.67335081e+00
-1.65169017e+01
-2.49798282e+01
-2.29192862e+01
-3.63244220e+01
-2.88977184e+01
-1.42424440e+01
-3.70882323e+01
-1.17768108e+02
-1.48302358e+01
-8.87759132e+01
-7.39115726e+01
-6.79991627e+01
-8.19847183e+01
-5.78300991e+01
-7.56050701e+01
-2.35027924e+01
-1.42907606e+01
-4.21598920e+01
-2.45279948e+01
-1.43946539e+02
-5.48830828e+01
9.31379013e+01
-1.72451172e+01
-1.55468014e+00
-1.34040030e+01
-1.50500649e+00
-2.12449716e+01
-1.30069928e+01
-4.01141248e+00
-2.55817332e+01
-9.13860345e+01
-1.51279305e+02
-3.10716881e+01
-2.36297145e+01
-2.98222487e+01
-2.40877266e+01
-4.70271645e+01
-1.02854301e+02
-2.45873896e+01
-2.49488106e+01
-3.04002726e+01
-2.97580742e+01
-3.19915603e+01
-3.54379525e+01
-3.62279111e+01
-3.68669229e+01
-4.11436634e+01
-3.37055359e+01
-2.94433882e+01
-2.23388312e+01
-1.79738127e+01
-2.55858345e+01
-3.11806674e+01
-3.90606894e+01
-3.45236444e+01
-3.94059958e+01
-1.91808383e+01
-1.14348723e+01
-3.53190069e+01
-3.55325216e+01
-6.20451811e+01
-6.54206676e+01
-1.45917999e+01
8.92591015e+00
6.30533333e+01
7.64299421e+00
-5.53776222e+01
-2.83799407e+01
-1.59820496e+02
-6.65146726e+01
-4.38322348e+01
-6.45268786e+00
-1.80526197e+01
-7.07070732e+01
-4.38585769e+01
-3.66556296e+01
-7.71690822e+00
4.55147095e+01
1.73370762e+01
1.96397008e+01
-4.26468468e+00
3.98751044e+00
-8.41824055e-01
2.83467650e+00
4.51728439e+00
5.57589493e+00
-3.76329374e+00
-5.22887969e+00
-1.59233584e+01
-2.88301792e+01
-3.15659027e+01
-2.89533571e+01
-3.05247054e+01
-3.86218681e+01
-3.62890122e+01
-4.05760231e+01
-4.91403084e+01
-3.93906441e+01
-4.51612563e+01
-3.60334320e+01
-2.75497458e+01
-4.84765091e+01
-4.07316036e+01
-2.92489119e+01
-3.21713324e+01
-3.74669673e+01
-1.67052516e+01
-3.35449505e+00
-1.07451277e+01
-5.37894917e+00
-1.46060341e+02
-1.56887131e+02
1.42611663e+01
-1.71485251e+00
9.09201372e+00
1.38074005e+01
4.80170810e+00
-1.73435812e+01
-2.07351179e+01
4.97356815e+01
1.41772366e+01
-4.40743523e+01
1.89766541e+01
6.09766785e+00
6.68499112e+00
-1.42329929e+01
-1.71491351e+01
-1.73169222e+01
-1.18108589e+02
-1.89389542e+02
-2.49443652e+01
-2.21848326e+01
-6.30298877e+00
2.90843137e+00
6.79286265e+00
-2.22301112e+01
-6.39163256e+00
-3.25600433e+01
-3.82571964e+01
-1.98094125e+01
1.59981751e+01
2.16317749e+00
-1.49181180e+01
-5.14768219e+00
</DataArray>
<DataArray type="Float32" Name="Logarithmic_strain_Max_Principal" format="ascii">
4.67934627e-02
5.43966522e-02
6.21312996e-02
4.72170766e-02
5.17261834e-02
6.71936848e-02
9.01707672e-02
6.13502013e-02
6.31773202e-02
7.40475282e-02
9.98981372e-02
1.05327215e-01
2.51566362e-05
1.81367595e-05
2.68850063e-05
4.34911599e-05
1.31926572e-05
1.12637244e-05
1.57418672e-05
1.81517462e-05
5.76673765e-02
5.93220294e-02
6.23230734e-02
5.98806553e-02
6.96632788e-02
6.74760342e-02
6.91804215e-02
7.10251350e-02
6.33352110e-02
6.60570855e-02
6.36484576e-02
6.65570782e-02
6.45397939e-02
6.87588518e-02
6.31762901e-02
6.37879274e-02
6.78991657e-02
7.24196490e-02
6.05556332e-02
6.33777035e-02
6.58263061e-02
6.90999702e-02
5.41831004e-02
6.27256134e-02
6.38689920e-02
6.97126295e-02
5.66397253e-02
6.46630460e-02
7.06388960e-02
6.90743197e-02
7.42239570e-02
7.03928191e-02
6.52796003e-02
7.34372344e-02
8.76131803e-02
6.75195307e-02
8.39312058e-02
7.01055259e-02
8.13806895e-02
7.26858377e-02
8.34819824e-02
7.53842257e-02
6.91851702e-02
6.25500018e-02
8.15405356e-02
7.08521958e-02
9.72706657e-02
9.30298209e-02
1.53561786e-01
6.10016212e-02
5.08953642e-02
5.37641151e-02
7.34010475e-02
7.40725212e-02
5.18984888e-02
8.13251180e-02
8.52645896e-02
6.90613585e-02
9.74691957e-02
9.63655621e-02
5.68799730e-02
8.21465440e-02
8.71099457e-02
1.14015197e-01
1.10454912e-01
1.06554970e-01
8.46572779e-02
7.88817015e-02
8.43581241e-02
8.86823684e-02
7.19940457e-02
7.79405320e-02
6.82255998e-02
7.17312489e-02
6.37826053e-02
6.41583847e-02
6.08394770e-02
5.78393252e-02
6.41994737e-02
6.18379209e-02
9.71667841e-02
9.77548286e-02
8.33929377e-02
6.58815699e-02
5.43460553e-02
5.13594933e-02
5.31663547e-02
1.06600285e-01
1.06252675e-01
9.01970603e-02
5.56204726e-02
9.08133090e-02
2.47308422e-02
1.15544206e-01
1.21760537e-01
1.23440411e-01
1.16586601e-01
1.15120664e-01
1.14114011e-01
1.00159820e-01
1.14713304e-01
1.28033003e-01
9.29317195e-02
9.03594512e-02
1.54775038e-01
7.63914585e-02
5.58684776e-02
4.33584024e-02
6.39107238e-05
2.50605517e-05
4.84907287e-05
7.23749035e-05
2.00661641e-04
6.60676087e-05
4.11844958e-05
2.59745614e-04
9.00623053e-02
8.32688287e-02
9.18313358e-02
9.70768146e-02
7.52292611e-02
8.23886972e-02
7.66816176e-02
7.74640311e-02
7.37158731e-02
7.09419884e-02
6.99217506e-02
6.71129897e-02
7.78044760e-02
7.02803601e-02
1.05054103e-01
1.07375067e-01
9.31696352e-02
6.86033079e-02
4.69777081e-02
4.09671543e-02
4.02489025e-02
1.14698220e-01
1.19133420e-01
8.82186840e-02
3.78718409e-02
9.89747688e-03
1.81136473e-02
7.39369720e-03
1.76755424e-02
9.15288460e-03
6.55962583e-02
1.75479362e-02
8.38182271e-02
3.57897909e-03
2.75494650e-03
5.42145874e-04
2.86937142e-04
7.89640115e-04
9.24736545e-04
1.77609071e-01
1.58068389e-01
1.30411235e-01
1.52489550e-01
1.49991683e-04
1.65808197e-02
1.22528571e-04
1.34388767e-01
1.29218638e-01
1.15019824e-01
1.35071035e-01
6.46043792e-02
8.26264694e-02
2.18797587e-02
2.82885834e-04
3.53548166e-05
</DataArray>
<DataArray type="Float32" Name="Logarithmic_strain_Min_Principal" format="ascii">
-6.32825657e-02
-7.03872000e-02
-8.87946021e-02
-7.51072001e-02
-7.54165258e-02
-8.89513748e-02
-1.11814570e-01
-8.54116194e-02
-9.97967236e-02
-1.27493009e-01
-1.39469713e-01
-1.44236133e-01
-2.18913592e-05
-1.61651283e-05
-2.98467576e-05
-3.61019311e-05
-1.02545473e-05
-5.70140492e-06
-1.32311206e-05
-1.53651490e-05
-9.48152728e-02
-9.48374905e-02
-9.36903069e-02
-9.48460139e-02
-1.04034934e-01
-1.05124867e-01
-1.06710445e-01
-1.08305037e-01
-9.29355323e-02
-9.68396729e-02
-1.02401799e-01
-1.05456394e-01
-9.38036218e-02
-9.98917138e-02
-9.64529049e-02
-9.90266930e-02
-9.45765637e-02
-1.06979258e-01
-9.03134514e-02
-9.20263203e-02
-9.40232296e-02
-1.05761889e-01
-8.37623850e-02
-9.39399777e-02
-9.32948925e-02
-1.02666365e-01
-8.15598071e-02
-9.21996795e-02
-9.67246601e-02
-9.20671187e-02
-1.17361985e-01
-1.13627652e-01
-1.06208957e-01
-1.11987721e-01
-1.40089747e-01
-1.01135658e-01
-1.34813037e-01
-1.08907251e-01
-1.28956651e-01
-1.17137147e-01
-1.25521496e-01
-1.15908567e-01
-9.18149097e-02
-8.44765417e-02
-1.25089666e-01
-1.14041949e-01
-1.37881391e-01
-1.36320387e-01
-1.33701995e-01
-7.07699272e-02
-7.45082051e-02
-7.55523751e-02
-1.07102934e-01
-1.08414376e-01
-7.58263040e-02
-1.14344655e-01
-1.13441978e-01
-1.04676452e-01
-1.53126597e-01
-1.28964539e-01
-8.19666460e-02
-1.09540079e-01
-1.20641086e-01
-1.44156009e-01
-1.46831187e-01
-1.23619589e-01
-1.17089611e-01
-1.16631262e-01
-1.20133877e-01
-1.23123873e-01
-1.12476552e-01
-1.13152354e-01
-1.04976976e-01
-1.02931801e-01
-9.59761888e-02
-9.13102999e-02
-8.74043964e-02
-8.41043042e-02
-8.66848677e-02
-8.62884317e-02
-1.30298948e-01
-1.37783296e-01
-1.12329860e-01
-8.45308397e-02
-7.11461997e-02
-6.54425509e-02
-6.65533481e-02
-1.46335828e-01
-1.49097664e-01
-1.12405779e-01
-5.24517155e-02
-8.89425725e-02
-1.59957136e-02
-1.72468092e-01
-1.73463787e-01
-1.57086208e-01
-1.73942596e-01
-1.69874996e-01
-1.62909105e-01
-1.57617204e-01
-1.69157326e-01
-1.61013816e-01
-1.10808268e-01
-9.92162544e-02
-8.39764699e-02
-5.52586727e-02
-3.40713102e-02
-4.48705428e-02
-4.63996075e-05
-2.99434669e-05
-3.92412949e-05
-5.10652535e-05
-1.51323676e-04
-1.21808819e-04
-9.44967651e-05
-3.57058549e-04
-1.23907030e-01
-1.22239228e-01
-1.23323860e-01
-1.27834216e-01
-1.17168151e-01
-1.15379944e-01
-1.08532108e-01
-1.06494365e-01
-9.99103561e-02
-9.51925498e-02
-9.40937512e-02
-8.40017945e-02
-9.60938931e-02
-8.52016658e-02
-1.40533011e-01
-1.52293697e-01
-1.11207440e-01
-8.12470391e-02
-5.56976208e-02
-4.36449656e-02
-4.16782908e-02
-1.87118173e-01
-2.02771664e-01
-1.05045331e-01
-3.00253448e-02
-3.42493932e-03
-1.11851216e-02
-3.05866028e-03
-1.55684350e-02
-8.36872892e-03
-4.46016639e-02
-8.98577506e-03
-1.22206971e-01
-3.02261609e-03
-3.30170384e-03
-3.22174114e-04
-2.23423180e-04
-1.01114649e-03
-1.49563476e-03
-2.55773425e-01
-2.69097954e-01
-1.91423540e-01
-2.02797100e-01
-1.38061673e-04
-8.71163202e-03
-1.57651415e-04
-1.75437585e-01
-1.64600357e-01
-1.69805489e-01
-1.65781640e-01
-6.83094263e-02
-7.73206819e-02
-2.46524006e-02
-4.50208499e-04
-1.00973775e-04
</DataArray>
<DataArray type="Float32" Name="Plastic_strain_Max_Principal" format="ascii">
4.63918499e-02
5.51596703e-02
5.22165755e-02
4.73931357e-02
5.96534568e-02
6.56702471e-02
1.00445356e-01
7.35372454e-02
6.89699575e-02
8.07124116e-02
1.17700160e-01
1.00181106e-01
0.00000000e+00
0.00000000e+00
0.00000000e+00
0.00000000e+00
0.00000000e+00
0.00000000e+00
0.00000000e+00
0.00000000e+00
5.76540157e-02
5.90850739e-02
6.22001034e-02
5.95881930e-02
6.94187135e-02
6.73627146e-02
6.89630816e-02
7.08729811e-02
6.30838675e-02
6.58094068e-02
6.34051207e-02
6.65230937e-02
6.43997202e-02
6.28415835e-02
6.29274184e-02
6.35092603e-02
6.74780831e-02
7.40620289e-02
6.04145229e-02
5.99879646e-02
6.53062072e-02
6.85086912e-02
5.38507029e-02
6.30181087e-02
6.33679703e-02
6.90241251e-02
5.63191753e-02
6.39428776e-02
6.99543552e-02
6.89834971e-02
7.43278302e-02
7.02562612e-02
6.59783663e-02
7.33330725e-02
9.17750478e-02
7.16864073e-02
8.40459224e-02
7.22913459e-02
8.26829597e-02
7.34196212e-02
8.42398964e-02
7.61813559e-02
7.14019484e-02
6.15780624e-02
8.43636628e-02
7.06915511e-02
9.89708900e-02
9.45119008e-02
1.38001949e-01
9.28437263e-02
4.61953473e-02
5.65131940e-02
7.84970708e-02
6.43318528e-02
5.46471421e-02
9.72905654e-02
6.98097735e-02
7.18766935e-02
1.13933381e-01
9.79245454e-02
5.51060047e-02
7.20546320e-02
7.81776905e-02
1.19420640e-01
1.10852008e-01
1.06006307e-01
8.43840316e-02
7.87759908e-02
8.41029026e-02
8.85831304e-02
7.19196219e-02
7.78579898e-02
6.80893511e-02
7.13672955e-02
6.36970960e-02
6.53492743e-02
6.07466493e-02
5.94317396e-02
6.41354211e-02
6.17707102e-02
9.61767845e-02
8.87228195e-02
7.67534159e-02
6.43334051e-02
5.18651347e-02
4.18371257e-02
5.14714420e-02
1.14473164e-01
1.10391796e-01
8.90846352e-02
2.76024132e-02
7.66229779e-02
2.56462924e-02
1.40466888e-01
1.42250968e-01
1.26382463e-01
1.03396187e-01
1.00286435e-01
1.23226376e-01
1.00657467e-01
1.23944223e-01
1.29977986e-01
7.96026224e-02
7.17021697e-02
3.65072414e-02
3.01978868e-02
6.51542713e-02
3.75474210e-02
0.00000000e+00
0.00000000e+00
0.00000000e+00
0.00000000e+00
3.45070564e-05
0.00000000e+00
0.00000000e+00
6.84112601e-05
8.98886323e-02
8.30751136e-02
9.17444900e-02
9.69600715e-02
7.51918964e-02
8.23097173e-02
7.65872970e-02
7.66205676e-02
7.35479258e-02
7.53004625e-02
6.97914138e-02
7.41271470e-02
7.75497258e-02
7.68452510e-02
9.99924559e-02
1.20595403e-01
7.52254673e-02
6.88521350e-02
3.91165921e-02
2.47621958e-02
2.63532130e-02
1.18217330e-01
1.14829883e-01
1.12507207e-01
2.34783161e-02
9.62046813e-03
1.82839662e-02
6.83154962e-03
1.86527231e-02
5.10822912e-03
4.14801612e-02
3.18029718e-02
9.33971629e-02
2.94901839e-03
2.69774973e-03
1.99639102e-04
1.56705910e-04
5.83905028e-04
7.24056794e-04
1.64205521e-01
1.65735587e-01
1.29601461e-01
1.77510649e-01
5.85495603e-05
6.06594831e-03
0.00000000e+00
1.32023364e-01
1.28663436e-01
1.27453037e-01
1.47355199e-01
5.73857874e-02
5.50543442e-02
1.07710432e-02
1.32016765e-04
0.00000000e+00
</DataArray>
<DataArray type="Float32" Name="Plastic_strain_Min_Principal" format="ascii">
-6.34061340e-02
-6.63098849e-02
-7.11630890e-02
-7.46105555e-02
-6.63368951e-02
-7.67579538e-02
-1.32383019e-01
-1.07763175e-01
-1.05851311e-01
-1.31695777e-01
-1.66712975e-01
-1.25796214e-01
0.00000000e+00
0.00000000e+00
0.00000000e+00
0.00000000e+00
0.00000000e+00
0.00000000e+00
0.00000000e+00
0.00000000e+00
-9.46299993e-02
-9.42449346e-02
-9.37825143e-02
-9.41817407e-02
-1.03882615e-01
-1.04596131e-01
-1.06410531e-01
-1.07794151e-01
-9.28137451e-02
-9.66107845e-02
-1.01556022e-01
-1.04899581e-01
-9.38428342e-02
-8.94120859e-02
-9.59794428e-02
-9.86318719e-02
-9.42794215e-02
-1.10393044e-01
-9.03322864e-02
-8.69391803e-02
-9.37353801e-02
-1.05198316e-01
-8.42444301e-02
-9.48211644e-02
-9.30738300e-02
-1.02521326e-01
-8.22366029e-02
-9.15839169e-02
-9.56775825e-02
-9.21606477e-02
-1.16508137e-01
-1.13143161e-01
-1.05885761e-01
-1.09133507e-01
-1.38744012e-01
-1.06783997e-01
-1.29319990e-01
-1.10215473e-01
-1.27898160e-01
-1.13687102e-01
-1.24246169e-01
-1.13356438e-01
-9.60956354e-02
-8.34831763e-02
-1.29968303e-01
-1.13672094e-01
-1.34502530e-01
-1.34868704e-01
-1.62088141e-01
-9.20786162e-02
-6.71875383e-02
-8.13093605e-02
-8.41767881e-02
-8.06587350e-02
-8.14300459e-02
-1.46034893e-01
-8.51400904e-02
-1.04722036e-01
-1.75126787e-01
-1.28328846e-01
-7.91794211e-02
-6.80257472e-02
-1.06798168e-01
-1.51091116e-01
-1.47025188e-01
-1.25912031e-01
-1.16759147e-01
-1.16152273e-01
-1.19374358e-01
-1.22515462e-01
-1.11573080e-01
-1.12068030e-01
-1.03767501e-01
-1.01150592e-01
-9.51364581e-02
-9.27133476e-02
-8.73472840e-02
-8.69543394e-02
-8.63395520e-02
-8.59892592e-02
-1.21245990e-01
-1.19835658e-01
-1.00054842e-01
-8.18802571e-02
-6.69918872e-02
-5.24159210e-02
-6.41002518e-02
-1.55017763e-01
-1.53034121e-01
-1.08637150e-01
-2.17375388e-02
-8.70442241e-02
-1.35570772e-02
-2.14464407e-01
-2.07497244e-01
-1.50226854e-01
-1.36862552e-01
-1.34950581e-01
-1.82738766e-01
-1.59259677e-01
-1.76653426e-01
-1.60546586e-01
-9.00603987e-02
-7.51246885e-02
-3.12384274e-02
-1.45164439e-02
-3.82186970e-02
-3.56570427e-02
0.00000000e+00
0.00000000e+00
0.00000000e+00
0.00000000e+00
-5.26663433e-05
0.00000000e+00
0.00000000e+00
-9.15980296e-05
-1.23457253e-01
-1.21482376e-01
-1.22992549e-01
-1.27330638e-01
-1.16037253e-01
-1.14357710e-01
-1.07186507e-01
-1.03277570e-01
-9.84639898e-02
-9.96518023e-02
-9.29167382e-02
-9.20292418e-02
-9.37951431e-02
-9.29661579e-02
-1.28248278e-01
-1.75796159e-01
-8.40993029e-02
-8.14776057e-02
-4.36717932e-02
-2.34179640e-02
-2.19585011e-02
-1.81262910e-01
-1.80299178e-01
-1.36271802e-01
-1.62073525e-02
-5.03369047e-03
-1.19868727e-02
-3.79179518e-03
-1.65446614e-02
-4.76741104e-03
-2.93584317e-02
-1.97841865e-02
-1.33021221e-01
-2.90262176e-03
-3.39558468e-03
-1.50395444e-04
-1.58996782e-04
-7.30050204e-04
-1.16700109e-03
-2.18614653e-01
-2.61492342e-01
-1.89081738e-01
-2.41439663e-01
-4.43834981e-05
-3.29293866e-03
0.00000000e+00
-1.70029826e-01
-1.64852560e-01
-1.87454887e-01
-1.80925049e-01
-4.60171103e-02
-3.68359652e-02
-5.96590844e-03
-2.00402021e-04
0.00000000e+00
</DataArray>
</PointData>
<Cells>
<DataArray type="Int32" Name="connectivity" format="ascii">
0 1 2 3 4 5 6 7
1 8 9 2 5 10 11 6
12 13 14 15 16 17 18 19
20 21 22 23 24 25 26 27
21 28 29 22 25 30 31 26
28 32 33 29 30 34 35 31
32 36 37 33 34 38 39 35
36 40 41 37 38 42 43 39
40 44 45 41 42 46 47 43
23 22 48 49 27 26 50 51
22 29 52 48 26 31 53 50
29 33 54 52 31 35 55 53
33 37 56 54 35 39 57 55
37 41 58 56 39 43 59 57
41 45 60 58 43 47 61 59
49 48 62 63 51 50 64 65
48 52 66 62 50 53 67 64
52 54 68 66 53 55 69 67
63 62 70 71 65 64 72 73
71 70 4 74 73 72 75 76
70 77 5 4 72 78 79 75
74 4 7 80 76 75 81 82
4 5 6 7 75 79 83 81
5 10 11 6 79 84 85 83
24 25 26 27 86 87 88 89
25 30 31 26 87 90 91 88
30 34 35 31 90 92 93 91
34 38 39 35 92 94 95 93
38 42 43 39 94 96 97 95
42 46 47 43 96 98 99 97
27 26 50 51 89 88 100 101
26 31 53 50 88 91 102 100
31 35 55 53 91 93 103 102
35 39 57 55 93 95 104 103
39 43 59 57 95 97 105 104
43 47 61 59 97 99 106 105
51 50 64 65 101 100 107 108
50 53 67 64 100 102 109 107
53 55 69 67 102 103 110 109
55 57 111 69 103 104 112 110
65 64 72 73 108 107 113 114
64 67 78 72 107 109 115 113
73 72 75 76 114 113 116 117
76 75 81 82 117 116 118 119
75 79 83 81 116 120 121 118
79 84 85 83 120 122 123 121
84 124 125 85 122 126 127 123
128 129 130 131 132 133 134 135
86 87 88 89 136 137 138 139
87 90 91 88 137 140 141 138
90 92 93 91 140 142 143 141
92 94 95 93 142 144 145 143
94 96 97 95 144 146 147 145
96 98 99 97 146 148 149 147
89 88 100 101 139 138 150 151
88 91 102 100 138 141 152 150
91 93 103 102 141 143 153 152
93 95 104 103 143 145 154 153
95 97 105 104 145 147 155 154
97 99 106 105 147 149 156 155
101 100 107 108 151 150 157 158
100 102 109 107 150 152 159 157
102 103 110 109 152 153 160 159
103 104 112 110 153 154 161 160
104 105 162 112 154 155 163 161
105 106 164 162 155 156 165 163
109 110 166 115 159 160 167 168
110 112 169 166 160 161 170 167
112 162 171 169 161 163 172 170
162 164 173 171 163 165 174 172
114 113 116 117 175 176 177 178
169 171 132 126 170 172 179 180
171 173 133 132 172 174 181 179
117 116 118 119 178 177 182 183
116 120 121 118 177 184 185 182
120 122 123 121 184 186 187 185
122 126 127 123 186 180 188 187
126 132 135 127 180 179 189 188
132 133 134 135 179 181 190 189
</DataArray>
<DataArray type="Int32" Name="offsets" format="ascii">
8
16
24
32
40
48
56
64
72
80
88
96
104
112
120
128
136
144
152
160
168
176
184
192
200
208
216
224
232
240
248
256
264
272
280
288
296
304
312
320
328
336
344
352
360
368
376
384
392
400
408
416
424
432
440
448
456
464
472
480
488
496
504
512
520
528
536
544
552
560
568
576
584
592
600
608
616
624
632
</DataArray>
<DataArray type="UInt8" Name="types" format="ascii">
12
12
12
12
12
12
12
12
12
12
12
12
12
12
12
12
12
12
12
12
12
12
12
12
12
12
12
12
12
12
12
12
12
12
12
12
12
12
12
12
12
12
12
12
12
12
12
12
12
12
12
12
12
12
12
12
12
12
12
12
12
12
12
12
12
12
12
12
12
12
12
12
12
12
12
12
12
12
12
</DataArray>
</Cells>
</Piece>
</UnstructuredGrid>
</VTKFile>
