<VTKFile type="UnstructuredGrid" version="0.1" byte_order="LittleEndian">
<UnstructuredGrid>
<Piece NumberOfPoints="191" NumberOfCells="79">
<Points>
<DataArray type="Float64" NumberOfComponents="3" format="ascii">
 1.03618097e+00  5.20758152e+00  1.89981294e+00
 2.06073999e+00  5.19786501e+00  1.91930628e+00
 2.06173921e+00  6.24961185e+00  1.88221884e+00
 1.03128958e+00  6.24359035e+00  1.87328064e+00
 1.02943623e+00  5.23943758e+00  2.84690690e+00
 2.06559491e+00  5.23659134e+00  2.85450292e+00
 2.05497313e+00  6.30315495e+00  2.80845070e+00
 1.03215814e+00  6.27474022e+00  2.81611252e+00
 3.10420179e+00  5.18315125e+00  1.93677568e+00
 3.11309743e+00  6.23966742e+00  1.88436162e+00
 3.10222363e+00  5.22851419e+00  2.83524418e+00
 3.14755678e+00  6.28418350e+00  2.76017570e+00
 5.10855293e+00  5.17533445e+00  2.00003314e+00
 6.10855198e+00  5.17758703e+00  2.00003052e+00
 6.10629702e+00  6.17759418e+00  1.99998379e+00
 5.10627079e+00  6.17534590e+00  1.99996662e+00
 5.10854387e+00  5.17539549e+00  3.00002146e+00
 6.10853577e+00  5.17765713e+00  3.00003791e+00
 6.10627508e+00  6.17764664e+00  2.99997330e+00
 5.10629177e+00  6.17538357e+00  2.99997735e+00
 0.00000000e+00  0.00000000e+00  2.76568532e+00
 1.04436302e+00  0.00000000e+00  2.76372194e+00
 1.04666305e+00  1.04845285e+00  2.76959276e+00
 0.00000000e+00  1.04672503e+00  2.77448511e+00
 0.00000000e+00  0.00000000e+00  3.68567586e+00
 1.06006455e+00  0.00000000e+00  3.68607235e+00
 1.06161761e+00  1.04820418e+00  3.68811846e+00
 0.00000000e+00  1.04516339e+00  3.69567776e+00
 2.09826827e+00  0.00000000e+00  2.75063324e+00
 2.08754444e+00  1.04097080e+00  2.75925398e+00
 2.11636233e+00  0.00000000e+00  3.67697310e+00
 2.11896682e+00  1.05073774e+00  3.67658782e+00
 3.14628053e+00  0.00000000e+00  2.73619151e+00
 3.14722729e+00  1.03632677e+00  2.73953605e+00
 3.17330146e+00  0.00000000e+00  3.66161203e+00
 3.16768932e+00  1.04451168e+00  3.66273355e+00
 4.20408106e+00  0.00000000e+00  2.72322083e+00
 4.20673370e+00  1.03799868e+00  2.71869040e+00
 4.22303009e+00  0.00000000e+00  3.65002894e+00
 4.22050333e+00  1.03690374e+00  3.64359236e+00
 5.26444912e+00  0.00000000e+00  2.70719719e+00
 5.26528311e+00  1.04068124e+00  2.70968819e+00
 5.27079344e+00  0.00000000e+00  3.64178348e+00
 5.27025318e+00  1.03555298e+00  3.63039184e+00
 6.31998539e+00  0.00000000e+00  2.70142436e+00
 6.32001114e+00  1.04075432e+00  2.70376563e+00
 6.30908108e+00  0.00000000e+00  3.63867283e+00
 6.32177114e+00  1.03520679e+00  3.63031745e+00
 1.03250206e+00  2.09131432e+00  2.78954411e+00
 0.00000000e+00  2.10419559e+00  2.79264331e+00
 1.06133592e+00  2.09771371e+00  3.71032286e+00
 0.00000000e+00  2.09782338e+00  3.71207833e+00
 2.08633232e+00  2.09247756e+00  2.76843929e+00
 2.12725949e+00  2.10344434e+00  3.68382406e+00
 3.13781381e+00  2.09870863e+00  2.72893763e+00
 3.17606831e+00  2.09739542e+00  3.63139462e+00
 4.20323324e+00  2.10941410e+00  2.71918058e+00
 4.21190834e+00  2.08492970e+00  3.61490536e+00
 5.26202202e+00  2.10232067e+00  2.72053456e+00
 5.26669884e+00  2.09536338e+00  3.61631632e+00
 6.31252956e+00  2.10710287e+00  2.71555448e+00
 6.31538630e+00  2.09700012e+00  3.61545062e+00
 1.02805912e+00  3.15690804e+00  2.82978725e+00
 0.00000000e+00  3.15387011e+00  2.82583857e+00
 1.05755520e+00  3.15451002e+00  3.74228477e+00
 0.00000000e+00  3.15298438e+00  3.75284719e+00
 2.07736444e+00  3.13763833e+00  2.80036855e+00
 2.14273858e+00  3.15917826e+00  3.67370796e+00
 3.06199670e+00  3.11810517e+00  2.52816463e+00
 3.20238471e+00  3.14082122e+00  3.57023025e+00
 1.02812815e+00  4.19360828e+00  2.85775590e+00
 0.00000000e+00  4.20081234e+00  2.85220194e+00
 1.04544640e+00  4.21319675e+00  3.79999447e+00
 0.00000000e+00  4.21925497e+00  3.78231144e+00
 0.00000000e+00  5.23371983e+00  2.84344554e+00
 1.04139268e+00  5.27780533e+00  3.78307676e+00
 0.00000000e+00  5.26057386e+00  3.77109241e+00
 2.06788969e+00  4.19423342e+00  2.88869023e+00
 2.10427022e+00  4.22473860e+00  3.77546263e+00
 2.10076785e+00  5.26050997e+00  3.78429675e+00
 0.00000000e+00  6.27787638e+00  2.80554891e+00
 1.05858707e+00  6.32844353e+00  3.71910906e+00
 0.00000000e+00  6.34265804e+00  3.73569679e+00
 2.10096550e+00  6.34753227e+00  3.71921754e+00
 3.13505816e+00  5.24051476e+00  3.66665673e+00
 3.21136785e+00  6.27587032e+00  3.67099285e+00
 0.00000000e+00  0.00000000e+00  4.59770155e+00
 1.07485318e+00  0.00000000e+00  4.59494781e+00
 1.07836497e+00  1.04985106e+00  4.59825373e+00
 0.00000000e+00  1.04634082e+00  4.60093403e+00
 2.13701224e+00  0.00000000e+00  4.59061241e+00
 2.14625192e+00  1.05801690e+00  4.58957243e+00
 3.18932176e+00  0.00000000e+00  4.58314085e+00
 3.19515133e+00  1.06030667e+00  4.58165550e+00
 4.23647928e+00  0.00000000e+00  4.57493544e+00
 4.23125124e+00  1.05445886e+00  4.57399225e+00
 5.27458286e+00  0.00000000e+00  4.57122469e+00
 5.26883268e+00  1.04868400e+00  4.56681252e+00
 6.30538321e+00  0.00000000e+00  4.56930447e+00
 6.30679703e+00  1.05269802e+00  4.56917334e+00
 1.09013522e+00  2.10652256e+00  4.60481167e+00
 0.00000000e+00  2.09688091e+00  4.61256599e+00
 2.16348410e+00  2.11744690e+00  4.58823347e+00
 3.21075821e+00  2.11754417e+00  4.56329918e+00
 4.23791885e+00  2.10518956e+00  4.54304457e+00
 5.25736380e+00  2.09020829e+00  4.53145885e+00
 6.28138971e+00  2.09519649e+00  4.53163767e+00
 1.09207690e+00  3.14734745e+00  4.64093018e+00
 0.00000000e+00  3.16470456e+00  4.65653658e+00
 2.18340230e+00  3.15320897e+00  4.58131886e+00
 3.24366260e+00  3.14604378e+00  4.51792574e+00
 4.22832680e+00  3.06457472e+00  3.45826483e+00
 4.25867558e+00  3.13026190e+00  4.49885654e+00
 1.09716535e+00  4.20795012e+00  4.71212912e+00
 0.00000000e+00  4.19523001e+00  4.67515135e+00
 2.19568968e+00  4.19390297e+00  4.61504841e+00
 1.08039927e+00  5.30877161e+00  4.64939642e+00
 0.00000000e+00  5.31555223e+00  4.64983463e+00
 1.09694409e+00  6.40533686e+00  4.61818695e+00
 0.00000000e+00  6.40057755e+00  4.63064098e+00
 2.14728212e+00  5.28312063e+00  4.65187836e+00
 2.22194624e+00  6.35302973e+00  4.62495327e+00
 3.22521520e+00  5.20476437e+00  4.54286003e+00
 3.31752872e+00  6.23123503e+00  4.57013321e+00
 4.06151485e+00  5.17887592e+00  3.39082360e+00
 4.19299126e+00  6.17544603e+00  3.46817970e+00
 4.29007626e+00  5.13037443e+00  4.49753714e+00
 4.30723953e+00  6.13171291e+00  4.49789238e+00
 5.29043198e+00  5.11473465e+00  3.49767470e+00
 6.29029179e+00  5.09888315e+00  3.49765873e+00
 6.30614805e+00  6.09876299e+00  3.49769926e+00
 5.30623627e+00  6.11464834e+00  3.49776602e+00
 5.29039574e+00  5.11471462e+00  4.49767303e+00
 6.29034424e+00  5.09884882e+00  4.49767971e+00
 6.30614710e+00  6.09873533e+00  4.49769163e+00
 5.30636311e+00  6.11449480e+00  4.49776077e+00
 0.00000000e+00  0.00000000e+00  5.49770641e+00
 1.07960355e+00  0.00000000e+00  5.49770641e+00
 1.08623016e+00  1.05384099e+00  5.49770641e+00
 0.00000000e+00  1.04815960e+00  5.49770641e+00
 2.14749169e+00  0.00000000e+00  5.49770641e+00
 2.15375996e+00  1.06279838e+00  5.49770641e+00
 3.19627428e+00  0.00000000e+00  5.49770641e+00
 3.20600653e+00  1.06737542e+00  5.49770641e+00
 4.23878574e+00  0.00000000e+00  5.49770641e+00
 4.24011850e+00  1.06679499e+00  5.49770641e+00
 5.27446175e+00  0.00000000e+00  5.49770641e+00
 5.27032948e+00  1.06192589e+00  5.49770641e+00
 6.31150627e+00  0.00000000e+00  5.49770641e+00
 6.29123878e+00  1.07014608e+00  5.49770641e+00
 1.10460508e+00  2.09727430e+00  5.49770641e+00
 0.00000000e+00  2.09214997e+00  5.49770641e+00
 2.18355799e+00  2.11826420e+00  5.49770641e+00
 3.22387409e+00  2.12746501e+00  5.49770641e+00
 4.24826956e+00  2.11811829e+00  5.49770641e+00
 5.25523853e+00  2.10463595e+00  5.49770641e+00
 6.27038002e+00  2.10411239e+00  5.49770641e+00
 1.11366498e+00  3.18569779e+00  5.49770641e+00
 0.00000000e+00  3.19178987e+00  5.49770641e+00
 2.21350145e+00  3.16264248e+00  5.49770641e+00
 3.25762415e+00  3.15454483e+00  5.49770641e+00
 4.25934124e+00  3.13108969e+00  5.49770641e+00
 5.25911331e+00  3.11400747e+00  4.49702883e+00
 5.25963688e+00  3.11473894e+00  5.49770641e+00
 6.26105881e+00  3.10091329e+00  4.49645090e+00
 6.26126957e+00  3.10262275e+00  5.49770641e+00
 3.27493334e+00  4.14749241e+00  4.48378563e+00
 3.28235173e+00  4.15731239e+00  5.49770641e+00
 2.27222157e+00  4.18565273e+00  5.49770641e+00
 4.27484846e+00  4.13008022e+00  4.49795532e+00
 4.27500629e+00  4.13030481e+00  5.49770641e+00
 5.27464294e+00  4.11488962e+00  4.49764967e+00
 5.27473021e+00  4.11479092e+00  5.49770641e+00
 6.27440596e+00  4.09924030e+00  4.49773979e+00
 6.27431440e+00  4.09909105e+00  5.49770641e+00
 0.00000000e+00  4.16803503e+00  5.49770641e+00
 1.12668777e+00  4.19364738e+00  5.49770641e+00
 1.11053658e+00  5.33489418e+00  5.49770641e+00
 0.00000000e+00  5.35313225e+00  5.49770641e+00
 5.29034376e+00  5.11470938e+00  5.49770641e+00
 4.29048681e+00  5.13044405e+00  5.49770641e+00
 6.29037809e+00  5.09887171e+00  5.49770641e+00
 1.11855841e+00  6.42465162e+00  5.49770641e+00
 0.00000000e+00  6.41783619e+00  5.49770641e+00
 2.18481016e+00  5.28923416e+00  5.49770641e+00
 2.26702595e+00  6.34910679e+00  5.49770641e+00
 3.24206281e+00  5.18581676e+00  5.49770641e+00
 3.33622861e+00  6.21738338e+00  5.49770641e+00
 4.30762625e+00  6.13091850e+00  5.49770641e+00
 5.30638027e+00  6.11443377e+00  5.49770641e+00
 6.30614233e+00  6.09873295e+00  5.49770641e+00
</DataArray>
</Points>
<PointData Tensors="Stress_Components,Plastic_strain_components" Vevtors="Spatial_displacement,Reaction_force" Scalars="Equivalent_plastic_strain,Stress_Mises,Stress_Max_Principal,Stress_Mid_Principal,Stress_Min_Principal,Stress_Pressure,Stress_Tresca,Stress_Third_Invariant,Plastic_strain_Max_Principal,Plastic_strain_Min_Principal">
<DataArray type="Float32" Name="Stress_Components" NumberOfComponents="9" format="ascii">
1.56772049e+01 -9.00402702e-02 2.62780766e-01 -9.00402702e-02 1.28913555e+01 1.32393301e-01 2.62780766e-01 1.32393301e-01 1.13777718e+00
3.44415873e+00 -2.72799611e+00 8.53864013e-01 -2.72799611e+00 2.88561749e+00 2.39877184e+00 8.53864013e-01 2.39877184e+00 -2.09262415e+01
-8.80748606e+00 -1.44384481e-01 1.27038545e+00 -1.44384481e-01 -2.58787012e+00 -2.43282546e+00 1.27038545e+00 -2.43282546e+00 -4.17862320e+01
-1.69598165e+00 -7.62192406e-01 -1.42816152e-01 -7.62192406e-01 -1.75098810e+00 -7.64826033e-02 -1.42816152e-01 -7.64826033e-02 -3.38264942e+01
1.62617748e+01 8.58306400e-02 1.00524846e+00 8.58306400e-02 1.71043441e+01 -3.31561331e-01 1.00524846e+00 -3.31561331e-01 6.06119753e+00
2.14580694e+01 -2.10965885e+00 2.93047953e+00 -2.10965885e+00 2.40752130e+01 7.44420388e-01 2.93047953e+00 7.44420388e-01 1.56132908e+01
-1.41671782e+01 -2.26343527e-01 5.21283403e-01 -2.26343527e-01 -1.59667480e+00 -7.32406229e-03 5.21283403e-01 -7.32406229e-03 -4.51115279e+01
1.07774867e+01 -7.39530213e-02 4.21687663e-01 -7.39530213e-02 9.82137772e+00 8.00051741e-01 4.21687663e-01 8.00051741e-01 -7.99205208e+00
-1.91737876e+01 -1.56597057e+00 -4.74554386e-01 -1.56597057e+00 -1.76133963e+01 5.98170993e+00 -4.74554386e-01 5.98170993e+00 -7.15181899e+01
-8.39002686e+01 -3.27918303e+00 -5.57902813e+00 -3.27918303e+00 -7.86850452e+01 4.83772254e+00 -5.57902813e+00 4.83772254e+00 -2.06020508e+02
-7.06713092e+01 8.10325607e+00 -2.64366446e+01 8.10325607e+00 -7.42199175e+01 -2.77479817e+00 -2.64366446e+01 -2.77479817e+00 -1.69176376e+02
-5.04813389e+01 3.86090755e-01 -5.43404841e+00 3.86090755e-01 -7.34175119e+01 -1.22719359e+00 -5.43404841e+00 -1.22719359e+00 -1.62001842e+02
-2.34749243e-01 -6.09802872e-01 -2.57995404e-01 -6.09802872e-01 2.81954166e-01 2.52413839e-01 -2.57995404e-01 2.52413839e-01 -4.31328446e-01
-4.23631363e-01 -4.80451994e-02 -9.94186848e-02 -4.80451994e-02 -9.21260417e-02 -2.44933277e-01 -9.94186848e-02 -2.44933277e-01 1.31692067e-01
6.86964169e-01 -1.40590966e-01 -1.00220371e-01 -1.40590966e-01 -1.05140463e-01 5.86770210e-01 -1.00220371e-01 5.86770210e-01 -9.65894312e-01
4.00529429e-01 -7.02544719e-01 -4.16406989e-03 -7.02544719e-01 -2.06376851e-01 -5.21369696e-01 -4.16406989e-03 -5.21369696e-01 -5.78368917e-01
2.34107003e-01 2.04351664e-01 3.67069721e-01 2.04351664e-01 7.22784549e-02 1.62905186e-01 3.67069721e-01 1.62905186e-01 -4.24424820e-02
-5.91113716e-02 2.44160853e-02 1.17707677e-01 2.44160853e-02 -1.64863884e-01 1.39988037e-02 1.17707677e-01 1.39988037e-02 4.88025844e-01
-4.97164577e-02 5.24135977e-02 -2.52054125e-01 5.24135977e-02 2.04379350e-01 -5.44055521e-01 -2.52054125e-01 -5.44055521e-01 1.09319851e-01
-3.23144585e-01 2.32372552e-01 -1.24917753e-01 2.32372552e-01 -1.25156209e-01 3.46336335e-01 -1.24917753e-01 3.46336335e-01 7.12165892e-01
7.99913168e-01 3.41559723e-02 2.53531672e-01 3.41559723e-02 1.54927540e+00 -4.60153036e-02 2.53531672e-01 -4.60153036e-02 -2.74869819e+01
1.42693572e+00 4.49463740e-01 1.12308258e-01 4.49463740e-01 1.39465830e+00 3.18106353e-01 1.12308258e-01 3.18106353e-01 -2.69146308e+01
5.56268726e+00 -2.94391737e-01 1.79234399e-01 -2.94391737e-01 6.17291228e+00 4.74629646e-01 1.79234399e-01 4.74629646e-01 -1.72602034e+01
1.25446371e+00 1.96954396e-01 2.79271673e-01 1.96954396e-01 2.72013462e+00 -2.40098312e-01 2.79271673e-01 -2.40098312e-01 -2.56764922e+01
6.21945000e+00 -2.90454999e-02 6.59284443e-01 -2.90454999e-02 4.97851276e+00 2.01285355e-01 6.59284443e-01 2.01285355e-01 -1.78653059e+01
4.25386965e-01 2.21821819e-01 -1.40794883e-01 2.21821819e-01 -1.61457300e-01 1.12203445e+00 -1.40794883e-01 1.12203445e+00 -2.96240413e+01
3.88413033e+00 3.72464262e-01 3.83575534e-01 3.72464262e-01 3.16526829e+00 4.47534688e-01 3.83575534e-01 4.47534688e-01 -2.23520722e+01
9.86332551e-01 3.83164458e-01 7.17856467e-01 3.83164458e-01 -6.31721735e-01 -6.74977306e-01 7.17856467e-01 -6.74977306e-01 -2.95358367e+01
6.33904910e+00 -8.44800383e-01 1.81231245e-01 -8.44800383e-01 5.44949198e+00 -7.15556927e-03 1.81231245e-01 -7.15556927e-03 -1.72229634e+01
5.99060209e+00 -5.73637644e-01 8.81822320e-01 -5.73637644e-01 5.86371024e+00 9.17677640e-01 8.81822320e-01 9.17677640e-01 -1.69265139e+01
4.31047082e-01 1.15101859e-01 1.78934252e-02 1.15101859e-01 3.71802390e-01 4.10145905e-01 1.78934252e-02 4.10145905e-01 -2.91794620e+01
-1.38952112e+00 8.08218005e-02 1.11670517e+00 8.08218005e-02 -1.61083370e-01 1.87026228e+00 1.11670517e+00 1.87026228e+00 -3.13909047e+01
6.86962056e+00 1.27842722e-01 2.57849766e-01 1.27842722e-01 5.67280269e+00 6.05328187e-01 2.57849766e-01 6.05328187e-01 -1.63335423e+01
1.09583835e+01 -8.46783724e-02 7.41682146e-02 -8.46783724e-02 9.33286592e+00 -9.62944643e-03 7.41682146e-02 -9.62944643e-03 -8.02847040e+00
3.41822556e+00 -7.11468607e-01 3.14245515e-01 -7.11468607e-01 2.32663926e+00 9.12166569e-01 3.14245515e-01 9.12166569e-01 -2.36994393e+01
3.04872566e+00 -6.69561397e-01 4.74799080e-01 -6.69561397e-01 3.01492611e+00 7.62815270e-01 4.74799080e-01 7.62815270e-01 -2.33138057e+01
9.24616039e+00 1.49344159e-01 -1.03266057e-01 1.49344159e-01 7.12441333e+00 4.19706924e-01 -1.03266057e-01 4.19706924e-01 -1.21535165e+01
4.73502654e+00 8.06633469e-02 -4.82790241e-01 8.06633469e-02 2.51343989e+00 7.68008512e-02 -4.82790241e-01 7.68008512e-02 -2.20558573e+01
6.58683276e+00 -3.34585492e-01 -2.74757683e-01 -3.34585492e-01 4.71848738e+00 5.77783786e-01 -2.74757683e-01 5.77783786e-01 -1.77202804e+01
1.45460342e+01 -4.46940495e-01 3.05126948e-01 -4.46940495e-01 1.32319135e+01 -2.56915211e-01 3.05126948e-01 -2.56915211e-01 9.52029228e-03
1.24621533e+01 -1.71422295e-01 1.28702265e-02 -1.71422295e-01 1.06931099e+01 -2.94001289e-02 1.28702265e-02 -2.94001289e-02 -4.85668415e+00
8.99122542e+00 1.48551967e-02 -3.25982159e-01 1.48551967e-02 6.45381880e+00 5.51162213e-02 -3.25982159e-01 5.51162213e-02 -1.31849532e+01
1.54279528e+01 -1.02037853e-01 -1.74362139e-01 -1.02037853e-01 1.53663411e+01 -3.41732318e-01 -1.74362139e-01 -3.41732318e-01 3.27414417e+00
7.65115176e+00 -2.11960035e-01 -2.43125773e-01 -2.11960035e-01 6.19679394e+00 -3.73089027e-01 -2.43125773e-01 -3.73089027e-01 -1.49555220e+01
1.45806975e+01 -1.25219788e-01 -5.32125644e-02 -1.25219788e-01 1.37223258e+01 -3.37135613e-01 -5.32125644e-02 -3.37135613e-01 7.54281521e-01
1.72968082e+01 1.58550490e-01 -4.60026791e-01 1.58550490e-01 1.53146885e+01 1.48656592e-03 -4.60026791e-01 1.48656592e-03 5.26909447e+00
1.91015279e+01 4.97737743e-01 2.15517916e-02 4.97737743e-01 1.97590077e+01 -7.36816756e-01 2.15517916e-02 -7.36816756e-01 1.21043100e+01
1.22323425e+01 5.39627805e-01 3.07080964e-01 5.39627805e-01 1.09598435e+01 -9.32574747e-01 3.07080964e-01 -9.32574747e-01 -4.72239804e+00
2.59674561e+00 -8.61295614e-01 1.51459430e+00 -8.61295614e-01 5.10885173e+00 7.15032406e-02 1.51459430e+00 7.15032406e-02 -2.10497610e+01
3.00264001e+00 -1.11370795e+00 1.09647523e+00 -1.11370795e+00 6.57294744e+00 -2.83469490e-01 1.09647523e+00 -2.83469490e-01 -1.92433699e+01
-5.01860940e+00 4.44961250e-01 2.58268772e+00 4.44961250e-01 -6.36217749e+00 2.11570174e+00 2.58268772e+00 2.11570174e+00 -4.17081378e+01
9.07541752e-01 -1.01125968e-01 6.26669992e-01 -1.01125968e-01 1.09967113e+00 -8.60442910e-02 6.26669992e-01 -8.60442910e-02 -2.78791242e+01
1.48732490e+01 2.44918615e+00 3.98931912e+00 2.44918615e+00 1.32816168e+01 3.24297617e+00 3.98931912e+00 3.24297617e+00 -5.70699787e+00
-5.95690566e+00 9.38794002e-01 1.03527948e-01 9.38794002e-01 -5.77329990e+00 2.23236293e-01 1.03527948e-01 2.23236293e-01 -4.13756846e+01
-7.58256241e+01 -6.02137222e+00 -1.63081070e+01 -6.02137222e+00 -7.64856331e+01 -2.01179442e+00 -1.63081070e+01 -2.01179442e+00 -1.77022006e+02
1.18456253e+01 1.36732102e+00 1.42303194e-01 1.36732102e+00 1.55674347e+01 1.40150122e+00 1.42303194e-01 1.40150122e+00 -4.65608856e+00
-4.95546432e+01 -1.19960249e+00 -4.13828808e+00 -1.19960249e+00 -4.50509357e+01 1.34806912e+00 -4.13828808e+00 1.34806912e+00 -1.31814180e+02
-3.50344682e+01 -1.71786063e+00 -1.66822555e+01 -1.71786063e+00 -4.33991476e+01 -8.40363210e-01 -1.66822555e+01 -8.40363210e-01 -9.47650898e+01
-3.27524080e+01 -1.45513041e+00 -1.01203941e-01 -1.45513041e+00 -2.87729940e+01 1.63328221e+00 -1.01203941e-01 1.63328221e+00 -9.63639145e+01
-4.38917341e+01 -2.63635723e-01 -4.44331998e+00 -2.63635723e-01 -3.84821444e+01 -1.58752588e+00 -4.44331998e+00 -1.58752588e+00 -1.18540102e+02
-2.57927294e+01 -2.15192199e+00 -7.26743996e-01 -2.15192199e+00 -1.75687294e+01 3.03708345e-01 -7.26743996e-01 3.03708345e-01 -7.62042465e+01
-4.38496981e+01 -3.91673267e+00 -5.03344965e+00 -3.91673267e+00 -3.32176208e+01 -3.78118978e+00 -5.03344965e+00 -3.78118978e+00 -1.10993889e+02
1.53256440e+00 4.46959734e-02 3.09830160e+00 4.46959734e-02 4.52096650e+00 6.65397280e-01 3.09830160e+00 6.65397280e-01 -2.25095249e+01
1.23566508e+01 1.56001765e-01 1.23157153e+00 1.56001765e-01 1.37241313e+01 -3.71760737e-01 1.23157153e+00 -3.71760737e-01 -1.60136437e+00
-8.89089591e+00 -4.01756265e-01 3.88990665e+00 -4.01756265e-01 -9.36700330e+00 1.62964925e+00 3.88990665e+00 1.62964925e+00 -4.86047790e+01
5.27649218e+00 6.50149658e-02 1.64827746e+00 6.50149658e-02 6.84663591e+00 4.23667226e-02 1.64827746e+00 4.23667226e-02 -1.68029659e+01
-1.04012827e+02 -1.14161361e+01 9.93499076e+00 -1.14161361e+01 -9.46475811e+01 -1.51080063e+01 9.93499076e+00 -1.51080063e+01 -2.19780247e+02
-2.07950668e+01 2.50845203e+00 2.25332245e+00 2.50845203e+00 -2.77802351e+01 -2.98845572e+00 2.25332245e+00 -2.98845572e+00 -8.32967641e+01
9.98915253e+01 8.51971722e+00 1.20457182e+01 8.51971722e+00 9.65739288e+01 1.65829277e+01 1.20457182e+01 1.65829277e+01 1.59435730e+02
6.15524165e+00 -4.77580448e+00 -8.29378192e+00 -4.77580448e+00 4.34668795e+00 -5.94834598e+00 -8.29378192e+00 -5.94834598e+00 -6.61217690e+00
2.27899415e+01 -8.13707092e-02 -2.16552035e+00 -8.13707092e-02 2.31168741e+01 3.26263538e-01 -2.16552035e+00 3.26263538e-01 1.88997878e+01
1.30248202e+01 -4.03272774e-01 1.35807725e+00 -4.03272774e-01 1.36090486e+01 7.00032227e-01 1.35807725e+00 7.00032227e-01 -7.44138241e-01
2.11214299e+01 -5.95290738e-01 -9.76709177e-02 -5.95290738e-01 2.31569128e+01 1.20587061e+00 -9.76709177e-02 1.20587061e+00 1.87928764e+01
8.64182949e+00 -8.69784903e-01 2.34269312e+00 -8.69784903e-01 9.37069082e+00 1.58409708e+00 2.34269312e+00 1.58409708e+00 -9.85808325e+00
1.42563920e+01 -1.06057851e-02 1.04145028e-01 -1.06057851e-02 1.44728039e+01 2.65673749e-01 1.04145028e-01 2.65673749e-01 1.13471818e+00
1.87564700e+01 4.93277388e-01 9.04498747e-01 4.93277388e-01 1.96336895e+01 4.90284162e-01 9.04498747e-01 4.90284162e-01 1.18126169e+01
3.27875638e+00 1.85286324e+00 1.67177677e-01 1.85286324e+00 5.89425325e+00 1.19496835e+00 1.67177677e-01 1.19496835e+00 -1.98059936e+01
-5.26894197e+01 1.49375697e+00 6.07585771e+00 1.49375697e+00 -4.91533551e+01 1.80063545e+01 6.07585771e+00 1.80063545e+01 -1.22394456e+02
-1.00266258e+02 -3.50926861e+00 1.36393003e+01 -3.50926861e+00 -9.84159241e+01 1.09556522e+01 1.36393003e+01 1.09556522e+01 -2.41357628e+02
-5.48688976e+00 -3.09451087e+00 -2.90493159e+00 -3.09451087e+00 5.13650513e-01 4.80712900e+00 -2.90493159e+00 4.80712900e+00 -3.37302025e+01
2.34406090e+00 -4.33039650e-01 -2.98052996e-01 -4.33039650e-01 4.59044838e+00 8.37436289e-01 -2.98052996e-01 8.37436289e-01 -2.25029488e+01
2.84200191e+00 1.25048070e+00 -1.28211705e+00 1.25048070e+00 1.22253180e+00 9.06704754e-01 -1.28211705e+00 9.06704754e-01 -2.56369600e+01
3.94790840e+00 -1.83657837e+00 2.50068563e+00 -1.83657837e+00 7.89539909e+00 -1.29411596e+00 2.50068563e+00 -1.29411596e+00 -1.68365860e+01
-2.17462115e+01 -3.49440541e+00 -4.17600745e+00 -3.49440541e+00 -1.64310865e+01 4.07220596e+00 -4.17600745e+00 4.07220596e+00 -6.69683304e+01
-8.65973269e+01 1.09948848e+01 -2.90281375e-02 1.09948848e+01 -5.19022573e+01 -3.78410437e+01 -2.90281375e-02 -3.78410437e+01 -1.26056674e+02
-4.21187107e+00 -3.64145112e+00 -9.93066976e-01 -3.64145112e+00 -8.93011761e+00 -4.67591699e+00 -9.93066976e-01 -4.67591699e+00 -3.83046010e+01
4.74976042e+00 -3.37168472e-02 2.28460893e-01 -3.37168472e-02 1.92148185e+00 -4.93374895e-02 2.28460893e-01 -4.93374895e-02 -2.26347413e+01
5.11537075e-01 1.44850541e-01 -1.26038070e-02 1.44850541e-01 -1.06859267e+00 7.42462900e-01 -1.26038070e-02 7.42462900e-01 -3.05078239e+01
6.59068594e-01 7.50021549e-01 3.00629405e-01 7.50021549e-01 -1.38292125e+00 4.07190828e-01 3.00629405e-01 4.07190828e-01 -3.06629308e+01
2.63375342e-01 2.88837953e-01 4.54273015e-01 2.88837953e-01 -3.20426971e+00 -3.06924053e-01 4.54273015e-01 -3.06924053e-01 -3.29773517e+01
-5.15339059e+00 8.54957223e-01 -1.78671364e-01 8.54957223e-01 -3.67178851e+00 8.47372673e-01 -1.78671364e-01 8.47372673e-01 -3.94465642e+01
-6.17005551e+00 1.34342355e+00 5.13217858e-01 1.34342355e+00 -4.71026966e+00 1.49804710e+00 5.13217858e-01 1.49804710e+00 -4.14379145e+01
-6.42594129e+00 3.61447148e-01 5.18755697e-01 3.61447148e-01 -4.63823223e+00 4.16964862e-01 5.18755697e-01 4.16964862e-01 -4.19774251e+01
-1.23596313e+01 5.82768044e-01 6.37001099e-01 5.82768044e-01 -6.52672338e+00 1.78336116e+00 6.37001099e-01 1.78336116e+00 -4.97296173e+01
-4.31237006e+00 -1.20943537e+00 3.67516950e-01 -1.20943537e+00 -2.29288602e+00 5.44497464e-01 3.67516950e-01 5.44497464e-01 -3.70348434e+01
-2.40613797e+00 -7.05452807e-01 -2.80142318e-01 -7.05452807e-01 1.24414048e+00 -9.19952365e-02 -2.80142318e-01 -9.19952365e-02 -3.09989302e+01
3.65002951e+00 -5.86421542e-01 -9.58453380e-02 -5.86421542e-01 6.15933454e+00 -5.77440411e-01 -9.58453380e-02 -5.77440411e-01 -1.92489188e+01
7.29850775e+00 -1.16906254e+00 -3.31782706e-01 -1.16906254e+00 8.33827114e+00 -1.23582899e-01 -3.31782706e-01 -1.23582899e-01 -1.30258900e+01
9.62195396e-02 4.12275523e-01 7.09365368e-01 4.12275523e-01 4.82444334e+00 -1.33242741e+00 7.09365368e-01 -1.33242741e+00 -2.41738241e+01
-3.34099901e+00 -1.21255821e+00 -4.53225672e-02 -1.21255821e+00 2.03811169e-01 -2.16042206e+00 -4.53225672e-02 -2.16042206e+00 -3.26833420e+01
-6.63984627e+00 1.45032834e+00 1.06628645e+00 1.45032834e+00 -1.07445328e+01 1.79525510e+00 1.06628645e+00 1.79525510e+00 -4.83120172e+01
-1.10133743e+00 8.31448451e-01 3.91050465e-01 8.31448451e-01 -4.99909067e+00 -1.44541534e-01 3.91050465e-01 -1.44541534e-01 -3.63690033e+01
-7.20893085e+00 2.69176101e+00 4.20777742e-01 2.69176101e+00 -7.62935221e+00 9.20644274e-01 4.20777742e-01 9.20644274e-01 -4.56188605e+01
6.45041001e+00 1.76940847e+00 -5.00184361e+00 1.76940847e+00 8.11087787e+00 -5.42280348e-01 -5.00184361e+00 -5.42280348e-01 -1.14504887e+01
1.13302266e+01 -8.96211873e-02 -2.64615127e+00 -8.96211873e-02 1.62665281e+01 -1.47961223e-01 -2.64615127e+00 -1.47961223e-01 -1.14027330e+00
-6.73511918e+00 -2.18981588e+00 -6.91746259e+00 -2.18981588e+00 -1.18517741e+00 -1.85340249e+00 -6.91746259e+00 -1.85340249e+00 -3.56849206e+01
-2.85846583e+00 -5.02747150e+00 -8.60664697e+00 -5.02747150e+00 -6.89636866e+00 -2.46472907e+00 -8.60664697e+00 -2.46472907e+00 -3.58694089e+01
-2.21851588e+01 1.97108865e-01 4.71752342e+00 1.97108865e-01 -3.13059584e+01 -1.13843943e-01 4.71752342e+00 -1.13843943e-01 -8.62494221e+01
-2.88025203e+01 -1.62043136e+00 4.45475765e+00 -1.62043136e+00 -3.35834354e+01 -3.93839116e-01 4.45475765e+00 -3.93839116e-01 -9.68671506e+01
1.21252136e+01 2.12714696e+00 -3.68049279e-01 2.12714696e+00 6.91991107e+00 -4.09418231e+00 -3.68049279e-01 -4.09418231e+00 -7.95098384e+00
3.41926505e+01 2.01483958e+00 -2.59553801e+00 2.01483958e+00 3.15887400e+01 9.18683012e-02 -2.59553801e+00 9.18683012e-02 3.99880492e+01
6.96997604e+01 2.23760033e+00 2.10319633e+01 2.23760033e+00 8.06469727e+01 3.74241948e+00 2.10319633e+01 3.74241948e+00 1.10437965e+02
1.95034775e+01 -2.22828847e+00 -1.21995695e+00 -2.22828847e+00 1.44834136e+01 -3.35813892e+00 -1.21995695e+00 -3.35813892e+00 1.39187938e+01
-2.27792617e+01 -4.88533176e-01 2.79880583e-01 -4.88533176e-01 -2.08997980e+01 5.94767694e+00 2.79880583e-01 5.94767694e+00 -7.45583553e+01
-5.74270566e-01 1.25050652e-01 -1.73640583e+00 1.25050652e-01 -2.40471204e+00 3.19205902e+00 -1.73640583e+00 3.19205902e+00 -3.29939715e+01
-9.85198250e+01 -1.12715826e+01 1.04920263e+01 -1.12715826e+01 -1.46879436e+02 -1.32687807e+01 1.04920263e+01 -1.32687807e+01 -2.82848045e+02
-3.05398970e+01 3.34143010e-01 -1.73133614e+00 3.34143010e-01 -2.59576674e+01 4.90693454e+00 -1.73133614e+00 4.90693454e+00 -9.01709576e+01
-1.25959409e+01 -4.57314014e-01 3.68117738e+00 -4.57314014e-01 -9.68591368e+00 -2.54879966e-02 3.68117738e+00 -2.54879966e-02 -5.39476995e+01
1.51708341e+01 -2.12216154e-01 2.11178655e+00 -2.12216154e-01 1.32591490e+01 8.05822209e-01 2.11178655e+00 8.05822209e-01 8.17180544e-01
7.53244495e+00 4.02359769e-01 6.55475885e-01 4.02359769e-01 6.40184069e+00 -8.02173197e-01 6.55475885e-01 -8.02173197e-01 -1.47928085e+01
-2.97983619e+01 8.55025887e-01 -6.10034183e-01 8.55025887e-01 -3.75248977e+01 -3.96425408e+00 -6.10034183e-01 -3.96425408e+00 -1.00949932e+02
-1.13720165e+01 -1.52629897e+00 -3.03728995e+00 -1.52629897e+00 -2.14533013e+01 6.73647824e+00 -3.03728995e+00 6.73647824e+00 -6.08980391e+01
1.22707191e+01 -7.47581735e-01 -2.44313076e-01 -7.47581735e-01 -5.11464596e+00 6.41971582e+00 -2.44313076e-01 6.41971582e+00 -3.21102017e+01
1.24290981e+01 -1.90363298e+00 2.02129120e+00 -1.90363298e+00 2.03669236e+01 -3.17214638e+00 2.02129120e+00 -3.17214638e+00 6.56760800e+00
8.82615891e+01 -3.53502131e+00 1.06120288e+00 -3.53502131e+00 6.19798012e+01 2.16740074e+01 1.06120288e+00 2.16740074e+01 8.62665558e+01
4.42867966e+01 2.45611906e+00 1.18678808e-03 2.45611906e+00 3.96569443e+01 6.84925747e+00 1.18678808e-03 6.84925747e+00 5.81587524e+01
8.97181356e+00 -2.84420706e+00 -2.09425448e+00 -2.84420706e+00 9.33434892e+00 2.32505158e-01 -2.09425448e+00 2.32505158e-01 7.98677965e+00
3.01646884e+00 -5.41682820e+00 -1.83503765e+00 -5.41682820e+00 1.31600599e+01 -4.30295956e+00 -1.83503765e+00 -4.30295956e+00 5.89265188e+00
-1.12080801e+00 -9.63677883e-01 1.49285126e+00 -9.63677883e-01 1.16510224e+00 -1.06574547e+00 1.49285126e+00 -1.06574547e+00 -5.19002795e-01
-9.37254786e-01 1.09974727e-01 1.51165560e-01 1.09974727e-01 -1.00156710e-01 7.66518652e-01 1.51165560e-01 7.66518652e-01 5.62505245e-01
9.03680742e-01 -6.14208579e-01 3.13828051e-01 -6.14208579e-01 -4.07037199e-01 -1.39475429e+00 3.13828051e-01 -1.39475429e+00 -9.71638858e-01
3.71153772e-01 -1.68843663e+00 -1.27408051e+00 -1.68843663e+00 5.09356737e-01 1.28529406e+00 -1.27408051e+00 1.28529406e+00 -1.35555863e+00
7.07414511e+00 2.55471144e+00 1.60240678e+00 2.55471144e+00 -2.95496407e+00 9.67848241e-01 1.60240678e+00 9.67848241e-01 -6.98384382e-01
1.26333263e+00 -4.27738706e-01 -1.65069918e-01 -4.27738706e-01 -5.15638963e+00 9.52631712e-01 -1.65069918e-01 9.52631712e-01 -7.61803597e-01
-3.49063802e+00 9.40648139e-01 -3.04581374e-02 9.40648139e-01 7.69900307e-01 -1.49856490e+00 -3.04581374e-02 -1.49856490e+00 4.64528479e-01
-5.19725227e+00 -2.51665545e+00 -3.39500914e-01 -2.51665545e+00 2.31871760e+00 -8.16336552e-01 -3.39500914e-01 -8.16336552e-01 3.34068045e+00
1.89236593e+00 -2.93310657e-02 2.06995988e-03 -2.93310657e-02 -1.59707749e+00 2.78696092e-03 2.06995988e-03 2.78696092e-03 -2.94736862e+01
-2.39959836e-01 2.76282363e-01 -1.10432594e-02 2.76282363e-01 -2.21590894e+00 3.11508641e-01 -1.10432594e-02 3.11508641e-01 -3.25846338e+01
1.04614806e+00 9.90320593e-01 2.24839892e-01 9.90320593e-01 -1.44531620e+00 4.03404225e-01 2.24839892e-01 4.03404225e-01 -3.02562771e+01
1.31842756e+00 3.53446111e-01 1.58842027e-01 3.53446111e-01 -2.61273956e+00 -9.04109888e-03 1.58842027e-01 -9.04109888e-03 -3.11509088e+01
-7.83100271e+00 6.08704716e-01 -8.15421902e-03 6.08704716e-01 -5.88490415e+00 1.07837859e+00 -8.15421902e-03 1.07837859e+00 -4.46959743e+01
-6.41514133e+00 2.09925297e+00 2.69437708e-01 2.09925297e+00 -5.34110318e+00 7.04480216e-01 2.69437708e-01 7.04480216e-01 -4.24146426e+01
-1.16012932e+01 1.25062567e+00 3.15086143e-02 1.25062567e+00 -7.26254714e+00 6.85052246e-01 3.15086143e-02 6.85052246e-01 -5.01351242e+01
-1.97072037e+01 1.68687046e+00 1.12111200e+00 1.68687046e+00 -1.15903147e+01 1.86812219e+00 1.12111200e+00 1.86812219e+00 -6.28215232e+01
-1.17208313e+01 -5.70938110e-01 6.39231503e-02 -5.70938110e-01 -5.48989403e+00 3.65478888e-01 6.39231503e-02 3.65478888e-01 -4.81328049e+01
-1.85759914e+01 -7.79224917e-01 2.00957547e+00 -7.79224917e-01 -9.18766505e+00 1.46452729e+00 2.00957547e+00 1.46452729e+00 -5.89422812e+01
-9.46299314e+00 -2.38512501e-01 1.03645906e-01 -2.38512501e-01 -2.81439808e+00 -4.67622966e-01 1.03645906e-01 -4.67622966e-01 -4.27237816e+01
-6.47897780e+00 -2.23666293e+00 1.80421598e+00 -2.23666293e+00 1.32559538e+00 1.54951722e-01 1.80421598e+00 1.54951722e-01 -3.42029227e+01
-2.41983948e+01 -3.47705865e+00 1.91983491e-01 -3.47705865e+00 -1.27922087e+01 2.24393338e-01 1.91983491e-01 2.24393338e-01 -6.84871368e+01
-2.10164280e+01 -1.66823220e+00 2.56063598e+00 -1.66823220e+00 -6.82699633e+00 -3.83860469e+00 2.56063598e+00 -3.83860469e+00 -5.72698727e+01
1.87284708e+00 2.95013830e+00 -1.19487140e+00 2.95013830e+00 -2.71922326e+00 1.21527138e+00 -1.19487140e+00 1.21527138e+00 -3.01585655e+01
-2.60282230e+00 4.65903424e-01 -5.28963730e-01 4.65903424e-01 -1.04629765e+01 1.40857186e-01 -5.28963730e-01 1.40857186e-01 -4.33564930e+01
-7.98550501e+00 4.93035093e+00 5.55861570e-01 4.93035093e+00 -8.05616713e+00 2.29910250e+00 5.55861570e-01 2.29910250e+00 -4.56789417e+01
8.63739491e+00 1.21519136e+00 1.73546092e+00 1.21519136e+00 1.27788515e+01 1.06854717e+00 1.73546092e+00 1.06854717e+00 -6.82715058e+00
2.54727788e+01 -1.13797157e+00 1.98535164e+00 -1.13797157e+00 2.41771135e+01 4.02919695e-01 1.98535164e+00 4.02919695e-01 2.23159966e+01
1.85135932e+01 -1.02219105e-01 2.27782451e+00 -1.02219105e-01 1.74021788e+01 -5.05730030e-01 2.27782451e+00 -5.05730030e-01 7.75390744e+00
1.49200540e+01 -5.77266726e+00 1.51915541e+00 -5.77266726e+00 6.16240788e+00 -8.39360297e-01 1.51915541e+00 -8.39360297e-01 -4.57828903e+00
-8.60833015e+01 -2.57098788e+00 5.64081502e+00 -2.57098788e+00 -1.02627644e+02 3.67977309e+00 5.64081502e+00 3.67977309e+00 -2.32734550e+02
-1.00207153e+02 -8.94454122e-02 2.90301466e+00 -8.94454122e-02 -1.06013428e+02 1.36915743e-01 2.90301466e+00 1.36915743e-01 -2.53177322e+02
2.21606259e+01 4.77454933e+00 -8.00191010e-01 4.77454933e+00 2.05208680e+01 2.05871344e+00 -8.00191010e-01 2.05871344e+00 1.75324306e+01
3.20145600e+01 -2.60697445e+00 2.90251677e+00 -2.60697445e+00 3.16450391e+01 1.88930599e+00 2.90251677e+00 1.88930599e+00 3.59866686e+01
2.99359496e+01 -1.19590546e+00 6.97458088e-01 -1.19590546e+00 2.85242829e+01 1.72578894e+00 6.97458088e-01 1.72578894e+00 3.23104379e+01
1.47475446e+01 3.47675562e-01 2.35626483e+00 3.47675562e-01 1.51773366e+01 -3.09249680e+00 2.35626483e+00 -3.09249680e+00 1.69624186e+01
2.30798373e+01 1.14503324e+00 3.76313639e+00 1.14503324e+00 1.63157141e+01 1.17304416e+00 3.76313639e+00 1.17304416e+00 2.66072077e+01
1.17352891e+00 -7.70842141e+00 -1.54906631e+00 -7.70842141e+00 -6.35199875e+00 -9.50496167e-01 -1.54906631e+00 -9.50496167e-01 4.83280778e-01
2.82932162e+01 4.09043585e+00 3.54717553e+00 4.09043585e+00 1.46427917e+01 3.27313513e-01 3.54717553e+00 3.27313513e-01 3.41774894e+01
1.18136787e+01 6.04875600e+00 -1.02555090e+01 6.04875600e+00 2.20029716e+01 1.75384068e+01 -1.02555090e+01 1.75384068e+01 5.71174245e+01
2.51262159e+01 -2.51162779e+00 3.57062373e+00 -2.51162779e+00 2.92648849e+01 -3.28227592e+00 3.57062373e+00 -3.28227592e+00 3.95758724e+01
-3.67504525e+00 9.85866547e+00 -2.29425049e+00 9.85866547e+00 7.26375914e+00 2.04291382e+01 -2.29425049e+00 2.04291382e+01 -2.72012558e+01
1.85231353e+01 4.79046836e+00 -3.11732904e+00 4.79046836e+00 2.62550691e+01 -3.19733047e+00 -3.11732904e+00 -3.19733047e+00 1.24295948e+01
1.42523746e+01 1.48195326e-01 3.44412021e+00 1.48195326e-01 7.53114700e+00 2.48382033e+00 3.44412021e+00 2.48382033e+00 5.44921108e+00
-4.25630033e-01 4.57840754e+00 4.81755629e+00 4.57840754e+00 1.06852754e+01 -8.17286968e-01 4.81755629e+00 -8.17286968e-01 3.09087604e+00
-2.61890642e-01 -4.50182632e+00 -5.85611373e-01 -4.50182632e+00 6.39754844e+00 2.12938288e+00 -5.85611373e-01 2.12938288e+00 9.85413712e+00
3.45757604e+00 -2.09264946e+00 -8.09645176e-01 -2.09264946e+00 -7.41418314e+00 4.26145699e-02 -8.09645176e-01 4.26145699e-02 5.48680180e+00
-2.11040473e+00 -2.38824606e-01 -1.39937428e+00 -2.38824606e-01 -6.75244761e+00 -1.26039746e+00 -1.39937428e+00 -1.26039746e+00 3.12046260e+00
-9.23022766e+01 2.28295827e+00 -2.96772265e+00 2.28295827e+00 -6.41411743e+01 1.09183383e+00 -2.96772265e+00 1.09183383e+00 -1.96136215e+02
-1.39478668e+02 5.11373949e+00 3.47284794e-01 5.11373949e+00 -1.24516426e+02 1.54079580e+00 3.47284794e-01 1.54079580e+00 -3.15521240e+02
7.78946241e+00 -1.41656371e+00 1.41045879e+00 -1.41656371e+00 5.51320521e+00 2.08640321e+00 1.41045879e+00 2.08640321e+00 -1.56151454e+01
2.57826424e+00 -2.33953762e+00 3.88354445e+00 -2.33953762e+00 -6.11213303e+00 -3.65993083e-02 3.88354445e+00 -3.65993083e-02 -3.25410309e+01
1.69170268e+00 2.16699094e+00 -1.19128333e-01 2.16699094e+00 -5.08556724e-01 -8.16739544e-01 -1.19128333e-01 -8.16739544e-01 3.07970302e+00
1.22774089e+01 1.40830906e+00 2.75027315e-01 1.40830906e+00 2.64235522e+01 5.36993607e+00 2.75027315e-01 5.36993607e+00 2.40565953e+01
2.59166384e+00 1.52130741e+00 4.81655031e-01 1.52130741e+00 -6.35720134e+00 7.01150090e-01 4.81655031e-01 7.01150090e-01 -2.97802293e+00
5.95499086e+00 -1.69260836e+00 7.99090203e-01 -1.69260836e+00 1.72148895e+00 7.17241079e-01 7.99090203e-01 7.17241079e-01 -2.09106731e+01
1.62322292e+01 1.59667277e+00 -8.40907395e-01 1.59667277e+00 1.26389246e+01 1.53415836e-02 -8.40907395e-01 1.53415836e-02 1.52256584e+00
-1.13721609e+00 -1.06799471e+00 3.05148400e-01 -1.06799471e+00 -2.15823174e+00 3.94503754e+00 3.05148400e-01 3.94503754e+00 -3.36984140e+01
-5.75672126e+00 -2.25282006e+00 -1.67817499e-01 -2.25282006e+00 -1.57423530e+01 3.46221185e+00 -1.67817499e-01 3.46221185e+00 -5.11798878e+01
1.26133676e+01 3.02214706e+00 -2.35176440e+00 3.02214706e+00 3.65897751e+00 8.32355022e-01 -2.35176440e+00 8.32355022e-01 -1.24462471e+01
1.03372803e+01 -8.66868615e-01 -1.36891777e+00 -8.66868615e-01 2.52569742e+01 2.39835960e+00 -1.36891777e+00 2.39835960e+00 1.09811811e+01
2.13602276e+01 3.16161803e+00 -2.25275819e+00 3.16161803e+00 2.46714344e+01 1.54657871e+00 -2.25275819e+00 1.54657871e+00 2.36445746e+01
-6.08607692e+00 1.42117834e+00 -1.15465981e+00 1.42117834e+00 1.84474039e+00 6.61167383e-01 -1.15465981e+00 6.61167383e-01 3.87176755e+00
-4.50097036e+00 1.35650325e+00 -5.50553650e-02 1.35650325e+00 -4.05568004e-01 -9.83934700e-02 -5.50553650e-02 -9.83934700e-02 8.68800223e-01
</DataArray>
<DataArray type="Float32" Name="Logarithmic_strain_components" NumberOfComponents="9" format="ascii">
3.20073459e-02 -7.03264174e-03 2.39437717e-03 -7.03264174e-03 2.77214712e-02 6.78762807e-03 2.39437717e-03 6.78762807e-03 -4.95537668e-02
3.17966482e-02 -1.32334280e-02 4.95886779e-05 -1.32334280e-02 3.47461738e-02 1.42248557e-02 4.95886779e-05 1.42248557e-02 -5.58493561e-02
3.70951286e-02 -1.36916293e-03 3.33473168e-03 -1.36916293e-03 4.83586900e-02 -5.52123925e-03 3.33473168e-03 -5.52123925e-03 -7.25132003e-02
3.26247625e-02 -1.18170938e-03 -2.79445658e-03 -1.18170938e-03 3.78408162e-02 -2.16358341e-04 -2.79445658e-03 -2.16358341e-04 -5.99432010e-02
3.24057592e-02 3.38097458e-03 1.16559301e-02 3.38097458e-03 4.04136688e-02 8.30866391e-03 1.16559301e-02 8.30866391e-03 -5.97677780e-02
3.35189719e-02 -1.09915602e-02 -1.31628122e-02 -1.09915602e-02 5.27228404e-02 1.34402765e-02 -1.31628122e-02 1.34402765e-02 -7.17314961e-02
4.89362227e-02 -5.04130078e-03 -4.05627131e-03 -5.04130078e-03 5.86056598e-02 -1.15666739e-02 -4.05627131e-03 -1.15666739e-02 -9.14820563e-02
3.68031086e-02 1.52795331e-02 7.40400923e-03 1.52795331e-02 4.52742185e-02 1.44948383e-02 7.40400923e-03 1.44948383e-02 -6.90189153e-02
4.33949418e-02 5.43945585e-04 -1.99780584e-02 5.43945585e-04 4.56436770e-02 1.92700084e-02 -1.99780584e-02 1.92700084e-02 -7.90004171e-02
5.60406391e-02 2.33938743e-04 -1.40567450e-02 2.33938743e-04 6.17450550e-02 2.23583663e-02 -1.40567450e-02 2.23583663e-02 -1.05950333e-01
5.97366889e-02 2.75106216e-02 -8.84763760e-02 2.75106216e-02 5.55725799e-02 -1.39593412e-02 -8.84763760e-02 -1.39593412e-02 -1.00278653e-01
8.47912244e-02 2.42744610e-02 -6.57714009e-02 2.42744610e-02 4.82291058e-02 -1.16097193e-02 -6.57714009e-02 -1.16097193e-02 -1.15892492e-01
-3.80802345e-06 -2.91845645e-05 -1.26481689e-05 -2.91845645e-05 8.45307170e-06 1.21726134e-05 -1.26481689e-05 1.21726134e-05 -8.49273192e-06
-8.73839485e-06 -1.97254292e-06 -4.87854322e-06 -1.97254292e-06 -6.67949735e-07 -1.14438735e-05 -4.87854322e-06 -1.14438735e-05 4.67717928e-06
1.86289544e-05 -6.45784712e-06 -4.66270853e-06 -6.45784712e-06 -8.01179112e-07 2.88859087e-05 -4.66270853e-06 2.88859087e-05 -2.12162977e-05
1.08241620e-05 -3.35068344e-05 -4.56325324e-07 -3.35068344e-05 -3.08116205e-06 -2.42124715e-05 -4.56325324e-07 -2.42124715e-05 -1.27259013e-05
4.58224895e-06 1.01395663e-05 1.66445570e-05 1.01395663e-05 7.21159040e-07 7.35938147e-06 1.66445570e-05 7.35938147e-06 -1.81086500e-06
-2.20213724e-06 1.01873934e-06 6.14035207e-06 1.01873934e-06 -4.62918706e-06 3.02794888e-07 6.14035207e-06 3.02794888e-07 1.06068592e-05
-2.75834827e-06 2.32014713e-06 -1.18847029e-05 2.32014713e-06 4.09961922e-06 -2.57448119e-05 -1.18847029e-05 -2.57448119e-05 7.10588210e-07
-8.64994672e-06 1.13127408e-05 -5.85116823e-06 1.13127408e-05 -3.71028727e-06 1.69893192e-05 -5.85116823e-06 1.69893192e-05 1.66243371e-05
4.57905214e-02 8.20439254e-06 9.50300088e-03 8.20439254e-06 4.80273422e-02 -2.12377287e-03 9.50300088e-03 -2.12377287e-03 -7.92728812e-02
4.71538864e-02 2.18274677e-03 6.33320969e-03 2.18274677e-03 4.64468161e-02 2.60596200e-03 6.33320969e-03 2.60596200e-03 -7.91041963e-02
4.54686768e-02 -8.46562974e-03 1.11792609e-02 -8.46562974e-03 4.71393326e-02 3.59060137e-03 1.11792609e-02 3.59060137e-03 -7.77888065e-02
4.41228598e-02 1.65406254e-03 9.94028331e-03 1.65406254e-03 4.92987549e-02 -5.28279715e-03 9.94028331e-03 -5.28279715e-03 -7.89225213e-02
5.88871241e-02 -1.02854974e-05 1.08889583e-02 -1.02854974e-05 4.47152704e-02 4.34458285e-04 1.08889583e-02 4.34458285e-04 -8.70534070e-02
5.68139460e-02 1.45268976e-03 2.22270587e-03 1.45268976e-03 4.72654179e-02 9.62246477e-03 2.22270587e-03 9.62246477e-03 -8.79566912e-02
5.81080052e-02 3.22862540e-03 1.38537613e-02 3.22862540e-03 4.78664623e-02 4.49606369e-03 1.38537613e-02 4.49606369e-03 -8.91828379e-02
5.97675815e-02 2.94884417e-03 1.42195735e-02 2.94884417e-03 4.76979772e-02 -8.26883386e-03 1.42195735e-02 -8.26883386e-03 -9.07167401e-02
5.07673062e-02 -1.02052463e-02 9.29958583e-03 -1.02052463e-02 4.10500914e-02 6.59817211e-04 9.29958583e-03 6.59817211e-04 -7.71240797e-02
4.96815750e-02 -1.14233536e-02 1.10104599e-02 -1.14233536e-02 4.56004534e-02 4.69295995e-03 1.10104599e-02 4.69295995e-03 -8.00093673e-02
5.33637796e-02 2.46017531e-03 -4.15565235e-04 2.46017531e-03 4.76223966e-02 5.02498850e-03 -4.15565235e-04 5.02498850e-03 -8.54470413e-02
5.27042220e-02 3.55530367e-03 1.18090206e-02 3.55530367e-03 5.11194156e-02 1.39680811e-02 1.18090206e-02 1.39680811e-02 -8.79115444e-02
5.41217281e-02 8.96012949e-04 3.60694726e-03 8.96012949e-04 3.80806383e-02 5.64981388e-03 3.60694726e-03 5.64981388e-03 -7.73392227e-02
5.46673676e-02 -5.44840525e-03 -5.32897824e-03 -5.44840525e-03 4.47587203e-02 -4.23988115e-03 -5.32897824e-03 -4.23988115e-03 -8.30717739e-02
5.17401109e-02 -5.34640625e-03 1.22901727e-03 -5.34640625e-03 4.31134421e-02 5.81867888e-03 1.22901727e-03 5.81867888e-03 -8.00026376e-02
4.97663449e-02 -4.99421090e-03 -4.85249376e-03 -4.99421090e-03 4.75521847e-02 4.79367701e-03 -4.85249376e-03 4.79367701e-03 -8.19370328e-02
5.65235252e-02 2.51186563e-03 -4.89812298e-03 2.51186563e-03 3.62777151e-02 -4.68282058e-04 -4.89812298e-03 -4.68282058e-04 -7.77232870e-02
5.50980307e-02 1.56270403e-03 -7.53388088e-03 1.56270403e-03 5.08278529e-02 5.54922735e-07 -7.53388088e-03 5.54922735e-07 -8.92178183e-02
4.99810921e-02 -2.38102151e-03 -6.92829920e-03 -2.38102151e-03 3.85206016e-02 4.72324208e-03 -6.92829920e-03 4.72324208e-03 -7.43997432e-02
4.95683476e-02 -9.54856406e-03 -1.09924821e-02 -9.54856406e-03 4.10763388e-02 -5.70748984e-03 -1.09924821e-02 -5.70748984e-03 -7.53458515e-02
5.41302031e-02 7.95495420e-04 2.66842591e-03 7.95495420e-04 3.76142841e-02 -3.46126967e-03 2.66842591e-03 -3.46126967e-03 -7.67115820e-02
5.50018670e-02 6.74103503e-05 3.48442583e-04 6.74103503e-05 4.97441050e-02 2.81890872e-03 3.48442583e-04 2.81890872e-03 -8.78870040e-02
4.43777004e-02 -5.19572088e-04 -1.21943641e-02 -5.19572088e-04 3.71726202e-02 -1.22587453e-03 -1.21943641e-02 -1.22587453e-03 -6.78323526e-02
4.70513813e-02 -2.80423665e-03 -9.90601496e-03 -2.80423665e-03 4.42320560e-02 -5.46882986e-03 -9.90601496e-03 -5.46882986e-03 -7.66851828e-02
5.20156715e-02 7.85438897e-06 2.50466797e-03 7.85438897e-06 3.78493089e-02 -3.32807982e-03 2.50466797e-03 -3.32807982e-03 -7.49128461e-02
5.12033785e-02 -3.53301907e-03 -2.29034049e-03 -3.53301907e-03 5.01003386e-02 -2.70099682e-03 -2.29034049e-03 -2.70099682e-03 -8.43842551e-02
4.07272633e-02 1.21487565e-02 -8.86518834e-03 1.21487565e-02 3.76958624e-02 -1.03517552e-02 -8.86518834e-03 -1.03517552e-02 -6.48588855e-02
4.60224235e-02 2.54771253e-03 -6.77955491e-03 2.54771253e-03 4.30971254e-02 -6.41210386e-03 -6.77955491e-03 -6.41210386e-03 -7.44402949e-02
4.14869518e-02 -1.44747639e-02 2.84759087e-02 -1.44747639e-02 5.17230979e-02 1.20098671e-03 2.84759087e-02 1.20098671e-03 -7.79105267e-02
3.49701634e-02 -1.21844148e-02 2.09222238e-02 -1.21844148e-02 5.50845880e-02 -3.19428509e-03 2.09222238e-02 -3.19428509e-03 -7.54766222e-02
6.21924521e-02 7.49718929e-04 3.68542480e-02 7.49718929e-04 5.17283184e-02 1.14278698e-02 3.68542480e-02 1.14278698e-02 -9.65376254e-02
5.94752887e-02 -1.26866100e-04 2.78223210e-02 -1.26866100e-04 5.22447703e-02 -1.91544389e-03 2.78223210e-02 -1.91544389e-03 -9.40556154e-02
5.31276464e-02 -1.05906012e-03 2.12013332e-02 -1.05906012e-03 4.89175277e-02 -3.67434030e-03 2.12013332e-02 -3.67434030e-03 -8.75352930e-02
5.63803245e-02 1.15561834e-02 1.02583370e-02 1.15561834e-02 5.28189628e-02 -6.68278616e-03 1.02583370e-02 -6.68278616e-03 -9.36406422e-02
6.14761852e-02 -1.42482495e-02 -5.82994757e-02 -1.42482495e-02 5.60115386e-02 -1.18323546e-03 -5.82994757e-02 -1.18323546e-03 -1.04749925e-01
4.46469566e-02 7.15484229e-03 -3.71251823e-02 7.15484229e-03 4.94331542e-02 -6.57550658e-03 -3.71251823e-02 -6.57550658e-03 -8.06429886e-02
6.07717941e-02 -1.81244290e-03 -1.71591514e-02 -1.81244290e-03 6.95074107e-02 1.15488185e-02 -1.71591514e-02 1.15488185e-02 -1.14332458e-01
5.08110322e-02 -6.46644407e-03 -5.53675065e-02 -6.46644407e-03 4.08256948e-02 7.33863297e-03 -5.53675065e-02 7.33863297e-03 -7.79491924e-02
5.96957430e-02 -4.36225219e-03 -1.74528116e-03 -4.36225219e-03 6.63365088e-02 1.03477189e-02 -1.74528116e-03 1.03477189e-02 -1.09047949e-01
5.18813720e-02 2.29279767e-03 -2.12055366e-02 2.29279767e-03 5.94377760e-02 -1.90200924e-03 -2.12055366e-02 -1.90200924e-03 -9.76560079e-02
5.36792967e-02 -2.80321366e-03 -4.08524810e-03 -2.80321366e-03 6.87113479e-02 3.55392322e-03 -4.08524810e-03 3.55392322e-03 -1.05175219e-01
4.86249886e-02 -4.65235114e-03 -2.19447995e-02 -4.65235114e-03 6.08408488e-02 -1.57706216e-02 -2.19447995e-02 -1.57706216e-02 -9.54858735e-02
3.56433373e-02 -8.69166638e-03 3.83041139e-02 -8.69166638e-03 5.05856435e-02 1.58189709e-03 3.83041139e-02 1.58189709e-03 -7.20364207e-02
3.08182393e-02 2.84650351e-03 3.02477060e-02 2.84650351e-03 5.00508277e-02 4.19749715e-03 3.02477060e-02 4.19749715e-03 -6.69777319e-02
6.55964352e-02 -4.12618294e-03 4.24555870e-02 -4.12618294e-03 5.38261432e-02 -9.13071872e-03 4.24555870e-02 -9.13071872e-03 -1.00751536e-01
5.32306777e-02 1.72816456e-03 4.33596815e-02 1.72816456e-03 5.58252661e-02 -1.14964421e-02 4.33596815e-02 -1.14964421e-02 -9.13280901e-02
4.66231550e-02 -2.54489114e-02 5.14889858e-02 -2.54489114e-02 6.23833677e-02 -5.86810503e-02 5.14889858e-02 -5.86810503e-02 -9.37238298e-02
7.18737952e-02 6.32968498e-04 1.86061569e-02 6.32968498e-04 5.43631323e-02 -4.55049697e-02 1.86061569e-02 -4.55049697e-02 -1.09573242e-01
-1.99333709e-02 -1.03563055e-01 -1.72660738e-01 -1.03563055e-01 1.79092726e-03 -1.17666654e-01 -1.72660738e-01 -1.17666654e-01 6.90075606e-02
3.12956305e-02 -1.01538720e-02 -5.04008469e-02 -1.01538720e-02 2.40290259e-02 -4.13277863e-02 -5.04008469e-02 -4.13277863e-02 -3.55464453e-02
3.03152560e-02 -2.97103962e-03 1.49378745e-02 -2.97103962e-03 3.88499706e-02 2.38292188e-02 1.49378745e-02 2.38292188e-02 -5.65693937e-02
2.94321608e-02 -6.99202518e-03 2.45742915e-02 -6.99202518e-03 4.07276265e-02 5.94222324e-03 2.45742915e-02 5.94222324e-03 -5.81406923e-02
4.45573361e-02 -8.28873145e-03 2.89434775e-02 -8.28873145e-03 5.50315722e-02 3.65821078e-02 2.89434775e-02 3.65821078e-02 -8.04610985e-02
4.89179213e-02 -5.81552298e-03 7.58329872e-03 -5.81552298e-03 5.68748061e-02 1.92043213e-02 7.58329872e-03 1.92043213e-02 -8.72146189e-02
3.14544840e-02 5.51424932e-03 -2.29842332e-03 5.51424932e-03 4.04184954e-02 3.64951277e-03 -2.29842332e-03 3.64951277e-03 -6.00669291e-02
5.20789911e-02 1.07559570e-02 -1.49785051e-02 1.07559570e-02 5.95159754e-02 2.97773257e-02 -1.49785051e-02 2.97773257e-02 -9.28310326e-02
4.65471577e-02 1.60454302e-02 1.24724549e-02 1.60454302e-02 6.64959708e-02 1.30894913e-02 1.24724549e-02 1.30894913e-02 -9.44115985e-02
3.02544809e-02 6.69248539e-03 1.58703120e-02 6.69248539e-03 4.35209805e-02 6.99180970e-02 1.58703120e-02 6.99180970e-02 -6.37667365e-02
7.55043961e-02 -9.96065605e-03 6.31499849e-02 -9.96065605e-03 6.50995411e-02 2.98183879e-02 6.31499849e-02 2.98183879e-02 -1.25470545e-01
4.57021389e-02 -1.67671502e-02 -3.31083313e-02 -1.67671502e-02 7.14909241e-02 -1.40173934e-02 -3.31083313e-02 -1.40173934e-02 -9.90813434e-02
3.33975237e-02 -3.02921492e-03 7.53180264e-03 -3.02921492e-03 4.61240448e-02 1.13264751e-02 7.53180264e-03 1.13264751e-02 -6.63860627e-02
5.71962232e-02 2.05547441e-02 -9.03160477e-03 2.05547441e-02 5.87448310e-02 2.03663819e-02 -9.03160477e-03 2.03663819e-02 -9.28086340e-02
4.79928833e-02 -1.31706842e-02 1.79067287e-02 -1.31706842e-02 7.17974082e-02 -1.80431902e-02 1.79067287e-02 -1.80431902e-02 -1.01098407e-01
6.09563543e-02 -2.15364723e-02 -4.72024707e-02 -2.15364723e-02 6.93521211e-02 4.97454247e-02 -4.72024707e-02 4.97454247e-02 -1.12015357e-01
3.73642650e-02 4.10377209e-02 -3.02095261e-03 4.10377209e-02 7.20739588e-02 -1.16244486e-01 -3.02095261e-03 -1.16244486e-01 -9.04897985e-02
7.16084726e-02 -9.22568875e-03 -1.61305018e-02 -9.22568875e-03 3.97660105e-02 -2.20566577e-02 -1.61305018e-02 -2.20566577e-02 -9.35278771e-02
7.21526183e-02 5.39184111e-06 3.56294995e-03 5.39184111e-06 4.52674441e-02 -3.02379718e-03 3.56294995e-03 -3.02379718e-03 -9.87250581e-02
6.69551231e-02 3.27154569e-03 3.63043259e-03 3.27154569e-03 4.93107755e-02 5.21960836e-03 3.63043259e-03 5.21960836e-03 -9.81445145e-02
6.94485558e-02 1.26816568e-02 8.04626307e-03 1.26816568e-02 5.06614838e-02 5.18756526e-03 8.04626307e-03 5.18756526e-03 -1.01427234e-01
7.56615680e-02 3.35102825e-03 9.64487134e-03 3.35102825e-03 4.75088153e-02 -2.97833851e-03 9.64487134e-03 -2.97833851e-03 -1.03950277e-01
5.53310979e-02 8.74143024e-03 -1.17225634e-03 8.74143024e-03 5.59381545e-02 8.21535185e-03 -1.17225634e-03 8.21535185e-03 -9.44207944e-02
5.58230341e-02 1.75492548e-02 4.26631671e-03 1.75492548e-02 5.59549294e-02 7.25665450e-03 4.26631671e-03 7.25665450e-03 -9.49406195e-02
4.65857433e-02 5.54915308e-03 -1.61164481e-03 5.54915308e-03 5.65566355e-02 2.39332492e-03 -1.61164481e-03 2.39332492e-03 -8.77764262e-02
4.24257931e-02 8.81309120e-03 -4.96914727e-05 8.81309120e-03 5.77443317e-02 9.69565615e-03 -4.96914727e-05 9.69565615e-03 -8.53643101e-02
4.13098475e-02 -5.01947047e-03 -1.01611012e-03 -5.01947047e-03 5.25535243e-02 1.09497286e-03 -1.01611012e-03 1.09497286e-03 -7.97292907e-02
3.67445508e-02 -4.68670939e-03 -2.93326762e-03 -4.68670939e-03 5.18291364e-02 1.36635265e-03 -2.93326762e-03 1.36635265e-03 -7.49216070e-02
3.60997515e-02 -5.54331706e-03 -4.74738039e-03 -5.54331706e-03 4.97146016e-02 -1.24439566e-03 -4.74738039e-03 -1.24439566e-03 -7.22767953e-02
3.72023825e-02 -9.13516243e-03 -8.64888378e-03 -9.13516243e-03 4.42392342e-02 -2.37533043e-03 -8.64888378e-03 -2.37533043e-03 -6.82236534e-02
3.17888707e-02 1.40519132e-03 -1.62212935e-04 1.40519132e-03 5.28090596e-02 -8.93079909e-04 -1.62212935e-04 -8.93079909e-04 -7.14439750e-02
3.65545768e-02 -7.94210273e-03 -3.50371795e-03 -7.94210273e-03 4.56739450e-02 -1.18368301e-02 -3.50371795e-03 -1.18368301e-02 -6.92764632e-02
8.07997519e-02 1.60269740e-02 2.32937947e-02 1.60269740e-02 4.95565119e-02 6.34165358e-03 2.32937947e-02 6.34165358e-03 -1.09670000e-01
8.35493002e-02 9.18654632e-03 2.84579026e-02 9.18654632e-03 5.44569483e-02 -8.77710199e-03 2.84579026e-02 -8.77710199e-03 -1.16315350e-01
6.18014107e-02 2.29262635e-02 2.26843334e-03 2.29262635e-02 4.93319286e-02 3.58806832e-03 2.26843334e-03 3.58806832e-03 -9.41934902e-02
3.79019142e-02 1.78618768e-02 -1.94915974e-02 1.78618768e-02 4.27398314e-02 -1.87609124e-03 -1.94915974e-02 -1.87609124e-03 -6.74766079e-02
2.56008328e-02 -3.18256074e-04 -2.30598684e-02 -3.18256074e-04 4.08399039e-02 -1.40026032e-03 -2.30598684e-02 -1.40026032e-03 -5.56852727e-02
2.32090787e-02 -1.18443780e-02 -2.90735075e-02 -1.18443780e-02 3.65397166e-02 -1.03018857e-02 -2.90735075e-02 -1.03018857e-02 -4.98931309e-02
2.66112822e-02 -1.86090147e-02 -3.34835040e-02 -1.86090147e-02 3.19310948e-02 -1.73842348e-02 -3.34835040e-02 -1.73842348e-02 -4.88796420e-02
9.04114085e-02 -2.26835425e-03 6.10301501e-02 -2.26835425e-03 4.82726178e-02 -1.43472254e-02 6.10301501e-02 -1.43472254e-02 -1.18175456e-01
8.91176263e-02 -1.59867449e-02 5.59799857e-02 -1.59867449e-02 5.43761800e-02 -1.71419028e-02 5.59799857e-02 -1.71419028e-02 -1.23510905e-01
7.26892855e-02 1.57108963e-02 8.96694036e-03 1.57108963e-02 3.60108707e-02 -3.40323746e-02 8.96694036e-03 -3.40323746e-02 -9.11332381e-02
3.24886803e-02 2.00065187e-02 -3.54784407e-02 2.00065187e-02 1.39035735e-02 -2.14919291e-02 -3.54784407e-02 -2.14919291e-02 -3.54156140e-02
1.19137280e-02 -6.27105534e-02 -8.04258659e-02 -6.27105534e-02 -3.08417697e-02 -8.43155906e-02 -8.04258659e-02 -8.43155906e-02 4.10501398e-02
4.84151090e-04 3.59807457e-03 -1.30986083e-02 3.59807457e-03 6.28614808e-03 -5.95151428e-03 -1.30986083e-02 -5.95151428e-03 -1.43212434e-03
8.70208722e-02 8.79482017e-04 -3.52010876e-03 8.79482017e-04 7.02622784e-02 4.76386631e-02 -3.52010876e-03 4.76386631e-02 -1.33631382e-01
8.82814452e-02 1.20802891e-02 -3.54421667e-02 1.20802891e-02 8.17198766e-02 4.24001912e-02 -3.54421667e-02 4.24001912e-02 -1.45137794e-01
9.69733223e-02 -1.81660438e-02 2.21874816e-02 -1.81660438e-02 5.05928993e-02 -5.12673995e-02 2.21874816e-02 -5.12673995e-02 -1.29835296e-01
7.72354553e-02 -5.67244894e-03 -2.22678552e-02 -5.67244894e-03 9.74875403e-02 3.20762501e-02 -2.22678552e-02 3.20762501e-02 -1.48403036e-01
7.69567210e-02 -6.30361878e-03 1.60621072e-02 -6.30361878e-03 9.81665477e-02 -5.21380382e-04 1.60621072e-02 -5.21380382e-04 -1.47004001e-01
8.79679229e-02 -5.59176924e-03 8.85804417e-03 -5.59176924e-03 7.61261340e-02 2.33709783e-02 8.85804417e-03 2.33709783e-02 -1.38667956e-01
8.53064284e-02 4.40527964e-03 1.29622004e-02 4.40527964e-03 7.50605725e-02 -1.41865476e-02 1.29622004e-02 -1.41865476e-02 -1.35496549e-01
8.15706961e-02 2.16558192e-02 -1.30033098e-02 2.16558192e-02 7.86677841e-02 -2.43170410e-02 -1.30033098e-02 -2.43170410e-02 -1.39467131e-01
9.72250961e-02 -1.27916983e-02 -2.61585391e-02 -1.27916983e-02 5.87152708e-02 4.55709365e-02 -2.61585391e-02 4.55709365e-02 -1.32050568e-01
7.28218602e-02 1.06169926e-02 9.82511704e-03 1.06169926e-02 2.76623925e-02 -3.30737405e-02 9.82511704e-03 -3.30737405e-02 -8.68706377e-02
5.54659460e-02 -2.08262096e-02 8.65376531e-03 -2.08262096e-02 4.04621353e-02 -7.09092524e-03 8.65376531e-03 -7.09092524e-03 -7.94095648e-02
-5.40711805e-02 6.45917431e-02 3.87274437e-02 6.45917431e-02 -1.53434090e-02 1.54405041e-03 3.87274437e-02 1.54405041e-03 1.22463778e-01
-1.34959714e-02 2.89224777e-02 5.23966216e-02 2.89224777e-02 -5.12670958e-03 -7.17834234e-02 5.23966216e-02 -7.17834234e-02 4.17643040e-02
1.52346451e-02 -3.21404275e-02 -1.02654488e-02 -3.21404275e-02 -1.87986059e-02 3.29233418e-02 -1.02654488e-02 3.29233418e-02 4.03965664e-03
-9.23768126e-03 -5.60808606e-02 -1.09717590e-02 -5.60808606e-02 1.61840091e-03 -9.17963557e-03 -1.09717590e-02 -9.17963557e-03 8.19799522e-03
-2.56494986e-05 -4.59397088e-05 7.17815492e-05 -4.59397088e-05 2.90913595e-05 -5.08055527e-05 7.17815492e-05 -5.08055527e-05 -1.11515064e-05
-2.03234595e-05 5.14673047e-06 6.66511323e-06 5.14673047e-06 -6.01256147e-08 3.72525174e-05 6.66511323e-06 3.72525174e-05 1.50773549e-05
2.32306920e-05 -2.98197556e-05 1.48113813e-05 -2.98197556e-05 -8.23690971e-06 -6.65133266e-05 1.48113813e-05 -6.65133266e-05 -2.15125401e-05
1.11933787e-05 -8.08184122e-05 -6.06066460e-05 -8.08184122e-05 1.41940372e-05 6.10432835e-05 -6.06066460e-05 6.10432835e-05 -3.10978212e-05
1.74652119e-04 9.33856238e-05 5.29237408e-05 9.33856238e-05 -1.25506081e-04 1.02253336e-05 5.29237408e-05 1.02253336e-05 -2.20008131e-05
4.92975984e-05 -2.02329635e-05 -8.51350281e-06 -2.02329635e-05 -1.05139782e-04 4.61720604e-05 -8.51350281e-06 4.61720604e-05 3.25854368e-07
-7.53126988e-05 4.53136563e-05 -1.71789134e-06 4.53136563e-05 2.64274404e-05 -7.19950658e-05 -1.71789134e-06 -7.19950658e-05 1.93884025e-05
-1.57911691e-04 -2.74547662e-04 -3.41524841e-06 -2.74547662e-04 6.29095060e-05 -3.49562736e-05 -3.41524841e-06 -3.49562736e-05 1.12690164e-04
7.69943371e-02 -4.35684342e-06 3.12968041e-06 -4.35684342e-06 4.74474579e-02 -2.31117883e-06 3.12968041e-06 -2.31117883e-06 -1.04874343e-01
7.04204887e-02 6.17386843e-03 -8.26875475e-06 6.17386843e-03 5.16745634e-02 4.40443004e-03 -8.26875475e-06 4.40443004e-03 -1.03186760e-01
7.53147528e-02 1.85618417e-02 3.72378225e-03 1.85618417e-02 4.87143882e-02 7.22798996e-03 3.72378225e-03 7.22798996e-03 -1.04479449e-01
8.31645578e-02 5.41947363e-03 1.73993508e-03 5.41947363e-03 4.55355644e-02 -6.33796299e-06 1.73993508e-03 -6.33796299e-06 -1.08393181e-01
5.58568947e-02 5.92824840e-03 -3.57398130e-05 5.92824840e-03 6.00362290e-02 9.87096177e-03 -3.57398130e-05 9.87096177e-03 -9.85423140e-02
5.76343061e-02 2.34279530e-02 4.42031643e-03 2.34279530e-02 5.67418179e-02 6.99958892e-03 4.42031643e-03 6.99958892e-03 -9.70423594e-02
4.31471821e-02 9.31669259e-03 -2.73870028e-05 9.31669259e-03 6.36918247e-02 6.63875346e-03 -2.73870028e-05 6.63875346e-03 -9.10576284e-02
4.18057619e-02 1.51634042e-02 6.53840450e-03 1.51634042e-02 6.12352723e-02 1.03195461e-02 6.53840450e-03 1.03195461e-02 -8.83084908e-02
3.56968138e-02 1.27425574e-03 5.56748637e-06 1.27425574e-03 6.20793290e-02 2.20900471e-03 5.56748637e-06 2.20900471e-03 -8.33523981e-02
3.27149802e-02 2.07737397e-03 1.15968469e-02 2.07737397e-03 5.84227592e-02 8.54381989e-03 1.15968469e-02 8.54381989e-03 -7.82578178e-02
3.38592511e-02 -3.99086392e-03 -3.36318044e-06 -3.99086392e-03 5.82623295e-02 -1.20765697e-04 -3.36318044e-06 -1.20765697e-04 -7.84354135e-02
2.76724682e-02 -7.73112650e-03 1.25539145e-02 -7.73112650e-03 5.33757769e-02 1.51644484e-03 1.25539145e-02 1.51644484e-03 -6.89973254e-02
3.09761055e-02 -1.95985697e-02 4.78317270e-05 -1.95985697e-02 6.24201335e-02 5.97113045e-03 4.78317270e-05 5.97113045e-03 -8.03745314e-02
2.55005108e-02 -1.23393037e-02 1.64257390e-02 -1.23393037e-02 5.52508608e-02 -1.50234313e-02 1.64257390e-02 -1.50234313e-02 -6.92051835e-02
8.26484673e-02 2.47905070e-02 -8.76998063e-03 2.47905070e-02 5.84665826e-02 1.33035195e-02 -8.76998063e-03 1.33035195e-02 -1.19530164e-01
9.22437720e-02 4.78956196e-03 -4.29151021e-03 4.78956196e-03 6.17764704e-02 -9.73921487e-06 -4.29151021e-03 -9.73921487e-06 -1.31018225e-01
5.97373080e-02 4.25533466e-02 3.09269031e-04 4.25533466e-02 5.02251899e-02 1.88214611e-02 3.09269031e-04 1.88214611e-02 -9.28360522e-02
3.38902115e-02 2.50180557e-02 9.29583493e-03 2.50180557e-02 4.43458771e-02 1.25479202e-02 9.29583493e-03 1.25479202e-02 -6.58714036e-02
1.84144413e-02 -1.46504030e-03 1.25242078e-02 -1.46504030e-03 3.44556323e-02 1.02192387e-02 1.25242078e-02 1.02192387e-02 -4.34961589e-02
1.26894271e-02 -1.21045078e-02 1.40668324e-02 -1.21045078e-02 2.77389144e-02 -2.00354648e-03 1.40668324e-02 -2.00354648e-03 -3.26058138e-02
1.86500177e-02 -1.52893481e-02 8.70711030e-03 -1.52893481e-02 1.95593112e-02 -1.07949516e-02 8.70711030e-03 -1.07949516e-02 -3.08547420e-02
9.73719284e-02 -5.05008420e-03 3.54818534e-02 -5.05008420e-03 8.08689371e-02 1.92690734e-02 3.54818534e-02 1.92690734e-02 -1.60324678e-01
1.04323156e-01 -5.63497795e-03 2.46230215e-02 -5.63497795e-03 9.18523669e-02 -5.48841199e-05 2.46230215e-02 -5.48841199e-05 -1.77445203e-01
6.29658898e-02 2.47197555e-02 8.86591213e-03 2.47197555e-02 3.80199937e-02 2.80601308e-02 8.86591213e-03 2.80601308e-02 -8.58068118e-02
2.05223563e-02 1.33490230e-02 8.37089261e-03 1.33490230e-02 1.24038333e-02 1.36530171e-02 8.37089261e-03 1.36530171e-02 -2.31149311e-02
2.41318776e-04 -6.41246964e-03 8.79546831e-04 -6.41246964e-03 5.43763857e-03 7.20642900e-04 8.79546831e-04 7.20642900e-04 -1.99423278e-03
-2.76441851e-03 -5.91796916e-03 -1.62497767e-02 -5.91796916e-03 8.23984600e-03 -8.06887399e-04 -1.62497767e-02 -8.06887399e-04 -3.17244494e-03
-4.88251120e-04 -4.42889571e-03 7.51114843e-04 -4.42889571e-03 3.66735367e-03 5.21654380e-04 7.51114843e-04 5.21654380e-04 -8.27876034e-04
8.90173658e-04 -1.65824143e-02 -1.52393404e-02 -1.65824143e-02 7.77531415e-04 -3.20048784e-04 -1.52393404e-02 -3.20048784e-04 3.57301615e-04
2.18068680e-03 -1.01653343e-02 1.71886687e-03 -1.01653343e-02 -1.93101511e-03 1.88015809e-04 1.71886687e-03 1.88015809e-04 1.79536390e-03
2.20696409e-02 -2.00644741e-03 -2.27252273e-02 -2.00644741e-03 -1.37995656e-02 -5.25260177e-02 -2.27252273e-02 -5.25260177e-02 6.89161476e-04
-1.43284351e-03 -2.52971880e-03 9.78669571e-03 -2.52971880e-03 -2.21160357e-04 7.84661155e-03 9.78669571e-03 7.84661155e-03 1.04734721e-02
4.53681611e-02 2.86329407e-02 -8.77367519e-03 2.86329407e-02 5.47416620e-02 7.39839152e-02 -8.77367519e-03 7.39839152e-02 -8.96258131e-02
2.23899767e-04 -8.41309108e-05 -6.09108334e-04 -8.41309108e-05 3.73936777e-04 4.68564809e-03 -6.09108334e-04 4.68564809e-03 -2.19870950e-06
-1.28304318e-03 -3.70386853e-03 2.22605056e-04 -3.70386853e-03 9.47370844e-04 1.54396732e-04 2.22605056e-04 1.54396732e-04 9.92538034e-04
-1.90796363e-04 2.30003978e-04 2.25543588e-04 2.30003978e-04 3.80288944e-04 -1.48407562e-05 2.25543588e-04 -1.48407562e-05 -3.55549964e-05
-1.56196584e-04 -2.48430319e-04 -9.86615705e-05 -2.48430319e-04 1.79060578e-04 8.77263210e-05 -9.86615705e-05 8.77263210e-05 1.28760155e-04
2.69525489e-04 -1.01874895e-03 4.63222328e-04 -1.01874895e-03 -5.11448190e-04 7.64519336e-06 4.63222328e-04 7.64519336e-06 3.66096232e-04
4.29775850e-04 -1.16750957e-03 -1.49461921e-04 -1.16750957e-03 -1.01399413e-03 -9.20357488e-05 -1.49461921e-04 -9.20357488e-05 7.06015267e-04
9.90754738e-02 2.19086688e-02 -2.31188685e-02 2.19086688e-02 1.50785103e-01 4.92244842e-04 -2.31188685e-02 4.92244842e-04 -2.23018363e-01
1.23652920e-01 7.66984047e-03 -1.27963806e-02 7.66984047e-03 1.36340410e-01 2.58455314e-02 -1.27963806e-02 2.58455314e-02 -2.35827506e-01
9.35975760e-02 -2.43154562e-02 2.35619657e-02 -2.43154562e-02 1.01610238e-01 2.73364608e-02 2.35619657e-02 2.73364608e-02 -1.65337071e-01
9.66177881e-02 -1.63626466e-02 3.31431329e-02 -1.63626466e-02 1.09336525e-01 1.68963670e-04 3.31431329e-02 1.68963670e-04 -1.75937995e-01
6.59911602e-05 3.68271012e-05 -5.31172032e-06 3.68271012e-05 -5.89702704e-05 -5.19670402e-05 -5.31172032e-06 -5.19670402e-05 2.79881950e-05
1.08266602e-02 -1.27952080e-02 4.13767508e-05 -1.27952080e-02 -4.17218505e-03 3.87507200e-04 4.13767508e-05 3.87507200e-04 -4.90257091e-03
8.95648191e-05 7.27036422e-05 2.30559963e-05 7.27036422e-05 -1.24730108e-04 3.37472611e-05 2.30559963e-05 3.37472611e-05 -4.43804820e-05
1.07873984e-01 -2.46910937e-02 1.82257211e-02 -2.46910937e-02 6.91863261e-02 1.93414809e-02 1.82257211e-02 1.93414809e-02 -1.50625989e-01
1.10882774e-01 6.36880379e-03 1.61598623e-02 6.36880379e-03 6.15541004e-02 -1.28005398e-04 1.61598623e-02 -1.28005398e-04 -1.44238919e-01
8.61095898e-02 7.04793260e-03 5.79979131e-03 7.04793260e-03 8.01339261e-02 3.41775864e-02 5.79979131e-03 3.41775864e-02 -1.43630311e-01
1.03499815e-01 -2.30068591e-02 -2.99436273e-03 -2.30068591e-02 6.04775324e-02 4.02642507e-02 -2.99436273e-03 4.02642507e-02 -1.39707290e-01
4.74323742e-02 1.20838569e-02 -1.83746349e-02 1.20838569e-02 2.61058658e-02 1.61924846e-02 -1.83746349e-02 1.61924846e-02 -5.53568024e-02
3.46745389e-02 -1.36207654e-02 -1.30573930e-02 -1.36207654e-02 4.77115307e-02 1.79889696e-02 -1.30573930e-02 1.79889696e-02 -6.32471498e-02
-9.75986352e-03 -3.35336434e-02 -8.13913823e-04 -3.35336434e-02 7.52769283e-03 3.95371739e-04 -8.13913823e-04 3.95371739e-04 5.41001979e-03
-3.33865943e-04 -4.86297358e-05 -6.14603159e-05 -4.86297358e-05 1.33117948e-04 1.73150192e-05 -6.14603159e-05 1.73150192e-05 2.25375483e-04
-9.25902787e-05 6.50593647e-05 -1.88895990e-06 6.50593647e-05 5.80093138e-06 -5.11805820e-06 -1.88895990e-06 -5.11805820e-06 3.52873358e-05
</DataArray>
<DataArray type="Float32" Name="Plastic_strain_components" NumberOfComponents="9" format="ascii">
3.17167505e-02 -7.03384095e-03 2.41863431e-03 -7.03384095e-03 2.74815590e-02 6.81084149e-03 2.41863431e-03 6.81084149e-03 -4.96651819e-02
2.74488750e-02 -1.24748055e-02 8.47859890e-04 -1.24748055e-02 2.91626280e-02 1.36962383e-02 8.47859890e-04 1.36962383e-02 -4.54772515e-02
3.36077856e-02 -9.07102367e-05 2.70442443e-03 -9.07102367e-05 4.49597053e-02 -4.06874926e-03 2.70442443e-03 -4.06874926e-03 -6.51597194e-02
3.26266238e-02 -1.15322125e-03 -2.81326877e-03 -1.15322125e-03 3.78594985e-02 -2.14186730e-04 -2.81326877e-03 -2.14186730e-04 -5.93745103e-02
1.78167903e-02 1.31438713e-03 1.34206561e-02 1.31438713e-03 2.28622662e-02 5.36472959e-04 1.34206561e-02 5.36472959e-04 -2.87219347e-02
2.35547834e-02 -7.76909002e-03 -6.24700927e-03 -7.76909002e-03 3.54730492e-02 2.05085268e-02 -6.24700927e-03 2.05085268e-02 -4.52383361e-02
5.46799195e-02 -6.80812867e-03 -7.16123662e-03 -6.80812867e-03 6.77202307e-02 -1.48951286e-02 -7.16123662e-03 -1.48951286e-02 -1.05228053e-01
4.45976174e-02 1.65423930e-02 6.43287250e-03 1.65423930e-02 5.47825238e-02 1.88433647e-02 6.43287250e-03 1.88433647e-02 -8.63463916e-02
4.67157708e-02 4.15553921e-04 -1.83744878e-02 4.15553921e-04 5.04364520e-02 2.48495229e-02 -1.83744878e-02 2.48495229e-02 -8.39477386e-02
5.96308801e-02 -2.31673570e-04 -1.37060094e-02 -2.31673570e-04 6.50885832e-02 2.14239815e-02 -1.37060094e-02 2.14239815e-02 -1.05680216e-01
6.93033723e-02 2.57660414e-02 -9.45508592e-02 2.57660414e-02 6.96771617e-02 -1.90811449e-02 -9.45508592e-02 -1.90811449e-02 -1.18884136e-01
8.11802335e-02 2.49760235e-02 -6.31396361e-02 2.49760235e-02 4.31260131e-02 -1.01908030e-02 -6.31396361e-02 -1.01908030e-02 -1.01938058e-01
0.00000000e+00 0.00000000e+00 0.00000000e+00 0.00000000e+00 0.00000000e+00 0.00000000e+00 0.00000000e+00 0.00000000e+00 0.00000000e+00
0.00000000e+00 0.00000000e+00 0.00000000e+00 0.00000000e+00 0.00000000e+00 0.00000000e+00 0.00000000e+00 0.00000000e+00 0.00000000e+00
0.00000000e+00 0.00000000e+00 0.00000000e+00 0.00000000e+00 0.00000000e+00 0.00000000e+00 0.00000000e+00 0.00000000e+00 0.00000000e+00
0.00000000e+00 0.00000000e+00 0.00000000e+00 0.00000000e+00 0.00000000e+00 0.00000000e+00 0.00000000e+00 0.00000000e+00 0.00000000e+00
0.00000000e+00 0.00000000e+00 0.00000000e+00 0.00000000e+00 0.00000000e+00 0.00000000e+00 0.00000000e+00 0.00000000e+00 0.00000000e+00
0.00000000e+00 0.00000000e+00 0.00000000e+00 0.00000000e+00 0.00000000e+00 0.00000000e+00 0.00000000e+00 0.00000000e+00 0.00000000e+00
0.00000000e+00 0.00000000e+00 0.00000000e+00 0.00000000e+00 0.00000000e+00 0.00000000e+00 0.00000000e+00 0.00000000e+00 0.00000000e+00
0.00000000e+00 0.00000000e+00 0.00000000e+00 0.00000000e+00 0.00000000e+00 0.00000000e+00 0.00000000e+00 0.00000000e+00 0.00000000e+00
4.57659941e-02 8.18734952e-06 9.52627650e-03 8.18734952e-06 4.79825288e-02 -2.12876475e-03 9.52627650e-03 -2.12876475e-03 -7.89383650e-02
4.69689621e-02 2.16405181e-03 6.33018941e-03 2.16405181e-03 4.62622875e-02 2.60121461e-03 6.33018941e-03 2.60121461e-03 -7.84983188e-02
4.53569521e-02 -8.46728947e-03 1.12256634e-02 -8.46728947e-03 4.70084185e-02 3.56391263e-03 1.12256634e-02 3.56391263e-03 -7.77054643e-02
4.39387336e-02 1.65451577e-03 9.91624285e-03 1.65451577e-03 4.90568448e-02 -5.27377590e-03 9.91624285e-03 -5.27377590e-03 -7.82853961e-02
5.86577188e-02 -8.81865708e-06 1.08644720e-02 -8.81865708e-06 4.44977041e-02 4.23125064e-04 1.08644720e-02 4.23125064e-04 -8.68098773e-02
5.66956820e-02 1.44239241e-03 2.23374012e-03 1.44239241e-03 4.71571004e-02 9.56709031e-03 2.23374012e-03 9.56709031e-03 -8.74087662e-02
5.79094617e-02 3.22229980e-03 1.38504615e-02 3.22229980e-03 4.76723826e-02 4.47506623e-03 1.38504615e-02 4.47506623e-03 -8.88067810e-02
5.96238282e-02 2.93069845e-03 1.41973570e-02 2.93069845e-03 4.75771790e-02 -8.23749253e-03 1.41973570e-02 -8.23749253e-03 -9.01727006e-02
5.05509563e-02 -1.01668600e-02 9.30624222e-03 -1.01668600e-02 4.08474607e-02 6.48291832e-04 9.30624222e-03 6.48291832e-04 -7.69020170e-02
4.94583366e-02 -1.14047590e-02 1.09833770e-02 -1.14047590e-02 4.53891614e-02 4.67631035e-03 1.09833770e-02 4.67631035e-03 -7.97377629e-02
5.31487558e-02 2.45785236e-03 -4.27738698e-04 2.45785236e-03 4.74228626e-02 5.00014854e-03 -4.27738698e-04 5.00014854e-03 -8.46909359e-02
5.26824566e-02 3.56012853e-03 1.17531162e-02 3.56012853e-03 5.10675847e-02 1.38786553e-02 1.17531162e-02 1.38786553e-02 -8.73214565e-02
5.39583927e-02 8.87060538e-04 3.60383152e-03 8.87060538e-04 3.79180638e-02 5.61962328e-03 3.60383152e-03 5.61962328e-03 -7.72817992e-02
5.12573400e-02 -5.19111499e-03 -4.56671679e-03 -5.19111499e-03 4.13469321e-02 -4.22826853e-03 -4.56671679e-03 -4.22826853e-03 -7.69093898e-02
5.15158009e-02 -5.30635379e-03 1.20588596e-03 -5.30635379e-03 4.29281034e-02 5.76915557e-03 1.20588596e-03 5.76915557e-03 -7.95163047e-02
4.95502474e-02 -4.96900713e-03 -4.85759263e-03 -4.96900713e-03 4.73284465e-02 4.74954699e-03 -4.85759263e-03 4.74954699e-03 -8.15139748e-02
5.61422082e-02 2.50002666e-03 -4.88183962e-03 2.50002666e-03 3.59663544e-02 -5.02118375e-04 -4.88183962e-03 -5.02118375e-04 -7.74424113e-02
5.55072175e-02 1.50990413e-03 -7.68408438e-03 1.50990413e-03 5.12511861e-02 1.34427682e-06 -7.68408438e-03 1.34427682e-06 -9.01010903e-02
4.98319473e-02 -2.37083645e-03 -6.93214894e-03 -2.37083645e-03 3.83948218e-02 4.69680545e-03 -6.93214894e-03 4.69680545e-03 -7.42709432e-02
4.90791830e-02 -9.51528779e-03 -1.09742440e-02 -9.51528779e-03 4.06149803e-02 -5.69963838e-03 -1.09742440e-02 -5.69963838e-03 -7.54169850e-02
5.36619592e-02 7.99890200e-04 2.68272625e-03 7.99890200e-04 3.72259403e-02 -3.45148338e-03 2.68272625e-03 -3.45148338e-03 -7.64666200e-02
5.46645690e-02 7.03877304e-05 3.72141687e-04 7.03877304e-05 4.94464138e-02 2.81510722e-03 3.72141687e-04 2.81510722e-03 -8.76570474e-02
4.40742327e-02 -5.14606727e-04 -1.22133156e-02 -5.14606727e-04 3.68560199e-02 -1.21163634e-03 -1.22133156e-02 -1.21163634e-03 -6.81060161e-02
4.66961903e-02 -2.78251253e-03 -9.87001084e-03 -2.78251253e-03 4.38830657e-02 -5.43874109e-03 -9.87001084e-03 -5.43874109e-03 -7.62078920e-02
5.15363887e-02 9.05084744e-06 2.52231734e-03 9.05084744e-06 3.74178383e-02 -3.28245154e-03 2.52231734e-03 -3.28245154e-03 -7.48083405e-02
5.06479759e-02 -3.52400381e-03 -2.26364794e-03 -3.52400381e-03 4.95578814e-02 -2.71496912e-03 -2.26364794e-03 -2.71496912e-03 -8.43462273e-02
4.04002462e-02 1.21524357e-02 -8.88639316e-03 1.21524357e-02 3.73340473e-02 -1.03477393e-02 -8.88639316e-03 -1.03477393e-02 -6.53830282e-02
4.54881834e-02 2.54802837e-03 -6.74692003e-03 2.54802837e-03 4.25619669e-02 -6.31479447e-03 -6.74692003e-03 -6.31479447e-03 -7.40268342e-02
4.11531837e-02 -1.44282484e-02 2.83385817e-02 -1.44282484e-02 5.12823095e-02 1.23080748e-03 2.83385817e-02 1.23080748e-03 -7.72549082e-02
3.48978564e-02 -1.21489160e-02 2.09788682e-02 -1.21489160e-02 5.49658732e-02 -3.19114863e-03 2.09788682e-02 -3.19114863e-03 -7.54034370e-02
6.22772775e-02 7.45393685e-04 3.67563812e-02 7.45393685e-04 5.18179196e-02 1.13083901e-02 3.67563812e-02 1.13083901e-02 -9.57021732e-02
5.93449259e-02 -1.03253729e-04 2.78471969e-02 -1.03253729e-04 5.20657012e-02 -1.92901693e-03 2.78471969e-02 -1.92901693e-03 -9.35720485e-02
5.35896894e-02 -1.16335293e-03 2.08177326e-02 -1.16335293e-03 4.93389671e-02 -3.80978128e-03 2.08177326e-02 -3.80978128e-03 -8.72314817e-02
5.61196171e-02 1.14612653e-02 1.13669662e-02 1.14612653e-02 5.27668046e-02 -6.46879163e-03 1.13669662e-02 -6.46879163e-03 -9.12941350e-02
6.42417565e-02 -1.40440440e-02 -5.67343786e-02 -1.40440440e-02 5.89859363e-02 -7.78650492e-04 -5.67343786e-02 -7.78650492e-04 -1.02278915e-01
4.76324127e-02 7.23014167e-03 -4.18088520e-02 7.23014167e-03 5.15088428e-02 -8.03795058e-03 -4.18088520e-02 -8.03795058e-03 -8.45013399e-02
6.14303397e-02 -1.71628990e-03 -1.67938585e-02 -1.71628990e-03 7.00720120e-02 1.15160269e-02 -1.67938585e-02 1.15160269e-02 -1.10534884e-01
5.14176764e-02 -6.42612430e-03 -5.47621246e-02 -6.42612430e-03 4.14808940e-02 7.45377420e-03 -5.47621246e-02 7.45377420e-03 -7.65038639e-02
6.06639255e-02 -4.31400890e-03 -1.73475686e-03 -4.31400890e-03 6.72588907e-02 1.03336837e-02 -1.73475686e-03 1.03336837e-02 -1.07707361e-01
5.28348899e-02 2.32080973e-03 -2.09864522e-02 2.32080973e-03 6.02605520e-02 -1.79339480e-03 -2.09864522e-02 -1.79339480e-03 -9.51969754e-02
5.43457307e-02 -2.72480177e-03 -4.04750044e-03 -2.72480177e-03 6.92437999e-02 3.54392419e-03 -4.04750044e-03 3.54392419e-03 -1.04016431e-01
4.94946297e-02 -4.45107440e-03 -2.16829497e-02 -4.45107440e-03 6.14636876e-02 -1.55364427e-02 -2.16829497e-02 -1.55364427e-02 -9.31755379e-02
3.63030505e-02 -8.71856609e-03 3.89163829e-02 -8.71856609e-03 5.13632944e-02 1.94971746e-03 3.89163829e-02 1.94971746e-03 -7.33596667e-02
3.02522667e-02 2.88746151e-03 2.99630552e-02 2.88746151e-03 4.94707702e-02 4.01554233e-03 2.99630552e-02 4.01554233e-03 -6.65962026e-02
6.77120680e-02 -4.35476067e-03 4.41024812e-02 -4.35476067e-03 5.58939220e-02 -8.89525084e-03 4.41024812e-02 -8.89525084e-03 -1.04138387e-01
5.30525995e-02 1.71512723e-03 4.33481256e-02 1.71512723e-03 5.55582978e-02 -1.15117410e-02 4.33481256e-02 -1.15117410e-02 -9.09280386e-02
4.70656005e-02 -2.50901645e-02 5.33240638e-02 -2.50901645e-02 6.31181998e-02 -5.87792599e-02 5.33240638e-02 -5.87792599e-02 -8.97710510e-02
7.32250787e-02 -1.83875859e-04 1.18591389e-02 -1.83875859e-04 5.53400964e-02 -4.71023269e-02 1.18591389e-02 -4.71023269e-02 -1.08601113e-01
-2.05639210e-02 -1.06343918e-01 -2.01464668e-01 -1.06343918e-01 -2.97887460e-03 -1.26496464e-01 -2.01464668e-01 -1.26496464e-01 3.57642919e-02
1.80643729e-02 -4.06653744e-03 -1.61079553e-02 -4.06653744e-03 1.48143172e-02 -2.93090194e-02 -1.61079553e-02 -2.93090194e-02 -1.89322233e-02
2.82109348e-02 -2.91585101e-03 1.30066849e-02 -2.91585101e-03 3.64188294e-02 2.27540936e-02 1.30066849e-02 2.27540936e-02 -5.33695178e-02
3.03706150e-02 -7.15317414e-03 2.59052167e-02 -7.15317414e-03 4.17892458e-02 6.69019797e-03 2.59052167e-02 6.69019797e-03 -6.07158793e-02
2.12792771e-02 -5.14170213e-03 2.73742590e-02 -5.14170213e-03 2.76420480e-02 1.98283672e-02 2.73742590e-02 1.98283672e-02 -3.17484383e-02
3.17069688e-02 -5.01337933e-03 1.45754337e-02 -5.01337933e-03 3.98921364e-02 1.20292667e-02 1.45754337e-02 1.20292667e-02 -5.40092830e-02
3.42099871e-02 6.24080247e-03 -2.43645441e-03 6.24080247e-03 4.36679227e-02 4.78523190e-03 -2.43645441e-03 4.78523190e-03 -6.65433621e-02
6.39225175e-02 1.25405471e-02 -1.67105924e-02 1.25405471e-02 7.37034412e-02 3.87127571e-02 -1.67105924e-02 3.87127571e-02 -1.19977493e-01
3.71191618e-02 1.39776149e-02 8.09999066e-03 1.39776149e-02 5.43512302e-02 9.49656952e-03 8.09999066e-03 9.49656952e-03 -7.30300676e-02
3.26289758e-02 5.66030295e-03 1.51317297e-02 5.66030295e-03 4.60360991e-02 7.24705094e-02 1.51317297e-02 7.24705094e-02 -6.38874313e-02
8.70374255e-02 -1.09481076e-02 7.10875001e-02 -1.09481076e-02 7.61114378e-02 3.06240439e-02 7.10875001e-02 3.06240439e-02 -1.39454115e-01
4.78714414e-02 -1.79833211e-02 -3.53604674e-02 -1.79833211e-02 7.50454217e-02 -1.63547114e-02 -3.53604674e-02 -1.63547114e-02 -1.03119062e-01
3.15227509e-02 -3.40657623e-03 7.65528460e-03 -3.40657623e-03 4.40051127e-02 1.06368437e-02 7.65528460e-03 1.06368437e-02 -6.29139710e-02
2.24860841e-02 1.26456661e-02 -7.04634760e-03 1.26456661e-02 2.30190713e-02 -2.21237447e-03 -7.04634760e-03 -2.21237447e-03 -2.59591648e-02
5.18148132e-02 -1.17819612e-02 1.75529961e-02 -1.17819612e-02 7.42775723e-02 -1.59270619e-02 1.75529961e-02 -1.59270619e-02 -1.07483473e-01
6.48856452e-02 -1.90104111e-02 -4.64360807e-02 -1.90104111e-02 7.31783742e-02 5.52457194e-02 -4.64360807e-02 5.52457194e-02 -1.16251955e-01
3.31523754e-02 4.46290697e-02 -9.22618977e-05 4.46290697e-02 6.96513864e-02 -1.16231768e-01 -9.22618977e-05 -1.16231768e-01 -8.18811400e-02
7.00546747e-02 -6.39247848e-03 -1.22926319e-02 -6.39247848e-03 4.03613262e-02 -2.97278768e-02 -1.22926319e-02 -2.97278768e-02 -9.20504481e-02
7.19050579e-02 7.39461393e-06 3.55076022e-03 7.39461393e-06 4.50830050e-02 -3.02880409e-03 3.55076022e-03 -3.02880409e-03 -9.83403884e-02
6.68306248e-02 3.27079452e-03 3.64125759e-03 3.27079452e-03 4.92274547e-02 5.17828303e-03 3.64125759e-03 5.17828303e-03 -9.76371635e-02
6.92263581e-02 1.26378970e-02 8.02509987e-03 1.26378970e-02 5.05137215e-02 5.15803313e-03 8.02509987e-03 5.15803313e-03 -1.00690654e-01
7.55296648e-02 3.34140740e-03 9.63485439e-03 3.34140740e-03 4.74425331e-02 -2.95341830e-03 9.63485439e-03 -2.95341830e-03 -1.03353288e-01
5.52860238e-02 8.69871513e-03 -1.16138926e-03 8.69871513e-03 5.58662284e-02 8.16665185e-03 -1.16138926e-03 8.16665185e-03 -9.35734846e-02
5.57886530e-02 1.74642014e-02 4.22999554e-03 1.74642014e-02 5.59099750e-02 7.16584307e-03 4.22999554e-03 7.16584307e-03 -9.39355306e-02
4.65281308e-02 5.52456768e-03 -1.65102174e-03 5.52456768e-03 5.64357946e-02 2.36251316e-03 -1.65102174e-03 2.36251316e-03 -8.66982993e-02
4.24394314e-02 8.80762220e-03 -2.95013306e-05 8.80762220e-03 5.74778067e-02 9.64141614e-03 -2.95013306e-05 9.64141614e-03 -8.39112923e-02
4.12664376e-02 -4.95711633e-03 -1.03786588e-03 -4.95711633e-03 5.24731586e-02 1.06776386e-03 -1.03786588e-03 1.06776386e-03 -7.89205134e-02
3.71508691e-02 -4.62950378e-03 -3.13464727e-03 -4.62950378e-03 5.26566710e-02 1.24578163e-03 -3.13464727e-03 1.24578163e-03 -7.57838031e-02
3.60176321e-02 -5.52535546e-03 -4.74999112e-03 -5.52535546e-03 4.96100429e-02 -1.21367723e-03 -4.74999112e-03 -1.21367723e-03 -7.20636081e-02
3.74768348e-02 -9.50419706e-03 -8.99631437e-03 -9.50419706e-03 4.48517790e-02 -2.57857733e-03 -8.99631437e-03 -2.57857733e-03 -6.94911256e-02
3.17704529e-02 1.37654663e-03 -1.91202416e-04 1.37654663e-03 5.27205803e-02 -8.23114300e-04 -1.91202416e-04 -8.23114300e-04 -7.10419193e-02
3.61037878e-02 -7.71393464e-03 -3.59365577e-03 -7.71393464e-03 4.48083673e-02 -1.15741538e-02 -3.59365577e-03 -1.15741538e-02 -6.77829795e-02
6.95461880e-02 1.62480139e-02 1.92433696e-02 1.62480139e-02 4.28448459e-02 5.21555752e-03 1.92433696e-02 5.21555752e-03 -9.09990864e-02
8.08880776e-02 9.17234831e-03 2.82650939e-02 9.17234831e-03 5.09891268e-02 -8.29993561e-03 2.82650939e-02 -8.29993561e-03 -1.09777980e-01
5.32375760e-02 1.99718893e-02 1.59377882e-03 1.99718893e-02 4.50309224e-02 3.58753868e-03 1.59377882e-03 3.58753868e-03 -8.01509914e-02
3.68075361e-02 1.66720485e-02 -1.88873492e-02 1.66720485e-02 4.21353426e-02 -3.66748494e-03 -1.88873492e-02 -3.66748494e-03 -6.58534772e-02
2.38530485e-02 -3.89816239e-04 -2.43721091e-02 -3.89816239e-04 3.69197684e-02 -1.78488269e-03 -2.43721091e-02 -1.78488269e-03 -5.05349541e-02
2.04651002e-02 -9.43636266e-03 -2.70009415e-02 -9.43636266e-03 3.16065103e-02 -9.17961466e-03 -2.70009415e-02 -9.17961466e-03 -4.19716206e-02
2.78366289e-02 -1.90876257e-02 -3.28064468e-02 -1.90876257e-02 3.48401132e-02 -1.80197684e-02 -3.28064468e-02 -1.80197684e-02 -5.28142384e-02
9.64989836e-02 -1.81167262e-03 6.20176221e-02 -1.81167262e-03 5.16993000e-02 -1.41500436e-02 6.20176221e-02 -1.41500436e-02 -1.24875202e-01
9.09029692e-02 -1.59120001e-02 5.60311240e-02 -1.59120001e-02 5.65846575e-02 -1.73969977e-02 5.60311240e-02 -1.73969977e-02 -1.23455760e-01
7.23782585e-02 1.69478937e-02 5.71761820e-03 1.69478937e-02 3.52238982e-02 -3.85330794e-02 5.71761820e-03 -3.85330794e-02 -9.01682476e-02
1.27679859e-02 1.22302090e-02 -2.32200780e-02 1.22302090e-02 6.78028077e-03 -4.75214895e-03 -2.32200780e-02 -4.75214895e-03 -1.06832057e-02
9.27240215e-03 -6.33167326e-02 -8.93110111e-02 -6.33167326e-02 -3.34559120e-02 -8.74288455e-02 -8.93110111e-02 -8.74288455e-02 3.12727876e-02
-2.36988080e-03 3.53962311e-03 -1.04633361e-03 3.53962311e-03 3.15749117e-03 -9.48071596e-04 -1.04633361e-03 -9.48071596e-04 3.40108558e-03
1.03412259e-01 -1.92500802e-03 -6.13516383e-03 -1.92500802e-03 9.01202997e-02 5.67722823e-02 -6.13516383e-03 5.67722823e-02 -1.66695716e-01
1.00904788e-01 1.13082329e-02 -3.69326794e-02 1.13082329e-02 9.82779327e-02 4.54123728e-02 -3.69326794e-02 4.54123728e-02 -1.72311582e-01
9.70821455e-02 -1.83877150e-02 1.96834169e-02 -1.83877150e-02 4.90059834e-02 -5.66760432e-02 1.96834169e-02 -5.66760432e-02 -1.22061428e-01
5.86051056e-02 -2.08888929e-03 -1.46202225e-02 -2.08888929e-03 7.41880393e-02 2.31523214e-02 -1.46202225e-02 2.31523214e-02 -1.04096642e-01
6.12401078e-02 -4.34783150e-03 1.44320553e-02 -4.34783150e-03 7.17136969e-02 -2.09111697e-03 1.44320553e-02 -2.09111697e-03 -1.04568901e-01
9.51158833e-02 -3.52872210e-03 8.27528164e-03 -3.52872210e-03 8.35834276e-02 2.88138355e-02 8.27528164e-03 2.88138355e-02 -1.53515164e-01
8.36469866e-02 4.09799640e-03 1.28350677e-02 4.09799640e-03 7.37281740e-02 -1.45263346e-02 1.28350677e-02 -1.45263346e-02 -1.32162064e-01
8.78887437e-02 2.23258359e-02 -1.24255742e-02 2.23258359e-02 8.24074075e-02 -2.93644648e-02 -1.24255742e-02 -2.93644648e-02 -1.44229591e-01
9.90917031e-02 -1.45673035e-02 -2.48157615e-02 -1.45673035e-02 5.77264950e-02 4.20048377e-02 -2.48157615e-02 4.20048377e-02 -1.31644441e-01
5.90709358e-02 1.03937526e-02 6.72459032e-03 1.03937526e-02 2.37258297e-02 -1.29147538e-02 6.72459032e-03 -1.29147538e-02 -6.66270908e-02
3.87578639e-02 -2.15385918e-02 3.61408433e-03 -2.15385918e-02 3.57470885e-02 3.83762456e-03 3.61408433e-03 3.83762456e-03 -5.91073179e-02
-1.73290372e-02 3.16521451e-02 2.03415900e-02 3.16521451e-02 -9.53191146e-03 -1.34642003e-02 2.03415900e-02 -1.34642003e-02 3.51162180e-02
-3.36724124e-03 -6.65424159e-03 7.52819516e-03 -6.65424159e-03 -9.83716175e-03 1.11358669e-02 7.52819516e-03 1.11358669e-02 2.25922707e-02
1.41365754e-02 -3.68569257e-02 -1.07745182e-02 -3.68569257e-02 -1.92785716e-02 3.66954046e-02 -1.07745182e-02 3.66954046e-02 9.65795998e-03
-5.96213977e-03 -2.66863279e-02 2.60059236e-03 -2.66863279e-02 6.46865967e-03 -3.97725913e-02 2.60059236e-03 -3.97725913e-02 5.60038385e-03
0.00000000e+00 0.00000000e+00 0.00000000e+00 0.00000000e+00 0.00000000e+00 0.00000000e+00 0.00000000e+00 0.00000000e+00 0.00000000e+00
0.00000000e+00 0.00000000e+00 0.00000000e+00 0.00000000e+00 0.00000000e+00 0.00000000e+00 0.00000000e+00 0.00000000e+00 0.00000000e+00
0.00000000e+00 0.00000000e+00 0.00000000e+00 0.00000000e+00 0.00000000e+00 0.00000000e+00 0.00000000e+00 0.00000000e+00 0.00000000e+00
0.00000000e+00 0.00000000e+00 0.00000000e+00 0.00000000e+00 0.00000000e+00 0.00000000e+00 0.00000000e+00 0.00000000e+00 0.00000000e+00
1.92716792e-05 -2.92638189e-05 -2.38622437e-05 -2.92638189e-05 -4.02469223e-05 -3.65019532e-05 -2.38622437e-05 -3.65019532e-05 9.39549109e-06
0.00000000e+00 0.00000000e+00 0.00000000e+00 0.00000000e+00 0.00000000e+00 0.00000000e+00 0.00000000e+00 0.00000000e+00 0.00000000e+00
0.00000000e+00 0.00000000e+00 0.00000000e+00 0.00000000e+00 0.00000000e+00 0.00000000e+00 0.00000000e+00 0.00000000e+00 0.00000000e+00
-3.21231710e-05 -1.53948640e-04 1.33565045e-05 -1.53948640e-04 8.75052259e-06 4.44665663e-06 1.33565045e-05 4.44665663e-06 3.41870715e-05
7.68218264e-02 7.66565790e-07 2.32257298e-06 7.66565790e-07 4.73491363e-02 6.36602635e-07 2.32257298e-06 6.36602635e-07 -1.04372665e-01
7.02279583e-02 6.15854166e-03 -1.01091791e-05 6.15854166e-03 5.15520182e-02 4.39319410e-03 -1.01091791e-05 4.39319410e-03 -1.02460723e-01
7.52148423e-02 1.85552586e-02 3.72304674e-03 1.85552586e-02 4.86607170e-02 7.22578843e-03 3.72304674e-03 7.22578843e-03 -1.04050705e-01
8.30183141e-02 5.40934782e-03 1.73284649e-03 5.40934782e-03 4.54560295e-02 -3.03071283e-06 1.73284649e-03 -3.03071283e-06 -1.07867055e-01
5.58384731e-02 5.89464512e-03 -3.39694780e-05 5.89464512e-03 5.99948727e-02 9.81534459e-03 -3.39694780e-05 9.81534459e-03 -9.74991396e-02
5.76153500e-02 2.33245273e-02 4.41197504e-03 2.33245273e-02 5.67082688e-02 6.96837716e-03 4.41197504e-03 6.96837716e-03 -9.60857011e-02
4.32111435e-02 9.24273534e-03 -2.93283756e-05 9.24273534e-03 6.36259355e-02 6.59718947e-03 -2.93283756e-05 6.59718947e-03 -8.98427106e-02
4.18017954e-02 1.50852387e-02 6.32883434e-03 1.50852387e-02 6.06110003e-02 1.01035961e-02 6.32883434e-03 1.01035961e-02 -8.58453996e-02
3.57580706e-02 1.30075304e-03 -5.90509444e-07 1.30075304e-03 6.19265772e-02 2.18584016e-03 -5.90509444e-07 2.18584016e-03 -8.20733085e-02
3.39735774e-02 2.52346702e-03 1.19035942e-02 2.52346702e-03 6.05146652e-02 8.96634324e-03 1.19035942e-02 8.96634324e-03 -7.98800532e-02
3.39200366e-02 -3.97645915e-03 -8.32284422e-06 -3.97645915e-03 5.81294410e-02 -9.24496417e-05 -8.32284422e-06 -9.24496417e-05 -7.73584470e-02
2.93413401e-02 -9.89745825e-03 1.36504942e-02 -9.89745825e-03 5.80915390e-02 1.40056218e-03 1.36504942e-02 1.40056218e-03 -7.45426808e-02
3.12514231e-02 -1.93635877e-02 2.36768119e-05 -1.93635877e-02 6.22587763e-02 5.95433544e-03 2.36768119e-05 5.95433544e-03 -7.84078240e-02
2.79334225e-02 -1.37714264e-02 1.67702138e-02 -1.37714264e-02 5.97641971e-02 -1.60931847e-02 1.67702138e-02 -1.60931847e-02 -7.45426044e-02
8.25777669e-02 2.61985094e-02 -6.98540639e-03 2.61985094e-02 5.64911449e-02 1.34849646e-02 -6.98540639e-03 1.34849646e-02 -1.16734074e-01
9.83610563e-02 4.72502201e-03 -4.03888919e-03 4.72502201e-03 6.74123708e-02 4.11437628e-04 -4.03888919e-03 4.11437628e-04 -1.41431518e-01
4.76000523e-02 3.74447391e-02 -8.11033533e-05 3.74447391e-02 4.37621975e-02 1.50675791e-02 -8.11033533e-05 1.50675791e-02 -7.31003080e-02
3.55929560e-02 2.56132628e-02 1.03289823e-02 2.56132628e-02 4.72277352e-02 1.37197727e-02 1.03289823e-02 1.37197727e-02 -7.04953931e-02
1.49699334e-02 -3.25994985e-03 1.05016535e-02 -3.25994985e-03 2.86571225e-02 8.60311475e-03 1.05016535e-02 8.60311475e-03 -3.53944234e-02
6.64526099e-03 -4.88166785e-03 9.03851271e-03 -4.88166785e-03 1.12716003e-02 -1.67099421e-03 9.03851271e-03 -1.67099421e-03 -1.09507922e-02
1.12104532e-02 -1.07523976e-02 6.81191194e-03 -1.07523976e-02 3.30089172e-03 -6.33267185e-03 6.81191194e-03 -6.33267185e-03 -7.70157576e-03
9.72936749e-02 -6.12249295e-03 3.38140950e-02 -6.12249295e-03 8.34137909e-02 1.90191781e-02 3.38140950e-02 1.90191781e-02 -1.51768915e-01
1.03427351e-01 -5.56449406e-03 2.41190977e-02 -5.56449406e-03 9.15757716e-02 -2.19643320e-04 2.41190977e-02 -2.19643320e-04 -1.63143039e-01
7.94746156e-02 3.33668937e-02 1.06952048e-02 3.33668937e-02 4.47397530e-02 3.17774216e-02 1.06952048e-02 3.17774216e-02 -1.08923599e-01
-2.78521050e-03 -5.20843212e-03 4.64142005e-03 -5.20843212e-03 3.01137951e-03 6.03523031e-03 4.64142005e-03 6.03523031e-03 7.40855723e-03
-1.38351232e-03 -5.09827064e-03 2.52202098e-03 -5.09827064e-03 -1.76161477e-03 -1.25949431e-04 2.52202098e-03 -1.25949431e-04 5.45529715e-03
-3.04658338e-03 -7.05663471e-03 -1.68271020e-02 -7.05663471e-03 9.33494576e-03 -7.46779031e-04 -1.68271020e-02 -7.46779031e-04 -4.64414122e-03
-4.77228679e-04 -1.23727777e-04 2.66025171e-03 -1.23727777e-04 -1.56028669e-03 8.20822468e-04 2.66025171e-03 8.20822468e-04 3.45229358e-03
9.80259676e-04 -1.72482617e-02 -1.53617555e-02 -1.72482617e-02 9.51793045e-04 -3.24213441e-04 -1.53617555e-02 -3.24213441e-04 9.11130046e-05
1.13916118e-03 -6.39732019e-03 2.34088849e-03 -6.39732019e-03 -2.21406226e-03 3.77120428e-04 2.34088849e-03 3.77120428e-04 2.11651676e-03
1.61523693e-02 1.24547351e-03 -2.06455095e-02 1.24547351e-03 -1.06817277e-02 -3.55692497e-02 -2.06455095e-02 -3.55692497e-02 8.02549766e-04
-1.62907266e-02 -4.37309220e-03 6.44885493e-03 -4.37309220e-03 -2.58452486e-03 7.59264221e-03 6.44885493e-03 7.59264221e-03 2.51113349e-02
5.51658049e-02 2.96643618e-02 -6.90005533e-03 2.96643618e-02 5.72625101e-02 7.40598887e-02 -6.90005533e-03 7.40598887e-02 -9.91266593e-02
4.15495221e-05 -3.07834525e-04 -4.66898475e-04 -3.07834525e-04 1.11822859e-06 4.83844892e-03 -4.66898475e-04 4.83844892e-03 -4.19881320e-05
-1.51060975e-03 -3.71788401e-03 6.04031805e-05 -3.71788401e-03 8.87476411e-04 4.10745979e-05 6.04031805e-05 4.10745979e-05 9.83482115e-04
-1.29587554e-04 1.02938604e-05 -5.83370047e-06 1.02938604e-05 1.74754088e-04 2.41919959e-05 -5.83370047e-06 2.41919959e-05 -5.80615402e-05
-8.75355505e-05 -3.22361798e-05 -7.04570836e-05 -3.22361798e-05 8.79368185e-05 -1.47850498e-05 -7.04570836e-05 -1.47850498e-05 -4.49676485e-05
1.91651168e-04 -9.18956765e-04 5.02892479e-04 -9.18956765e-04 -3.29119619e-04 4.97974361e-06 5.02892479e-04 4.97974361e-06 2.39501926e-04
4.57430462e-04 -1.15756574e-03 -8.21608264e-05 -1.15756574e-03 -8.76881706e-04 -3.13848504e-05 -8.21608264e-05 -3.13848504e-05 6.08754286e-04
9.53604206e-02 2.19033975e-02 -2.31918693e-02 2.19033975e-02 1.42354369e-01 -6.80249417e-04 -2.31918693e-02 -6.80249417e-04 -1.97499543e-01
1.22415990e-01 9.10085067e-03 -9.51423869e-03 9.10085067e-03 1.33434504e-01 2.33575832e-02 -9.51423869e-03 2.33575832e-02 -2.12938681e-01
1.01727431e-01 -2.64101174e-02 1.98046034e-02 -2.64101174e-02 1.11701034e-01 3.04175541e-02 1.98046034e-02 3.04175541e-02 -1.82836905e-01
1.06298238e-01 -1.69589473e-02 3.41344848e-02 -1.69589473e-02 1.24606881e-01 1.48669827e-03 3.41344848e-02 1.48669827e-03 -1.98577806e-01
4.33209451e-05 -6.70147471e-05 5.48745220e-07 -6.70147471e-05 -2.87435389e-05 -1.31680977e-05 5.48745220e-07 -1.31680977e-05 -2.74639548e-05
5.14991796e-05 -3.09754130e-03 5.16131745e-04 -3.09754130e-03 -1.27684231e-03 2.34340276e-03 5.16131745e-04 2.34340276e-03 3.21695951e-03
0.00000000e+00 0.00000000e+00 0.00000000e+00 0.00000000e+00 0.00000000e+00 0.00000000e+00 0.00000000e+00 0.00000000e+00 0.00000000e+00
1.06297225e-01 -2.41113063e-02 1.78803420e-02 -2.41113063e-02 6.82715736e-02 1.90202156e-02 1.78803420e-02 1.90202156e-02 -1.46543942e-01
1.10330440e-01 6.32988010e-03 1.62270218e-02 6.32988010e-03 6.11729920e-02 -8.48787313e-05 1.62270218e-02 -8.48787313e-05 -1.44040078e-01
9.58403908e-02 5.30773681e-03 4.05323924e-03 5.30773681e-03 8.73992778e-02 3.65554895e-02 4.05323924e-03 3.65554895e-02 -1.57612994e-01
1.12809777e-01 -2.77311851e-02 -4.03134909e-03 -2.77311851e-02 6.49954546e-02 4.25052643e-02 -4.03134909e-03 4.25052643e-02 -1.51750594e-01
2.31595431e-02 1.46822282e-02 -1.17063916e-02 1.46822282e-02 4.32519987e-03 7.14116685e-03 -1.17063916e-02 7.14116685e-03 -1.23454239e-02
-4.06722014e-03 -3.37849587e-03 -9.32557043e-03 -3.37849587e-03 3.27271688e-02 7.22641358e-03 -9.32557043e-03 7.22641358e-03 -1.40322279e-02
-3.47809418e-03 -8.25257224e-03 -5.46102907e-04 -8.25257224e-03 -7.65187782e-04 5.05667666e-03 -5.46102907e-04 5.05667666e-03 7.41774494e-03
-1.88484846e-04 -1.16457981e-04 -5.65438950e-06 -1.16457981e-04 8.85265108e-05 -1.43898269e-05 -5.65438950e-06 -1.43898269e-05 1.31785040e-04
0.00000000e+00 0.00000000e+00 0.00000000e+00 0.00000000e+00 0.00000000e+00 0.00000000e+00 0.00000000e+00 0.00000000e+00 0.00000000e+00
</DataArray>
<DataArray type="Float32" Name="Spatial_displacement" NumberOfComponents="3" format="ascii">
3.61809805e-02 2.07581624e-01 -1.00187041e-01
6.07400127e-02 1.97864860e-01 -8.06936920e-02
6.17391020e-02 2.49611735e-01 -1.17781162e-01
3.12895551e-02 2.43590370e-01 -1.26719385e-01
2.94362754e-02 2.39437759e-01 -1.53093085e-01
6.55949190e-02 2.36591160e-01 -1.45496994e-01
5.49732223e-02 3.03154856e-01 -1.91549286e-01
3.21581066e-02 2.74740160e-01 -1.83887437e-01
1.04201689e-01 1.83151141e-01 -6.32242709e-02
1.13097511e-01 2.39667445e-01 -1.15638413e-01
1.02223560e-01 2.28514045e-01 -1.64755762e-01
1.47556841e-01 2.84183621e-01 -2.39824235e-01
1.08552776e-01 1.75334334e-01 3.32295895e-05
1.08551897e-01 1.77586913e-01 3.06069851e-05
1.06297046e-01 1.77593976e-01 -1.61826611e-05
1.06270969e-01 1.75345868e-01 -3.34084034e-05
1.08543724e-01 1.75395414e-01 2.13831663e-05
1.08535618e-01 1.77657187e-01 3.79830599e-05
1.06275111e-01 1.77646607e-01 -2.66879797e-05
1.06291831e-01 1.75383508e-01 -2.25752592e-05
0.00000000e+00 0.00000000e+00 -2.34314650e-01
4.43630144e-02 0.00000000e+00 -2.36278132e-01
4.66630533e-02 4.84528542e-02 -2.30407357e-01
0.00000000e+00 4.67250869e-02 -2.25514829e-01
0.00000000e+00 0.00000000e+00 -3.14324051e-01
6.00645617e-02 0.00000000e+00 -3.13927561e-01
6.16175570e-02 4.82041389e-02 -3.11881512e-01
0.00000000e+00 4.51634526e-02 -3.04322332e-01
9.82683524e-02 0.00000000e+00 -2.49366775e-01
8.75445157e-02 4.09707427e-02 -2.40746126e-01
1.16362259e-01 0.00000000e+00 -3.23026896e-01
1.18966781e-01 5.07377461e-02 -3.23412150e-01
1.46280587e-01 0.00000000e+00 -2.63808519e-01
1.47227198e-01 3.63268182e-02 -2.60463953e-01
1.73301563e-01 0.00000000e+00 -3.38387966e-01
1.67689368e-01 4.45116237e-02 -3.37266415e-01
2.04081059e-01 0.00000000e+00 -2.76779294e-01
2.06733882e-01 3.79986987e-02 -2.81309634e-01
2.23030329e-01 0.00000000e+00 -3.49971056e-01
2.20503524e-01 3.69037092e-02 -3.56407642e-01
2.64449000e-01 0.00000000e+00 -2.92802691e-01
2.65282989e-01 4.06812280e-02 -2.90311813e-01
2.70793229e-01 0.00000000e+00 -3.58216554e-01
2.70253003e-01 3.55529860e-02 -3.69608164e-01
3.19985598e-01 0.00000000e+00 -2.98575580e-01
3.20011377e-01 4.07543555e-02 -2.96234429e-01
3.09081167e-01 0.00000000e+00 -3.61327171e-01
3.21771324e-01 3.52067649e-02 -3.69682461e-01
3.25020552e-02 9.13144276e-02 -2.10455939e-01
0.00000000e+00 1.04195498e-01 -2.07356602e-01
6.13359697e-02 9.77136120e-02 -2.89677203e-01
0.00000000e+00 9.78233516e-02 -2.87921697e-01
8.63322169e-02 9.24776644e-02 -2.31560692e-01
1.27259403e-01 1.03444450e-01 -3.16175997e-01
1.37813866e-01 9.87086520e-02 -2.71062404e-01
1.76068231e-01 9.73953605e-02 -3.68605435e-01
2.03233287e-01 1.09414048e-01 -2.80819416e-01
2.11908489e-01 8.49296004e-02 -3.85094702e-01
2.62022078e-01 1.02320775e-01 -2.79465497e-01
2.66699076e-01 9.53633040e-02 -3.83683681e-01
3.12529653e-01 1.07102878e-01 -2.84445584e-01
3.15386355e-01 9.70002338e-02 -3.84549320e-01
2.80591547e-02 1.56907946e-01 -1.70212865e-01
0.00000000e+00 1.53870031e-01 -1.74161345e-01
5.75552359e-02 1.54510096e-01 -2.57715136e-01
0.00000000e+00 1.52984291e-01 -2.47152701e-01
7.73644000e-02 1.37638360e-01 -1.99631423e-01
1.42738581e-01 1.59178212e-01 -3.26291978e-01
6.19967394e-02 1.18105195e-01 -4.71835464e-01
2.02384815e-01 1.40821159e-01 -4.29769844e-01
2.81281397e-02 1.93608403e-01 -1.42244205e-01
0.00000000e+00 2.00812548e-01 -1.47798121e-01
4.54464331e-02 2.13196784e-01 -2.00005651e-01
0.00000000e+00 2.19254926e-01 -2.17688560e-01
0.00000000e+00 2.33719856e-01 -1.56554475e-01
4.13927063e-02 2.77805448e-01 -2.16923296e-01
0.00000000e+00 2.60573953e-01 -2.28907660e-01
6.78897500e-02 1.94233298e-01 -1.11309670e-01
1.04270324e-01 2.24738508e-01 -2.24537283e-01
1.00767933e-01 2.60510027e-01 -2.15703279e-01
0.00000000e+00 2.77876318e-01 -1.94451168e-01
5.85871264e-02 3.28443468e-01 -2.80890942e-01
0.00000000e+00 3.42658043e-01 -2.64303088e-01
1.00965470e-01 3.47532034e-01 -2.80782461e-01
1.35058209e-01 2.40514725e-01 -3.33343178e-01
2.11367801e-01 2.75870502e-01 -3.29007119e-01
0.00000000e+00 0.00000000e+00 -4.02298570e-01
7.48532265e-02 0.00000000e+00 -4.05052364e-01
7.83649683e-02 4.98510674e-02 -4.01746422e-01
0.00000000e+00 4.63408008e-02 -3.99065733e-01
1.37012139e-01 0.00000000e+00 -4.09387827e-01
1.46251872e-01 5.80168739e-02 -4.10427570e-01
1.89321727e-01 0.00000000e+00 -4.16858971e-01
1.95151418e-01 6.03067055e-02 -4.18344408e-01
2.36479491e-01 0.00000000e+00 -4.25064564e-01
2.31251150e-01 5.44588901e-02 -4.26007628e-01
2.74582863e-01 0.00000000e+00 -4.28775489e-01
2.68832743e-01 4.86839712e-02 -4.33187723e-01
3.05383086e-01 0.00000000e+00 -4.30695534e-01
3.06796908e-01 5.26979715e-02 -4.30826724e-01
9.01352018e-02 1.06522545e-01 -3.95188123e-01
0.00000000e+00 9.68810171e-02 -3.87434185e-01
1.63484126e-01 1.17446892e-01 -4.11766410e-01
2.10758150e-01 1.17544062e-01 -4.36700821e-01
2.37918720e-01 1.05189644e-01 -4.56955463e-01
2.57363617e-01 9.02082920e-02 -4.68541265e-01
2.81389892e-01 9.51964930e-02 -4.68362421e-01
9.20769274e-02 1.47347361e-01 -3.59070063e-01
0.00000000e+00 1.64704517e-01 -3.43463421e-01
1.83402270e-01 1.53208941e-01 -4.18681204e-01
2.43662566e-01 1.46043718e-01 -4.82074201e-01
2.28326768e-01 6.45746589e-02 -5.41735053e-01
2.58675456e-01 1.30261973e-01 -5.01143217e-01
9.71653238e-02 2.07949936e-01 -2.87870675e-01
0.00000000e+00 1.95230156e-01 -3.24848831e-01
1.95689559e-01 1.93903208e-01 -3.84951830e-01
8.03992450e-02 3.08771491e-01 -3.50603729e-01
0.00000000e+00 3.15552413e-01 -3.50165397e-01
9.69441235e-02 4.05336767e-01 -3.81812871e-01
0.00000000e+00 4.00577515e-01 -3.69358778e-01
1.47282049e-01 2.83120692e-01 -3.48121673e-01
2.21946359e-01 3.53029728e-01 -3.75046909e-01
2.25215137e-01 2.04764128e-01 -4.57140028e-01
3.17528605e-01 2.31234863e-01 -4.29867029e-01
6.15150593e-02 1.78876147e-01 -6.09176397e-01
1.92991078e-01 1.75446063e-01 -5.31820178e-01
2.90076464e-01 1.30374238e-01 -5.02462864e-01
3.07239652e-01 1.31712779e-01 -5.02107382e-01
2.90432215e-01 1.14734530e-01 -5.02325296e-01
2.90291727e-01 9.88829657e-02 -5.02341270e-01
3.06147993e-01 9.87627953e-02 -5.02300620e-01
3.06236506e-01 1.14648268e-01 -5.02233863e-01
2.90395856e-01 1.14714578e-01 -5.02326727e-01
2.90344357e-01 9.88486484e-02 -5.02320528e-01
3.06147158e-01 9.87354591e-02 -5.02308249e-01
3.06363106e-01 1.14494704e-01 -5.02239347e-01
0.00000000e+00 0.00000000e+00 -5.02293468e-01
7.96035007e-02 0.00000000e+00 -5.02293468e-01
8.62301737e-02 5.38409799e-02 -5.02293468e-01
0.00000000e+00 4.81595695e-02 -5.02293468e-01
1.47491753e-01 0.00000000e+00 -5.02293468e-01
1.53759867e-01 6.27983809e-02 -5.02293468e-01
1.96274221e-01 0.00000000e+00 -5.02293468e-01
2.06006408e-01 6.73754811e-02 -5.02293468e-01
2.38785744e-01 0.00000000e+00 -5.02293468e-01
2.40118578e-01 6.67949617e-02 -5.02293468e-01
2.74461955e-01 0.00000000e+00 -5.02293468e-01
2.70329684e-01 6.19259253e-02 -5.02293468e-01
3.11506271e-01 0.00000000e+00 -5.02293468e-01
2.91238844e-01 7.01460540e-02 -5.02293468e-01
1.04605041e-01 9.72743332e-02 -5.02293468e-01
0.00000000e+00 9.21500102e-02 -5.02293468e-01
1.83558017e-01 1.18264146e-01 -5.02293468e-01
2.23873973e-01 1.27464980e-01 -5.02293468e-01
2.48269692e-01 1.18118197e-01 -5.02293468e-01
2.55238295e-01 1.04635984e-01 -5.02293468e-01
2.70379901e-01 1.04112297e-01 -5.02293468e-01
1.13664992e-01 1.85697705e-01 -5.02293468e-01
0.00000000e+00 1.91789836e-01 -5.02293468e-01
2.13501528e-01 1.62642494e-01 -5.02293468e-01
2.57624239e-01 1.54544950e-01 -5.02293468e-01
2.59341359e-01 1.31089732e-01 -5.02293468e-01
2.59113371e-01 1.14007488e-01 -5.02971232e-01
2.59636730e-01 1.14738978e-01 -5.02293468e-01
2.61058837e-01 1.00913219e-01 -5.03549218e-01
2.61269629e-01 1.02622740e-01 -5.02293468e-01
2.74933338e-01 1.47492394e-01 -5.16214609e-01
2.82351673e-01 1.57312259e-01 -5.02293468e-01
2.72221565e-01 1.85652956e-01 -5.02293468e-01
2.74848491e-01 1.30080178e-01 -5.02044857e-01
2.75006473e-01 1.30304947e-01 -5.02293468e-01
2.74643004e-01 1.14889719e-01 -5.02350330e-01
2.74730355e-01 1.14791088e-01 -5.02293468e-01
2.74405956e-01 9.92402509e-02 -5.02260089e-01
2.74314195e-01 9.90912020e-02 -5.02293468e-01
0.00000000e+00 1.68034881e-01 -5.02293468e-01
1.26687706e-01 1.93647385e-01 -5.02293468e-01
1.10536590e-01 3.34894300e-01 -5.02293468e-01
0.00000000e+00 3.53132248e-01 -5.02293468e-01
2.90343702e-01 1.14709392e-01 -5.02293468e-01
2.90486902e-01 1.30444065e-01 -5.02293468e-01
2.90378094e-01 9.88717303e-02 -5.02293468e-01
1.18558452e-01 4.24651682e-01 -5.02293468e-01
0.00000000e+00 4.17836249e-01 -5.02293468e-01
1.84810132e-01 2.89234161e-01 -5.02293468e-01
2.67025948e-01 3.49106699e-01 -5.02293468e-01
2.42062703e-01 1.85817003e-01 -5.02293468e-01
3.36228549e-01 2.17383385e-01 -5.02293468e-01
3.07626069e-01 1.30918354e-01 -5.02293468e-01
3.06380481e-01 1.14433646e-01 -5.02293468e-01
3.06142390e-01 9.87327918e-02 -5.02293468e-01
</DataArray>
<DataArray type="Float32" Name="Spatial_acceleration" NumberOfComponents="3" format="ascii">
-2.76446343e-07 -1.33176638e-06 6.75042486e-07
-4.29073964e-07 -1.26798943e-06 5.60124704e-07
-4.54664217e-07 -1.60861009e-06 8.95818062e-07
-2.02814732e-07 -1.56998635e-06 8.33511365e-07
-1.79747744e-07 -1.56529745e-06 1.02611386e-06
-4.40143396e-07 -1.55367172e-06 9.34055890e-07
-3.73363491e-07 -1.96329756e-06 1.26711529e-06
-2.26656596e-07 -1.83276336e-06 1.31305057e-06
-7.09136316e-07 -1.18854143e-06 4.13894639e-07
-8.16881652e-07 -1.50855385e-06 8.31603984e-07
-7.03493754e-07 -1.49536129e-06 1.16814510e-06
-9.46203841e-07 -1.72764067e-06 1.48646041e-06
-7.71395833e-07 -9.43927091e-07 2.88108993e-07
-7.29928388e-07 -1.19321544e-06 -1.58026808e-07
-8.59275474e-07 -1.12416592e-06 3.96718569e-08
-8.54790187e-07 -1.11896793e-06 -2.04841299e-08
-8.60877321e-07 -8.25367238e-07 -1.87419346e-07
-8.80210337e-07 -9.93494609e-07 3.97598996e-07
-6.47366051e-07 -1.08566883e-06 -2.37345688e-07
-9.06781622e-07 -8.99506119e-07 2.46280791e-07
0.00000000e+00 0.00000000e+00 1.40062969e-06
-2.69552061e-07 0.00000000e+00 1.44577029e-06
-2.94814498e-07 -3.12904518e-07 1.40492125e-06
0.00000000e+00 -2.93632354e-07 1.40889483e-06
0.00000000e+00 0.00000000e+00 1.95058192e-06
-3.53490321e-07 0.00000000e+00 1.91116328e-06
-3.67005669e-07 -2.92390581e-07 1.91768004e-06
0.00000000e+00 -2.68936162e-07 1.85712179e-06
-5.81900281e-07 0.00000000e+00 1.47946673e-06
-5.20855167e-07 -2.78458003e-07 1.46341324e-06
-6.96788220e-07 0.00000000e+00 1.92642210e-06
-7.09394612e-07 -3.19759039e-07 1.95916482e-06
-8.93483559e-07 0.00000000e+00 1.53287249e-06
-8.90970227e-07 -2.67624841e-07 1.54304507e-06
-1.06268124e-06 0.00000000e+00 2.01861053e-06
-9.95928986e-07 -2.79357039e-07 2.00621275e-06
-1.22967356e-06 0.00000000e+00 1.63332618e-06
-1.26091641e-06 -2.43882340e-07 1.63968400e-06
-1.35652226e-06 0.00000000e+00 2.09871928e-06
-1.32369996e-06 -2.36829123e-07 2.10889175e-06
-1.61859396e-06 0.00000000e+00 1.74681338e-06
-1.61918001e-06 -2.61661910e-07 1.70405701e-06
-1.64661799e-06 0.00000000e+00 2.16674812e-06
-1.64548555e-06 -2.23914782e-07 2.20425932e-06
-2.00777254e-06 0.00000000e+00 1.74585978e-06
-1.97776149e-06 -2.86112225e-07 1.74808497e-06
-1.88549359e-06 0.00000000e+00 2.20425932e-06
-1.99194756e-06 -2.31027599e-07 2.23604843e-06
-2.20457707e-07 -5.67595180e-07 1.31670629e-06
0.00000000e+00 -6.35027902e-07 1.30748742e-06
-3.53137636e-07 -5.92033075e-07 1.78146365e-06
0.00000000e+00 -5.99433974e-07 1.80180871e-06
-5.45501678e-07 -5.83330802e-07 1.40435350e-06
-7.36892218e-07 -6.35743106e-07 1.89018249e-06
-8.65173376e-07 -6.33366938e-07 1.61590583e-06
-1.03419165e-06 -6.00360693e-07 2.13986345e-06
-1.23373661e-06 -6.78658466e-07 1.65557856e-06
-1.28161116e-06 -5.41432712e-07 2.22320568e-06
-1.57169495e-06 -6.61055253e-07 1.63141885e-06
-1.60157674e-06 -5.83966539e-07 2.31933586e-06
-1.87837077e-06 -7.42355951e-07 1.67846679e-06
-1.91573167e-06 -6.34113917e-07 2.34222421e-06
-2.08559484e-07 -9.92184596e-07 1.14949546e-06
0.00000000e+00 -9.60826810e-07 1.13550823e-06
-3.81197253e-07 -9.48270156e-07 1.60199113e-06
0.00000000e+00 -9.64164769e-07 1.62061053e-06
-4.80969732e-07 -8.53697429e-07 1.23723350e-06
-8.31794750e-07 -9.24046844e-07 1.90938317e-06
-3.13520417e-07 -7.53859695e-07 2.74308513e-06
-1.19156311e-06 -8.97301561e-07 2.54291967e-06
-1.89690354e-07 -1.23578025e-06 9.80922096e-07
0.00000000e+00 -1.23964742e-06 9.62575314e-07
-3.28196421e-07 -1.33943558e-06 1.32497155e-06
0.00000000e+00 -1.40895440e-06 1.54240922e-06
0.00000000e+00 -1.51103734e-06 1.05794265e-06
-2.65666415e-07 -1.78832101e-06 1.53096516e-06
0.00000000e+00 -1.66141990e-06 1.58564251e-06
-4.90506466e-07 -1.24257804e-06 7.55310055e-07
-7.07308459e-07 -1.38012570e-06 1.51316328e-06
-6.49007177e-07 -1.67783105e-06 1.46993000e-06
0.00000000e+00 -1.88676518e-06 1.21180210e-06
-3.66369875e-07 -2.07710264e-06 1.74236300e-06
0.00000000e+00 -2.18184778e-06 1.81579583e-06
-5.74668263e-07 -2.17862930e-06 1.79290771e-06
-7.45985233e-07 -1.55957537e-06 1.97177474e-06
-1.22600136e-06 -1.74670754e-06 2.00949785e-06
0.00000000e+00 0.00000000e+00 2.46047966e-06
-4.26491084e-07 0.00000000e+00 2.46111540e-06
-4.63962550e-07 -3.13321749e-07 2.46111540e-06
0.00000000e+00 -2.82724699e-07 2.45412184e-06
-8.20229445e-07 0.00000000e+00 2.47383105e-06
-8.56955864e-07 -3.67959331e-07 2.48972583e-06
-1.12837552e-06 0.00000000e+00 2.51706433e-06
-1.16952265e-06 -3.53892631e-07 2.51706433e-06
-1.42804777e-06 0.00000000e+00 2.56156909e-06
-1.40146415e-06 -3.24487672e-07 2.55203236e-06
-1.68371196e-06 0.00000000e+00 2.60480238e-06
-1.63495542e-06 -2.90314347e-07 2.61179594e-06
-1.83360771e-06 0.00000000e+00 2.63404854e-06
-1.84090925e-06 -3.23136646e-07 2.61116020e-06
-5.32388697e-07 -6.44524903e-07 2.41343173e-06
0.00000000e+00 -6.12974134e-07 2.35557559e-06
-9.41753399e-07 -7.14302075e-07 2.47446701e-06
-1.24255814e-06 -7.19586978e-07 2.59145099e-06
-1.40970087e-06 -6.46681997e-07 2.70443866e-06
-1.55660848e-06 -5.05765286e-07 2.79659707e-06
-1.71089175e-06 -5.55462293e-07 2.77964273e-06
-5.17209401e-07 -9.27607232e-07 2.27525493e-06
0.00000000e+00 -1.04565095e-06 2.26847328e-06
-1.05191600e-06 -9.47740375e-07 2.51939559e-06
-1.45183674e-06 -9.14679617e-07 2.87797729e-06
-1.36526421e-06 -4.58021958e-07 3.24058533e-06
-1.55150099e-06 -7.90405295e-07 3.02378339e-06
-6.06377910e-07 -1.37567520e-06 1.95185339e-06
0.00000000e+00 -1.34637617e-06 2.12097166e-06
-1.08448660e-06 -1.19543074e-06 2.23159782e-06
-4.45895722e-07 -1.90883225e-06 2.17352977e-06
0.00000000e+00 -1.96266183e-06 2.25957228e-06
-5.48521655e-07 -2.51460074e-06 2.44649254e-06
0.00000000e+00 -2.44116791e-06 2.39245105e-06
-8.96612789e-07 -1.87671185e-06 2.10825601e-06
-1.24263761e-06 -2.20990182e-06 2.31552121e-06
-1.29906334e-06 -1.37913230e-06 2.75739035e-06
-1.87301634e-06 -1.48471190e-06 2.64994310e-06
-1.69515602e-07 -1.10286476e-06 3.73506532e-06
-1.16777414e-06 -1.09990435e-06 3.30320995e-06
-1.74391266e-06 -7.83681855e-07 3.07210280e-06
-1.84037947e-06 -8.60214243e-07 3.00343845e-06
-1.65876077e-06 -7.69514031e-07 3.09152915e-06
-1.74244985e-06 -5.92425465e-07 2.93814878e-06
-1.69731175e-06 -6.49804861e-07 3.10067094e-06
-1.81735800e-06 -7.29460282e-07 3.02315630e-06
-1.68848044e-06 -6.95069616e-07 3.05463482e-06
-1.74510478e-06 -6.33584136e-07 3.02899389e-06
-1.77847835e-06 -6.81499614e-07 3.07452183e-06
-1.80498762e-06 -7.14249097e-07 3.01332943e-06
0.00000000e+00 0.00000000e+00 3.02544049e-06
-4.97659016e-07 0.00000000e+00 3.02544049e-06
-4.98056409e-07 -3.01072987e-07 3.02544049e-06
0.00000000e+00 -2.93811155e-07 3.02544049e-06
-8.78492983e-07 0.00000000e+00 3.02544049e-06
-9.21845412e-07 -3.38474905e-07 3.02544049e-06
-1.17913885e-06 0.00000000e+00 3.02544049e-06
-1.23055770e-06 -3.74476116e-07 3.02544049e-06
-1.45196918e-06 0.00000000e+00 3.02544049e-06
-1.46230059e-06 -3.74158219e-07 3.02544049e-06
-1.63290895e-06 0.00000000e+00 3.02544049e-06
-1.66269137e-06 -3.80357108e-07 3.02544049e-06
-1.82433917e-06 0.00000000e+00 3.02544049e-06
-1.76382059e-06 -3.75747675e-07 3.02544049e-06
-6.06377910e-07 -6.11941005e-07 3.02544049e-06
0.00000000e+00 -5.56309999e-07 3.02544049e-06
-1.05166430e-06 -7.24474603e-07 3.02544049e-06
-1.32449463e-06 -7.90596005e-07 3.02544049e-06
-1.49393077e-06 -7.10646304e-07 3.02544049e-06
-1.57817203e-06 -5.84244731e-07 3.02544049e-06
-1.66924792e-06 -6.46432227e-07 3.02544049e-06
-6.13848385e-07 -1.11643476e-06 3.02544049e-06
0.00000000e+00 -1.14272041e-06 3.02544049e-06
-1.28523516e-06 -9.56535359e-07 3.02544049e-06
-1.56593319e-06 -9.40004952e-07 3.02544049e-06
-1.58731143e-06 -8.51710638e-07 3.02544049e-06
-1.59629190e-06 -7.39336031e-07 3.05779781e-06
-1.53032931e-06 -6.94751748e-07 3.02544049e-06
-1.56370800e-06 -6.34193441e-07 3.07305640e-06
-1.53446194e-06 -5.75383524e-07 3.02544049e-06
-1.73250828e-06 -9.30468218e-07 3.17064928e-06
-1.63410107e-06 -1.02933245e-06 3.02544049e-06
-1.66304903e-06 -1.13908447e-06 3.02544049e-06
-1.64424046e-06 -8.37749894e-07 3.00449801e-06
-1.63906816e-06 -7.78198228e-07 3.02544049e-06
-1.63829327e-06 -7.17321996e-07 3.00893180e-06
-1.61918001e-06 -7.08366429e-07 3.02544049e-06
-1.62633262e-06 -5.84920258e-07 3.00510715e-06
-1.61743162e-06 -6.48816410e-07 3.02544049e-06
0.00000000e+00 -1.17081402e-06 3.02544049e-06
-5.27580596e-07 -1.26695636e-06 3.02544049e-06
-6.14325188e-07 -2.13474709e-06 3.02544049e-06
0.00000000e+00 -2.10706389e-06 3.02544049e-06
-1.77955621e-06 -7.34090804e-07 3.02544049e-06
-1.65239976e-06 -8.51949039e-07 3.02544049e-06
-1.72690545e-06 -6.12099939e-07 3.02544049e-06
-6.08315077e-07 -2.57293391e-06 3.02544049e-06
0.00000000e+00 -2.49118352e-06 3.02544049e-06
-1.06724099e-06 -1.84575720e-06 3.02544049e-06
-1.51634219e-06 -2.19917297e-06 3.02544049e-06
-1.28110253e-06 -1.16479396e-06 3.02544049e-06
-2.02957790e-06 -1.42812723e-06 3.02544049e-06
-1.87428793e-06 -8.26199823e-07 3.02544049e-06
-1.77494678e-06 -7.23361950e-07 3.02544049e-06
-1.80760026e-06 -4.39852471e-07 3.02544049e-06
</DataArray>
<DataArray type="Float32" Name="Spatial_velocity" NumberOfComponents="3" format="ascii">
8.17956097e-05 3.75698641e-04 -1.98775335e-04
1.31928522e-04 3.51721072e-04 -1.72732049e-04
1.37419192e-04 4.51899919e-04 -2.40795271e-04
7.72159474e-05 4.46998194e-04 -2.41245245e-04
6.63331521e-05 4.33743728e-04 -3.09478171e-04
1.37097333e-04 4.18599928e-04 -2.81102140e-04
1.17526339e-04 5.43702045e-04 -3.61412531e-04
7.32019471e-05 5.05650241e-04 -3.68444424e-04
2.13384017e-04 3.23753047e-04 -1.27304957e-04
2.31820537e-04 4.22338169e-04 -2.31492537e-04
1.85549521e-04 4.11905290e-04 -3.15268262e-04
2.67671392e-04 4.77549038e-04 -3.92418035e-04
2.37949323e-04 2.75133527e-04 2.01680592e-07
2.38041845e-04 2.68496049e-04 -1.22125130e-07
2.44529423e-04 2.68482516e-04 -8.00285775e-08
2.44605326e-04 2.75172526e-04 -1.18538814e-07
2.38116729e-04 2.75313505e-04 -3.17783666e-09
2.38107546e-04 2.68718024e-04 1.71349697e-07
2.44774506e-04 2.68774224e-04 -4.02645469e-07
2.44711118e-04 2.75308616e-04 6.49286278e-08
0.00000000e+00 0.00000000e+00 -3.81874037e-04
7.38988310e-05 0.00000000e+00 -3.82358849e-04
8.14850209e-05 8.35033497e-05 -3.81527556e-04
0.00000000e+00 7.91786806e-05 -3.78099532e-04
0.00000000e+00 0.00000000e+00 -5.10420650e-04
9.59542376e-05 0.00000000e+00 -5.06767712e-04
9.96344388e-05 8.64785761e-05 -5.09658188e-04
0.00000000e+00 8.00857160e-05 -4.99219343e-04
1.65924735e-04 0.00000000e+00 -3.93867114e-04
1.50605527e-04 7.74042783e-05 -3.89859168e-04
1.85807585e-04 0.00000000e+00 -5.18371293e-04
1.89530096e-04 9.28373047e-05 -5.17785724e-04
2.46503914e-04 0.00000000e+00 -4.06952080e-04
2.48454860e-04 7.65646982e-05 -4.02310805e-04
2.79339816e-04 0.00000000e+00 -5.33843006e-04
2.67195894e-04 8.12136277e-05 -5.27819793e-04
3.43333784e-04 0.00000000e+00 -4.14757582e-04
3.47148889e-04 7.73324791e-05 -4.17526840e-04
3.65828892e-04 0.00000000e+00 -5.41550689e-04
3.58893274e-04 7.07759973e-05 -5.45688323e-04
4.51964443e-04 0.00000000e+00 -4.21997771e-04
4.48236766e-04 7.96261811e-05 -4.22904210e-04
4.54424619e-04 0.00000000e+00 -5.50495752e-04
4.51023603e-04 7.46403748e-05 -5.56353014e-04
5.56200161e-04 0.00000000e+00 -4.18867654e-04
5.50184690e-04 8.68021089e-05 -4.24626662e-04
5.30044606e-04 0.00000000e+00 -5.54849743e-04
5.51001809e-04 8.28494813e-05 -5.55104925e-04
6.24743188e-05 1.61038668e-04 -3.67144356e-04
0.00000000e+00 1.79847222e-04 -3.63987259e-04
1.00152480e-04 1.69851221e-04 -4.96500346e-04
0.00000000e+00 1.68709696e-04 -4.97397792e-04
1.60096984e-04 1.69614388e-04 -3.74766125e-04
2.03318370e-04 1.83797732e-04 -5.07806137e-04
2.37332672e-04 1.73081498e-04 -4.10069333e-04
2.83273170e-04 1.78244067e-04 -5.49692835e-04
3.33866832e-04 1.87912767e-04 -4.24017198e-04
3.41085193e-04 1.59903793e-04 -5.68714109e-04
4.24469123e-04 1.84787059e-04 -4.14214242e-04
4.33719455e-04 1.77366514e-04 -5.74453792e-04
5.02870244e-04 2.13864230e-04 -4.19788645e-04
5.04870259e-04 1.97395289e-04 -5.76385588e-04
6.51277660e-05 2.70595367e-04 -3.25633766e-04
0.00000000e+00 2.67657451e-04 -3.24549270e-04
1.02512291e-04 2.67946743e-04 -4.56977403e-04
0.00000000e+00 2.70542921e-04 -4.65150457e-04
1.45752580e-04 2.38588531e-04 -3.44483298e-04
2.27290002e-04 2.68964504e-04 -5.10387006e-04
1.02344864e-04 1.92120482e-04 -7.04538310e-04
3.08627292e-04 2.49935954e-04 -6.69274887e-04
6.91100067e-05 3.41741455e-04 -2.79625499e-04
0.00000000e+00 3.53573123e-04 -2.97943101e-04
9.30586975e-05 3.71764851e-04 -3.92255053e-04
0.00000000e+00 3.89693276e-04 -4.35143069e-04
0.00000000e+00 4.27107210e-04 -3.17803904e-04
7.44054560e-05 5.00685826e-04 -4.35076305e-04
0.00000000e+00 4.68172570e-04 -4.55422181e-04
1.44815844e-04 3.41855048e-04 -2.41435700e-04
1.82655946e-04 3.91623180e-04 -3.97198164e-04
1.68847168e-04 4.55602858e-04 -4.01784549e-04
0.00000000e+00 5.16449567e-04 -3.77458142e-04
1.01734979e-04 5.68169402e-04 -5.12522180e-04
0.00000000e+00 5.96269092e-04 -4.88023710e-04
1.62766708e-04 6.02066924e-04 -4.86774719e-04
2.02039213e-04 4.32204979e-04 -5.16905682e-04
3.33039236e-04 4.69417137e-04 -5.27847558e-04
0.00000000e+00 0.00000000e+00 -6.46031171e-04
1.15811781e-04 0.00000000e+00 -6.46647066e-04
1.19111879e-04 8.93022589e-05 -6.47191075e-04
0.00000000e+00 8.34433449e-05 -6.42494473e-04
2.11484614e-04 0.00000000e+00 -6.51310198e-04
2.25088981e-04 1.01226971e-04 -6.54195668e-04
2.98466824e-04 0.00000000e+00 -6.62669656e-04
3.05899070e-04 1.01209371e-04 -6.55962212e-04
3.85764200e-04 0.00000000e+00 -6.68543391e-04
3.70531809e-04 9.20481762e-05 -6.64207095e-04
4.55362693e-04 0.00000000e+00 -6.74009789e-04
4.44720674e-04 8.80413718e-05 -6.75645133e-04
5.11713268e-04 0.00000000e+00 -6.82305661e-04
5.14103856e-04 9.85214501e-05 -6.71415124e-04
1.29646229e-04 1.80581497e-04 -6.41343067e-04
0.00000000e+00 1.69492429e-04 -6.41279388e-04
2.45601812e-04 1.98631547e-04 -6.49077934e-04
3.26127076e-04 2.09158985e-04 -6.72943774e-04
3.76483658e-04 1.91159081e-04 -6.97187323e-04
4.15315008e-04 1.65433084e-04 -7.08331878e-04
4.66507801e-04 1.86588164e-04 -7.10239867e-04
1.28815620e-04 2.57245265e-04 -6.17312093e-04
0.00000000e+00 2.78015563e-04 -6.16118370e-04
2.69112497e-04 2.68764677e-04 -6.50030270e-04
3.78676341e-04 2.65095179e-04 -7.57476897e-04
3.68568144e-04 1.08270244e-04 -8.54349695e-04
4.02340229e-04 2.44566269e-04 -7.93727580e-04
1.36987815e-04 3.72423965e-04 -5.46543102e-04
0.00000000e+00 3.62808380e-04 -5.97921200e-04
2.66641437e-04 3.25473491e-04 -5.81809029e-04
1.10573601e-04 5.23845258e-04 -6.14521326e-04
0.00000000e+00 5.39343280e-04 -6.15227735e-04
1.40419113e-04 6.61670114e-04 -6.47655455e-04
0.00000000e+00 6.49285852e-04 -6.31331000e-04
2.14224565e-04 4.95407090e-04 -5.75176498e-04
3.25067551e-04 5.84515976e-04 -6.14239427e-04
3.36100347e-04 3.66147287e-04 -7.14885304e-04
4.77343448e-04 4.06565465e-04 -6.78002834e-04
1.97332356e-05 3.43321561e-04 -9.46814020e-04
2.76379054e-04 3.04520101e-04 -8.21467023e-04
4.39363270e-04 2.43498740e-04 -7.93433515e-04
4.57829970e-04 2.43110888e-04 -7.93588639e-04
4.38952731e-04 2.25134485e-04 -7.93274376e-04
4.38644085e-04 2.06662080e-04 -7.93397252e-04
4.57152462e-04 2.06374476e-04 -7.93280429e-04
4.57417540e-04 2.24837873e-04 -7.93328392e-04
4.38989809e-04 2.25097087e-04 -7.93313899e-04
4.38723771e-04 2.06663506e-04 -7.93349114e-04
4.57123038e-04 2.06367447e-04 -7.93346437e-04
4.57444898e-04 2.24804244e-04 -7.93280837e-04
0.00000000e+00 0.00000000e+00 -7.93334562e-04
1.21157071e-04 0.00000000e+00 -7.93334562e-04
1.27340580e-04 9.18941878e-05 -7.93334562e-04
0.00000000e+00 8.49105854e-05 -7.93334562e-04
2.25578988e-04 0.00000000e+00 -7.93334562e-04
2.34090316e-04 1.04853141e-04 -7.93334562e-04
3.06512316e-04 0.00000000e+00 -7.93334562e-04
3.23627028e-04 1.10854926e-04 -7.93334562e-04
3.90163565e-04 0.00000000e+00 -7.93334562e-04
3.84930259e-04 1.08867629e-04 -7.93334562e-04
4.51072265e-04 0.00000000e+00 -7.93334562e-04
4.47498896e-04 1.05052881e-04 -7.93334562e-04
5.16161497e-04 0.00000000e+00 -7.93334562e-04
4.79387818e-04 1.17792719e-04 -7.93334562e-04
1.48441482e-04 1.69728213e-04 -7.93334562e-04
0.00000000e+00 1.64279394e-04 -7.93334562e-04
2.73641926e-04 2.01784773e-04 -7.93334562e-04
3.44059634e-04 2.25854106e-04 -7.93334562e-04
3.88672895e-04 2.13733336e-04 -7.93334562e-04
4.08177439e-04 1.92425301e-04 -7.93334562e-04
4.51636646e-04 2.02633921e-04 -7.93334562e-04
1.42288787e-04 2.91699340e-04 -7.93334562e-04
0.00000000e+00 2.92482175e-04 -7.93334562e-04
3.10819771e-04 2.65436160e-04 -7.93334562e-04
3.97389376e-04 2.84475565e-04 -7.93334562e-04
4.02836507e-04 2.43839560e-04 -7.93334562e-04
4.01887228e-04 2.25911004e-04 -7.93676649e-04
4.02139674e-04 2.25536016e-04 -7.93334562e-04
4.02948557e-04 2.08061465e-04 -7.94367399e-04
4.03195212e-04 2.08649304e-04 -7.93334562e-04
4.19565593e-04 2.64023576e-04 -8.21865513e-04
4.39741911e-04 2.87573028e-04 -7.93334562e-04
4.11538756e-04 3.13542288e-04 -7.93334562e-04
4.20824566e-04 2.43936651e-04 -7.93255342e-04
4.20701865e-04 2.43681061e-04 -7.93334562e-04
4.20576660e-04 2.25437601e-04 -7.93245563e-04
4.20569908e-04 2.25452226e-04 -7.93334562e-04
4.20156866e-04 2.06874756e-04 -7.93221465e-04
4.20173921e-04 2.06897530e-04 -7.93334562e-04
0.00000000e+00 3.32217955e-04 -7.93334562e-04
1.36210074e-04 3.73202492e-04 -7.93334562e-04
1.46897408e-04 5.48838871e-04 -7.93334562e-04
0.00000000e+00 5.96928119e-04 -7.93334562e-04
4.38951480e-04 2.25129537e-04 -7.93334562e-04
4.39230935e-04 2.43587492e-04 -7.93334562e-04
4.38737014e-04 2.06665645e-04 -7.93334562e-04
1.61393691e-04 6.86970307e-04 -7.93334562e-04
0.00000000e+00 6.51963928e-04 -7.93334562e-04
2.70055927e-04 4.99356480e-04 -7.93334562e-04
3.75382020e-04 5.77980070e-04 -7.93334562e-04
3.51894443e-04 3.39660794e-04 -7.93334562e-04
5.08610392e-04 3.86266096e-04 -7.93334562e-04
4.57632530e-04 2.43322851e-04 -7.93334562e-04
4.57419083e-04 2.24785777e-04 -7.93334562e-04
4.57129296e-04 2.06414130e-04 -7.93334562e-04
</DataArray>
<DataArray type="Float32" Name="Reaction_force" NumberOfComponents="3" format="ascii">
0.00000000e+00 0.00000000e+00 0.00000000e+00
0.00000000e+00 0.00000000e+00 0.00000000e+00
0.00000000e+00 0.00000000e+00 0.00000000e+00
0.00000000e+00 0.00000000e+00 0.00000000e+00
0.00000000e+00 0.00000000e+00 0.00000000e+00
0.00000000e+00 0.00000000e+00 0.00000000e+00
0.00000000e+00 0.00000000e+00 0.00000000e+00
0.00000000e+00 0.00000000e+00 0.00000000e+00
0.00000000e+00 0.00000000e+00 0.00000000e+00
0.00000000e+00 0.00000000e+00 0.00000000e+00
0.00000000e+00 0.00000000e+00 0.00000000e+00
0.00000000e+00 0.00000000e+00 0.00000000e+00
0.00000000e+00 0.00000000e+00 0.00000000e+00
0.00000000e+00 0.00000000e+00 0.00000000e+00
0.00000000e+00 0.00000000e+00 0.00000000e+00
0.00000000e+00 0.00000000e+00 0.00000000e+00
0.00000000e+00 0.00000000e+00 0.00000000e+00
0.00000000e+00 0.00000000e+00 0.00000000e+00
0.00000000e+00 0.00000000e+00 0.00000000e+00
0.00000000e+00 0.00000000e+00 0.00000000e+00
1.57203525e-02 -2.09705412e-01 0.00000000e+00
0.00000000e+00 8.51852477e-01 0.00000000e+00
0.00000000e+00 0.00000000e+00 0.00000000e+00
1.70762742e+00 0.00000000e+00 0.00000000e+00
3.40863347e-01 9.85385716e-01 0.00000000e+00
0.00000000e+00 1.50619602e+00 0.00000000e+00
0.00000000e+00 0.00000000e+00 0.00000000e+00
1.06419134e+00 0.00000000e+00 0.00000000e+00
0.00000000e+00 1.51805997e+00 0.00000000e+00
0.00000000e+00 0.00000000e+00 0.00000000e+00
0.00000000e+00 1.32496524e+00 0.00000000e+00
0.00000000e+00 0.00000000e+00 0.00000000e+00
0.00000000e+00 2.04288673e+00 0.00000000e+00
0.00000000e+00 0.00000000e+00 0.00000000e+00
0.00000000e+00 1.62648749e+00 0.00000000e+00
0.00000000e+00 0.00000000e+00 0.00000000e+00
0.00000000e+00 2.92563653e+00 0.00000000e+00
0.00000000e+00 0.00000000e+00 0.00000000e+00
0.00000000e+00 1.47795606e+00 0.00000000e+00
0.00000000e+00 0.00000000e+00 0.00000000e+00
0.00000000e+00 1.37118590e+00 0.00000000e+00
0.00000000e+00 0.00000000e+00 0.00000000e+00
0.00000000e+00 -1.24553084e-01 0.00000000e+00
0.00000000e+00 0.00000000e+00 0.00000000e+00
0.00000000e+00 2.53556341e-01 0.00000000e+00
0.00000000e+00 0.00000000e+00 0.00000000e+00
0.00000000e+00 -3.44860971e-01 0.00000000e+00
0.00000000e+00 0.00000000e+00 0.00000000e+00
0.00000000e+00 0.00000000e+00 0.00000000e+00
1.47065067e+00 0.00000000e+00 0.00000000e+00
0.00000000e+00 0.00000000e+00 0.00000000e+00
1.00219083e+00 0.00000000e+00 0.00000000e+00
0.00000000e+00 0.00000000e+00 0.00000000e+00
0.00000000e+00 0.00000000e+00 0.00000000e+00
0.00000000e+00 0.00000000e+00 0.00000000e+00
0.00000000e+00 0.00000000e+00 0.00000000e+00
0.00000000e+00 0.00000000e+00 0.00000000e+00
0.00000000e+00 0.00000000e+00 0.00000000e+00
0.00000000e+00 0.00000000e+00 0.00000000e+00
0.00000000e+00 0.00000000e+00 0.00000000e+00
0.00000000e+00 0.00000000e+00 0.00000000e+00
0.00000000e+00 0.00000000e+00 0.00000000e+00
0.00000000e+00 0.00000000e+00 0.00000000e+00
3.00499946e-02 0.00000000e+00 0.00000000e+00
0.00000000e+00 0.00000000e+00 0.00000000e+00
1.51626539e+00 0.00000000e+00 0.00000000e+00
0.00000000e+00 0.00000000e+00 0.00000000e+00
0.00000000e+00 0.00000000e+00 0.00000000e+00
0.00000000e+00 0.00000000e+00 0.00000000e+00
0.00000000e+00 0.00000000e+00 0.00000000e+00
0.00000000e+00 0.00000000e+00 0.00000000e+00
8.28790605e-01 0.00000000e+00 0.00000000e+00
0.00000000e+00 0.00000000e+00 0.00000000e+00
8.94998014e-01 0.00000000e+00 0.00000000e+00
4.91447806e-01 0.00000000e+00 0.00000000e+00
0.00000000e+00 0.00000000e+00 0.00000000e+00
1.37672737e-01 0.00000000e+00 0.00000000e+00
0.00000000e+00 0.00000000e+00 0.00000000e+00
0.00000000e+00 0.00000000e+00 0.00000000e+00
0.00000000e+00 0.00000000e+00 0.00000000e+00
-6.21749341e-01 0.00000000e+00 0.00000000e+00
0.00000000e+00 0.00000000e+00 0.00000000e+00
4.85277534e-01 0.00000000e+00 0.00000000e+00
0.00000000e+00 0.00000000e+00 0.00000000e+00
0.00000000e+00 0.00000000e+00 0.00000000e+00
0.00000000e+00 0.00000000e+00 0.00000000e+00
3.73887599e-01 1.56677461e+00 0.00000000e+00
0.00000000e+00 1.96005952e+00 0.00000000e+00
0.00000000e+00 0.00000000e+00 0.00000000e+00
6.12897754e-01 0.00000000e+00 0.00000000e+00
0.00000000e+00 4.00408715e-01 0.00000000e+00
0.00000000e+00 0.00000000e+00 0.00000000e+00
0.00000000e+00 2.80215502e-01 0.00000000e+00
0.00000000e+00 0.00000000e+00 0.00000000e+00
0.00000000e+00 -4.18707818e-01 0.00000000e+00
0.00000000e+00 0.00000000e+00 0.00000000e+00
0.00000000e+00 -2.13973570e+00 0.00000000e+00
0.00000000e+00 0.00000000e+00 0.00000000e+00
0.00000000e+00 -2.08630562e+00 0.00000000e+00
0.00000000e+00 0.00000000e+00 0.00000000e+00
0.00000000e+00 0.00000000e+00 0.00000000e+00
1.24207699e+00 0.00000000e+00 0.00000000e+00
0.00000000e+00 0.00000000e+00 0.00000000e+00
0.00000000e+00 0.00000000e+00 0.00000000e+00
0.00000000e+00 0.00000000e+00 0.00000000e+00
0.00000000e+00 0.00000000e+00 0.00000000e+00
0.00000000e+00 0.00000000e+00 0.00000000e+00
0.00000000e+00 0.00000000e+00 0.00000000e+00
-2.44477689e-01 0.00000000e+00 0.00000000e+00
0.00000000e+00 0.00000000e+00 0.00000000e+00
0.00000000e+00 0.00000000e+00 0.00000000e+00
0.00000000e+00 0.00000000e+00 0.00000000e+00
0.00000000e+00 0.00000000e+00 0.00000000e+00
0.00000000e+00 0.00000000e+00 0.00000000e+00
1.04091501e+00 0.00000000e+00 0.00000000e+00
0.00000000e+00 0.00000000e+00 0.00000000e+00
0.00000000e+00 0.00000000e+00 0.00000000e+00
2.84384489e-01 0.00000000e+00 0.00000000e+00
0.00000000e+00 0.00000000e+00 0.00000000e+00
9.35934007e-01 0.00000000e+00 0.00000000e+00
0.00000000e+00 0.00000000e+00 0.00000000e+00
0.00000000e+00 0.00000000e+00 0.00000000e+00
0.00000000e+00 0.00000000e+00 0.00000000e+00
0.00000000e+00 0.00000000e+00 0.00000000e+00
0.00000000e+00 0.00000000e+00 0.00000000e+00
0.00000000e+00 0.00000000e+00 0.00000000e+00
0.00000000e+00 0.00000000e+00 0.00000000e+00
0.00000000e+00 0.00000000e+00 0.00000000e+00
0.00000000e+00 0.00000000e+00 0.00000000e+00
0.00000000e+00 0.00000000e+00 0.00000000e+00
0.00000000e+00 0.00000000e+00 0.00000000e+00
0.00000000e+00 0.00000000e+00 0.00000000e+00
0.00000000e+00 0.00000000e+00 0.00000000e+00
0.00000000e+00 0.00000000e+00 0.00000000e+00
0.00000000e+00 0.00000000e+00 0.00000000e+00
0.00000000e+00 0.00000000e+00 0.00000000e+00
1.21993817e-01 7.85706520e-01 -9.40542603e+00
0.00000000e+00 1.10829937e+00 -1.87811356e+01
0.00000000e+00 0.00000000e+00 -3.71441116e+01
1.55642629e-01 0.00000000e+00 -1.89913750e+01
0.00000000e+00 1.17322624e-01 -1.88061829e+01
0.00000000e+00 0.00000000e+00 -3.73078537e+01
0.00000000e+00 -3.16138148e-01 -1.89015121e+01
0.00000000e+00 0.00000000e+00 -3.45106430e+01
0.00000000e+00 -8.52056742e-01 -1.72204552e+01
0.00000000e+00 0.00000000e+00 -3.11538143e+01
0.00000000e+00 -1.60720706e+00 -1.43495989e+01
0.00000000e+00 0.00000000e+00 -2.76903458e+01
0.00000000e+00 -1.81916142e+00 -7.85353804e+00
0.00000000e+00 0.00000000e+00 -1.54237041e+01
0.00000000e+00 0.00000000e+00 -4.17094345e+01
1.86538267e+00 0.00000000e+00 -2.28444290e+01
0.00000000e+00 0.00000000e+00 -3.09331951e+01
0.00000000e+00 0.00000000e+00 -2.34097767e+01
0.00000000e+00 0.00000000e+00 -1.94837914e+01
0.00000000e+00 0.00000000e+00 -1.93707752e+01
0.00000000e+00 0.00000000e+00 -1.20479574e+01
0.00000000e+00 0.00000000e+00 -3.01430779e+01
-8.63191605e-01 0.00000000e+00 -1.81256866e+01
0.00000000e+00 0.00000000e+00 -2.31825275e+01
0.00000000e+00 0.00000000e+00 -1.22524137e+01
0.00000000e+00 0.00000000e+00 -7.33761072e+00
0.00000000e+00 0.00000000e+00 0.00000000e+00
0.00000000e+00 0.00000000e+00 -9.16534042e+00
0.00000000e+00 0.00000000e+00 0.00000000e+00
0.00000000e+00 0.00000000e+00 -5.36742592e+00
0.00000000e+00 0.00000000e+00 0.00000000e+00
0.00000000e+00 0.00000000e+00 -3.29045963e+00
0.00000000e+00 0.00000000e+00 -1.16876020e+01
0.00000000e+00 0.00000000e+00 0.00000000e+00
0.00000000e+00 0.00000000e+00 2.40839171e+00
0.00000000e+00 0.00000000e+00 0.00000000e+00
0.00000000e+00 0.00000000e+00 5.50261450e+00
0.00000000e+00 0.00000000e+00 0.00000000e+00
0.00000000e+00 0.00000000e+00 3.29330754e+00
7.03805447e-01 0.00000000e+00 -1.74875355e+01
0.00000000e+00 0.00000000e+00 -1.96836262e+01
0.00000000e+00 0.00000000e+00 -3.22324677e+01
2.22168493e+00 0.00000000e+00 -2.16608772e+01
0.00000000e+00 0.00000000e+00 1.58452415e+00
0.00000000e+00 0.00000000e+00 -5.87797737e+00
0.00000000e+00 0.00000000e+00 -9.41035092e-01
0.00000000e+00 0.00000000e+00 -1.60101242e+01
6.03628531e-02 0.00000000e+00 -6.15847969e+00
0.00000000e+00 0.00000000e+00 -1.81983490e+01
0.00000000e+00 0.00000000e+00 -1.76951122e+01
0.00000000e+00 0.00000000e+00 -1.14261818e+01
0.00000000e+00 0.00000000e+00 -1.06638718e+01
0.00000000e+00 0.00000000e+00 -5.92018986e+00
0.00000000e+00 0.00000000e+00 4.65315104e-01
0.00000000e+00 0.00000000e+00 -8.49395469e-02
</DataArray>
<DataArray type="Float32" Name="Equivalent_plastic_strain" format="ascii">
5.08887833e-02
5.09858610e-02
6.66773003e-02
5.93182910e-02
3.79981262e-02
5.14251175e-02
1.04591303e-01
8.34202003e-02
8.08233162e-02
1.04245763e-01
1.22171223e-01
1.11198835e-01
0.00000000e+00
0.00000000e+00
0.00000000e+00
0.00000000e+00
0.00000000e+00
0.00000000e+00
0.00000000e+00
0.00000000e+00
7.90425986e-02
7.86572769e-02
7.82493390e-02
7.85276461e-02
8.72553177e-02
8.77773128e-02
8.95368140e-02
9.09114759e-02
7.73826800e-02
8.06555310e-02
8.47643744e-02
8.76932787e-02
7.79447705e-02
7.91803193e-02
7.96753075e-02
8.20138799e-02
7.82674216e-02
9.01508788e-02
7.45115429e-02
7.62100965e-02
7.69853462e-02
8.78284164e-02
6.84487037e-02
7.67173627e-02
7.55093545e-02
8.46705288e-02
6.59174174e-02
7.48518500e-02
8.08658553e-02
7.71924499e-02
9.81790703e-02
9.52074360e-02
8.42588363e-02
9.22267484e-02
1.11663893e-01
8.52213992e-02
1.11253992e-01
8.62769961e-02
1.07902678e-01
9.55309775e-02
1.04481779e-01
9.49347168e-02
7.78707037e-02
6.95121624e-02
1.07406266e-01
9.45454985e-02
1.06163887e-01
1.12466696e-01
1.04953654e-01
2.99020683e-02
5.71649958e-02
6.31817086e-02
5.12607563e-02
6.51498224e-02
6.54891049e-02
1.16405363e-01
8.05790713e-02
8.12703352e-02
1.39815159e-01
1.09820965e-01
6.46496974e-02
4.57547382e-02
1.05788652e-01
1.23637116e-01
1.13776500e-01
1.02242579e-01
9.95399989e-02
9.83423181e-02
1.01675304e-01
1.04719670e-01
9.38459225e-02
9.48383454e-02
8.68227873e-02
8.50297967e-02
7.91042857e-02
7.60980221e-02
7.24232011e-02
6.98087728e-02
7.17839971e-02
6.93192258e-02
9.91468388e-02
1.14158830e-01
8.51538880e-02
6.89131077e-02
5.30323934e-02
4.70817971e-02
5.63478346e-02
1.31256050e-01
1.29633439e-01
9.43393596e-02
2.37620902e-02
6.07954524e-02
3.06299009e-03
1.72112174e-01
1.67459076e-01
1.24797907e-01
1.17542806e-01
1.16864287e-01
1.49594188e-01
1.33081269e-01
1.45930871e-01
1.36818767e-01
6.02592938e-02
6.84941690e-02
-1.24633238e-02
1.18824206e-02
3.60289199e-02
9.14148301e-03
0.00000000e+00
0.00000000e+00
0.00000000e+00
0.00000000e+00
-6.18176799e-05
0.00000000e+00
0.00000000e+00
5.77369841e-05
1.05718970e-01
1.03120070e-01
1.05858130e-01
1.09960280e-01
9.78342406e-02
9.73100662e-02
9.07329544e-02
8.75403881e-02
8.32868591e-02
8.04066807e-02
7.83785544e-02
7.44172726e-02
8.06061849e-02
7.58083723e-02
1.19041007e-01
1.39453743e-01
8.19764156e-02
7.10709933e-02
3.86768465e-02
1.86103380e-02
1.62398345e-02
1.52502410e-01
1.64954618e-01
1.04382421e-01
4.39534930e-03
-1.73764687e-03
1.11233256e-02
-1.20845310e-03
1.15291063e-02
2.83949263e-03
3.30684013e-02
-8.81205290e-03
9.35481861e-02
3.54917696e-06
1.92361787e-03
-6.88338373e-05
-2.37890711e-04
5.44649607e-04
1.01048849e-03
2.03100443e-01
2.17012718e-01
1.78342496e-01
1.93926312e-01
-6.87814913e-05
-1.69398492e-04
0.00000000e+00
1.49621561e-01
1.46573305e-01
1.51419647e-01
1.52400203e-01
3.06201756e-02
3.26371808e-02
1.18080145e-03
1.69879335e-04
0.00000000e+00
</DataArray>
<DataArray type="Float32" Name="Stress_Mises" format="ascii">
1.85288633e+01
2.83636494e+01
6.03558664e+01
3.27374531e+01
2.27929720e+01
3.75238371e+01
4.18523937e+01
2.58343502e+01
5.67200105e+01
1.25698109e+02
1.16107511e+02
1.03519211e+02
1.68568730e+00
1.28102773e+00
2.08909410e+00
2.95238352e+00
8.16717863e-01
6.42141342e-01
1.06596029e+00
1.21438825e+00
2.86730022e+01
2.83859048e+01
2.32790158e+01
2.77436962e+01
2.35210233e+01
2.98422074e+01
2.75431696e+01
2.98102183e+01
2.31905749e+01
2.45739506e+01
2.95947418e+01
3.18211811e+01
2.27003064e+01
2.54945863e+01
2.66889818e+01
2.80178854e+01
2.05030459e+01
2.63920998e+01
2.34641700e+01
2.45590581e+01
1.65179387e+01
3.02606917e+01
1.44872241e+01
2.38599910e+01
1.35529191e+01
2.46145326e+01
1.60914774e+01
2.29884682e+01
2.55092068e+01
2.45049480e+01
3.70247906e+01
2.89766047e+01
4.20493381e+01
3.67256239e+01
1.13125177e+02
3.94167228e+01
8.50750847e+01
7.10937614e+01
6.58867731e+01
7.80404186e+01
5.51518612e+01
7.43607407e+01
2.65615869e+01
2.76260532e+01
4.10743128e+01
2.31369787e+01
1.39156570e+02
6.28397854e+01
7.23332367e+01
2.56481384e+01
2.43315860e+01
1.60974926e+01
2.80712991e+01
2.64888234e+01
2.24172454e+01
2.54830352e+01
3.70054026e+01
8.52713299e+01
1.45737808e+02
5.68719101e+01
3.47655807e+01
4.65783293e+01
4.43368301e+01
6.19526496e+01
1.21926910e+02
4.32330545e+01
2.60889263e+01
3.03123116e+01
3.04125280e+01
3.16706823e+01
3.51343112e+01
3.62730689e+01
3.65119672e+01
4.08898132e+01
3.38931603e+01
3.07732481e+01
2.43051407e+01
2.43865649e+01
2.71107216e+01
3.89422345e+01
4.71346997e+01
5.42272005e+01
4.04787863e+01
3.53841658e+01
3.62883560e+01
4.78742978e+01
5.25936025e+01
6.09256124e+01
6.63621330e+01
4.70167001e+01
3.28852970e+01
5.21300392e+01
2.14533913e+01
5.60688944e+01
4.00494814e+01
1.72150909e+02
7.15612256e+01
4.63647372e+01
2.45846648e+01
2.23852296e+01
6.98341632e+01
4.91957970e+01
5.99551260e+01
3.20592194e+01
4.57431412e+01
2.09027843e+01
2.77140207e+01
2.33870551e+01
4.13414574e+00
1.88734090e+00
3.16860056e+00
4.64946365e+00
1.32147120e+01
7.15361913e+00
5.16946030e+00
1.76156672e+01
2.97751255e+01
3.14196529e+01
3.02147522e+01
3.07029314e+01
3.79609070e+01
3.67987878e+01
4.09515848e+01
4.79907622e+01
3.99456587e+01
4.60180883e+01
3.70473022e+01
3.29491434e+01
5.13155975e+01
4.58815479e+01
4.88773842e+01
3.77345590e+01
4.51665752e+01
4.21057842e+01
2.44629357e+01
2.37476065e+01
3.15470500e+01
1.39766724e+02
1.50235687e+02
3.60577431e+01
2.34463675e+01
1.59671705e+01
2.26201906e+01
1.94349223e+01
2.87794657e+01
2.52167549e+01
5.90868683e+01
1.82101178e+01
4.98989830e+01
2.32843876e+01
1.89256363e+01
2.32792404e+01
1.89277537e+01
1.97221804e+01
1.98709164e+01
1.20599533e+02
1.84213959e+02
6.12902705e+01
3.38902185e+01
1.29949517e+01
2.33090331e+01
9.77804017e+00
2.64002544e+01
1.36455088e+01
3.31817799e+01
4.22652798e+01
3.58797927e+01
2.34323382e+01
1.77782040e+01
1.60099411e+01
5.40127993e+00
</DataArray>
<DataArray type="Float32" Name="Stress_Max_Principal" format="ascii">
1.82935591e+01
8.32175785e+00
1.01127853e+01
-4.91034192e-01
2.35642731e+01
4.02278344e+01
2.22995281e-02
1.42948334e+01
-1.43538997e+01
-7.66594582e+01
-5.74231200e+01
-4.99870212e+01
9.35485035e-01
6.92382842e-01
1.07473826e+00
1.75082701e+00
5.82365751e-01
5.09169161e-01
6.87320530e-01
8.20371866e-01
1.55376267e+00
2.15592348e+00
6.78776390e+00
2.88906449e+00
6.22558260e+00
5.53701103e-01
5.00683433e+00
1.09508845e+00
6.90531290e+00
7.89889261e+00
5.91056108e-01
6.29762232e-01
6.97086862e+00
1.46680283e+01
3.80409334e+00
4.96266198e+00
9.29098898e+00
5.18949181e+00
6.66400027e+00
2.01682826e+01
1.24857026e+01
1.35267555e+01
1.68099251e+01
8.85564569e+00
1.46814256e+01
2.35886930e+01
2.43680201e+01
1.63046869e+01
6.06993222e+00
6.97377998e+00
-4.18227351e+00
1.46029472e+00
2.68439658e+01
-3.81893740e+00
-6.67498795e+01
2.61414206e+01
-4.44104462e+01
-3.18427410e+01
-2.78107781e+01
-3.81877170e+01
-1.70285225e+01
-3.17440281e+01
5.46377196e+00
2.04797244e+01
-7.61540508e+00
7.00381398e+00
-8.28703251e+01
-1.80023506e+01
1.66481949e+02
1.24807892e+01
3.35990940e+01
1.48801059e+01
3.56126750e+01
1.39807091e+01
1.94656741e+01
2.98104230e+01
1.34001305e+01
-4.20384915e+01
-9.22328300e+01
1.47042728e+01
9.09498596e+00
1.35172405e+01
1.93137064e+01
-5.02225113e+00
-3.51669693e+01
4.34062600e+00
4.75030914e+00
5.57500362e-01
9.71502186e-01
2.90502667e-01
-3.26370287e+00
-3.66241559e+00
-4.55714428e+00
-6.30869984e+00
-1.62714949e+00
1.60301653e+00
6.30239409e+00
1.09207727e+01
4.88603294e+00
4.97219539e+00
-2.18244562e+00
9.65875196e+00
-3.41856956e+00
1.79116812e+01
2.67938794e+01
7.93720071e+00
1.02900572e+01
-2.18596906e+01
-2.82395112e+01
2.79123368e+01
5.51036032e+01
1.21679314e+02
2.83400003e+01
-1.79674426e+01
4.24218114e+00
-9.32178879e+01
-2.08266974e+01
-7.57289231e+00
2.10950593e+01
7.99384785e+00
-2.69127021e+01
-8.62065911e+00
2.40872583e+01
3.05638070e+01
1.09032051e+02
6.10119514e+01
2.65817909e+01
2.03464286e+01
2.55418730e+00
9.17514682e-01
1.85675359e+00
2.89945960e+00
9.21439608e+00
1.97393940e+00
1.37359086e+00
8.13961848e+00
1.89261270e+00
-1.91863656e-01
1.46357584e+00
1.35232210e+00
-5.59153163e+00
-3.60834578e+00
-6.92676044e+00
-1.11010606e+01
-5.42196524e+00
-9.04467845e+00
-2.80449983e+00
2.43001747e+00
-1.18155680e+01
-6.45048642e+00
1.29968551e+01
-2.56165981e+00
6.17103040e-01
2.61106920e+01
3.66893995e+01
2.52884707e+01
2.40314754e+01
-8.56381397e+01
-1.00205719e+02
4.11273594e+01
4.50722020e+01
3.97971821e+01
3.00869517e+01
3.32266059e+01
1.37226567e+01
3.75642381e+01
6.63525600e+01
4.28574467e+01
1.55254602e+01
3.41412837e+01
2.01490065e+01
1.84473371e+01
1.46239055e+01
9.19085336e+00
7.25695825e+00
-6.38949623e+01
-1.22932457e+02
2.71458411e+01
3.62857723e+00
7.66948682e+00
3.35213178e+01
3.69311106e+00
7.99146891e+00
1.68445091e+01
1.45229340e+00
-4.32871735e+00
2.00547361e+01
3.02496119e+01
3.33663445e+01
6.74036789e+00
8.77381086e-01
</DataArray>
<DataArray type="Float32" Name="Stress_Mid_Principal" format="ascii">
1.31342431e+01
-7.09364414e-02
-9.01399612e+00
-2.61569753e+00
1.63154639e+01
2.12413979e+01
-1.39669305e+01
1.05042664e+01
-2.02119238e+01
-8.54369545e+01
-7.54884534e+01
-7.31298513e+01
-3.45389437e-01
-3.54903801e-01
-1.21304370e-01
-6.11582071e-01
3.83500382e-02
-5.60646020e-02
1.19032107e-01
2.05002315e-02
7.97716856e-01
6.86402231e-01
4.98222791e+00
1.10302710e+00
4.99381733e+00
-2.37989962e-01
2.89551310e+00
-7.04656154e-01
4.88559973e+00
4.81464196e+00
2.19783902e-01
-1.51596612e+00
5.60968626e+00
9.27484453e+00
1.98497185e+00
1.96946131e+00
7.11594462e+00
2.39705259e+00
4.65881371e+00
1.30826535e+01
1.06744848e+01
6.74557400e+00
1.53564745e+01
6.00021704e+00
1.37033706e+01
1.63167036e+01
1.91017828e+01
1.03972491e+01
1.83220452e+00
2.72386312e+00
-6.60614809e+00
5.95280409e-01
1.27103312e+01
-7.26522458e+00
-7.79071640e+01
1.23266845e+01
-4.99140053e+01
-3.63837906e+01
-3.36558456e+01
-4.38512726e+01
-2.63063812e+01
-4.46166592e+01
1.03414968e+00
1.23369484e+01
-9.63430296e+00
5.24666184e+00
-1.04158132e+02
-2.86656076e+01
9.99002838e+01
6.78227870e+00
2.27168057e+01
1.28840648e+01
2.15199815e+01
7.94804883e+00
1.42571727e+01
1.81461539e+01
2.32878089e+00
-5.09424049e+01
-1.04233517e+02
-6.61281729e+00
2.39072323e+00
4.29632664e-01
3.41164970e+00
-2.63675928e+01
-6.31790860e+01
-1.24088764e+01
1.92319500e+00
-1.09044588e+00
-1.68000618e+00
-3.22103130e+00
-5.53200603e+00
-7.11750340e+00
-6.48825580e+00
-1.24181255e+01
-4.95438135e+00
-2.69021401e+00
3.52335890e+00
6.53754085e+00
1.42119884e-01
-4.05347639e+00
-1.12685074e+01
-5.06489420e+00
-1.03691256e+01
5.41363907e+00
1.16791214e+01
-7.42352406e+00
-8.41161346e+00
-3.10992860e+01
-3.38188631e+01
6.85045481e+00
3.20082658e+01
6.98973083e+01
1.45067332e+01
-2.38981935e+01
-2.46751022e+00
-1.49056072e+02
-3.06784647e+01
-1.28267823e+01
1.31065073e+01
6.26418018e+00
-3.92958117e+01
-2.20846322e+01
-5.26554513e+00
1.43734391e+01
6.74293365e+01
4.29975739e+01
3.89967623e+00
6.67207710e+00
-1.09121859e+00
-1.31130129e-01
-6.17012262e-01
-1.24771965e+00
-7.44195604e-01
-8.25550042e-01
5.25275409e-01
3.56327985e+00
-1.59732389e+00
-2.26099426e+00
-1.85347986e+00
-2.64509344e+00
-8.09278965e+00
-8.13223332e+00
-1.19248707e+01
-2.00941372e+01
-1.17849610e+01
-1.85823510e+01
-9.46606398e+00
-7.48577535e+00
-2.51731052e+01
-2.08767757e+01
-4.30750155e+00
-1.03119993e+01
-1.31541930e+01
8.56755161e+00
2.52001843e+01
1.83201289e+01
4.57066154e+00
-1.02728500e+02
-1.05957489e+02
1.78397946e+01
3.45345674e+01
2.93780420e+01
1.20733376e+01
2.13268887e+01
4.11788583e-01
2.99231836e+01
2.58941317e+01
2.87996321e+01
9.10965800e-01
1.45080831e+01
8.71187600e+00
2.95599756e+00
8.00494572e+00
4.70791966e+00
1.66348243e+00
-9.24692230e+01
-1.41048676e+02
6.67279148e+00
-5.76368713e+00
3.06837551e+00
2.20403388e+01
-2.96248412e+00
-1.43638611e-01
1.20911493e+01
-4.25536728e+00
-1.68978806e+01
3.73892021e+00
1.26492324e+01
2.19991858e+01
3.49251363e+00
-4.53449134e-03
</DataArray>
<DataArray type="Float32" Name="Stress_Min_Principal" format="ascii">
-1.72146484e+00
-2.28472868e+01
-5.42803783e+01
-3.41667323e+01
-4.52421032e-01
-3.22660174e-01
-4.69307480e+01
-1.21922879e+01
-7.37395511e+01
-2.06509407e+02
-1.81156029e+02
-1.62783825e+02
-9.74219114e-01
-7.21544355e-01
-1.33750451e+00
-1.52346128e+00
-3.56772780e-01
-1.89053982e-01
-5.42369902e-01
-5.77006996e-01
-2.74892731e+01
-2.69353627e+01
-1.72945957e+01
-2.56939859e+01
-1.78867435e+01
-2.96758232e+01
-2.32050213e+01
-2.95716581e+01
-1.72253347e+01
-1.77857364e+01
-2.91874533e+01
-3.20553057e+01
-1.63716743e+01
-1.16800941e+01
-2.37436404e+01
-2.41822777e+01
-1.21898758e+01
-2.23939354e+01
-1.77377738e+01
-5.46346724e+00
-4.86160880e+00
-1.80122373e+01
1.90203905e+00
-1.59634388e+01
6.72508240e-01
-2.02480698e+00
7.49504089e+00
-8.23214793e+00
-2.12463008e+01
-1.93654256e+01
-4.23005030e+01
-2.79274864e+01
-1.71064299e+01
-4.20217282e+01
-1.84676218e+02
-1.57111346e+01
-1.32095306e+02
-1.04972174e+02
-9.64226933e+01
-1.18874990e+02
-7.62308025e+01
-1.11700520e+02
-2.29539162e+01
-8.33725500e+00
-4.96129676e+01
-1.69303136e+01
-2.31412201e+02
-8.52041077e+01
8.95189438e+01
-1.53733152e+01
8.49070358e+00
-1.87443972e+00
5.93856176e+00
-1.37743201e+01
-3.85893345e+00
2.24620107e+00
-2.63618941e+01
-1.31256334e+02
-2.43573471e+02
-4.67948967e+01
-2.70541515e+01
-3.55193014e+01
-2.77186356e+01
-7.37557840e+01
-1.66210208e+02
-4.33783375e+01
-2.26370029e+01
-3.05319344e+01
-3.06782795e+01
-3.29877181e+01
-3.94760349e+01
-4.15383204e+01
-4.19961987e+01
-4.98891475e+01
-3.70585680e+01
-3.10737303e+01
-1.92653081e+01
-1.48474246e+01
-2.42813137e+01
-3.67392488e+01
-5.22454426e+01
-4.70632906e+01
-4.66694494e+01
-2.02145217e+01
-1.20165194e+01
-4.41188927e+01
-4.75026868e+01
-8.67815642e+01
-9.71947308e+01
-2.36686484e+01
1.86575718e+01
6.92080765e+01
5.05895219e+00
-7.63717752e+01
-3.77476234e+01
-2.85973351e+02
-9.51633606e+01
-5.58298798e+01
-4.95440373e+00
-1.51165514e+01
-1.02064676e+02
-6.30180659e+01
-4.37758411e+01
-5.57361710e+00
6.00465584e+01
3.80929680e+01
-4.18852544e+00
-4.94932556e+00
-1.93767726e+00
-1.26129079e+00
-1.71473658e+00
-2.12678814e+00
-5.04940357e+00
-5.80324999e+00
-4.15507543e+00
-1.12407517e+01
-2.94736862e+01
-3.25876436e+01
-3.02655418e+01
-3.11524475e+01
-4.47275600e+01
-4.24303084e+01
-5.01473331e+01
-6.29238448e+01
-4.81366053e+01
-5.90789101e+01
-4.27306099e+01
-3.43005472e+01
-6.84890671e+01
-5.77860355e+01
-3.96942968e+01
-4.35486307e+01
-4.91835232e+01
-2.00891488e+01
1.00763040e+01
6.10803366e-02
-1.20979633e+01
-2.33078842e+02
-2.53234695e+02
1.24676895e+00
2.00394993e+01
2.15954461e+01
4.72701055e+00
1.14492648e+01
-1.88296337e+01
9.62607765e+00
-1.31261826e+00
2.23098965e+01
-4.00489693e+01
8.55843242e+00
-1.62815015e+00
-8.05281317e+00
-6.63905633e+00
-1.23685784e+01
-1.46628308e+01
-1.96215485e+02
-3.15535217e+02
-3.61311099e+01
-3.39397907e+01
-6.47501343e+00
7.19589965e+00
-7.47418737e+00
-2.10820246e+01
1.45806074e+00
-3.41907859e+01
-5.14523640e+01
-1.99675560e+01
3.67659092e+00
1.43107042e+01
-1.06024504e+01
-4.91058493e+00
</DataArray>
<DataArray type="Float32" Name="Stress_Pressure" format="ascii">
-9.90211250e+00
4.86548865e+00
1.77271948e+01
1.24244876e+01
-1.31424394e+01
-2.03821907e+01
2.02917939e+01
-4.20227051e+00
3.61017909e+01
1.22868610e+02
1.04689199e+02
9.53002338e+01
1.28041178e-01
1.28021780e-01
1.28023539e-01
1.28072113e-01
-8.79809931e-02
-8.80168602e-02
-8.79942477e-02
-8.79550353e-02
8.37926471e+00
8.03101218e+00
1.84153455e+00
7.23396450e+00
2.22244787e+00
9.78670382e+00
5.10089093e+00
9.72707510e+00
1.81147385e+00
1.69073385e+00
9.45887065e+00
1.09805030e+01
1.26370651e+00
-4.08759305e+00
5.98485827e+00
5.75005092e+00
-1.40568542e+00
4.93579721e+00
2.13832009e+00
-9.26248950e+00
-6.09952625e+00
-7.53363609e-01
-1.13561457e+01
3.69192578e-01
-9.68576813e+00
-1.26268640e+01
-1.69882826e+01
-6.15659615e+00
4.44805436e+00
3.22259450e+00
1.76963087e+01
8.62397066e+00
-7.48262359e+00
1.77019636e+01
1.09777754e+02
-7.58565770e+00
7.54732533e+01
5.77329034e+01
5.26297722e+01
6.69713259e+01
3.98552351e+01
6.26870708e+01
5.48533126e+00
-8.15980577e+00
2.22875597e+01
1.55994618e+00
1.39480217e+02
4.39573562e+01
-1.18633728e+02
-1.29658508e+00
-2.16022016e+01
-8.62991023e+00
-2.10237389e+01
-2.71814537e+00
-9.95463768e+00
-1.67342584e+01
3.54432797e+00
7.47457433e+01
1.46679939e+02
1.29011480e+01
5.18947983e+00
7.19081020e+00
1.66442680e+00
3.50485430e+01
8.81854184e+01
1.71488632e+01
5.32116644e+00
1.03549597e+01
1.04622611e+01
1.19727483e+01
1.60905811e+01
1.74394132e+01
1.76805332e+01
2.28719907e+01
1.45466999e+01
1.07203091e+01
3.14651823e+00
-8.70296143e-01
6.41772056e+00
1.19401763e+01
2.18987982e+01
1.41564779e+01
2.01523814e+01
-1.03693283e+00
-8.81882681e+00
1.45350723e+01
1.52080816e+01
4.65801801e+01
5.30843687e+01
-3.69804557e+00
-3.52564799e+01
-8.69282303e+01
-1.59685613e+01
3.94124720e+01
1.19909859e+01
1.76082436e+02
4.88895073e+01
2.54098516e+01
-9.74905515e+00
2.86173820e-01
5.60910619e+01
3.12411180e+01
8.31804180e+00
-1.31212091e+01
-7.88359833e+01
-4.73674965e+01
-8.76431395e+00
-7.35639334e+00
1.58236191e-01
1.58302084e-01
1.58331767e-01
1.58349380e-01
-1.14026555e+00
1.55162024e+00
7.52069764e-01
-1.54048577e-01
9.72613239e+00
1.16801679e+01
1.02184820e+01
1.08150735e+01
1.94706273e+01
1.80569618e+01
2.29996548e+01
3.13730135e+01
2.17811775e+01
2.89019798e+01
1.83337245e+01
1.31187685e+01
3.51592484e+01
2.83710995e+01
1.03349810e+01
1.88074312e+01
2.05735369e+01
-4.86303186e+00
-2.39886298e+01
-1.45565600e+01
-5.50139046e+00
1.40481834e+02
1.53132629e+02
-2.00713081e+01
-3.32154237e+01
-3.02568903e+01
-1.56291002e+01
-2.20009194e+01
1.56506303e+00
-2.57044997e+01
-3.03113594e+01
-3.13223257e+01
7.87084723e+00
-1.90692665e+01
-9.07757743e+00
-4.45017374e+00
-5.32993150e+00
-5.10064960e-01
1.91412997e+00
1.17526558e+02
1.93172119e+02
7.70824432e-01
1.20249672e+01
-1.42094970e+00
-2.09191851e+01
2.24785346e+00
4.41139889e+00
-1.01312399e+01
1.23312864e+01
2.42263212e+01
-1.27536583e+00
-1.55251458e+01
-2.32254116e+01
1.23189688e-01
1.34591269e+00
</DataArray>
<DataArray type="Float32" Name="Stress_Tresca" format="ascii">
2.00150239e+01
3.11690451e+01
6.43931637e+01
3.36756983e+01
2.40166944e+01
4.05504946e+01
4.69530473e+01
2.64871211e+01
5.93856521e+01
1.29849945e+02
1.23732909e+02
1.12796808e+02
1.90970421e+00
1.41392720e+00
2.41224283e+00
3.27428842e+00
9.39138532e-01
6.98223114e-01
1.22969043e+00
1.39737892e+00
2.90430355e+01
2.90912862e+01
2.40823598e+01
2.85830507e+01
2.41123257e+01
3.02295241e+01
2.82118552e+01
3.06667461e+01
2.41306477e+01
2.56846290e+01
2.97785091e+01
3.26850679e+01
2.33425424e+01
2.63481221e+01
2.75477343e+01
2.91449401e+01
2.14808648e+01
2.75834272e+01
2.44017739e+01
2.56317497e+01
1.73473113e+01
3.15389922e+01
1.49078860e+01
2.48190844e+01
1.40089178e+01
2.56135001e+01
1.68729792e+01
2.45368352e+01
2.73162338e+01
2.63392057e+01
3.81182294e+01
2.93877811e+01
4.39503956e+01
3.82027903e+01
1.17926338e+02
4.18525549e+01
8.76848621e+01
7.31294319e+01
6.86119156e+01
8.06872749e+01
5.92022781e+01
7.99564934e+01
2.84176881e+01
2.88169804e+01
4.19975621e+01
2.39341283e+01
1.48541878e+02
6.72017563e+01
7.69630051e+01
2.78541050e+01
2.51083900e+01
1.67545457e+01
2.96741133e+01
2.77550297e+01
2.33246078e+01
2.75642223e+01
3.97620230e+01
8.92178411e+01
1.51340645e+02
6.14991699e+01
3.61491375e+01
4.90365419e+01
4.70323410e+01
6.87335320e+01
1.31043236e+02
4.77189624e+01
2.73873119e+01
3.10894351e+01
3.16497816e+01
3.32782207e+01
3.62123327e+01
3.78759043e+01
3.74390540e+01
4.35804480e+01
3.54314184e+01
3.26767462e+01
2.55677018e+01
2.57681969e+01
2.91673460e+01
4.17114434e+01
5.00629973e+01
5.67220430e+01
4.32508799e+01
3.81262023e+01
3.88103985e+01
5.20560945e+01
5.77927437e+01
6.49218721e+01
6.89552193e+01
5.15809851e+01
3.64460309e+01
5.24712372e+01
2.32810484e+01
5.84043336e+01
4.19898033e+01
1.92755463e+02
7.43366629e+01
4.82569866e+01
2.60494626e+01
2.31103992e+01
7.51519737e+01
5.43974051e+01
6.78630986e+01
3.61374240e+01
4.89854927e+01
2.29189835e+01
3.07703161e+01
2.52957548e+01
4.49186468e+00
2.17880535e+00
3.57149029e+00
5.02624798e+00
1.42637996e+01
7.77718925e+00
5.52866626e+00
1.93803708e+01
3.13662987e+01
3.23957806e+01
3.17291172e+01
3.25047703e+01
3.91360283e+01
3.88219628e+01
4.32205725e+01
5.18227844e+01
4.27146397e+01
5.00342321e+01
3.99261093e+01
3.67305646e+01
5.66735001e+01
5.13355484e+01
5.26911516e+01
4.09869719e+01
4.98006248e+01
4.61998417e+01
2.66130953e+01
2.52273898e+01
3.61294384e+01
1.47440704e+02
1.53028976e+02
3.98805911e+01
2.50327024e+01
1.82017360e+01
2.53599410e+01
2.17773414e+01
3.25522900e+01
2.79381599e+01
6.76651764e+01
2.05475502e+01
5.55744286e+01
2.55828508e+01
2.17771565e+01
2.65001502e+01
2.12629621e+01
2.15594320e+01
2.19197893e+01
1.32320526e+02
1.92602753e+02
6.32769521e+01
3.75683689e+01
1.41445003e+01
2.63254178e+01
1.11672988e+01
2.90734940e+01
1.53864479e+01
3.56430798e+01
4.71236458e+01
4.00222912e+01
2.65730209e+01
1.90556402e+01
1.73428183e+01
5.78796577e+00
</DataArray>
<DataArray type="Float32" Name="Stress_Third_Invariant" format="ascii">
-1.28370323e+01
-2.31651313e+01
-3.53973427e+01
-3.18737364e+01
-1.07678519e+01
-2.37867599e+00
-3.53542435e+01
-1.94099003e+01
-5.59206069e+01
-1.24984898e+02
-1.11604101e+02
-9.60236206e+01
1.38214874e+00
1.10325730e+00
-4.87898111e-01
2.48377168e+00
5.28149724e-01
6.09991729e-01
-5.40953755e-01
7.62606621e-01
-2.86490154e+01
-2.82975926e+01
-2.27982310e+01
-2.75819445e+01
-2.34471459e+01
-2.98166065e+01
-2.58354778e+01
-2.96797981e+01
-2.29798360e+01
-2.28091195e+01
-2.95891333e+01
-3.07893371e+01
-2.25847645e+01
-1.80811328e+01
-2.65357912e+01
-2.62605554e+01
-2.01278094e+01
-2.55096792e+01
-2.32682571e+01
-1.37277179e+01
-1.62872874e+01
-2.07503386e+01
-1.22646364e+01
-2.19193132e+01
-1.34530034e+01
-1.11578290e+01
-7.33308792e+00
-1.61229050e+01
-2.45354873e+01
-2.36108451e+01
-3.63637694e+01
-2.89116044e+01
-1.69595449e+01
-3.56729949e+01
-1.10718207e+02
-1.69063718e+01
-8.46476059e+01
-7.03738853e+01
-6.52914429e+01
-7.74820900e+01
-5.33533115e+01
-7.17889519e+01
-2.54272411e+01
-1.46422894e+01
-4.07746786e+01
-2.28754822e+01
-1.35315310e+02
-5.95684622e+01
7.06280060e+01
-2.33081804e+01
-3.63505088e+00
-1.43304198e+01
-2.22136712e+00
-1.90049281e+01
-1.33769226e+01
-7.10330789e+00
-2.37748604e+01
-8.37216372e+01
-1.44538422e+02
-3.07687874e+01
-2.57988906e+01
-2.74865229e+01
-2.24563150e+01
-4.54926639e+01
-1.01362670e+02
-2.58823980e+01
-2.57408171e+01
-3.01711001e+01
-3.01456209e+01
-3.12223165e+01
-3.49654307e+01
-3.58966783e+01
-3.63963480e+01
-3.97775977e+01
-3.35145612e+01
-3.00287872e+01
-2.39201224e+01
-2.09655396e+01
-2.61447339e+01
-3.07896700e+01
-3.92396524e+01
-3.29560318e+01
-3.75990959e+01
-1.93838920e+01
-1.39133969e+01
-3.18873603e+01
-3.28653266e+01
-5.90070950e+01
-6.57671210e+01
-1.69801402e+01
7.59005372e+00
5.21197929e+01
4.51776104e+00
-5.17498063e+01
-3.20249262e+01
-1.47747246e+02
-6.22551276e+01
-4.29301827e+01
-1.36508274e+01
-2.12241496e+01
-6.71371655e+01
-4.40636952e+01
-3.12552395e+01
-9.81811619e+00
4.43729706e+01
1.95442352e+01
2.44429321e+01
-3.43983793e+00
3.93202376e+00
-7.57858276e-01
2.68794274e+00
4.45670462e+00
5.35210528e+00
-3.57980696e+00
-4.96716356e+00
-1.59327718e+01
-2.93096809e+01
-3.12435265e+01
-2.97780468e+01
-3.01056976e+01
-3.77332249e+01
-3.60707834e+01
-4.02546778e+01
-4.59405551e+01
-3.86801252e+01
-4.36914711e+01
-3.56621990e+01
-2.91407900e+01
-4.71604538e+01
-4.01606655e+01
-2.84290247e+01
-3.57752631e+01
-3.56035361e+01
-1.67798245e+01
-4.56345010e+00
-1.10591555e+01
-3.23639059e+00
-1.37117039e+02
-1.49987671e+02
9.37918504e+00
-1.62871778e+00
3.42065942e+00
1.95515110e+01
4.29378009e+00
-3.20755386e+00
-2.12488470e+01
3.93039818e+01
1.51595945e+01
-4.46898270e+01
2.10377032e+01
-6.67669296e-01
7.09995532e+00
-1.54366035e+01
-1.84533634e+01
-1.72664061e+01
-1.12598961e+02
-1.82193619e+02
-2.26181437e+01
-3.06073221e+01
-6.74170113e+00
1.61550522e+00
6.04797697e+00
-2.10200766e+01
-1.15494337e+01
-3.19716496e+01
-3.77015381e+01
-1.79908829e+01
1.88241558e+01
1.69091225e+00
-1.50878096e+01
-5.23560810e+00
</DataArray>
<DataArray type="Float32" Name="Logarithmic_strain_Max_Principal" format="ascii">
3.74913772e-02
4.43020226e-02
5.07060988e-02
3.81704737e-02
4.19367207e-02
5.52497272e-02
7.52800852e-02
5.08725513e-02
5.22844354e-02
6.20715935e-02
8.41559296e-02
8.96789692e-02
2.41785428e-05
1.82059694e-05
2.80800323e-05
4.31903845e-05
1.26887662e-05
1.12067582e-05
1.46471857e-05
1.92748703e-05
4.82049864e-02
4.94237449e-02
5.22213029e-02
4.99376962e-02
5.88874482e-02
5.70798190e-02
5.84504702e-02
6.00293875e-02
5.30555639e-02
5.56287803e-02
5.36801638e-02
5.58115514e-02
5.42514166e-02
5.81256915e-02
5.26939025e-02
5.30253788e-02
5.66212097e-02
6.11224947e-02
5.01847118e-02
5.26090837e-02
5.42306136e-02
5.75614902e-02
4.44209389e-02
5.19534857e-02
5.23899868e-02
5.73029807e-02
4.59123552e-02
5.26836803e-02
5.94110750e-02
5.77711510e-02
6.28734152e-02
5.94874350e-02
5.46370654e-02
6.19452973e-02
7.49047905e-02
5.66503166e-02
7.16804601e-02
5.86686261e-02
6.84114676e-02
6.09518746e-02
6.89640604e-02
6.19022921e-02
5.82195733e-02
5.21283187e-02
6.93264705e-02
5.90645215e-02
8.33697449e-02
7.98769012e-02
1.31144747e-01
5.09762168e-02
4.16462081e-02
4.39645965e-02
6.05079557e-02
6.13350021e-02
4.20172559e-02
6.77719382e-02
7.19387680e-02
5.69564747e-02
8.41013417e-02
8.08709487e-02
4.67898604e-02
6.95854248e-02
7.42383599e-02
9.63067599e-02
9.39679096e-02
9.03295601e-02
7.21660145e-02
6.72058687e-02
7.19976090e-02
7.57694691e-02
6.06636582e-02
6.59798793e-02
5.73123563e-02
5.99446842e-02
5.31631084e-02
5.30935498e-02
5.03270309e-02
4.75860797e-02
5.28326463e-02
5.05705141e-02
8.35587624e-02
8.43406040e-02
7.05651199e-02
5.41439252e-02
4.41850583e-02
4.15948825e-02
4.31435183e-02
9.19842509e-02
9.24528514e-02
7.60447122e-02
4.58299555e-02
7.37806484e-02
2.00135063e-02
1.00055916e-01
1.05300191e-01
1.04429543e-01
1.00708352e-01
9.93703846e-02
9.81330127e-02
8.59170556e-02
9.77317411e-02
1.09167572e-01
7.87143866e-02
7.65490849e-02
1.25288397e-01
6.40893504e-02
4.68418656e-02
3.69993507e-02
6.23886735e-05
2.37703771e-05
4.60423144e-05
7.12056208e-05
1.97239935e-04
6.64204793e-05
4.13607158e-05
2.59517905e-04
7.69943371e-02
7.09838904e-02
7.86613710e-02
8.33592042e-02
6.35380261e-02
6.98259939e-02
6.47184588e-02
6.47823010e-02
6.20949492e-02
5.89447413e-02
5.84245156e-02
5.52950474e-02
6.52283654e-02
5.77253196e-02
9.06333271e-02
9.27959010e-02
7.87883811e-02
5.63726760e-02
3.77624277e-02
3.21597867e-02
3.14644165e-02
9.92184579e-02
1.04955405e-01
7.27839271e-02
3.04899628e-02
7.82547559e-03
1.39399979e-02
5.55423708e-03
1.35600329e-02
6.83895301e-03
5.38054481e-02
1.34732290e-02
6.77548721e-02
2.96724695e-03
2.20478089e-03
5.36734093e-04
2.79369677e-04
7.34210393e-04
8.69446369e-04
1.53348103e-01
1.37429625e-01
1.14219561e-01
1.31685842e-01
1.43981499e-04
1.37572423e-02
1.16068302e-04
1.16559058e-01
1.11088306e-01
9.77188610e-02
1.15303334e-01
5.40662687e-02
6.91663567e-02
1.82388366e-02
2.80937733e-04
3.54573385e-05
</DataArray>
<DataArray type="Float32" Name="Logarithmic_strain_Min_Principal" format="ascii">
-5.06010721e-02
-5.74019104e-02
-7.28064794e-02
-6.02123700e-02
-6.07366017e-02
-7.36695443e-02
-9.37082581e-02
-7.01738019e-02
-8.14276766e-02
-1.07158855e-01
-1.18403624e-01
-1.23792276e-01
-2.15409445e-05
-1.57866425e-05
-3.03621209e-05
-3.52392135e-05
-8.98630879e-06
-5.29643194e-06
-1.45369413e-05
-1.47923529e-05
-7.94589929e-02
-7.93050062e-02
-7.82307228e-02
-7.92305171e-02
-8.72784816e-02
-8.81700236e-02
-8.97874525e-02
-9.12162662e-02
-7.73153417e-02
-8.06313325e-02
-8.55152961e-02
-8.85386961e-02
-7.74807259e-02
-8.34340286e-02
-8.01340304e-02
-8.26822761e-02
-7.77950268e-02
-8.94590234e-02
-7.45703485e-02
-7.61508327e-02
-7.68185779e-02
-8.80185887e-02
-6.82084057e-02
-7.72124305e-02
-7.53008127e-02
-8.45090672e-02
-6.53110705e-02
-7.50419963e-02
-8.03773506e-02
-7.64599703e-02
-9.93361780e-02
-9.56559535e-02
-8.93125279e-02
-9.43932636e-02
-1.19912390e-01
-8.44973837e-02
-1.15101272e-01
-9.12346274e-02
-1.09382231e-01
-9.84541830e-02
-1.05361603e-01
-9.72828083e-02
-7.61295956e-02
-6.89589381e-02
-1.05393998e-01
-9.47878454e-02
-1.18548092e-01
-1.16363151e-01
-1.17381237e-01
-5.94922037e-02
-6.02975238e-02
-6.04380835e-02
-8.83767419e-02
-8.95166732e-02
-6.07403703e-02
-9.61688565e-02
-9.54779442e-02
-8.64645792e-02
-1.32495023e-01
-1.09605032e-01
-6.72265440e-02
-9.40901879e-02
-1.02116581e-01
-1.22041387e-01
-1.26614690e-01
-1.05184014e-01
-9.87605192e-02
-9.82427746e-02
-1.01615832e-01
-1.04150362e-01
-9.45817046e-02
-9.52030709e-02
-8.78282860e-02
-8.58526668e-02
-7.98058063e-02
-7.54716936e-02
-7.23372530e-02
-6.91001778e-02
-7.15004019e-02
-7.05822315e-02
-1.11208986e-01
-1.18014777e-01
-9.44046685e-02
-6.92437841e-02
-5.76137682e-02
-5.30038246e-02
-5.38505825e-02
-1.24943559e-01
-1.28138309e-01
-9.40542929e-02
-4.36147594e-02
-7.45909661e-02
-1.30654196e-02
-1.47600776e-01
-1.48806202e-01
-1.34245072e-01
-1.50320088e-01
-1.47387952e-01
-1.40413150e-01
-1.36399187e-01
-1.44936439e-01
-1.37729427e-01
-9.28588565e-02
-8.38310374e-02
-7.27747753e-02
-4.66870852e-02
-2.81330128e-02
-3.72515751e-02
-4.50854131e-05
-2.83576592e-05
-3.92300935e-05
-4.92072213e-05
-1.49736677e-04
-1.20494269e-04
-9.13201620e-05
-3.57821802e-04
-1.04874343e-01
-1.03214741e-01
-1.04570642e-01
-1.08398102e-01
-9.87007394e-02
-9.71465502e-02
-9.11398381e-02
-8.85730181e-02
-8.33626539e-02
-7.86643792e-02
-7.84354471e-02
-6.93309270e-02
-8.04551020e-02
-7.02834092e-02
-1.19883761e-01
-1.31042965e-01
-9.34346486e-02
-6.64072111e-02
-4.44611944e-02
-3.34889120e-02
-3.17371162e-02
-1.61994174e-01
-1.78006917e-01
-8.72460206e-02
-2.47846521e-02
-2.83665123e-03
-8.75136314e-03
-2.46204498e-03
-1.23257678e-02
-6.63439487e-03
-3.73266544e-02
-7.19807670e-03
-9.94952545e-02
-2.49161995e-03
-2.57302237e-03
-3.24894791e-04
-2.26235821e-04
-9.49006091e-04
-1.42062464e-03
-2.23376542e-01
-2.36405924e-01
-1.66644638e-01
-1.76962063e-01
-1.35020496e-04
-7.13790036e-03
-1.51591499e-04
-1.51408017e-01
-1.44555807e-01
-1.44936204e-01
-1.41432397e-01
-5.71675766e-02
-6.47403412e-02
-2.04371231e-02
-4.53659202e-04
-1.02407008e-04
</DataArray>
<DataArray type="Float32" Name="Plastic_strain_Max_Principal" format="ascii">
3.72052765e-02
4.46133784e-02
4.66112839e-02
3.81853245e-02
4.73129372e-02
5.25913962e-02
8.18829555e-02
6.03778670e-02
5.71403168e-02
6.54403046e-02
9.76240113e-02
8.60582665e-02
0.00000000e+00
0.00000000e+00
0.00000000e+00
0.00000000e+00
0.00000000e+00
0.00000000e+00
0.00000000e+00
0.00000000e+00
4.81615886e-02
4.92217885e-02
5.20896390e-02
4.96952003e-02
5.86580280e-02
5.69595024e-02
5.82506224e-02
5.98834706e-02
5.28275473e-02
5.53876483e-02
5.34651969e-02
5.57614341e-02
5.40868733e-02
5.45704854e-02
5.24607804e-02
5.27794641e-02
5.62392976e-02
6.15221388e-02
5.00344113e-02
5.21091707e-02
5.37624052e-02
5.72281810e-02
4.41168770e-02
5.15753729e-02
5.19080162e-02
5.67383869e-02
4.55736946e-02
5.20979809e-02
5.89561849e-02
5.76521391e-02
6.29543462e-02
5.93562266e-02
5.51013122e-02
6.17754087e-02
7.75456533e-02
5.98369736e-02
7.22554829e-02
5.92475787e-02
6.93185516e-02
6.17881957e-02
6.94916323e-02
6.24958109e-02
5.89714402e-02
5.15314639e-02
7.13403869e-02
5.88101083e-02
8.48706346e-02
8.13341677e-02
1.20995335e-01
7.60802055e-02
3.90238807e-02
4.51439228e-02
5.92294193e-02
5.37778996e-02
4.53617368e-02
8.14761179e-02
6.03272505e-02
5.90020828e-02
9.60791707e-02
8.46955635e-02
4.47630454e-02
5.19405580e-02
7.64022134e-02
9.98035129e-02
9.31999212e-02
8.99310236e-02
7.19185472e-02
6.70810314e-02
7.17679858e-02
7.56371152e-02
6.05814178e-02
6.58872887e-02
5.71895465e-02
5.96869853e-02
5.30701941e-02
5.39208604e-02
5.02201673e-02
4.82625309e-02
5.27433231e-02
4.97366292e-02
8.31313524e-02
8.16478692e-02
6.44523173e-02
5.32626137e-02
4.08218978e-02
3.62610330e-02
4.57007885e-02
9.80157331e-02
9.42853168e-02
7.67030641e-02
2.47957604e-02
6.87575638e-02
2.20228799e-02
1.19751424e-01
1.21557526e-01
1.05404571e-01
8.99971935e-02
8.00257307e-02
1.05014317e-01
8.42255428e-02
1.04880726e-01
1.10529447e-01
6.60997820e-02
6.18544947e-02
3.75354700e-02
2.40097120e-02
5.37062640e-02
3.01939647e-02
0.00000000e+00
0.00000000e+00
0.00000000e+00
0.00000000e+00
3.45072953e-05
0.00000000e+00
0.00000000e+00
6.84107993e-05
7.68218264e-02
7.07904883e-02
7.85635598e-02
8.32125917e-02
6.34758957e-02
6.97445795e-02
6.46431372e-02
6.41878899e-02
6.19429611e-02
6.10489491e-02
5.82917631e-02
6.03137668e-02
6.50380999e-02
6.24057557e-02
9.03184488e-02
9.88098048e-02
6.58410778e-02
5.99673660e-02
3.18620950e-02
1.99215421e-02
1.86573239e-02
1.00076579e-01
1.04077093e-01
9.06301464e-02
2.11254312e-02
7.78975272e-03
1.46237651e-02
4.27731495e-03
1.36486108e-02
4.20141657e-03
4.11381479e-02
2.63989773e-02
7.45801255e-02
2.49541815e-03
1.96859299e-03
1.87561647e-04
1.56079433e-04
5.23541472e-04
6.73501403e-04
1.45160303e-01
1.35071576e-01
1.24760146e-01
1.46872725e-01
5.85494346e-05
3.78254077e-03
0.00000000e+00
1.14793763e-01
1.10534273e-01
1.07369106e-01
1.24856304e-01
4.62035555e-02
4.35790513e-02
8.40418073e-03
1.32016765e-04
0.00000000e+00
</DataArray>
<DataArray type="Float32" Name="Plastic_strain_Min_Principal" format="ascii">
-5.07131219e-02
-5.31554191e-02
-6.54621683e-02
-5.96449394e-02
-5.27966537e-02
-6.24673614e-02
-1.07497305e-01
-8.75414778e-02
-8.68591499e-02
-1.06746968e-01
-1.37737592e-01
-1.10107981e-01
0.00000000e+00
0.00000000e+00
0.00000000e+00
0.00000000e+00
0.00000000e+00
0.00000000e+00
0.00000000e+00
0.00000000e+00
-7.91259483e-02
-7.86993969e-02
-7.81496670e-02
-7.85938092e-02
-8.70347284e-02
-8.76209289e-02
-8.94124284e-02
-9.06727817e-02
-7.70941433e-02
-8.03583525e-02
-8.47591646e-02
-8.79444480e-02
-7.74224736e-02
-7.72896842e-02
-7.96466358e-02
-8.22583539e-02
-7.75139276e-02
-9.03458809e-02
-7.44416527e-02
-7.62200635e-02
-7.65737724e-02
-8.77881786e-02
-6.84832484e-02
-7.67350448e-02
-7.51938298e-02
-8.44705701e-02
-6.58351630e-02
-7.46253803e-02
-7.97221726e-02
-7.63925966e-02
-9.84973600e-02
-9.51801632e-02
-8.89463244e-02
-9.20597697e-02
-1.17133404e-01
-8.91711637e-02
-1.11294320e-01
-8.96393940e-02
-1.08042538e-01
-9.59855989e-02
-1.04203641e-01
-9.49512385e-02
-7.75214349e-02
-6.85558561e-02
-1.08780313e-01
-9.43997577e-02
-1.15452709e-01
-1.15595627e-01
-1.41289994e-01
-7.38523627e-02
-5.69342141e-02
-6.31567361e-02
-6.52286772e-02
-6.69925269e-02
-6.72190273e-02
-1.23529781e-01
-7.40018347e-02
-8.62267409e-02
-1.46864403e-01
-1.12820013e-01
-6.37932792e-02
-5.17628884e-02
-1.08358257e-01
-1.26040947e-01
-1.23597478e-01
-1.07515698e-01
-9.83758792e-02
-9.77349747e-02
-1.00879123e-01
-1.03553724e-01
-9.37336404e-02
-9.41954451e-02
-8.67501665e-02
-8.43951553e-02
-7.89968185e-02
-7.63351573e-02
-7.21241236e-02
-7.03840135e-02
-7.10972659e-02
-6.91047143e-02
-1.03554228e-01
-1.11606365e-01
-8.36475989e-02
-6.76699162e-02
-5.32297846e-02
-4.53819601e-02
-5.74590874e-02
-1.31516855e-01
-1.28047297e-01
-9.36941306e-02
-2.06531642e-02
-8.26453641e-02
-1.21515855e-02
-1.80962093e-01
-1.75823644e-01
-1.27271082e-01
-1.19198009e-01
-1.11878796e-01
-1.55397717e-01
-1.33101031e-01
-1.50448386e-01
-1.37103492e-01
-7.52293200e-02
-6.51470730e-02
-3.17454599e-02
-1.21911606e-02
-3.14260192e-02
-2.83177745e-02
0.00000000e+00
0.00000000e+00
0.00000000e+00
0.00000000e+00
-5.26661315e-05
0.00000000e+00
0.00000000e+00
-9.15982431e-05
-1.04372665e-01
-1.02488708e-01
-1.04142105e-01
-1.07871953e-01
-9.76568572e-02
-9.61897578e-02
-8.99245963e-02
-8.61023627e-02
-8.20834562e-02
-8.03039968e-02
-7.73584656e-02
-7.49046337e-02
-7.84891322e-02
-7.56278299e-02
-1.17072837e-01
-1.41453512e-01
-7.35952356e-02
-7.11035030e-02
-3.71586631e-02
-1.86282189e-02
-1.63608154e-02
-1.53367206e-01
-1.63712725e-01
-1.10414413e-01
-1.51602151e-02
-4.56481631e-03
-9.75284332e-03
-2.71282790e-03
-1.23612896e-02
-5.28843899e-03
-2.97297034e-02
-1.72399725e-02
-1.07823625e-01
-2.47877477e-03
-2.55598262e-03
-1.40817974e-04
-1.52895720e-04
-6.51312992e-04
-1.09408644e-03
-1.97894752e-01
-2.13414490e-01
-1.84112206e-01
-1.99575529e-01
-4.43832575e-05
-2.77785213e-03
0.00000000e+00
-1.47315554e-01
-1.44360468e-01
-1.58939123e-01
-1.53488547e-01
-3.75335882e-02
-2.97743869e-02
-7.17536500e-03
-2.00401511e-04
0.00000000e+00
</DataArray>
</PointData>
<Cells>
<DataArray type="Int32" Name="connectivity" format="ascii">
0 1 2 3 4 5 6 7
1 8 9 2 5 10 11 6
12 13 14 15 16 17 18 19
20 21 22 23 24 25 26 27
21 28 29 22 25 30 31 26
28 32 33 29 30 34 35 31
32 36 37 33 34 38 39 35
36 40 41 37 38 42 43 39
40 44 45 41 42 46 47 43
23 22 48 49 27 26 50 51
22 29 52 48 26 31 53 50
29 33 54 52 31 35 55 53
33 37 56 54 35 39 57 55
37 41 58 56 39 43 59 57
41 45 60 58 43 47 61 59
49 48 62 63 51 50 64 65
48 52 66 62 50 53 67 64
52 54 68 66 53 55 69 67
63 62 70 71 65 64 72 73
71 70 4 74 73 72 75 76
70 77 5 4 72 78 79 75
74 4 7 80 76 75 81 82
4 5 6 7 75 79 83 81
5 10 11 6 79 84 85 83
24 25 26 27 86 87 88 89
25 30 31 26 87 90 91 88
30 34 35 31 90 92 93 91
34 38 39 35 92 94 95 93
38 42 43 39 94 96 97 95
42 46 47 43 96 98 99 97
27 26 50 51 89 88 100 101
26 31 53 50 88 91 102 100
31 35 55 53 91 93 103 102
35 39 57 55 93 95 104 103
39 43 59 57 95 97 105 104
43 47 61 59 97 99 106 105
51 50 64 65 101 100 107 108
50 53 67 64 100 102 109 107
53 55 69 67 102 103 110 109
55 57 111 69 103 104 112 110
65 64 72 73 108 107 113 114
64 67 78 72 107 109 115 113
73 72 75 76 114 113 116 117
76 75 81 82 117 116 118 119
75 79 83 81 116 120 121 118
79 84 85 83 120 122 123 121
84 124 125 85 122 126 127 123
128 129 130 131 132 133 134 135
86 87 88 89 136 137 138 139
87 90 91 88 137 140 141 138
90 92 93 91 140 142 143 141
92 94 95 93 142 144 145 143
94 96 97 95 144 146 147 145
96 98 99 97 146 148 149 147
89 88 100 101 139 138 150 151
88 91 102 100 138 141 152 150
91 93 103 102 141 143 153 152
93 95 104 103 143 145 154 153
95 97 105 104 145 147 155 154
97 99 106 105 147 149 156 155
101 100 107 108 151 150 157 158
100 102 109 107 150 152 159 157
102 103 110 109 152 153 160 159
103 104 112 110 153 154 161 160
104 105 162 112 154 155 163 161
105 106 164 162 155 156 165 163
109 110 166 115 159 160 167 168
110 112 169 166 160 161 170 167
112 162 171 169 161 163 172 170
162 164 173 171 163 165 174 172
114 113 116 117 175 176 177 178
169 171 132 126 170 172 179 180
171 173 133 132 172 174 181 179
117 116 118 119 178 177 182 183
116 120 121 118 177 184 185 182
120 122 123 121 184 186 187 185
122 126 127 123 186 180 188 187
126 132 135 127 180 179 189 188
132 133 134 135 179 181 190 189
</DataArray>
<DataArray type="Int32" Name="offsets" format="ascii">
8
16
24
32
40
48
56
64
72
80
88
96
104
112
120
128
136
144
152
160
168
176
184
192
200
208
216
224
232
240
248
256
264
272
280
288
296
304
312
320
328
336
344
352
360
368
376
384
392
400
408
416
424
432
440
448
456
464
472
480
488
496
504
512
520
528
536
544
552
560
568
576
584
592
600
608
616
624
632
</DataArray>
<DataArray type="UInt8" Name="types" format="ascii">
12
12
12
12
12
12
12
12
12
12
12
12
12
12
12
12
12
12
12
12
12
12
12
12
12
12
12
12
12
12
12
12
12
12
12
12
12
12
12
12
12
12
12
12
12
12
12
12
12
12
12
12
12
12
12
12
12
12
12
12
12
12
12
12
12
12
12
12
12
12
12
12
12
12
12
12
12
12
12
</DataArray>
</Cells>
</Piece>
</UnstructuredGrid>
</VTKFile>
