<VTKFile type="UnstructuredGrid" version="0.1" byte_order="LittleEndian">
<UnstructuredGrid>
<Piece NumberOfPoints="173" NumberOfCells="80">
<Points>
<DataArray type="Float64" NumberOfComponents="3" format="ascii">
 0.00000000e+00  0.00000000e+00  0.00000000e+00
 1.04062474e+00  0.00000000e+00  0.00000000e+00
 1.04346991e+00  1.07450104e+00  0.00000000e+00
 0.00000000e+00  1.07169604e+00  0.00000000e+00
 0.00000000e+00  0.00000000e+00  9.12064731e-01
 1.03997397e+00  0.00000000e+00  9.08624351e-01
 1.04084003e+00  1.06937206e+00  9.12946284e-01
 0.00000000e+00  1.06834733e+00  9.14901972e-01
 2.08554626e+00  0.00000000e+00  0.00000000e+00
 2.08663440e+00  1.08019888e+00  0.00000000e+00
 2.08341885e+00  0.00000000e+00  9.02199149e-01
 2.08565903e+00  1.07264090e+00  9.07235622e-01
 3.13165712e+00  0.00000000e+00  0.00000000e+00
 3.13602924e+00  1.08834183e+00  0.00000000e+00
 3.13708448e+00  0.00000000e+00  8.96259665e-01
 3.13182974e+00  1.07563126e+00  8.97299349e-01
 4.19322157e+00  0.00000000e+00  0.00000000e+00
 4.18157530e+00  1.09440506e+00  0.00000000e+00
 4.19717455e+00  0.00000000e+00  8.88038993e-01
 4.18412399e+00  1.07620585e+00  8.91321540e-01
 5.25352859e+00  0.00000000e+00  0.00000000e+00
 5.23905230e+00  1.10123503e+00  0.00000000e+00
 5.25906849e+00  0.00000000e+00  8.79626036e-01
 5.24839020e+00  1.07915986e+00  8.85329783e-01
 6.32115507e+00  0.00000000e+00  0.00000000e+00
 6.28173161e+00  1.12622082e+00  0.00000000e+00
 6.31764030e+00  0.00000000e+00  8.77936721e-01
 6.30792761e+00  1.10216105e+00  8.73627901e-01
 1.04741478e+00  2.13292289e+00  0.00000000e+00
 0.00000000e+00  2.13073134e+00  0.00000000e+00
 1.04353845e+00  2.12865686e+00  9.24009204e-01
 0.00000000e+00  2.12520814e+00  9.24907029e-01
 2.09438300e+00  2.14455462e+00  0.00000000e+00
 2.08649063e+00  2.13521338e+00  9.22976255e-01
 3.13248968e+00  2.15459108e+00  0.00000000e+00
 3.12639904e+00  2.14297342e+00  9.31131482e-01
 4.16438913e+00  2.17448711e+00  0.00000000e+00
 4.16723824e+00  2.14279318e+00  9.28197443e-01
 5.18557930e+00  2.17623711e+00  0.00000000e+00
 5.20078611e+00  2.14777184e+00  9.32558119e-01
 6.21622705e+00  2.21130657e+00  0.00000000e+00
 6.24169731e+00  2.18074894e+00  9.32616413e-01
 1.05062401e+00  3.16899514e+00  0.00000000e+00
 0.00000000e+00  3.16596174e+00  0.00000000e+00
 1.04548299e+00  3.17011642e+00  9.38000500e-01
 0.00000000e+00  3.16833377e+00  9.38966513e-01
 2.10146785e+00  3.17148304e+00  0.00000000e+00
 2.09216690e+00  3.17269516e+00  9.51399386e-01
 3.12937021e+00  3.18004084e+00  0.00000000e+00
 3.12340236e+00  3.17733049e+00  9.85314846e-01
 4.13547325e+00  3.18690062e+00  0.00000000e+00
 4.12763596e+00  3.17615533e+00  1.00563323e+00
 5.15029812e+00  3.18002605e+00  0.00000000e+00
 5.15193272e+00  3.16146970e+00  1.01389861e+00
 6.15278435e+00  3.21817875e+00  0.00000000e+00
 6.15887403e+00  3.21479750e+00  1.00442123e+00
 1.05285466e+00  4.18860817e+00  0.00000000e+00
 0.00000000e+00  4.19260693e+00  0.00000000e+00
 1.04616714e+00  4.19102383e+00  9.46140885e-01
 0.00000000e+00  4.19595098e+00  9.44224656e-01
 2.10047770e+00  4.18509674e+00  0.00000000e+00
 2.08993149e+00  4.18165588e+00  9.62368965e-01
 3.12446213e+00  4.18006659e+00  0.00000000e+00
 3.11642599e+00  4.17866325e+00  9.92717803e-01
 4.12147665e+00  4.18561792e+00  0.00000000e+00
 4.12108326e+00  4.18561077e+00  9.99985695e-01
 6.12138224e+00  4.18996859e+00  0.00000000e+00
 5.12143469e+00  4.18761206e+00  0.00000000e+00
 6.12150097e+00  4.18999052e+00  9.99726415e-01
 5.12150764e+00  4.18755674e+00  1.00001645e+00
 1.05069673e+00  5.20737171e+00  0.00000000e+00
 0.00000000e+00  5.21643353e+00  0.00000000e+00
 1.04758632e+00  5.21412611e+00  9.43950117e-01
 0.00000000e+00  5.21783161e+00  9.37230349e-01
 2.09846187e+00  5.19181633e+00  0.00000000e+00
 2.08397698e+00  5.19492435e+00  9.56801593e-01
 3.11650872e+00  5.18121195e+00  0.00000000e+00
 3.11038327e+00  5.18466520e+00  9.89501297e-01
 4.11942720e+00  5.18570995e+00  0.00000000e+00
 4.11920547e+00  5.18572807e+00  1.00024438e+00
 5.11928511e+00  5.18771505e+00  0.00000000e+00
 5.11938095e+00  5.18769264e+00  1.00002861e+00
 6.11940384e+00  5.18972349e+00  0.00000000e+00
 6.11942244e+00  5.18965769e+00  1.00000799e+00
 1.05721235e+00  6.23987532e+00  0.00000000e+00
 0.00000000e+00  6.24400806e+00  0.00000000e+00
 1.05136275e+00  6.24067831e+00  9.32164490e-01
 0.00000000e+00  6.25026178e+00  9.26181316e-01
 2.10624123e+00  6.21260500e+00  0.00000000e+00
 2.08671594e+00  6.23004532e+00  9.38009262e-01
 3.12109995e+00  6.19070339e+00  0.00000000e+00
 3.11497927e+00  6.20571566e+00  9.72950876e-01
 4.11846113e+00  6.18634081e+00  0.00000000e+00
 4.11778736e+00  6.18633556e+00  1.00053668e+00
 5.11744833e+00  6.18756628e+00  0.00000000e+00
 5.11756229e+00  6.18765497e+00  9.99966741e-01
 6.11741114e+00  6.18967915e+00  0.00000000e+00
 6.11743975e+00  6.18964911e+00  9.99995112e-01
 0.00000000e+00  0.00000000e+00  1.83143115e+00
 1.04061425e+00  0.00000000e+00  1.82448030e+00
 1.03992295e+00  1.05822349e+00  1.83166993e+00
 0.00000000e+00  1.05903721e+00  1.83274412e+00
 2.09056473e+00  0.00000000e+00  1.81539166e+00
 2.08117175e+00  1.05192518e+00  1.81957781e+00
 3.14072657e+00  0.00000000e+00  1.80336165e+00
 3.14080286e+00  1.05138695e+00  1.80287051e+00
 4.20599604e+00  0.00000000e+00  1.78504658e+00
 4.20073557e+00  1.05194712e+00  1.79687524e+00
 5.27306032e+00  0.00000000e+00  1.77215898e+00
 5.26631165e+00  1.05398011e+00  1.78565633e+00
 6.32651567e+00  0.00000000e+00  1.76622641e+00
 6.33806992e+00  1.06086004e+00  1.77498531e+00
 1.03438270e+00  2.11436963e+00  1.84806919e+00
 0.00000000e+00  2.12051344e+00  1.85322189e+00
 2.07800889e+00  2.11339784e+00  1.84185970e+00
 3.12660217e+00  2.11775494e+00  1.83758938e+00
 4.19122124e+00  2.13188791e+00  1.81963778e+00
 5.25863266e+00  2.13409472e+00  1.82505679e+00
 6.31781816e+00  2.14390612e+00  1.81278825e+00
 1.03004944e+00  3.16573977e+00  1.87494218e+00
 0.00000000e+00  3.16833353e+00  1.87983394e+00
 2.06603265e+00  3.16716862e+00  1.88864303e+00
 3.05933952e+00  3.14529586e+00  2.00941062e+00
 1.03241289e+00  4.20755911e+00  1.89857030e+00
 0.00000000e+00  4.20234442e+00  1.88990951e+00
 2.07111049e+00  4.19002151e+00  1.92641675e+00
 3.09156680e+00  4.16067028e+00  1.96776175e+00
 1.03992081e+00  5.22462988e+00  1.89076650e+00
 0.00000000e+00  5.23144579e+00  1.88398540e+00
 2.06676412e+00  5.21379852e+00  1.91144156e+00
 3.11391830e+00  5.19781303e+00  1.93101215e+00
 1.03483057e+00  6.26386738e+00  1.86234164e+00
 0.00000000e+00  6.26245356e+00  1.85770547e+00
 2.06802344e+00  6.27009010e+00  1.87128353e+00
 3.12364769e+00  6.25877810e+00  1.87386560e+00
 5.11942148e+00  5.18773985e+00  2.00003457e+00
 6.11942101e+00  5.18967390e+00  2.00003147e+00
 6.11748505e+00  6.18968105e+00  1.99998295e+00
 5.11745834e+00  6.18775225e+00  1.99996650e+00
 0.00000000e+00  0.00000000e+00  2.74846625e+00
 1.04770875e+00  0.00000000e+00  2.74648571e+00
 1.05035830e+00  1.05223763e+00  2.75237989e+00
 0.00000000e+00  1.05031323e+00  2.75741982e+00
 2.10578561e+00  0.00000000e+00  2.73288512e+00
 2.09437013e+00  1.04448998e+00  2.74168396e+00
 3.15744114e+00  0.00000000e+00  2.71787596e+00
 3.15847921e+00  1.03981900e+00  2.72143650e+00
 4.21962595e+00  0.00000000e+00  2.70459318e+00
 4.22243834e+00  1.04151773e+00  2.69992232e+00
 5.28490591e+00  0.00000000e+00  2.68827415e+00
 5.28556347e+00  1.04429543e+00  2.69071007e+00
 6.34514618e+00  0.00000000e+00  2.68267012e+00
 6.34491062e+00  1.04470503e+00  2.68473172e+00
 1.03534770e+00  2.09861708e+00  2.77294683e+00
 0.00000000e+00  2.11234522e+00  2.77618742e+00
 2.09360981e+00  2.10017633e+00  2.75153255e+00
 3.14856553e+00  2.10655093e+00  2.71049452e+00
 4.21833134e+00  2.11792135e+00  2.70012736e+00
 5.28120661e+00  2.11069536e+00  2.70192432e+00
 6.33523512e+00  2.11679840e+00  2.69670343e+00
 1.03104079e+00  3.16915894e+00  2.81502771e+00
 0.00000000e+00  3.16599917e+00  2.81111598e+00
 2.08399677e+00  3.14845657e+00  2.78479433e+00
 1.03129292e+00  4.20909262e+00  2.84504890e+00
 0.00000000e+00  4.21683884e+00  2.83865380e+00
 2.07447243e+00  4.20971060e+00  2.87770367e+00
 1.03246319e+00  5.25908852e+00  2.83283520e+00
 0.00000000e+00  5.25307035e+00  2.82900453e+00
 2.07183456e+00  5.25554037e+00  2.84174132e+00
 3.08772016e+00  4.25669003e+00  3.01916456e+00
 3.11063170e+00  5.24715662e+00  2.82098246e+00
 1.03549480e+00  6.29765797e+00  2.79939795e+00
 0.00000000e+00  6.30129337e+00  2.78843188e+00
</DataArray>
</Points>
<PointData Tensors="Stress_Components,Plastic_strain_components" Vevtors="Spatial_displacement,Reaction_force" Scalars="Equivalent_plastic_strain,Stress_Mises,Stress_Max_Principal,Stress_Mid_Principal,Stress_Min_Principal,Stress_Pressure,Stress_Tresca,Stress_Third_Invariant,Plastic_strain_Max_Principal,Plastic_strain_Min_Principal">
<DataArray type="Float32" Name="Stress_Components" NumberOfComponents="9" format="ascii">
-3.22136688e+00 -9.66698304e-03 -1.22966319e-02 -9.66698304e-03 5.38081586e-01 7.19948998e-03 -1.22966319e-02 7.19948998e-03 -3.26732063e+01
-8.56617633e+00 2.14880325e-01 -4.60490934e-03 2.14880325e-01 -4.05488420e+00 -2.47516245e-01 -4.60490934e-03 -2.47516245e-01 -4.33744936e+01
-4.24085140e+00 4.16544795e-01 -3.80300377e-01 4.16544795e-01 -1.46711946e+00 -3.19967344e-01 -3.80300377e-01 -3.19967344e-01 -3.60263650e+01
-4.89018726e+00 9.83979404e-02 -3.83628502e-01 9.83979404e-02 -2.36434841e+00 1.67672988e-02 -3.83628502e-01 1.67672988e-02 -3.77418671e+01
-1.27690434e+00 -5.85410511e-03 -6.72967955e-02 -5.85410511e-03 2.17560333e+00 -2.48573780e-01 -6.72967955e-02 -2.48573780e-01 -2.88229618e+01
-5.80185068e+00 1.23128967e-01 3.67784128e-01 1.23128967e-01 -1.80646247e+00 -5.61356336e-01 3.67784128e-01 -5.61356336e-01 -3.79762280e+01
-2.86211628e+00 3.07422352e-01 -1.22719946e-01 3.07422352e-01 -1.25934184e-01 -3.39626888e-01 -1.22719946e-01 -3.39626888e-01 -3.30918024e+01
-4.29771602e+00 1.01456949e-01 -2.40892407e-01 1.01456949e-01 -1.56917977e+00 1.63718052e-01 -2.40892407e-01 1.63718052e-01 -3.62120843e+01
-1.13107893e+01 1.69589214e-01 -1.66210467e-02 1.69589214e-01 -6.10606408e+00 -4.45676520e-01 -1.66210467e-02 -4.45676520e-01 -4.84961672e+01
-1.25747161e+01 9.42590704e-01 -6.51102435e-01 9.42590704e-01 -8.19049346e+00 -4.56954399e-01 -6.51102435e-01 -4.56954399e-01 -5.21652501e+01
-7.11299932e+00 1.46479968e-01 4.06719934e-01 1.46479968e-01 -3.63717902e+00 -1.04347110e-01 4.06719934e-01 -1.04347110e-01 -4.14925928e+01
-7.21578017e+00 2.50179096e-01 -7.19440867e-01 2.50179096e-01 -3.55354358e+00 -1.15591721e+00 -7.19440867e-01 -1.15591721e+00 -4.13716000e+01
-1.47510552e+01 5.53715169e-01 -7.09028468e-02 5.53715169e-01 -9.48110116e+00 4.05058980e-01 -7.09028468e-02 4.05058980e-01 -5.59212894e+01
-2.00951514e+01 6.23635836e-01 -1.32455978e+00 6.23635836e-01 -1.38547844e+01 -1.14576857e+00 -1.32455978e+00 -1.14576857e+00 -6.62876878e+01
-6.73952448e+00 -4.96964410e-01 -5.80627464e-01 -4.96964410e-01 -4.65689349e+00 -1.04203381e-01 -5.80627464e-01 -1.04203381e-01 -4.22864226e+01
-1.21213425e+01 -4.37964495e-01 -2.87574740e-01 -4.37964495e-01 -7.44379656e+00 -9.10656435e-01 -2.87574740e-01 -9.10656435e-01 -5.07929149e+01
-1.89022501e+01 -1.41749811e+00 -1.03507124e-01 -1.41749811e+00 -1.43596411e+01 1.61811423e-01 -1.03507124e-01 1.61811423e-01 -6.57404842e+01
-2.89522293e+01 -1.25763552e+00 -2.48635241e+00 -1.25763552e+00 -1.77078350e+01 -1.58113141e-01 -2.48635241e+00 -1.58113141e-01 -7.92193837e+01
-8.45865083e+00 -1.37634093e+00 -2.79262543e-01 -1.37634093e+00 -7.12266445e+00 -1.19450323e-01 -2.79262543e-01 -1.19450323e-01 -4.67906036e+01
-5.28923213e-01 -1.01733989e+00 -4.90218108e-01 -1.01733989e+00 9.53733861e-01 2.59960291e-01 -4.90218108e-01 2.59960291e-01 -2.94785900e+01
-1.96535553e+01 -5.36063857e-01 -2.18711123e-01 -5.36063857e-01 -1.30077934e+01 1.11818594e+00 -2.18711123e-01 1.11818594e+00 -6.48923283e+01
-1.27517573e+01 -3.11055470e+00 -2.19180572e+00 -3.11055470e+00 -6.77543712e+00 5.51975280e-01 -2.19180572e+00 5.51975280e-01 -4.98639417e+01
-2.27976310e+00 -5.46475600e-01 -2.68984506e-01 -5.46475600e-01 -9.86449361e-01 1.20354025e+00 -2.68984506e-01 1.20354025e+00 -3.34591465e+01
3.16054006e+00 -1.82799709e+00 -1.55862475e-01 -1.82799709e+00 3.59941590e+00 2.91609530e-01 -1.55862475e-01 2.91609530e-01 -2.24757818e+01
-4.78132515e+01 -4.70961857e+00 -2.18673766e-01 -4.70961857e+00 -3.43649254e+01 5.35815775e-01 -2.18673766e-01 5.35815775e-01 -1.17373421e+02
-6.09950829e+01 -5.14587867e+00 -3.10164297e+00 -5.14587867e+00 -3.63194952e+01 5.15437150e+00 -3.10164297e+00 5.15437150e+00 -1.30246231e+02
-2.65959145e+01 -5.90914309e-01 -1.77048671e+00 -5.90914309e-01 -1.79903635e+01 2.67587981e+00 -1.77048671e+00 2.67587981e+00 -7.72905455e+01
-2.44735267e+01 -1.82059395e+00 -9.96166134e-01 -1.82059395e+00 -1.77772813e+01 2.87789432e+00 -9.96166134e-01 2.87789432e+00 -7.43443191e+01
-1.33841968e+00 8.49077918e-01 -5.22167137e-01 8.49077918e-01 -3.33996415e+00 -3.96335795e-01 -5.22167137e-01 -3.96335795e-01 -3.49149339e+01
4.58391666e-01 1.84844445e-01 -5.46733573e-01 1.84844445e-01 -1.41601801e+00 5.67797432e-03 -5.46733573e-01 5.67797432e-03 -3.09296241e+01
-1.33209727e+00 5.33645069e-01 6.74574815e-02 5.33645069e-01 -1.44146132e+00 -7.57541674e-01 6.74574815e-02 -7.57541674e-01 -3.29610197e+01
2.00104570e+00 2.15329194e-01 8.59449919e-01 2.15329194e-01 1.63793898e+00 2.65645422e-02 8.59449919e-01 2.65645422e-02 -2.60368119e+01
-5.56620288e+00 2.44912818e+00 -8.84888016e-01 2.44912818e+00 -8.05903006e+00 -1.17897892e+00 -8.84888016e-01 -1.17897892e+00 -4.41932790e+01
-3.84342399e+00 1.88712710e+00 1.72614562e+00 1.88712710e+00 -4.48605497e+00 -3.84284360e-01 1.72614562e+00 -3.84284360e-01 -3.81177307e+01
1.84515665e+01 1.41503197e+00 -1.49891813e+00 1.41503197e+00 1.69004397e+01 -5.93814939e-01 -1.49891813e+00 -5.93814939e-01 7.23219121e+00
5.13468688e+00 1.33287475e+00 3.82397484e+00 1.33287475e+00 6.29035323e+00 -2.35449382e-01 3.82397484e+00 -2.35449382e-01 -1.79982346e+01
2.77718612e+01 -1.08491156e+00 -4.64336370e+00 -1.08491156e+00 2.20676070e+01 -2.11829946e-01 -4.64336370e+00 -2.11829946e-01 2.29810357e+01
-1.34667384e+01 -6.69486921e+00 8.60161239e+00 -6.69486921e+00 -1.00424906e+01 6.36447282e-01 8.60161239e+00 6.36447282e-01 -5.00475399e+01
2.76763178e+01 7.13095471e-01 -4.07719029e+00 7.13095471e-01 2.58750173e+01 4.35086127e-01 -4.07719029e+00 4.35086127e-01 2.58279777e+01
-3.96626902e+00 -4.94451016e+00 9.37588083e+00 -4.94451016e+00 -8.79715856e+00 2.75282534e+00 9.37588083e+00 2.75282534e+00 -3.59341086e+01
1.54061298e+01 -5.14453924e+00 -6.77258021e+00 -5.14453924e+00 4.42975998e+00 2.30756468e+00 -6.77258021e+00 2.30756468e+00 -7.19575500e+00
-3.90910123e+01 -1.14301079e+01 1.17564001e+01 -1.14301079e+01 -3.04696376e+01 5.96601613e+00 1.17564001e+01 5.96601613e+00 -9.54631424e+01
5.87892354e-01 6.23221606e-01 2.11509500e-01 6.23221606e-01 -8.14452660e+00 -8.08582030e-01 2.11509500e-01 -8.08582030e-01 -3.69554620e+01
6.71540570e+00 2.69585032e-01 3.05077516e-01 2.69585032e-01 2.04864693e+00 -1.25483982e-03 3.05077516e-01 -1.25483982e-03 -2.00947285e+01
3.02423990e+00 1.21187166e-01 1.05212991e+00 1.21187166e-01 -3.57797953e+00 -6.32206134e-01 1.05212991e+00 -6.32206134e-01 -2.98159600e+01
7.20106155e+00 1.07525430e-01 8.65863577e-01 1.07525430e-01 4.36777854e+00 -3.59540489e-01 8.65863577e-01 -3.59540489e-01 -1.72334750e+01
1.77549696e+01 -1.49660677e-01 -8.77973065e-02 -1.49660677e-01 1.05302914e+01 -1.12126443e+00 -8.77973065e-02 -1.12126443e+00 1.26128912e+00
1.43673066e+01 -8.79651140e-02 1.14622478e+00 -8.79651140e-02 4.69961256e+00 1.51098069e+00 1.14622478e+00 1.51098069e+00 -8.80991429e+00
2.99050615e+01 -4.63045709e-01 1.02341235e-01 -4.63045709e-01 2.78589249e+01 -2.09874956e+00 1.02341235e-01 -2.09874956e+00 3.10922861e+01
2.95338878e+01 -1.50882714e+00 -2.83330728e-01 -1.50882714e+00 2.60042906e+01 2.96068025e+00 -2.83330728e-01 2.96068025e+00 3.10422096e+01
2.43119202e+01 -2.66377418e+00 -9.48850314e-02 -2.66377418e+00 2.24306800e+01 -2.76333929e+00 -9.48850314e-02 -2.76333929e+00 3.05854766e+01
3.17097244e+01 7.71560828e-01 -9.97261572e+00 7.71560828e-01 3.28155177e+01 4.02768179e+00 -9.97261572e+00 4.02768179e+00 5.07631497e+01
3.45902328e+01 -6.84457461e-01 3.45713655e+00 -6.84457461e-01 3.61738574e+01 -4.52351496e-01 3.45713655e+00 -4.52351496e-01 3.63272985e+01
2.79874074e+01 4.75514285e+00 -9.20950556e+00 4.75514285e+00 3.59724450e+01 -1.25293585e+00 -9.20950556e+00 -1.25293585e+00 4.54064452e+01
1.78278812e+01 3.59375489e+00 -3.49662423e-01 3.59375489e+00 7.05975533e+00 1.36462694e+00 -3.49662423e-01 1.36462694e+00 3.04865263e+01
4.19100170e+01 9.97898054e+00 -5.26781005e+00 9.97898054e+00 2.95613399e+01 -1.92013437e+00 -5.26781005e+00 -1.92013437e+00 5.76510410e+01
3.26772466e+00 -7.91531749e-01 1.92426676e-01 -7.91531749e-01 -7.74650010e+00 -1.18269007e+00 1.92426676e-01 -1.18269007e+00 -3.28358119e+01
2.69177699e+00 -8.04395348e-01 3.08449566e-01 -8.04395348e-01 -5.23319888e+00 -4.77145538e-02 3.08449566e-01 -4.77145538e-02 -3.16670599e+01
7.96082577e+00 -1.13248576e+00 1.48248567e+00 -1.13248576e+00 1.24882853e+00 1.97839830e-02 1.48248567e+00 1.97839830e-02 -1.87230605e+01
5.34749126e+00 -7.01893285e-01 3.06090854e-01 -7.01893285e-01 2.14351401e-01 -1.26522662e-01 3.06090854e-01 -1.26522662e-01 -2.34838247e+01
1.44495951e+01 -2.30711728e+00 -9.42685451e-01 -2.30711728e+00 7.72530282e+00 -2.21825893e+00 -9.42685451e-01 -2.21825893e+00 -4.34851885e+00
1.78338019e+01 -1.13351934e+00 -7.43257947e-01 -1.13351934e+00 1.27558463e+01 2.80792630e+00 -7.43257947e-01 2.80792630e+00 5.50853133e+00
1.95492816e+01 -3.78405064e-01 4.44992930e-01 -3.78405064e-01 2.52358139e+01 -3.20985809e+00 4.44992930e-01 -3.20985809e+00 1.96791320e+01
2.86739798e+01 6.76186318e-01 -3.56461412e-01 6.76186318e-01 3.28892439e+01 -2.13189130e+00 -3.56461412e-01 -2.13189130e+00 3.36524361e+01
1.88316652e+01 1.65285792e+00 6.34344021e-01 1.65285792e+00 2.38037341e+01 -2.28843864e+00 6.34344021e-01 -2.28843864e+00 2.35457056e+01
1.38204279e+01 3.23804635e+00 -8.58203769e-02 3.23804635e+00 9.35728105e+00 2.44561863e+00 -8.58203769e-02 2.44561863e+00 2.59242971e+00
-8.78669071e+00 -7.00955486e+00 1.82145447e-01 -7.00955486e+00 -2.90714316e+01 1.35257788e+00 1.82145447e-01 1.35257788e+00 -1.33980963e+01
1.11170932e+01 1.69937555e+00 -8.86447549e-01 1.69937555e+00 1.70491013e+01 1.05268222e+00 -8.86447549e-01 1.05268222e+00 1.33107173e+01
9.83303666e-01 -5.70947814e+00 1.44322252e+00 -5.70947814e+00 -2.02512202e+01 -1.84319818e+00 1.44322252e+00 -1.84319818e+00 -4.70612288e+00
2.77460130e+00 -2.55916309e+00 -2.48183715e+00 -2.55916309e+00 8.89616257e+00 -8.52554440e-01 -2.48183715e+00 -8.52554440e-01 -2.80061704e+00
3.76537192e+00 -2.14131876e+00 1.13891642e+00 -2.14131876e+00 -5.28730738e+00 -3.71608995e-01 1.13891642e+00 -3.71608995e-01 -2.98148985e+01
1.80245638e+00 -1.49329609e+00 4.27505888e-01 -1.49329609e+00 -6.25196075e+00 -9.49780690e-03 4.27505888e-01 -9.49780690e-03 -3.36397815e+01
9.66934419e+00 -1.36643711e+00 7.46451007e-01 -1.36643711e+00 5.54119334e+00 3.28003610e-01 7.46451007e-01 3.28003610e-01 -1.28146080e+01
4.72979677e+00 -6.77422643e-01 -4.92655672e-03 -6.77422643e-01 -1.56009221e+00 7.72937149e-01 -4.92655672e-03 7.72937149e-01 -2.57223371e+01
1.34799774e+01 -2.37076879e+00 4.62895934e-01 -2.37076879e+00 7.76470619e+00 -2.67206819e+00 4.62895934e-01 -2.67206819e+00 -5.20419335e+00
9.55841804e+00 -2.32347265e+00 -7.20932592e-01 -2.32347265e+00 5.71401394e+00 2.48258298e+00 -7.20932592e-01 2.48258298e+00 -1.17496202e+01
1.51015063e+01 2.27223634e+00 2.62558077e+00 2.27223634e+00 1.45770050e+01 -1.54459532e+00 2.62558077e+00 -1.54459532e+00 2.55199814e+00
1.48261814e+01 -1.87221613e+00 -1.33048192e+00 -1.87221613e+00 1.24849084e+01 3.30134986e+00 -1.33048192e+00 3.30134986e+00 1.97237333e+00
1.51975541e+01 2.92275262e+00 -2.18638528e-01 2.92275262e+00 1.95973251e+01 -2.10893181e+00 -2.18638528e-01 -2.10893181e+00 2.20537565e+01
1.15154935e+01 2.75799322e+00 3.18540090e+00 2.75799322e+00 6.11063826e+00 -1.77359462e-01 3.18540090e+00 -1.77359462e-01 5.95743969e+00
-3.73034477e-02 7.80079126e-01 -3.93923543e-01 7.80079126e-01 2.37246978e+00 1.75351781e+00 -3.93923543e-01 1.75351781e+00 4.33433809e+00
3.40692235e+00 5.74284172e-01 -7.67330202e-01 5.74284172e-01 8.81493354e-01 -6.35420787e-01 -7.67330202e-01 -6.35420787e-01 2.89270204e-01
2.92366517e+00 4.79638815e-01 -1.36749303e+00 4.79638815e-01 -8.05902600e+00 3.83522347e-01 -1.36749303e+00 3.83522347e-01 -1.77876931e+00
9.65087454e-01 -1.02210609e+00 9.71565095e-01 -1.02210609e+00 -5.62040381e+00 -1.95430373e-01 9.71565095e-01 -1.95430373e-01 -2.96024526e-01
-1.97040386e+01 -2.62231815e+00 1.15748140e+00 -2.62231815e+00 -3.01997652e+01 -1.36633867e+00 1.15748140e+00 -1.36633867e+00 -8.25804310e+01
-1.73035240e+01 -1.13793039e+00 1.58491969e+00 -1.13793039e+00 -3.15182533e+01 -3.52351442e-02 1.58491969e+00 -3.52351442e-02 -8.09722748e+01
-8.67794728e+00 -1.44215506e+00 9.90322232e-03 -1.44215506e+00 -1.54781970e+01 -1.00517327e+00 9.90322232e-03 -1.00517327e+00 -5.54154596e+01
-1.80737429e+01 -1.53025675e+00 1.02446139e-01 -1.53025675e+00 -2.79478045e+01 8.99996012e-01 1.02446139e-01 8.99996012e-01 -7.88531876e+01
-2.89454083e+01 -6.33536911e+00 5.81262064e+00 -6.33536911e+00 -3.79110603e+01 -5.61244261e+00 5.81262064e+00 -5.61244261e+00 -9.91325607e+01
-1.52636940e+01 -4.09410585e+00 4.83244032e-01 -4.09410585e+00 -1.51471899e+01 2.92732127e-01 4.83244032e-01 2.92732127e-01 -6.21375875e+01
4.71817207e+00 9.22608852e-01 5.13830340e+00 9.22608852e-01 1.77101698e+01 -3.00502452e+00 5.13830340e+00 -3.00502452e+00 -4.53219223e+00
-3.75501881e+01 -8.99987785e+00 7.02008784e-01 -8.99987785e+00 -3.21663183e+01 1.21976080e+01 7.02008784e-01 1.21976080e+01 -1.00337426e+02
1.84373436e+01 1.58049375e+00 -1.01868526e+00 1.58049375e+00 2.87749577e+01 -4.62029982e+00 -1.01868526e+00 -4.62029982e+00 3.50928650e+01
-1.43128412e+01 -9.78541148e+00 1.73042491e+00 -9.78541148e+00 -1.34081953e+01 8.07926750e+00 1.73042491e+00 8.07926750e+00 -1.52812610e+01
-5.48806597e+00 -9.28220987e-01 1.37982857e+00 -9.28220987e-01 2.16957211e+00 1.89147234e+00 1.37982857e+00 1.89147234e+00 5.47269953e+00
-3.72728626e+00 -5.17683427e-01 7.57750034e-01 -5.17683427e-01 2.94144365e+00 -2.69641753e+00 7.57750034e-01 -2.69641753e+00 3.61926271e+00
-1.88384926e+00 2.49373984e+00 -6.20110333e-01 2.49373984e+00 -2.17615604e+00 6.01262808e-01 -6.20110333e-01 6.01262808e-01 -6.19573593e-01
-4.08208025e+00 2.35599793e-01 -2.44156659e-01 2.35599793e-01 6.56990185e-01 1.36564910e+00 -2.44156659e-01 1.36564910e+00 5.72195530e-01
-1.84613562e+00 2.27294024e-03 -1.51163481e-01 2.27294024e-03 1.11332965e+00 -4.23722267e-01 -1.51163481e-01 -4.23722267e-01 -3.06560936e+01
-4.91768137e-01 7.90452510e-02 4.75281656e-01 7.90452510e-02 1.38935429e+00 -4.10519490e-01 4.75281656e-01 -4.10519490e-01 -2.89518337e+01
2.39215807e+00 -2.23807474e-01 1.02990190e-02 -2.23807474e-01 4.52260758e+00 1.92236571e-01 1.02990190e-02 1.92236571e-01 -2.24191553e+01
-2.34888756e+00 -5.70333377e-03 -1.78285763e-01 -5.70333377e-03 8.36515546e-01 1.69106586e-01 -1.78285763e-01 1.69106586e-01 -3.14518571e+01
4.93318881e+00 -7.88557060e-01 5.10134079e-01 -7.88557060e-01 4.97847757e+00 3.15971293e-01 5.10134079e-01 3.15971293e-01 -1.92612414e+01
3.87079473e+00 -4.14273430e-01 -3.38986086e-01 -4.14273430e-01 5.02938932e+00 -8.16727549e-01 -3.38986086e-01 -8.16727549e-01 -2.01936125e+01
3.38163555e+00 -2.80096428e-02 -2.97731152e-01 -2.80096428e-02 3.04725027e+00 4.45076264e-02 -2.97731152e-01 4.45076264e-02 -2.30422391e+01
6.63330305e+00 -3.34023851e-01 -5.58749180e-01 -3.34023851e-01 6.07056981e+00 -4.40435648e-01 -5.58749180e-01 -4.40435648e-01 -1.62255801e+01
4.16257882e+00 -2.99178466e-01 1.23426371e-01 -2.99178466e-01 2.47661421e+00 -2.35370474e-01 1.23426371e-01 -2.35370474e-01 -2.27961255e+01
5.00327206e+00 -5.59776821e-01 -2.41776811e-01 -5.59776821e-01 4.76997972e+00 7.49953656e-01 -2.41776811e-01 7.49953656e-01 -1.93400062e+01
1.00906716e+01 -5.05772635e-01 9.12469011e-02 -5.05772635e-01 8.87595752e+00 5.42545363e-01 9.12469011e-02 5.42545363e-01 -9.42414188e+00
4.69531363e+00 -4.03684862e-01 4.76123169e-02 -4.03684862e-01 3.64244515e+00 6.08791953e-01 4.76123169e-02 6.08791953e-01 -2.09786927e+01
8.53851914e+00 4.59299788e-01 -2.05126017e-01 4.59299788e-01 9.34156656e+00 1.64549059e+00 -2.05126017e-01 1.64549059e+00 -1.04725389e+01
4.81569624e+00 2.74303451e-01 -9.30444777e-01 2.74303451e-01 4.02276397e+00 9.45323832e-01 -9.30444777e-01 9.45323832e-01 -2.02948654e+01
5.47984943e+00 -4.70168035e-01 3.24133017e-01 -4.70168035e-01 6.86068243e+00 -8.21347867e-01 3.24133017e-01 -8.21347867e-01 -1.65466091e+01
-1.30986750e+00 -5.46417899e-01 1.42167568e+00 -5.46417899e-01 1.22697522e+00 -1.04484116e-02 1.42167568e+00 -1.04484116e-02 -2.98161699e+01
-9.75044857e+00 -2.90925734e-01 -7.79466416e-02 -2.90925734e-01 -5.93762659e+00 -1.44585433e-01 -7.79466416e-02 -1.44585433e-01 -4.95583245e+01
-6.02959094e+01 -8.24681914e+00 1.73300152e+01 -8.24681914e+00 -6.10332855e+01 6.98720860e-01 1.73300152e+01 6.98720860e-01 -1.42582087e+02
-4.21389055e+01 -6.52456978e-01 9.07466069e-01 -6.52456978e-01 -3.78051167e+01 2.52317548e+00 9.07466069e-01 2.52317548e+00 -1.16250086e+02
-3.97053330e+01 -1.33532887e+00 2.84147429e+00 -1.33532887e+00 -3.30090737e+01 5.11506796e+00 2.84147429e+00 5.11506796e+00 -1.07183089e+02
-4.56798916e+01 -4.20405090e+00 2.42363513e+00 -4.20405090e+00 -3.51805229e+01 6.48608613e+00 2.42363513e+00 6.48608613e+00 -1.14677830e+02
1.38952471e+01 -2.31008071e-02 8.83025922e-01 -2.31008071e-02 1.53528841e+01 -9.70448022e-01 8.83025922e-01 -9.70448022e-01 1.51920342e+00
1.09550970e+01 -2.39242624e-01 1.06041136e+00 -2.39242624e-01 1.09908551e+01 6.98651094e-02 1.06041136e+00 6.98651094e-02 -6.15007448e+00
-3.45415052e+01 -1.93007456e+00 5.96719805e+00 -1.93007456e+00 -2.98788572e+01 1.24645746e+01 5.96719805e+00 1.24645746e+01 -8.46618862e+01
4.90510807e+01 3.99312234e+00 -1.22288165e+01 3.99312234e+00 4.96874275e+01 -4.02002728e+00 -1.22288165e+01 -4.02002728e+00 7.74676991e+01
1.45643296e+01 -3.37490518e-01 1.85065354e+00 -3.37490518e-01 1.27747267e+01 5.78441937e-01 1.85065354e+00 5.78441937e-01 5.62183380e-01
1.51784475e+01 8.06873649e-01 2.56552730e-01 8.06873649e-01 1.49976520e+01 5.19199972e-01 2.56552730e-01 5.19199972e-01 2.63539875e+00
2.99460646e+01 -1.68281367e+00 -1.01664868e-01 -1.68281367e+00 2.81056566e+01 -8.10297076e-01 -1.01664868e-01 -8.10297076e-01 3.03293505e+01
2.43430505e+01 -7.63348122e-01 -4.98455222e+00 -7.63348122e-01 2.57181880e+01 -1.85988287e-01 -4.98455222e+00 -1.85988287e-01 2.37737878e+01
1.65077259e+01 -2.11741626e-02 2.23418809e-01 -2.11741626e-02 1.36685272e+01 9.14507215e-02 2.23418809e-01 9.14507215e-02 2.84849447e+00
1.09611801e+01 -7.26915874e-01 4.55737256e-01 -7.26915874e-01 8.82990366e+00 4.61153570e-01 4.55737256e-01 4.61153570e-01 -8.43048954e+00
4.39218098e+00 -2.76515444e+00 8.90267279e-01 -2.76515444e+00 3.73236072e+00 2.42791333e+00 8.90267279e-01 2.42791333e+00 -1.89010259e+01
-2.05411482e+01 -1.77224290e+00 -3.64941005e-01 -1.77224290e+00 -1.88517532e+01 6.11504894e+00 -3.64941005e-01 6.11504894e+00 -7.45911388e+01
-2.23742884e+00 -8.18233274e-01 -7.59033412e-02 -8.18233274e-01 -2.52699566e+00 -6.56568119e-02 -7.59033412e-02 -6.56568119e-02 -3.52432098e+01
-4.52647400e+00 -5.43430567e-01 -3.17949891e-01 -5.43430567e-01 -7.45512295e+00 1.53978717e+00 -3.17949891e-01 1.53978717e+00 -4.27444248e+01
-1.04226899e+01 -2.60202542e-01 1.31898578e+00 -2.60202542e-01 -4.06239223e+00 -2.59224315e+00 1.31898578e+00 -2.59224315e+00 -4.50902805e+01
-8.68148460e+01 -3.65962291e+00 -5.97302318e+00 -3.65962291e+00 -8.14089394e+01 4.79128039e+00 -5.97302318e+00 4.79128039e+00 -2.12054741e+02
-2.40469169e-01 -6.07721806e-01 -2.63818718e-01 -6.07721806e-01 2.96689203e-01 2.62663007e-01 -2.63818718e-01 2.62663007e-01 -4.38138276e-01
-4.30819269e-01 -4.31389064e-02 -9.83070731e-02 -4.31389064e-02 -9.98420641e-02 -2.44398333e-01 -9.83070731e-02 -2.44398333e-01 1.48834951e-01
6.92212999e-01 -1.46174446e-01 -1.10596187e-01 -1.46174446e-01 -1.06078871e-01 5.84180776e-01 -1.10596187e-01 5.84180776e-01 -9.67987537e-01
3.92938465e-01 -7.10960805e-01 8.28015804e-03 -7.10960805e-01 -1.99154021e-01 -5.22393674e-01 8.28015804e-03 -5.22393674e-01 -5.75773694e-01
1.05267072e+00 3.67737412e-02 2.00698242e-01 3.67737412e-02 1.81065702e+00 -3.17419982e-02 2.00698242e-01 -3.17419982e-02 -2.69297156e+01
1.72126458e+00 4.60660271e-01 7.37443417e-02 4.60660271e-01 1.69170600e+00 2.98344351e-01 7.37443417e-02 2.98344351e-01 -2.62748510e+01
5.99736346e+00 -2.46996228e-01 1.11290381e-01 -2.46996228e-01 6.59920577e+00 4.66993902e-01 1.11290381e-01 4.66993902e-01 -1.63342400e+01
1.53886238e+00 1.94357757e-01 2.17399575e-01 1.94357757e-01 2.98244619e+00 -2.17905283e-01 2.17399575e-01 -2.17905283e-01 -2.50862466e+01
6.69876254e+00 -8.25684085e-01 1.70737864e-01 -8.25684085e-01 5.89089513e+00 -3.38136993e-02 1.70737864e-01 -3.38136993e-02 -1.63598496e+01
6.02667426e+00 -5.33988426e-01 8.56654992e-01 -5.33988426e-01 5.95504689e+00 9.06402395e-01 8.56654992e-01 9.06402395e-01 -1.68022207e+01
6.75990021e+00 1.31784691e-01 2.72461265e-01 1.31784691e-01 5.68428117e+00 6.14470359e-01 2.72461265e-01 6.14470359e-01 -1.64441512e+01
1.11307243e+01 -5.95967136e-02 6.67196661e-02 -5.95967136e-02 9.60022512e+00 -3.53952236e-02 6.67196661e-02 -3.53952236e-02 -7.56558192e+00
9.20488405e+00 1.23725541e-01 -1.35693090e-01 1.23725541e-01 7.17954341e+00 4.44399884e-01 -1.35693090e-01 4.44399884e-01 -1.21469796e+01
5.21261382e+00 4.55233259e-02 -4.76423888e-01 4.55233259e-02 3.05508339e+00 9.26252306e-02 -4.76423888e-01 9.26252306e-02 -2.09602232e+01
1.24153535e+01 -1.82016492e-01 -8.87901254e-03 -1.82016492e-01 1.07405425e+01 -3.72878276e-03 -8.87901254e-03 -3.72878276e-03 -4.86351311e+00
9.45644784e+00 3.02353399e-02 -3.24392013e-01 3.02353399e-02 6.91223156e+00 7.18239089e-02 -3.24392013e-01 7.18239089e-02 -1.21902096e+01
1.38590903e+01 -1.13697454e-01 -8.38880846e-02 -1.13697454e-01 1.30743084e+01 -3.06312591e-01 -8.38880846e-02 -3.06312591e-01 -7.34170914e-01
1.74966145e+01 2.33487818e-01 -4.48268821e-01 2.33487818e-01 1.55131336e+01 3.00109442e-02 -4.48268821e-01 3.00109442e-02 5.68807507e+00
2.55781627e+00 -8.13354217e-01 1.43499865e+00 -8.13354217e-01 4.97428590e+00 4.44002561e-02 1.43499865e+00 4.44002561e-02 -2.12868296e+01
3.31808662e+00 -1.09524918e+00 1.00280752e+00 -1.09524918e+00 6.76290077e+00 -2.75563980e-01 1.00280752e+00 -2.75563980e-01 -1.87277224e+01
1.60067454e+01 2.67850967e+00 4.13061633e+00 2.67850967e+00 1.44265091e+01 3.39378618e+00 4.13061633e+00 3.39378618e+00 -3.60666643e+00
-7.89574776e+01 -6.51608714e+00 -1.71105173e+01 -6.51608714e+00 -7.97079613e+01 -2.06129067e+00 -1.71105173e+01 -2.06129067e+00 -1.82483018e+02
-5.10275755e+01 -1.26940796e+00 -4.08015841e+00 -1.26940796e+00 -4.64210501e+01 1.23488699e+00 -4.08015841e+00 1.23488699e+00 -1.34909885e+02
-3.38796430e+01 -1.57367132e+00 -1.11704633e-01 -1.57367132e+00 -2.96680622e+01 1.61974376e+00 -1.11704633e-01 1.61974376e+00 -9.85284958e+01
-2.76913252e+01 -2.42407024e+00 -7.59495139e-01 -2.42407024e+00 -1.90633531e+01 3.07252675e-01 -7.59495139e-01 3.07252675e-01 -7.97954521e+01
2.33808395e+00 9.06312061e-02 2.92201201e+00 9.06312061e-02 5.15056683e+00 6.25630953e-01 2.92201201e+00 6.25630953e-01 -2.10590790e+01
1.26128073e+01 1.20666916e-01 1.16670153e+00 1.20666916e-01 1.38238635e+01 -3.23892460e-01 1.16670153e+00 -3.23892460e-01 -1.23933446e+00
-1.07822130e+02 -1.18354319e+01 9.51243091e+00 -1.18354319e+01 -9.82162628e+01 -1.54362058e+01 9.51243091e+00 -1.54362058e+01 -2.26566895e+02
2.35713380e+01 -7.49098744e-02 -2.28310339e+00 -7.49098744e-02 2.37791784e+01 2.74477209e-01 -2.28310339e+00 2.74477209e-01 2.04435595e+01
1.34665514e+01 -3.92901734e-01 1.28909103e+00 -3.92901734e-01 1.38933489e+01 6.79170463e-01 1.28909103e+00 6.79170463e-01 1.82175636e-03
-5.59804444e+01 1.69711211e+00 6.11487457e+00 1.69711211e+00 -5.23056280e+01 1.86686399e+01 6.11487457e+00 1.86686399e+01 -1.28018983e+02
1.62861440e+01 7.70088295e-02 9.50729167e-01 7.70088295e-02 1.70360748e+01 -3.32527366e-01 9.50729167e-01 -3.32527366e-01 5.99977624e+00
1.44976325e+01 -3.02834529e-02 8.89789900e-02 -3.02834529e-02 1.45790071e+01 2.52777413e-01 8.89789900e-02 2.52777413e-01 1.50162554e+00
2.21559582e+01 -2.24497533e+00 3.06214606e+00 -2.24497533e+00 2.47770536e+01 5.33705473e-01 3.06214606e+00 5.33705473e-01 1.68123234e+01
3.70085793e+01 2.05184293e+00 8.91309166e+00 2.05184293e+00 3.94091873e+01 7.92814398e+00 8.91309166e+00 7.92814398e+00 8.15015793e+01
-7.25410360e+01 8.50800959e+00 -2.71435037e+01 8.50800959e+00 -7.64947414e+01 -2.49512251e+00 -2.71435037e+01 -2.49512251e+00 -1.72124706e+02
1.14166894e+01 -1.62631828e-01 4.03283779e-01 -1.62631828e-01 1.02869524e+01 6.59303658e-01 4.03283779e-01 6.59303658e-01 -6.85798883e+00
3.10247135e+00 -4.43380654e-01 -3.29554573e-01 -4.43380654e-01 5.26205349e+00 8.24171662e-01 -3.29554573e-01 8.24171662e-01 -2.09566364e+01
</DataArray>
<DataArray type="Float32" Name="Logarithmic_strain_components" NumberOfComponents="9" format="ascii">
3.98076698e-02 -1.41912460e-06 1.48338211e-06 -1.41912460e-06 6.92298785e-02 -1.52666762e-05 1.48338211e-06 -1.52666762e-05 -9.20600668e-02
4.16558087e-02 2.72435823e-03 3.91754770e-06 2.72435823e-03 7.16333091e-02 -6.23333239e-04 3.91754770e-06 -6.23333239e-04 -9.60846841e-02
4.26613204e-02 7.23915931e-03 -4.78102232e-03 7.23915931e-03 6.45950288e-02 -2.49650772e-03 -4.78102232e-03 -2.49650772e-03 -9.07873269e-02
4.22725845e-02 2.63223681e-03 -3.12999729e-03 2.63223681e-03 6.30459711e-02 3.36227095e-06 -3.12999729e-03 3.36227095e-06 -8.92571472e-02
3.89198847e-02 4.72138800e-06 3.08628299e-03 4.72138800e-06 6.58441447e-02 -3.71531537e-03 3.08628299e-03 -3.71531537e-03 -8.83544013e-02
4.10188166e-02 8.39093438e-04 4.72220348e-03 8.39093438e-04 6.72256015e-02 -5.38245798e-03 4.72220348e-03 -5.38245798e-03 -9.16523822e-02
4.18113065e-02 3.73650921e-03 7.40689609e-04 3.73650921e-03 6.22519003e-02 -5.85461094e-03 7.40689609e-04 -5.85461094e-03 -8.80157240e-02
4.07349383e-02 9.63280909e-04 1.03623589e-03 9.63280909e-04 6.14283336e-02 -2.16695707e-03 1.03623589e-03 -2.16695707e-03 -8.65010116e-02
4.43530735e-02 1.03809271e-03 5.78663867e-06 1.03809271e-03 7.69900046e-02 -2.03418650e-03 5.78663867e-06 -2.03418650e-03 -1.03104524e-01
4.50049350e-02 1.06676035e-02 -7.01214315e-03 1.06676035e-02 6.95682708e-02 -8.88752373e-04 -7.01214315e-03 -8.88752373e-04 -9.76151060e-02
4.63786079e-02 2.13406590e-03 5.53512247e-03 2.13406590e-03 6.91082887e-02 -4.39968197e-03 5.53512247e-03 -4.39968197e-03 -9.80088655e-02
4.48833839e-02 4.42023133e-03 -1.84146220e-03 4.42023133e-03 6.59187539e-02 -1.11407383e-02 -1.84146220e-03 -1.11407383e-02 -9.40009765e-02
4.98478096e-02 4.13967785e-03 -1.01810365e-05 4.13967785e-03 8.21548328e-02 5.12039522e-03 -1.01810365e-05 5.12039522e-03 -1.12562541e-01
4.79896292e-02 6.99496258e-03 -1.17170464e-02 6.99496258e-03 7.60628954e-02 -3.94153642e-03 -1.17170464e-02 -3.94153642e-03 -1.06521206e-01
5.34057487e-02 -4.98066226e-03 1.13277737e-03 -4.98066226e-03 7.10116923e-02 -3.56640946e-03 1.13277737e-03 -3.56640946e-03 -1.05704755e-01
4.94103087e-02 -3.47675453e-03 2.00592214e-03 -3.47675453e-03 7.04517588e-02 -6.57971311e-03 2.00592214e-03 -6.57971311e-03 -1.01946816e-01
5.60160819e-02 -1.10161109e-02 2.06329423e-05 -1.10161109e-02 8.71057920e-02 3.70594626e-03 2.06329423e-05 3.70594626e-03 -1.22517571e-01
5.00953188e-02 -7.80851534e-03 -1.66259352e-02 -7.80851534e-03 8.35291296e-02 2.33058142e-03 -1.66259352e-02 2.33058142e-03 -1.15371475e-01
5.95439179e-02 -1.22881227e-02 3.63924692e-03 -1.22881227e-02 7.36783203e-02 -3.31006815e-03 3.63924692e-03 -3.31006815e-03 -1.13305271e-01
5.69154494e-02 -1.26772360e-02 2.50431441e-03 -1.26772360e-02 6.92204135e-02 2.09466775e-03 2.50431441e-03 2.09466775e-03 -1.06573663e-01
5.94984684e-02 -1.36067737e-02 4.99366870e-05 -1.36067737e-02 9.39056948e-02 5.14674513e-03 4.99366870e-05 5.14674513e-03 -1.31339327e-01
5.19217039e-02 -1.77463277e-02 -2.00448828e-02 -1.77463277e-02 8.69673286e-02 8.57861806e-03 -2.00448828e-02 8.57861806e-03 -1.18924133e-01
6.09784974e-02 -1.00458006e-02 6.43403747e-03 -1.00458006e-02 7.85128903e-02 3.43133317e-03 6.43403747e-03 3.43133317e-03 -1.18019886e-01
6.10604435e-02 -1.56093806e-02 7.42980128e-03 -1.56093806e-02 7.19359890e-02 1.97748234e-03 7.42980128e-03 1.97748234e-03 -1.12076435e-01
5.52592203e-02 -3.71630788e-02 -4.17195843e-05 -3.71630788e-02 1.08654089e-01 -3.41040106e-03 -4.17195843e-05 -3.41040106e-03 -1.42846316e-01
4.63877246e-02 -2.77562933e-02 -2.11848924e-02 -2.77562933e-02 1.03764113e-01 2.44927071e-02 -2.11848924e-02 2.44927071e-02 -1.31385900e-01
5.39502073e-02 -9.09700990e-03 -4.75726277e-03 -9.09700990e-03 9.44160037e-02 5.84674999e-04 -4.75726277e-03 5.84674999e-04 -1.27789967e-01
5.68616148e-02 -1.53486272e-02 4.95600514e-04 -1.53486272e-02 8.47938526e-02 1.18164523e-02 4.95600514e-04 1.18164523e-02 -1.20935852e-01
4.63831509e-02 1.00215198e-02 -4.04511509e-03 1.00215198e-02 4.64423122e-02 -3.67235416e-03 -4.04511509e-03 -3.67235416e-03 -7.87127018e-02
4.62723989e-02 2.09275866e-03 -5.26476372e-03 2.09275866e-03 4.59929705e-02 7.52256892e-06 -5.26476372e-03 7.52256892e-06 -7.81284720e-02
4.28410782e-02 7.06017582e-03 4.72146121e-03 7.06017582e-03 4.96713780e-02 -7.25265895e-03 4.72146121e-03 -7.25265895e-03 -7.83805382e-02
4.22368571e-02 3.27930436e-03 8.09179386e-03 3.27930436e-03 4.83978754e-02 -9.87334119e-04 8.09179386e-03 -9.87334119e-04 -7.65802450e-02
4.40472895e-02 1.74827809e-02 -8.83656088e-03 1.74827809e-02 4.69970182e-02 -7.45223905e-03 -8.83656088e-03 -7.45223905e-03 -7.74443150e-02
4.26762863e-02 1.00700139e-02 9.09026974e-03 1.00700139e-02 5.09479390e-02 -3.90023238e-03 9.09026974e-03 -3.90023238e-03 -7.97686549e-02
3.62488194e-02 1.11190398e-02 -1.10767377e-02 1.11190398e-02 4.67260117e-02 -5.82411780e-03 -1.10767377e-02 -5.82411780e-03 -6.93361387e-02
4.11445621e-02 -6.65696737e-05 2.94890828e-02 -6.65696737e-05 5.34744209e-02 4.96514474e-04 2.94890828e-02 4.96514474e-04 -8.01173225e-02
3.17732315e-02 -1.19915792e-02 -3.01573011e-02 -1.19915792e-02 5.06179263e-02 2.59073806e-03 -3.01573011e-02 2.59073806e-03 -6.88342797e-02
4.07249021e-02 -2.14323915e-02 3.09702080e-02 -2.14323915e-02 5.77959126e-02 9.23800858e-03 3.09702080e-02 9.23800858e-03 -8.20917301e-02
3.25398482e-02 -2.55935627e-02 -2.70607965e-02 -2.55935627e-02 4.48567104e-02 1.44041949e-02 -2.70607965e-02 1.44041949e-02 -6.33028373e-02
4.22084831e-02 -2.89972879e-02 4.09718109e-02 -2.89972879e-02 5.33148327e-02 2.81617159e-02 4.09718109e-02 2.81617159e-02 -7.78757862e-02
3.42914835e-02 -2.92556901e-02 -2.88370550e-02 -2.92556901e-02 4.75188866e-02 2.42556026e-02 -2.88370550e-02 2.42556026e-02 -6.76974524e-02
4.29089194e-02 -3.96289639e-02 3.87475354e-02 -3.96289639e-02 6.21040252e-02 3.64638095e-02 3.87475354e-02 3.64638095e-02 -8.71037493e-02
4.90304837e-02 5.28497866e-03 1.10107937e-03 5.28497866e-03 2.69764387e-02 -4.88715258e-03 1.10107937e-03 -4.88715258e-03 -6.45320518e-02
4.78701796e-02 2.94580974e-03 2.29612878e-03 2.94580974e-03 2.89316373e-02 -6.06369031e-06 2.29612878e-03 -6.06369031e-06 -6.46703802e-02
4.52234959e-02 3.41329954e-03 1.02375527e-02 3.41329954e-03 3.08010022e-02 -3.19605437e-03 1.02375527e-02 -3.19605437e-03 -6.43590898e-02
4.27947706e-02 1.72293684e-03 1.14331238e-02 1.72293684e-03 3.30174407e-02 -1.04590750e-03 1.14331238e-02 -1.04590750e-03 -6.38112836e-02
3.89653025e-02 8.38573324e-03 1.22092062e-03 8.38573324e-03 2.04185445e-02 -8.94405157e-03 1.22092062e-03 -8.94405157e-03 -4.94731385e-02
4.02240227e-02 5.20962727e-03 1.89101751e-02 5.20962727e-03 2.46538279e-02 8.03775113e-03 1.89101751e-02 8.03775113e-03 -5.48725738e-02
1.44625773e-02 3.77142505e-03 -2.66786868e-03 3.77142505e-03 1.02652126e-02 -5.89956879e-03 -2.66786868e-03 -5.89956879e-03 -1.73067311e-02
1.26915945e-02 -1.66971671e-03 1.90639795e-02 -1.66971671e-03 7.77249543e-03 4.98656401e-03 1.90639795e-02 4.98656401e-03 -1.11257039e-02
4.01988369e-03 -2.14300430e-02 -1.08784195e-02 -2.14300430e-02 2.70932696e-03 -7.88778160e-03 -1.08784195e-02 -7.88778160e-03 4.04287130e-04
-5.68430871e-04 -3.40896364e-02 3.94949100e-02 -3.40896364e-02 1.27086453e-02 7.70928949e-03 3.94949100e-02 7.70928949e-03 -4.72108917e-03
4.60752946e-04 -1.00019916e-02 -1.86199937e-02 -1.00019916e-02 -9.37823090e-04 1.64687238e-03 -1.86199937e-02 1.64687238e-03 7.21316428e-03
4.70755971e-04 -1.23334390e-02 3.06382254e-02 -1.23334390e-02 5.12023992e-03 -3.59742623e-03 3.06382254e-02 -3.59742623e-03 2.54175436e-03
6.24593842e-03 -8.78852280e-03 -3.46436107e-03 -8.78852280e-03 -7.48602045e-03 6.20003743e-03 -3.46436107e-03 6.20003743e-03 6.98711572e-03
4.91136347e-03 -6.69204351e-03 2.98265917e-02 -6.69204351e-03 1.16339140e-03 -5.62211755e-03 2.98265917e-02 -5.62211755e-03 1.16779259e-03
4.82624834e-02 -3.66092319e-03 2.36895907e-03 -3.66092319e-03 1.82208265e-02 -6.35663513e-03 2.36895907e-03 -6.35663513e-03 -5.62261427e-02
4.89325449e-02 -3.91049369e-03 3.26648238e-03 -3.91049369e-03 2.22923998e-02 6.60043224e-06 3.26648238e-03 6.60043224e-06 -6.02574274e-02
4.28704466e-02 -6.09176874e-03 1.23410613e-02 -6.09176874e-03 2.06246837e-02 -1.87155034e-04 1.23410613e-02 -1.87155034e-04 -5.32855503e-02
4.43950528e-02 -4.80345113e-03 3.83002605e-03 -4.80345113e-03 2.37011416e-02 2.03890289e-03 3.83002605e-03 2.03890289e-03 -5.74179208e-02
3.54344016e-02 -5.64795767e-03 -3.42850620e-03 -5.64795767e-03 1.03752508e-02 -1.01818482e-02 -3.42850620e-03 -1.01818482e-02 -3.81229213e-02
3.44827964e-02 -1.01594400e-02 5.16477934e-03 -1.01594400e-02 1.09301250e-02 9.95534475e-03 5.16477934e-03 9.95534475e-03 -3.72875179e-02
1.03679841e-02 -6.11182506e-03 -1.43572426e-03 -6.11182506e-03 5.12816536e-04 -7.96642015e-03 -1.43572426e-03 -7.96642015e-03 -7.39997847e-03
1.74136783e-02 -5.99670718e-03 -4.73624297e-03 -5.99670718e-03 2.02896845e-03 9.71296476e-03 -4.73624297e-03 9.71296476e-03 -1.46621461e-02
-9.19302145e-04 -1.67805112e-03 -4.43983504e-06 -1.67805112e-03 7.00799317e-04 -4.01518443e-04 -4.43983504e-06 -4.01518443e-04 1.05003236e-03
1.35484003e-03 1.83758538e-03 -1.68955154e-03 1.83758538e-03 1.35099434e-03 4.48792296e-03 -1.68955154e-03 4.48792296e-03 -1.89662962e-03
5.26325169e-03 -1.41544947e-02 3.05349040e-05 -1.41544947e-02 -9.24408536e-03 1.12029134e-04 3.05349040e-05 1.12029134e-04 4.87625134e-03
-5.57179707e-04 -8.84887796e-03 -4.52372587e-05 -8.84887796e-03 1.92549599e-03 5.29220391e-05 -4.52372587e-05 5.29220391e-05 -5.86755662e-04
4.83483262e-03 -1.71158580e-02 -2.12189472e-03 -1.71158580e-02 -8.18496466e-03 -1.29978056e-04 -2.12189472e-03 -1.29978056e-04 4.31772206e-03
-2.47558728e-03 -9.39834615e-03 -4.67951341e-03 -9.39834615e-03 5.91807448e-03 -6.42218947e-05 -4.67951341e-03 -6.42218947e-05 -2.70488593e-03
4.64930926e-02 -9.95449058e-03 6.56752859e-03 -9.95449058e-03 2.37756111e-02 -2.92668998e-03 6.56752859e-03 -2.92668998e-03 -5.94129805e-02
4.99497950e-02 -8.83280626e-03 1.35520526e-03 -8.83280626e-03 2.59203445e-02 6.41754195e-06 1.35520526e-03 6.41754195e-06 -6.42520413e-02
4.14503659e-02 -8.71397999e-03 9.17061814e-04 -8.71397999e-03 2.49667305e-02 5.14609597e-03 9.17061814e-04 5.14609597e-03 -5.56993573e-02
4.57046516e-02 -3.60866915e-03 -2.27788836e-03 -3.60866915e-03 2.60409475e-02 7.12013547e-03 -2.27788836e-03 7.12013547e-03 -6.05698489e-02
3.44112660e-02 -1.01390525e-02 2.99770379e-03 -1.01390525e-02 1.57838382e-02 -1.40029071e-02 2.99770379e-03 -1.40029071e-02 -4.20212178e-02
3.07963400e-02 -1.60948698e-02 -2.26694380e-03 -1.60948698e-02 2.38440882e-02 8.42100082e-03 -2.26694380e-03 8.42100082e-03 -4.50665862e-02
1.00271975e-02 -4.74002736e-03 3.43940430e-03 -4.74002736e-03 4.90921779e-03 -6.08549826e-03 3.43940430e-03 -6.08549826e-03 -1.09772182e-02
1.98289823e-02 -7.07966640e-03 -3.62956505e-03 -7.07966640e-03 1.31688619e-02 2.32560575e-02 -3.62956505e-03 2.32560575e-02 -2.69533521e-02
9.73160259e-04 1.74622853e-03 1.99569922e-05 1.74622853e-03 -4.88990263e-05 -2.24236523e-04 1.99569922e-05 -2.24236523e-04 -1.69931552e-04
3.03247739e-03 -1.27447191e-04 3.22804255e-04 -1.27447191e-04 -1.08734507e-03 5.05716992e-03 3.22804255e-04 5.05716992e-03 -1.19910175e-03
1.43781344e-05 1.33120338e-05 -2.26300526e-05 1.33120338e-05 3.14277167e-06 9.60540729e-05 -2.26300526e-05 9.60540729e-05 5.26325678e-05
6.34314802e-05 2.29900703e-05 -4.13323733e-05 2.29900703e-05 9.86547093e-08 -1.41622466e-05 -4.13323733e-05 -1.41622466e-05 -9.45647434e-06
9.75168696e-05 2.31806898e-05 -6.56780685e-05 2.31806898e-05 -1.65564066e-04 1.83557368e-05 -6.56780685e-05 1.83557368e-05 -1.49966668e-05
4.28722418e-05 -4.88422508e-05 4.72361988e-05 -4.88422508e-05 -1.15296432e-04 -9.12915463e-06 4.72361988e-05 -9.12915463e-06 1.20768944e-05
5.08491304e-02 -9.01914516e-03 7.14905764e-04 -9.01914516e-03 3.12024811e-02 -5.54744923e-03 7.14905764e-04 -5.54744923e-03 -7.12413490e-02
5.73379472e-02 -4.02861694e-03 6.06367365e-03 -4.02861694e-03 2.89684888e-02 2.09464924e-05 6.06367365e-03 2.09464924e-05 -7.47508034e-02
4.67700930e-02 -6.32055197e-03 -1.03974505e-03 -6.32055197e-03 3.06787780e-02 -4.41336338e-03 -1.03974505e-03 -4.41336338e-03 -6.64555784e-02
5.09528387e-02 -9.26173106e-03 -2.98853131e-03 -9.26173106e-03 3.28891650e-02 6.39782893e-03 -2.98853131e-03 6.39782893e-03 -7.27108382e-02
3.78938941e-02 -1.66195962e-02 1.68009726e-02 -1.66195962e-02 2.73822332e-02 -1.87041629e-02 1.68009726e-02 -1.87041629e-02 -5.70722800e-02
3.46179870e-02 -1.46683445e-02 7.30299385e-03 -1.46683445e-02 3.82287372e-02 3.23004229e-03 7.30299385e-03 3.23004229e-03 -6.24991218e-02
1.14621811e-02 -8.51462105e-03 1.48307672e-02 -8.51462105e-03 1.49514480e-02 -6.02825265e-03 1.48307672e-02 -6.02825265e-03 -2.19206670e-02
2.51992938e-02 -1.77095461e-02 9.12298231e-03 -1.77095461e-02 2.74167713e-02 3.27737716e-02 9.12298231e-03 3.27737716e-02 -4.58418361e-02
-1.27385068e-03 -2.52584989e-03 2.50347234e-05 -2.52584989e-03 1.16470910e-03 -6.77721255e-04 2.50347234e-05 -6.77721255e-04 1.07965374e-03
6.82875107e-04 -1.04419150e-02 2.50591002e-04 -1.04419150e-02 1.50173510e-04 1.28427666e-02 2.50591002e-04 1.28427666e-02 1.32942252e-04
-2.71964509e-04 -1.68606581e-04 8.89022558e-05 -1.68606581e-04 1.03811733e-04 1.13575348e-04 8.89022558e-05 1.13575348e-04 2.18175377e-04
-7.39780735e-05 -5.00276025e-05 2.97118719e-05 -5.00276025e-05 4.54235311e-05 -1.29600533e-04 2.97118719e-05 -1.29600533e-04 5.89807393e-05
-2.61293590e-05 1.19798577e-04 -2.97500155e-05 1.19798577e-04 -3.32511299e-05 2.92744007e-05 -2.97500155e-05 2.92744007e-05 3.82862754e-06
-8.64719514e-05 1.12517264e-05 -1.18216858e-05 1.12517264e-05 2.74480644e-05 6.57191413e-05 -1.18216858e-05 6.57191413e-05 2.56901658e-05
4.09286451e-02 4.31985063e-06 1.42482319e-03 4.31985063e-06 5.84701318e-02 -7.55624543e-03 1.42482319e-03 -7.55624543e-03 -8.40475857e-02
4.40140357e-02 -6.46346467e-04 7.79472035e-03 -6.46346467e-04 5.63076185e-02 -5.01966897e-03 7.79472035e-03 -5.01966897e-03 -8.48139022e-02
4.09547291e-02 -6.38103986e-03 4.71687052e-03 -6.38103986e-03 5.67796798e-02 -2.59255234e-03 4.71687052e-03 -2.59255234e-03 -8.22613277e-02
3.89210349e-02 -7.70296727e-04 3.31533840e-03 -7.70296727e-04 5.82994036e-02 -1.12568820e-03 3.31533840e-03 -1.12568820e-03 -8.21799207e-02
5.05572902e-02 -8.94513936e-03 4.54843102e-03 -8.94513936e-03 5.22316834e-02 -8.90749216e-04 4.54843102e-03 -8.90749216e-04 -8.65011159e-02
4.86532976e-02 -9.22761916e-03 1.11468500e-03 -9.22761916e-03 5.46794059e-02 -1.15741797e-02 1.11468500e-03 -1.15741797e-02 -8.68330561e-02
5.74552724e-02 7.64550714e-05 -5.38193577e-04 7.64550714e-05 5.14249196e-02 -6.98762713e-03 -5.38193577e-04 -6.98762713e-03 -9.17796101e-02
5.64731527e-02 -6.85418968e-03 1.90248608e-03 -6.85418968e-03 5.55761871e-02 -2.96104117e-05 1.90248608e-03 -2.96104117e-05 -9.36906813e-02
6.39158236e-02 -4.88915364e-03 1.29515841e-02 -4.88915364e-03 5.03956648e-02 -6.64257116e-03 1.29515841e-02 -6.64257116e-03 -9.62813552e-02
5.93515076e-02 -6.03355741e-03 2.89042352e-03 -6.03355741e-03 6.22857474e-02 8.35447965e-03 2.89042352e-03 8.35447965e-03 -1.02368849e-01
6.11891728e-02 -6.35254628e-03 1.48420145e-02 -6.35254628e-03 5.51377144e-02 1.71754419e-03 1.48420145e-02 1.71754419e-03 -9.74135697e-02
6.34398968e-02 -2.89226525e-03 1.29555603e-02 -2.89226525e-03 6.18421934e-02 5.07569604e-03 1.29555603e-02 5.07569604e-03 -1.05541791e-01
5.54935765e-02 1.09322746e-02 9.64589044e-03 1.09322746e-02 6.23514615e-02 6.48671336e-03 9.64589044e-03 6.48671336e-03 -9.87946801e-02
6.29798323e-02 1.85568933e-03 -1.05667755e-03 1.85568933e-03 6.32994855e-02 5.24827465e-03 -1.05667755e-03 5.24827465e-03 -1.06454689e-01
3.90172526e-02 -8.02650058e-03 9.07106634e-03 -8.02650058e-03 5.31934071e-02 -1.01010471e-02 9.07106634e-03 -1.01010471e-02 -7.74279516e-02
3.51374466e-02 -5.77931863e-03 1.92602377e-02 -5.77931863e-03 5.44555606e-02 -5.49449131e-03 1.92602377e-02 -5.49449131e-03 -7.55348261e-02
4.54097656e-02 -5.31942545e-03 1.85870851e-02 -5.31942545e-03 5.72144618e-02 -4.11267572e-03 1.85870851e-02 -4.11267572e-03 -8.79509524e-02
5.93330473e-02 -1.56944032e-02 4.96052271e-02 -1.56944032e-02 6.13808215e-02 -3.41568168e-03 4.96052271e-02 -3.41568168e-03 -1.04530327e-01
6.34182654e-02 -1.73099007e-03 1.40710827e-02 -1.73099007e-03 7.62432739e-02 1.66104958e-02 1.40710827e-02 1.66104958e-02 -1.21701866e-01
6.24619368e-02 -2.62536792e-03 2.71394220e-02 -2.62536792e-03 7.76985120e-02 3.35053039e-02 2.71394220e-02 3.35053039e-02 -1.21332178e-01
6.02229852e-02 -1.15071554e-02 1.32126743e-02 -1.15071554e-02 8.18833597e-02 2.93317043e-02 1.32126743e-02 2.93317043e-02 -1.22910373e-01
3.20410393e-02 -1.45961035e-03 2.63618836e-02 -1.45961035e-03 4.48804377e-02 -2.25118962e-03 2.63618836e-02 -2.25118962e-03 -6.38315319e-02
3.24454084e-02 -2.44052266e-03 1.83888066e-02 -2.44052266e-03 4.28141775e-02 -5.16839838e-03 1.83888066e-02 -5.16839838e-03 -6.28162138e-02
3.10218475e-02 -1.00821245e-02 3.54696801e-02 -1.00821245e-02 4.73897637e-02 4.10248611e-02 3.54696801e-02 4.10248611e-02 -6.64109712e-02
-1.46508371e-02 -3.82124241e-02 3.12045142e-02 -3.82124241e-02 9.10894084e-03 5.30024637e-02 3.12045142e-02 5.30024637e-02 2.42539924e-02
3.45641845e-02 -1.40868884e-03 1.70138571e-02 -1.40868884e-03 2.86073391e-02 1.20602500e-02 1.70138571e-02 1.20602500e-02 -5.20549584e-02
3.25566009e-02 5.00476884e-03 1.22985412e-02 5.00476884e-03 3.17479116e-02 9.10215266e-03 1.22985412e-02 9.10215266e-03 -5.35021918e-02
2.97493535e-02 -2.26922219e-02 2.02052208e-02 -2.26922219e-02 2.25115112e-02 2.62847080e-02 2.02052208e-02 2.62847080e-02 -4.23786779e-02
6.68966460e-03 -4.00638332e-03 -2.06575853e-02 -4.00638332e-03 1.69572275e-02 2.39084481e-02 -2.06575853e-02 2.39084481e-02 -1.34974153e-02
3.51621143e-02 -7.55394629e-03 2.55164824e-03 -7.55394629e-03 3.03385258e-02 7.19845756e-03 2.55164824e-03 7.19845756e-03 -5.43223307e-02
3.83032970e-02 -6.60217972e-03 6.08100090e-05 -6.60217972e-03 2.89149461e-02 7.16084416e-03 6.08100090e-05 7.16084416e-03 -5.63548459e-02
3.44582016e-02 -1.44834166e-02 -2.28236429e-04 -1.44834166e-02 3.78454553e-02 1.55322535e-02 -2.28236429e-04 1.55322535e-02 -6.06659986e-02
4.69992440e-02 4.27220599e-04 -2.19165679e-02 4.27220599e-04 4.95504155e-02 2.08856948e-02 -2.19165679e-02 2.08856948e-02 -8.57997555e-02
3.58892251e-02 -1.39784045e-03 -2.92077748e-03 -1.39784045e-03 4.12176065e-02 -2.42454931e-04 -2.92077748e-03 -2.42454931e-04 -6.56072013e-02
3.97416968e-02 1.38230482e-03 -3.41692194e-03 1.38230482e-03 3.64157613e-02 4.94259130e-03 -3.41692194e-03 4.94259130e-03 -6.48817234e-02
4.01653158e-02 -1.75520603e-03 3.05352360e-03 -1.75520603e-03 5.25247464e-02 -6.36181957e-03 3.05352360e-03 -6.36181957e-03 -7.86052123e-02
6.01996388e-02 -1.18511321e-04 -1.69558208e-02 -1.18511321e-04 6.61691763e-02 2.34715645e-02 -1.69558208e-02 2.34715645e-02 -1.13632292e-01
-4.19701712e-06 -2.92630384e-05 -1.28722759e-05 -2.92630384e-05 8.64687968e-06 1.27155276e-05 -1.28722759e-05 1.27155276e-05 -8.63919581e-06
-8.88525824e-06 -2.14594724e-06 -4.94995675e-06 -2.14594724e-06 -9.84196504e-07 -1.12135679e-05 -4.94995675e-06 -1.12135679e-05 5.16503451e-06
1.83499160e-05 -6.48542164e-06 -5.50967866e-06 -6.48542164e-06 -9.46444516e-07 2.86880806e-05 -5.50967866e-06 2.86880806e-05 -2.13111107e-05
1.12386592e-05 -3.37180572e-05 -5.53154678e-08 -3.37180572e-05 -3.53752603e-06 -2.46946893e-05 -5.53154678e-08 -2.46946893e-05 -1.27298033e-05
4.91960701e-02 8.70645454e-06 9.72262397e-03 8.70645454e-06 5.16552553e-02 -2.15494190e-03 9.72262397e-03 -2.15494190e-03 -8.51632468e-02
5.06893396e-02 2.50613166e-03 6.39288104e-03 2.50613166e-03 5.00043845e-02 2.80653758e-03 6.39288104e-03 2.80653758e-03 -8.50516725e-02
4.89150044e-02 -8.71212082e-03 1.14879382e-02 -8.71212082e-03 5.07941223e-02 3.85108560e-03 1.14879382e-02 3.85108560e-03 -8.37060101e-02
4.75128945e-02 1.83362397e-03 1.01951309e-02 1.83362397e-03 5.30317938e-02 -5.47184923e-03 1.01951309e-02 -5.47184923e-03 -8.49004332e-02
5.45246787e-02 -1.08228805e-02 9.54557443e-03 -1.08228805e-02 4.44568591e-02 6.06877598e-04 9.54557443e-03 6.06877598e-04 -8.31021760e-02
5.33384979e-02 -1.16267596e-02 1.16913427e-02 -1.16267596e-02 4.93159746e-02 5.08457613e-03 1.16913427e-02 5.08457613e-03 -8.61896481e-02
5.80646349e-02 9.78718381e-04 3.86270654e-03 9.78718381e-04 4.15678127e-02 5.93437527e-03 3.86270654e-03 5.93437527e-03 -8.35673865e-02
5.86897712e-02 -5.62307125e-03 -5.54478698e-03 -5.62307125e-03 4.83154729e-02 -4.40791651e-03 -5.54478698e-03 -4.40791651e-03 -8.93826159e-02
6.08497681e-02 2.65246007e-03 -5.08106034e-03 2.65246007e-03 3.95974535e-02 -2.97141349e-04 -5.08106034e-03 -2.97141349e-04 -8.41372032e-02
5.92252859e-02 1.39368871e-03 -8.06498824e-03 1.39368871e-03 5.47100147e-02 2.48968718e-05 -8.06498824e-03 2.48968718e-05 -9.59376330e-02
5.85933747e-02 6.25994435e-04 2.62421829e-03 6.25994435e-04 4.10052342e-02 -3.28727123e-03 2.62421829e-03 -3.28727123e-03 -8.33043624e-02
5.92643712e-02 -3.34801545e-04 3.64350970e-04 -3.34801545e-04 5.36320210e-02 3.07074840e-03 3.64350970e-04 3.07074840e-03 -9.46896961e-02
5.64105585e-02 -2.41972994e-04 2.21785076e-03 -2.41972994e-04 4.15761918e-02 -3.01891845e-03 2.21785076e-03 -3.01891845e-03 -8.17725137e-02
5.52545115e-02 -4.37029584e-03 -2.65482618e-03 -4.37029584e-03 5.43644037e-02 -2.49600597e-03 -2.65482618e-03 -2.49600597e-03 -9.13429540e-02
4.49353242e-02 -1.49754708e-02 2.98014908e-02 -1.49754708e-02 5.56663866e-02 1.51775507e-03 2.98014908e-02 1.51775507e-03 -8.41070451e-02
3.78912063e-02 -1.29331695e-02 2.19530836e-02 -1.29331695e-02 5.92905749e-02 -3.34984291e-03 2.19530836e-02 -3.34984291e-03 -8.14156886e-02
5.69808265e-02 -7.95569579e-04 2.24822674e-02 -7.95569579e-04 5.24759383e-02 -3.60042602e-03 2.24822674e-02 -3.60042602e-03 -9.39655825e-02
6.54272132e-02 -1.54399863e-02 -6.18019378e-02 -1.54399863e-02 5.94785538e-02 -1.26447678e-03 -6.18019378e-02 -1.26447678e-03 -1.11403185e-01
6.47716140e-02 -2.14149733e-03 -1.81992166e-02 -2.14149733e-03 7.41895288e-02 1.19097549e-02 -1.81992166e-02 1.19097549e-02 -1.21911678e-01
6.36558719e-02 -4.83340878e-03 -1.66430767e-03 -4.83340878e-03 7.11680129e-02 1.09071360e-02 -1.66430767e-03 1.09071360e-02 -1.16602164e-01
5.71876336e-02 -3.65836965e-03 -4.21191973e-03 -3.65836965e-03 7.42321052e-02 3.63330694e-03 -4.21191973e-03 3.63330694e-03 -1.12963747e-01
3.87653176e-02 -9.03513078e-03 4.07327805e-02 -9.03513078e-03 5.45030135e-02 1.86490743e-03 4.07327805e-02 1.86490743e-03 -7.78973560e-02
3.39284590e-02 2.95077008e-03 3.20192440e-02 2.95077008e-03 5.39835691e-02 4.17798047e-03 3.20192440e-02 4.17798047e-03 -7.28308745e-02
4.93289093e-02 -2.72010821e-02 5.40761719e-02 -2.72010821e-02 6.65128147e-02 -6.20807803e-02 5.40761719e-02 -6.20807803e-02 -9.93748493e-02
3.32679725e-02 -3.26054204e-03 1.55874658e-02 -3.26054204e-03 4.22539722e-02 2.58061529e-02 1.55874658e-02 2.58061529e-02 -6.17690230e-02
3.26245208e-02 -7.50127621e-03 2.59987117e-02 -7.50127621e-03 4.43075467e-02 6.87826239e-03 2.59987117e-02 6.87826239e-03 -6.38017319e-02
3.26789024e-02 7.72393084e-03 1.73138489e-02 7.72393084e-03 4.70350366e-02 7.53391003e-02 1.73138489e-02 7.53391003e-02 -6.90001864e-02
3.54718792e-02 3.25892149e-03 1.19556051e-02 3.25892149e-03 4.41147769e-02 9.03143315e-03 1.19556051e-02 9.03143315e-03 -6.53451220e-02
3.45385633e-02 5.78515942e-03 -2.75707617e-03 5.78515942e-03 4.41425210e-02 4.06222430e-03 -2.75707617e-03 4.06222430e-03 -6.57900721e-02
3.60032182e-02 -1.20099173e-02 -1.42954098e-02 -1.20099173e-02 5.70617419e-02 1.42242496e-02 -1.42954098e-02 1.42242496e-02 -7.74372891e-02
-5.21043781e-03 7.59016871e-02 -9.41701457e-02 7.59016871e-02 -2.17775051e-02 1.32729113e-01 -9.41701457e-02 1.32729113e-01 5.51119968e-02
6.40872369e-02 2.96449273e-02 -9.47779231e-02 2.96449273e-02 5.86874758e-02 -1.65547159e-02 -9.47779231e-02 -1.65547159e-02 -1.06485029e-01
3.99571755e-02 1.61610692e-02 6.78367430e-03 1.61610692e-02 4.90913698e-02 1.53372221e-02 6.78367430e-03 1.53372221e-02 -7.48618683e-02
3.64280492e-02 -3.49426805e-03 7.31104007e-03 -3.49426805e-03 4.99619432e-02 1.18245627e-02 7.31104007e-03 1.18245627e-02 -7.20388927e-02
</DataArray>
<DataArray type="Float32" Name="Plastic_strain_components" NumberOfComponents="9" format="ascii">
3.97527479e-02 -4.58850991e-07 4.82967039e-07 -4.58850991e-07 6.90845177e-02 -1.11667032e-06 4.82967039e-07 -1.11667032e-06 -9.14066061e-02
4.17096633e-02 2.71506305e-03 1.33554209e-06 2.71506305e-03 7.15760253e-02 -6.08402188e-04 1.33554209e-06 -6.08402188e-04 -9.51578692e-02
4.26463159e-02 7.22407876e-03 -4.76885086e-03 7.22407876e-03 6.45050351e-02 -2.48128589e-03 -4.76885086e-03 -2.48128589e-03 -9.00661703e-02
4.22513243e-02 2.62745761e-03 -3.11446341e-03 2.62745761e-03 6.29407801e-02 1.69994019e-06 -3.11446341e-03 1.69994019e-06 -8.84488337e-02
3.88191193e-02 4.85850524e-06 3.09805467e-03 4.85850524e-06 6.56561404e-02 -3.73779202e-03 3.09805467e-03 -3.73779202e-03 -8.77692997e-02
4.10287166e-02 8.34090679e-04 4.70485061e-03 8.34090679e-04 6.71469420e-02 -5.37081010e-03 4.70485061e-03 -5.37081010e-03 -9.09016319e-02
4.17521186e-02 3.72508008e-03 7.56064567e-04 3.72508008e-03 6.21206048e-02 -5.84241634e-03 7.56064567e-04 -5.84241634e-03 -8.73314673e-02
4.07311842e-02 9.60189311e-04 1.06417784e-03 9.60189311e-04 6.13673609e-02 -2.14355282e-03 1.06417784e-03 -2.14355282e-03 -8.58332235e-02
4.44866624e-02 1.03116123e-03 3.11827898e-06 1.03116123e-03 7.69942999e-02 -2.00609455e-03 3.11827898e-06 -2.00609455e-03 -1.02050487e-01
4.51687761e-02 1.06297773e-02 -6.99127594e-03 1.06297773e-02 6.96101580e-02 -8.61693828e-04 -6.99127594e-03 -8.61693828e-04 -9.64555126e-02
4.63714590e-02 2.13067519e-03 5.51941898e-03 2.13067519e-03 6.90135658e-02 -4.40287392e-03 5.51941898e-03 -4.40287392e-03 -9.70425829e-02
4.49378216e-02 4.41523595e-03 -1.78342806e-03 4.41523595e-03 6.58910237e-02 -1.10864285e-02 -1.78342806e-03 -1.10864285e-02 -9.31883035e-02
4.99710031e-02 4.10621311e-03 -4.00326826e-06 4.10621311e-03 8.20850022e-02 5.11668203e-03 -4.00326826e-06 5.11668203e-03 -1.10981334e-01
5.05411504e-02 7.56202964e-03 -1.23853418e-02 7.56202964e-03 8.06486048e-02 -4.25367244e-03 -1.23853418e-02 -4.25367244e-03 -1.11381335e-01
5.33572352e-02 -4.94569843e-03 1.18954209e-03 -4.94569843e-03 7.08963983e-02 -3.55081027e-03 1.18954209e-03 -3.55081027e-03 -1.04590029e-01
5.03185624e-02 -3.64647456e-03 2.34622776e-03 -3.64647456e-03 7.16634765e-02 -6.72420872e-03 2.34622776e-03 -6.72420872e-03 -1.02877401e-01
5.62406573e-02 -1.09123280e-02 2.70758683e-05 -1.09123280e-02 8.71351287e-02 3.70029686e-03 2.70758683e-05 3.70029686e-03 -1.20545726e-01
5.21472534e-02 -8.80594226e-03 -1.85873704e-02 -8.80594226e-03 8.88117291e-02 2.54298584e-03 -1.85873704e-02 2.54298584e-03 -1.19513744e-01
5.96525129e-02 -1.22259981e-02 3.66011675e-03 -1.22259981e-02 7.37800375e-02 -3.31058867e-03 3.66011675e-03 -3.31058867e-03 -1.12343555e-01
5.81530891e-02 -1.31073470e-02 2.23731319e-03 -1.31073470e-02 7.12599829e-02 2.20399699e-03 2.23731319e-03 2.20399699e-03 -1.09502283e-01
5.95888756e-02 -1.36049390e-02 1.44140737e-04 -1.36049390e-02 9.36416537e-02 5.02603245e-03 1.44140737e-04 5.02603245e-03 -1.28712133e-01
5.58961630e-02 -2.13392884e-02 -2.28579785e-02 -2.13392884e-02 9.59298722e-02 1.01513062e-02 -2.28579785e-02 1.01513062e-02 -1.29637856e-01
6.15888434e-02 -9.98490443e-03 6.32208388e-03 -9.98490443e-03 7.94177037e-02 3.41904006e-03 6.32208388e-03 3.41904006e-03 -1.18882615e-01
6.16718070e-02 -1.68336517e-02 8.23562709e-03 -1.68336517e-02 7.31739393e-02 2.38417106e-03 8.23562709e-03 2.38417106e-03 -1.13851495e-01
5.62271550e-02 -3.66395377e-02 -2.74710619e-05 -3.66395377e-02 1.08851820e-01 -3.44748888e-03 -2.74710619e-05 -3.44748888e-03 -1.38468966e-01
5.06284554e-02 -3.10788490e-02 -2.38088677e-02 -3.10788490e-02 1.13909606e-01 2.69902823e-02 -2.38088677e-02 2.69902823e-02 -1.39660321e-01
5.42690381e-02 -9.11241490e-03 -4.56495816e-03 -9.11241490e-03 9.43507068e-02 3.43474094e-04 -4.56495816e-03 3.43474094e-04 -1.24787755e-01
5.88428406e-02 -1.64226417e-02 9.89171211e-04 -1.64226417e-02 8.78285319e-02 1.24389657e-02 9.89171211e-04 1.24389657e-02 -1.23835456e-01
4.63139554e-02 9.98200395e-03 -4.01892036e-03 9.98200395e-03 4.63891579e-02 -3.65681120e-03 -4.01892036e-03 -3.65681120e-03 -7.80020691e-02
4.61561792e-02 2.08410388e-03 -5.23562729e-03 2.08410388e-03 4.58840411e-02 7.47676677e-06 -5.23562729e-03 7.47676677e-06 -7.74759054e-02
4.27830000e-02 7.03740580e-03 4.73733395e-03 7.03740580e-03 4.96011134e-02 -7.21784640e-03 4.73733395e-03 -7.21784640e-03 -7.77350161e-02
4.20730338e-02 3.26852896e-03 8.05562525e-03 3.26852896e-03 4.82268818e-02 -9.87432752e-04 8.05562525e-03 -9.87432752e-04 -7.60161150e-02
4.47664456e-02 1.76954498e-02 -8.66628741e-03 1.76954498e-02 4.77278940e-02 -7.32523878e-03 -8.66628741e-03 -7.32523878e-03 -7.78660234e-02
4.36101891e-02 1.00187167e-02 9.28299665e-03 1.00187167e-02 5.23134414e-02 -3.06908751e-03 9.28299665e-03 -3.06908751e-03 -8.09441116e-02
3.05060570e-02 9.69849073e-03 -7.95737412e-03 9.69849073e-03 3.37555193e-02 -4.98791038e-03 -7.95737412e-03 -4.98791038e-03 -5.13160168e-02
3.91302630e-02 5.95271246e-05 3.33114916e-02 5.95271246e-05 5.03903446e-02 1.85681337e-03 3.33114916e-02 1.85681337e-03 -7.47322991e-02
2.78198610e-02 -1.25321123e-02 -2.26489704e-02 -1.25321123e-02 3.39572672e-02 1.03923853e-03 -2.26489704e-02 1.03923853e-03 -4.90117962e-02
3.38930011e-02 -1.97991188e-02 3.46855299e-02 -1.97991188e-02 4.74354379e-02 8.76864054e-03 3.46855299e-02 8.76864054e-03 -6.49103723e-02
2.26712401e-02 -1.53328157e-02 -1.86970753e-02 -1.53328157e-02 1.60907586e-02 9.68714642e-03 -1.86970753e-02 9.68714642e-03 -2.57479502e-02
3.36515796e-02 -2.35244961e-02 4.15946858e-02 -2.35244961e-02 3.95586994e-02 2.49331317e-02 4.15946858e-02 2.49331317e-02 -5.65029395e-02
2.49436602e-02 -2.10284404e-02 -1.70009728e-02 -2.10284404e-02 1.46315843e-02 1.51448715e-02 -1.70009728e-02 1.51448715e-02 -2.57721012e-02
3.63103645e-02 -3.28335135e-02 3.60040975e-02 -3.28335135e-02 5.04422846e-02 3.22752285e-02 3.60040975e-02 3.22752285e-02 -6.84917122e-02
4.88768760e-02 5.24833170e-03 1.09185569e-03 5.24833170e-03 2.70240675e-02 -4.84861434e-03 1.09185569e-03 -4.84861434e-03 -6.37220629e-02
4.75604646e-02 2.92707980e-03 2.28263554e-03 2.92707980e-03 2.87595103e-02 -4.70693431e-06 2.28263554e-03 -4.70693431e-06 -6.41512759e-02
4.50297594e-02 3.41152563e-03 1.01734726e-02 3.41152563e-03 3.07657446e-02 -3.15984381e-03 1.01734726e-02 -3.15984381e-03 -6.36884416e-02
4.25024899e-02 1.71372676e-03 1.13634705e-02 1.71372676e-03 3.27895163e-02 -1.01747576e-03 1.13634705e-02 -1.01747576e-03 -6.33261222e-02
3.60870236e-02 7.39258670e-03 7.06015126e-04 7.39258670e-03 1.79921212e-02 -9.21040261e-03 7.06015126e-04 -9.21040261e-03 -4.46978062e-02
3.80152322e-02 5.12689893e-03 1.69513258e-02 5.12689893e-03 2.00759579e-02 5.00263902e-03 1.69513258e-02 5.00263902e-03 -4.78779369e-02
6.79739669e-03 2.79189495e-04 -4.08633472e-03 2.79189495e-04 -1.66467438e-03 -3.71662292e-03 -4.08633472e-03 -3.71662292e-03 4.76128422e-04
3.72606469e-03 9.23676048e-04 2.95812155e-03 9.23676048e-04 4.62621489e-04 2.00803904e-03 2.95812155e-03 2.00803904e-03 2.53815763e-03
-2.48594815e-03 7.99023546e-04 -9.09957491e-03 7.99023546e-04 -5.16835414e-03 -3.52162389e-03 -9.09957491e-03 -3.52162389e-03 1.32192615e-02
-7.84283931e-04 -2.64749420e-02 2.24389716e-02 -2.64749420e-02 7.96148002e-03 5.69065777e-03 2.24389716e-02 5.69065777e-03 -2.06754690e-03
-4.91383990e-03 7.36593393e-03 -6.40111157e-03 7.36593393e-03 -2.26862263e-03 -2.45000220e-03 -6.40111157e-03 -2.45000220e-03 1.25076014e-02
-1.96210900e-03 -7.85807365e-03 7.68331625e-03 -7.85807365e-03 2.08178977e-03 -2.47977488e-03 7.68331625e-03 -2.47977488e-03 5.17799637e-03
2.31575244e-03 8.12870311e-03 -8.97272769e-03 8.12870311e-03 -1.41477338e-02 1.84635725e-03 -8.97272769e-03 1.84635725e-03 1.64771359e-02
5.06028056e-03 -9.00923274e-03 3.00412471e-02 -9.00923274e-03 1.64899044e-04 -4.85531881e-03 3.00412471e-02 -4.85531881e-03 -1.46496482e-03
4.80443640e-02 -3.62048982e-03 2.35647481e-03 -3.62048982e-03 1.82885504e-02 -6.29725226e-03 2.35647481e-03 -6.29725226e-03 -5.54882819e-02
4.86404710e-02 -3.86203662e-03 3.24538292e-03 -3.86203662e-03 2.22590584e-02 9.08838047e-06 3.24538292e-03 9.08838047e-06 -5.94244245e-02
4.26980592e-02 -6.06451323e-03 1.23270230e-02 -6.06451323e-03 2.05453890e-02 -1.86549936e-04 1.23270230e-02 -1.86549936e-04 -5.29861050e-02
4.41651763e-02 -4.76849673e-03 3.80858430e-03 -4.76849673e-03 2.35996093e-02 2.04277597e-03 3.80858430e-03 2.04277597e-03 -5.68850962e-02
3.67589486e-02 -6.31258683e-03 -3.42012534e-03 -6.31258683e-03 1.00443250e-02 -1.01477103e-02 -3.42012534e-03 -1.01477103e-02 -3.93898915e-02
3.45053815e-02 -1.02386410e-02 4.60002900e-03 -1.02386410e-02 1.09546479e-02 1.05147271e-02 4.60002900e-03 1.05147271e-02 -3.78792109e-02
3.95103797e-03 -3.21033626e-03 -1.33794056e-03 -3.21033626e-03 8.43798596e-04 -7.53301138e-03 -1.33794056e-03 -7.53301138e-03 -2.25857168e-03
1.28541903e-02 -4.74997310e-03 -2.99725402e-03 -4.74997310e-03 -1.60287173e-04 6.49013152e-03 -2.99725402e-03 6.49013152e-03 -9.19740857e-03
-1.10780460e-03 -1.75860543e-03 -3.85655083e-05 -1.75860543e-03 3.91751109e-04 -2.88094827e-04 -3.85655083e-05 -2.88094827e-04 7.47216792e-04
1.13039369e-03 1.68094512e-03 -1.68335068e-03 1.68094512e-03 1.23050158e-03 4.36552558e-03 -1.68335068e-03 4.36552558e-03 -1.84482981e-03
5.51842107e-03 -1.39685078e-02 3.58707097e-04 -1.39685078e-02 -8.64934362e-03 2.34020445e-05 3.58707097e-04 2.34020445e-05 5.07768337e-03
-7.61046852e-04 -8.86891740e-03 -8.49267015e-04 -8.86891740e-03 1.68421123e-03 6.57485771e-05 -8.49267015e-04 6.57485771e-05 -4.36788355e-04
4.83797397e-03 -1.69688370e-02 -2.31562648e-03 -1.69688370e-02 -7.71340868e-03 -3.52875868e-05 -2.31562648e-03 -3.52875868e-05 4.49488685e-03
-2.37860869e-03 -9.18468332e-03 -4.31869065e-03 -9.18468332e-03 5.83405307e-03 -4.17278562e-05 -4.31869065e-03 -4.17278562e-05 -2.57783231e-03
4.62398920e-02 -9.83945176e-03 6.50967378e-03 -9.83945176e-03 2.37597143e-02 -2.91254593e-03 6.50967378e-03 -2.91254593e-03 -5.86864287e-02
4.98158410e-02 -8.76376498e-03 1.33604958e-03 -8.76376498e-03 2.59660613e-02 4.80577546e-06 1.33604958e-03 4.80577546e-06 -6.35952428e-02
4.12008800e-02 -8.66347761e-03 8.81123909e-04 -8.66347761e-03 2.48191904e-02 5.13832508e-03 8.81123909e-04 5.13832508e-03 -5.54310456e-02
4.54776194e-02 -3.57123383e-03 -2.28046544e-03 -3.57123383e-03 2.59743822e-02 7.08013796e-03 -2.28046544e-03 7.08013796e-03 -5.99807352e-02
3.58546264e-02 -1.10917356e-02 3.34808067e-03 -1.10917356e-02 1.65598511e-02 -1.41344147e-02 3.34808067e-03 -1.41344147e-02 -4.44344403e-02
2.66351246e-02 -1.43941857e-02 -2.10788783e-03 -1.43941857e-02 1.91597149e-02 6.17998793e-03 -2.10788783e-03 6.17998793e-03 -3.66913639e-02
3.45482217e-03 -9.13022668e-04 1.87110162e-03 -9.13022668e-04 1.33534017e-03 -5.01865894e-03 1.87110162e-03 -5.01865894e-03 -1.44592428e-03
2.12920123e-02 -7.85821253e-03 -3.12346795e-03 -7.85821253e-03 1.43084440e-02 2.29835574e-02 -3.12346795e-03 2.29835574e-02 -3.00291645e-02
7.65444811e-04 1.56690385e-03 1.75572812e-05 1.56690385e-03 -3.24581208e-04 -1.61304983e-04 1.75572812e-05 -1.61304983e-04 -3.80495740e-04
2.86098448e-03 -2.47000075e-04 1.71957102e-04 -2.47000075e-04 -1.12824742e-03 5.06296349e-03 1.71957102e-04 5.06296349e-03 -1.27323169e-03
4.18157442e-05 -2.41423926e-05 -3.79267156e-06 -2.41423926e-05 -2.71217658e-05 1.18132567e-05 -3.79267156e-06 1.18132567e-05 -2.44794888e-05
-2.79811775e-07 -4.49024965e-06 -4.45143845e-06 -4.49024965e-06 -2.81436101e-06 1.69700418e-05 -4.45143845e-06 1.69700418e-05 1.89769705e-06
0.00000000e+00 0.00000000e+00 0.00000000e+00 0.00000000e+00 0.00000000e+00 0.00000000e+00 0.00000000e+00 0.00000000e+00 0.00000000e+00
0.00000000e+00 0.00000000e+00 0.00000000e+00 0.00000000e+00 0.00000000e+00 0.00000000e+00 0.00000000e+00 0.00000000e+00 0.00000000e+00
5.10189217e-02 -8.89505527e-03 6.66999025e-04 -8.89505527e-03 3.16483667e-02 -5.48279099e-03 6.66999025e-04 -5.48279099e-03 -6.94401078e-02
5.76324239e-02 -3.97888850e-03 5.99273201e-03 -3.97888850e-03 2.95532886e-02 1.90570281e-05 5.99273201e-03 1.90570281e-05 -7.31652156e-02
4.70042704e-02 -6.28403632e-03 -1.04572438e-03 -6.28403632e-03 3.10259443e-02 -4.37659916e-03 -1.04572438e-03 -4.37659916e-03 -6.55876081e-02
5.12120277e-02 -9.19835968e-03 -2.99828930e-03 -9.19835968e-03 3.33678443e-02 6.37039705e-03 -2.99828930e-03 6.37039705e-03 -7.11067915e-02
3.86719722e-02 -1.66153158e-02 1.68198198e-02 -1.66153158e-02 2.82491352e-02 -1.85534107e-02 1.68198198e-02 -1.85534107e-02 -5.59955072e-02
3.65275429e-02 -1.52387889e-02 7.17456941e-03 -1.52387889e-02 4.05877149e-02 4.36208420e-03 7.17456941e-03 4.36208420e-03 -6.56008702e-02
1.01811688e-02 -7.81802420e-03 1.37885329e-02 -7.81802420e-03 1.38617763e-02 -5.73298638e-03 1.37885329e-02 -5.73298638e-03 -1.98848862e-02
2.60500309e-02 -1.75563858e-02 9.02382548e-03 -1.75563858e-02 2.77880654e-02 3.26303809e-02 9.02382548e-03 3.26303809e-02 -4.46891468e-02
-1.36734685e-03 -2.58739533e-03 7.58507812e-05 -2.58739533e-03 7.96197099e-04 -4.27161343e-04 7.58507812e-05 -4.27161343e-04 5.12480896e-04
8.33410420e-04 -9.97054936e-03 1.69338658e-04 -9.97054936e-03 2.79089014e-04 1.24415931e-02 1.69338658e-04 1.24415931e-02 3.32778160e-04
-1.31460241e-04 -1.23864898e-04 2.25832046e-05 -1.23864898e-04 6.08484006e-05 2.32122657e-05 2.25832046e-05 2.32122657e-05 9.57169832e-05
2.66900630e-05 -2.51270903e-05 -7.32195501e-06 -2.51270903e-05 -1.41103895e-05 -1.75820787e-07 -7.32195501e-06 -1.75820787e-07 -1.67108204e-05
0.00000000e+00 0.00000000e+00 0.00000000e+00 0.00000000e+00 0.00000000e+00 0.00000000e+00 0.00000000e+00 0.00000000e+00 0.00000000e+00
0.00000000e+00 0.00000000e+00 0.00000000e+00 0.00000000e+00 0.00000000e+00 0.00000000e+00 0.00000000e+00 0.00000000e+00 0.00000000e+00
4.09006272e-02 4.79367736e-06 1.43876486e-03 4.79367736e-06 5.83971478e-02 -7.53161265e-03 1.43876486e-03 -7.53161265e-03 -8.35332945e-02
4.38995399e-02 -6.46393601e-04 7.77845713e-03 -6.46393601e-04 5.61533459e-02 -4.99503444e-03 7.77845713e-03 -4.99503444e-03 -8.42067432e-02
4.08268194e-02 -6.37279607e-03 4.73394798e-03 -6.37279607e-03 5.66211483e-02 -2.61863621e-03 4.73394798e-03 -2.61863621e-03 -8.19464130e-02
3.88454311e-02 -7.68816724e-04 3.32975318e-03 -7.68816724e-04 5.81399780e-02 -1.17538395e-03 3.32975318e-03 -1.17538395e-03 -8.15345328e-02
5.04007991e-02 -8.91443924e-03 4.52957419e-03 -8.91443924e-03 5.20836366e-02 -9.20275663e-04 4.52957419e-03 -9.20275663e-04 -8.63235630e-02
4.83923331e-02 -9.20978194e-03 1.11587122e-03 -9.20978194e-03 5.44047458e-02 -1.15449770e-02 1.11587122e-03 -1.15449770e-02 -8.64251694e-02
5.73159307e-02 7.35399590e-05 -5.22108981e-04 7.35399590e-05 5.13186110e-02 -7.01616652e-03 -5.22108981e-04 -7.01616652e-03 -9.14846584e-02
5.20945142e-02 -6.08338514e-03 1.08165457e-03 -6.08338514e-03 5.09815717e-02 -6.37121848e-04 1.08165457e-03 -6.37121848e-04 -8.53134107e-02
6.36916291e-02 -4.87846113e-03 1.29758008e-02 -4.87846113e-03 5.02315192e-02 -6.65992510e-03 1.29758008e-02 -6.65992510e-03 -9.58660748e-02
6.00489620e-02 -6.18985086e-03 3.08786158e-03 -6.18985086e-03 6.30068458e-02 8.46751119e-03 3.08786158e-03 8.46751119e-03 -1.03968157e-01
6.10206006e-02 -6.34175946e-03 1.49085554e-02 -6.34175946e-03 5.50039588e-02 1.67510979e-03 1.49085554e-02 1.67510979e-03 -9.76188499e-02
6.30388167e-02 -2.85451132e-03 1.28622003e-02 -2.85451132e-03 6.14338396e-02 5.00656688e-03 1.28622003e-02 5.00656688e-03 -1.04748249e-01
5.54155968e-02 1.09387040e-02 9.68226697e-03 1.09387040e-02 6.23107646e-02 6.36737107e-03 9.68226697e-03 6.36737107e-03 -9.90797840e-02
6.24059997e-02 1.89374085e-03 -1.11876690e-03 1.89374085e-03 6.27117036e-02 5.14106941e-03 -1.11876690e-03 5.14106941e-03 -1.05238967e-01
3.93869453e-02 -8.09618336e-03 9.41600947e-03 -8.09618336e-03 5.37181809e-02 -1.00243066e-02 9.41600947e-03 -1.00243066e-02 -7.84973418e-02
3.50935291e-02 -5.75856632e-03 1.92451379e-02 -5.75856632e-03 5.43635916e-02 -5.50783821e-03 1.92451379e-02 -5.50783821e-03 -7.50491135e-02
4.51944609e-02 -5.30214237e-03 1.83328488e-02 -5.30214237e-03 5.67190024e-02 -4.44776252e-03 1.83328488e-02 -4.44776252e-03 -8.56610984e-02
6.19057618e-02 -1.55006897e-02 4.85071708e-02 -1.55006897e-02 6.39867216e-02 -2.98552037e-03 4.85071708e-02 -2.98552037e-03 -1.05259717e-01
6.37543611e-02 -1.58375304e-03 1.39041601e-02 -1.58375304e-03 7.64272157e-02 1.63820751e-02 1.39041601e-02 1.63820751e-02 -1.17749581e-01
6.33406062e-02 -2.53128647e-03 2.70642685e-02 -2.53128647e-03 7.84147698e-02 3.31912368e-02 2.70642685e-02 3.31912368e-02 -1.18971771e-01
6.11567367e-02 -1.13144023e-02 1.31189567e-02 -1.13144023e-02 8.25770870e-02 2.89907522e-02 1.31189567e-02 2.89907522e-02 -1.20645024e-01
3.06131891e-02 -1.46695041e-03 2.59977826e-02 -1.46695041e-03 4.27071273e-02 -1.73137075e-03 2.59977826e-02 -1.73137075e-03 -6.09586954e-02
3.22506693e-02 -2.42907950e-03 1.83955713e-02 -2.42907950e-03 4.26362185e-02 -5.18351560e-03 1.83955713e-02 -5.18351560e-03 -6.28866106e-02
3.30851506e-02 -9.96490257e-03 3.68459290e-02 -9.96490257e-03 5.05868072e-02 4.20073839e-02 3.68459290e-02 4.20073839e-02 -6.97205247e-02
-1.38695976e-02 -4.02675206e-02 3.61305103e-02 -4.02675206e-02 7.25753413e-03 5.14410753e-02 3.61305103e-02 5.14410753e-02 1.44469002e-02
3.02322464e-02 -1.38962234e-04 1.34259633e-02 -1.38962234e-04 2.45983630e-02 9.46082920e-03 1.34259633e-02 9.46082920e-03 -4.44320605e-02
3.22502423e-02 4.96319763e-03 1.23058027e-02 4.96319763e-03 3.14437049e-02 9.08868411e-03 1.23058027e-02 9.08868411e-03 -5.35658570e-02
2.62994929e-02 -2.00515254e-02 2.07114021e-02 -2.00515254e-02 1.84748948e-02 1.79385382e-02 2.07114021e-02 1.79385382e-02 -3.57650739e-02
8.37892511e-03 -6.93453127e-03 -3.12092801e-02 -6.93453127e-03 1.31062547e-02 -5.19543886e-04 -3.12092801e-02 -5.19543886e-04 -1.34750182e-02
3.48630634e-02 -7.56023762e-03 2.58225577e-03 -7.56023762e-03 3.00893858e-02 7.23018844e-03 2.58225577e-03 7.23018844e-03 -5.45009314e-02
3.80128445e-02 -6.56721951e-03 4.04762104e-05 -6.56721951e-03 2.86840582e-02 7.13644596e-03 4.04762104e-05 7.13644596e-03 -5.60935615e-02
3.00450462e-02 -1.37954837e-02 7.68880418e-04 -1.37954837e-02 3.20948438e-02 1.50470292e-02 7.68880418e-04 1.50470292e-02 -5.00540924e-02
5.03856884e-02 3.74644762e-04 -1.99963013e-02 3.74644762e-04 5.46561284e-02 2.69773896e-02 -1.99963013e-02 2.69773896e-02 -9.07177329e-02
3.59233283e-02 -1.36761108e-03 -2.94698315e-03 -1.36761108e-03 4.12762612e-02 -2.39941757e-04 -2.94698315e-03 -2.39941757e-04 -6.50296789e-02
3.98955029e-02 1.39959936e-03 -3.44506325e-03 1.39959936e-03 3.66198961e-02 4.89646732e-03 -3.44506325e-03 4.89646732e-03 -6.44122660e-02
3.47854155e-02 2.05431425e-04 2.35310639e-03 2.05431425e-04 4.71108295e-02 -4.69107419e-03 2.35310639e-03 -4.69107419e-03 -6.72854837e-02
6.49616923e-02 -9.22215841e-04 -1.65851526e-02 -9.22215841e-04 7.07425624e-02 2.24227696e-02 -1.65851526e-02 2.24227696e-02 -1.15286224e-01
0.00000000e+00 0.00000000e+00 0.00000000e+00 0.00000000e+00 0.00000000e+00 0.00000000e+00 0.00000000e+00 0.00000000e+00 0.00000000e+00
0.00000000e+00 0.00000000e+00 0.00000000e+00 0.00000000e+00 0.00000000e+00 0.00000000e+00 0.00000000e+00 0.00000000e+00 0.00000000e+00
0.00000000e+00 0.00000000e+00 0.00000000e+00 0.00000000e+00 0.00000000e+00 0.00000000e+00 0.00000000e+00 0.00000000e+00 0.00000000e+00
0.00000000e+00 0.00000000e+00 0.00000000e+00 0.00000000e+00 0.00000000e+00 0.00000000e+00 0.00000000e+00 0.00000000e+00 0.00000000e+00
4.91825417e-02 8.47902083e-06 9.75421956e-03 8.47902083e-06 5.16204163e-02 -2.16113427e-03 9.75421956e-03 -2.16113427e-03 -8.48823451e-02
5.04914317e-02 2.48717016e-03 6.39356708e-03 2.48717016e-03 4.98079499e-02 2.80380134e-03 6.39356708e-03 2.80380134e-03 -8.44506007e-02
4.88045006e-02 -8.71735439e-03 1.15457918e-02 -8.71735439e-03 5.06643802e-02 3.82379330e-03 1.15457918e-02 3.82379330e-03 -8.36860761e-02
4.73130895e-02 1.83562431e-03 1.01739006e-02 1.83562431e-03 5.27706575e-02 -5.46551694e-03 1.01739006e-02 -5.46551694e-03 -8.42545312e-02
5.42999161e-02 -1.07854565e-02 9.55538149e-03 -1.07854565e-02 4.42419192e-02 5.94870180e-04 9.55538149e-03 5.94870180e-04 -8.29172824e-02
5.31111192e-02 -1.16116109e-02 1.16674585e-02 -1.16116109e-02 4.91006807e-02 5.06967108e-03 1.16674585e-02 5.06967108e-03 -8.59351847e-02
5.79096843e-02 9.69304077e-04 3.85993626e-03 9.69304077e-04 4.14084727e-02 5.90201028e-03 3.85993626e-03 5.90201028e-03 -8.35479219e-02
5.44084134e-02 -5.28994668e-03 -4.59671207e-03 -5.28994668e-03 4.40257005e-02 -4.38708341e-03 -4.59671207e-03 -4.38708341e-03 -8.15328020e-02
6.04523225e-02 2.64145486e-03 -5.06320468e-03 2.64145486e-03 3.92706534e-02 -3.33215619e-04 -5.06320468e-03 -3.33215619e-04 -8.38524774e-02
6.00483138e-02 1.29467162e-03 -8.34306257e-03 1.29467162e-03 5.55477552e-02 2.33592873e-05 -8.34306257e-03 2.33592873e-05 -9.76904593e-02
5.81045775e-02 6.31765972e-04 2.64164148e-03 6.31765972e-04 4.05972013e-02 -3.28597977e-03 2.64164148e-03 -3.28597977e-03 -8.30424838e-02
5.88465398e-02 -3.23533699e-04 4.10324603e-04 -3.23533699e-04 5.32500343e-02 3.06547269e-03 4.10324603e-04 3.06547269e-03 -9.43606654e-02
5.59220761e-02 -2.42537229e-04 2.23970925e-03 -2.42537229e-04 4.11350261e-02 -2.97415722e-03 2.23970925e-03 -2.97415722e-03 -8.16269442e-02
5.46588171e-02 -4.35912798e-03 -2.62781404e-03 -4.35912798e-03 5.37759271e-02 -2.51339790e-03 -2.62781404e-03 -2.51339790e-03 -9.12713557e-02
4.45287928e-02 -1.49250804e-02 2.96347503e-02 -1.49250804e-02 5.51368534e-02 1.54675142e-03 2.96347503e-02 1.54675142e-03 -8.33024895e-02
3.78210312e-02 -1.28998221e-02 2.20304714e-02 -1.28998221e-02 5.91810616e-02 -3.34879168e-03 2.20304714e-02 -3.34879168e-03 -8.14010892e-02
5.75444086e-02 -9.09993200e-04 2.20894389e-02 -9.09993200e-04 5.29928473e-02 -3.73646730e-03 2.20894389e-02 -3.73646730e-03 -9.36969072e-02
6.87155180e-02 -1.52421862e-02 -6.02099720e-02 -1.52421862e-02 6.29908975e-02 -8.35445803e-04 -6.02099720e-02 -8.35445803e-04 -1.09379147e-01
6.52875556e-02 -2.01483106e-03 -1.77620663e-02 -2.01483106e-03 7.46088214e-02 1.18886133e-02 -1.77620663e-02 1.18886133e-02 -1.17521301e-01
6.47595339e-02 -4.78883940e-03 -1.66157470e-03 -4.78883940e-03 7.22301118e-02 1.08996938e-02 -1.66157470e-03 1.08996938e-02 -1.15349222e-01
5.79433031e-02 -3.57359601e-03 -4.17109404e-03 -3.57359601e-03 7.48525225e-02 3.62350605e-03 -4.17109404e-03 3.62350605e-03 -1.11757692e-01
3.98838291e-02 -9.11352855e-03 4.17589678e-02 -9.11352855e-03 5.58425039e-02 2.39593060e-03 4.17589678e-02 2.39593060e-03 -8.02967948e-02
3.32254856e-02 3.01281194e-03 3.16102537e-02 3.01281194e-03 5.32656861e-02 3.91326024e-03 3.16102537e-02 3.91326024e-03 -7.22326338e-02
4.96893274e-02 -2.68351515e-02 5.60991517e-02 -2.68351515e-02 6.71979645e-02 -6.22982287e-02 5.60991517e-02 -6.22982287e-02 -9.51357801e-02
3.03091521e-02 -3.14198379e-03 1.27099528e-02 -3.14198379e-03 3.88629737e-02 2.42320010e-02 1.27099528e-02 2.42320010e-02 -5.68655095e-02
3.40717053e-02 -7.73687556e-03 2.78960422e-02 -7.73687556e-03 4.59222486e-02 7.94276444e-03 2.78960422e-02 7.94276444e-03 -6.74790228e-02
3.53147378e-02 6.57416550e-03 1.64702986e-02 6.57416550e-03 4.98852311e-02 7.84269767e-02 1.64702986e-02 7.84269767e-02 -6.92262119e-02
1.92715526e-02 9.95639435e-04 1.40442073e-02 9.95639435e-04 2.46521420e-02 5.67824929e-04 1.40442073e-02 5.67824929e-04 -3.08671077e-02
3.78161529e-02 6.62700227e-03 -2.94974237e-03 6.62700227e-03 4.79788473e-02 5.34094195e-03 -2.94974237e-03 5.34094195e-03 -7.33832745e-02
2.46467771e-02 -8.34341128e-03 -6.40958839e-03 -8.34341128e-03 3.73073118e-02 2.21738823e-02 -6.40958839e-03 2.21738823e-02 -4.70215383e-02
-1.10062910e-02 7.66334012e-02 -8.47882181e-02 7.66334012e-02 -2.42456011e-02 1.51725516e-01 -8.47882181e-02 1.51725516e-01 4.54505943e-02
7.48571592e-02 2.76920283e-02 -1.01948554e-01 2.76920283e-02 7.46391285e-02 -2.23765793e-02 -1.01948554e-01 -2.23765793e-02 -1.28056757e-01
4.86438056e-02 1.75522277e-02 5.62462909e-03 1.75522277e-02 5.96771110e-02 2.00879867e-02 5.62462909e-03 2.00879867e-02 -9.41856494e-02
3.42369266e-02 -3.93366744e-03 7.46739167e-03 -3.93366744e-03 4.74988781e-02 1.10534877e-02 7.46739167e-03 1.10534877e-02 -6.80473857e-02
</DataArray>
<DataArray type="Float32" Name="Spatial_displacement" NumberOfComponents="3" format="ascii">
0.00000000e+00 0.00000000e+00 0.00000000e+00
4.06247824e-02 0.00000000e+00 0.00000000e+00
4.34699208e-02 7.45010078e-02 0.00000000e+00
0.00000000e+00 7.16960281e-02 0.00000000e+00
0.00000000e+00 0.00000000e+00 -8.79352689e-02
3.99739593e-02 0.00000000e+00 -9.13756490e-02
4.08400297e-02 6.93720579e-02 -8.70537013e-02
0.00000000e+00 6.83473796e-02 -8.50979984e-02
8.55461955e-02 0.00000000e+00 0.00000000e+00
8.66344273e-02 8.01988542e-02 0.00000000e+00
8.34187865e-02 0.00000000e+00 -9.78008509e-02
8.56589377e-02 7.26408958e-02 -9.27643478e-02
1.31657138e-01 0.00000000e+00 0.00000000e+00
1.36029288e-01 8.83418471e-02 0.00000000e+00
1.37084365e-01 0.00000000e+00 -1.03740320e-01
1.31829783e-01 7.56312758e-02 -1.02700666e-01
1.93221644e-01 0.00000000e+00 0.00000000e+00
1.81575462e-01 9.44050774e-02 0.00000000e+00
1.97174773e-01 0.00000000e+00 -1.11961007e-01
1.84124082e-01 7.62058944e-02 -1.08678430e-01
2.53528804e-01 0.00000000e+00 0.00000000e+00
2.39052474e-01 1.01235032e-01 0.00000000e+00
2.59068698e-01 0.00000000e+00 -1.20373994e-01
2.48390242e-01 7.91599005e-02 -1.14670217e-01
3.21155012e-01 0.00000000e+00 0.00000000e+00
2.81731844e-01 1.26220807e-01 0.00000000e+00
3.17640066e-01 0.00000000e+00 -1.22063294e-01
3.07927638e-01 1.02161095e-01 -1.26372099e-01
4.74148095e-02 1.32922798e-01 0.00000000e+00
0.00000000e+00 1.30731300e-01 0.00000000e+00
4.35384288e-02 1.28656805e-01 -7.59908110e-02
0.00000000e+00 1.25208169e-01 -7.50929713e-02
9.43830758e-02 1.44554704e-01 0.00000000e+00
8.64905491e-02 1.35213420e-01 -7.70237148e-02
1.32489786e-01 1.54591113e-01 0.00000000e+00
1.26399085e-01 1.42973423e-01 -6.88685030e-02
1.64389104e-01 1.74487054e-01 0.00000000e+00
1.67238399e-01 1.42793179e-01 -7.18025565e-02
1.85579240e-01 1.76237226e-01 0.00000000e+00
2.00786009e-01 1.47771806e-01 -6.74418658e-02
2.16227278e-01 2.11306527e-01 0.00000000e+00
2.41697162e-01 1.80748820e-01 -6.73835874e-02
5.06240278e-02 1.68995097e-01 0.00000000e+00
0.00000000e+00 1.65961713e-01 0.00000000e+00
4.54829559e-02 1.70116335e-01 -6.19994998e-02
0.00000000e+00 1.68333858e-01 -6.10335171e-02
1.01467915e-01 1.71483099e-01 0.00000000e+00
9.21669751e-02 1.72695190e-01 -4.86006290e-02
1.29370168e-01 1.80040717e-01 0.00000000e+00
1.23402454e-01 1.77330375e-01 -1.46851540e-02
1.35473087e-01 1.86900496e-01 0.00000000e+00
1.27636075e-01 1.76155329e-01 5.63327968e-03
1.50297940e-01 1.80026114e-01 0.00000000e+00
1.51932761e-01 1.61469787e-01 1.38985962e-02
1.52784154e-01 2.18178779e-01 0.00000000e+00
1.58874080e-01 2.14797497e-01 4.42118943e-03
5.28546348e-02 1.88608155e-01 0.00000000e+00
0.00000000e+00 1.92606956e-01 0.00000000e+00
4.61670905e-02 1.91023707e-01 -5.38590997e-02
0.00000000e+00 1.95951119e-01 -5.57753444e-02
1.00477688e-01 1.85096696e-01 0.00000000e+00
8.99315774e-02 1.81655735e-01 -3.76310498e-02
1.24462098e-01 1.80066541e-01 0.00000000e+00
1.16425991e-01 1.78663075e-01 -7.28221238e-03
1.21476635e-01 1.85617745e-01 0.00000000e+00
1.21083394e-01 1.85610846e-01 -1.42902136e-05
1.21382281e-01 1.89968526e-01 0.00000000e+00
1.21434800e-01 1.87611952e-01 0.00000000e+00
1.21501073e-01 1.89990461e-01 -2.73615122e-04
1.21507727e-01 1.87556863e-01 1.64955854e-05
5.06967753e-02 2.07371727e-01 0.00000000e+00
0.00000000e+00 2.16433495e-01 0.00000000e+00
4.75863218e-02 2.14125931e-01 -5.60498983e-02
0.00000000e+00 2.17831582e-01 -6.27696365e-02
9.84619409e-02 1.91816434e-01 0.00000000e+00
8.39769915e-02 1.94924295e-01 -4.31984216e-02
1.16508827e-01 1.81211978e-01 0.00000000e+00
1.10383183e-01 1.84665322e-01 -1.04987025e-02
1.19427234e-01 1.85710117e-01 0.00000000e+00
1.19205400e-01 1.85727909e-01 2.44379044e-04
1.19285017e-01 1.87715262e-01 0.00000000e+00
1.19381011e-01 1.87692523e-01 2.86400318e-05
1.19403943e-01 1.89723462e-01 0.00000000e+00
1.19422331e-01 1.89657867e-01 7.95722008e-06
5.72123975e-02 2.39875361e-01 0.00000000e+00
0.00000000e+00 2.44008094e-01 0.00000000e+00
5.13627902e-02 2.40678176e-01 -6.78355247e-02
0.00000000e+00 2.50261992e-01 -7.38186687e-02
1.06241271e-01 2.12604910e-01 0.00000000e+00
8.67159218e-02 2.30045527e-01 -6.19907081e-02
1.21099949e-01 1.90703586e-01 0.00000000e+00
1.14979222e-01 2.05715626e-01 -2.70491093e-02
1.18460983e-01 1.86340615e-01 0.00000000e+00
1.17787592e-01 1.86335728e-01 5.36710024e-04
1.17448151e-01 1.87566251e-01 0.00000000e+00
1.17562145e-01 1.87655136e-01 -3.32742929e-05
1.17410988e-01 1.89678997e-01 0.00000000e+00
1.17439821e-01 1.89649180e-01 -4.85777855e-06
0.00000000e+00 0.00000000e+00 -1.68568909e-01
4.06142473e-02 0.00000000e+00 -1.75519645e-01
3.99229676e-02 5.82235008e-02 -1.68330073e-01
0.00000000e+00 5.90371490e-02 -1.67255819e-01
9.05646682e-02 0.00000000e+00 -1.84608296e-01
8.11716691e-02 5.19251302e-02 -1.80422232e-01
1.40726522e-01 0.00000000e+00 -1.96638316e-01
1.40802905e-01 5.13869077e-02 -1.97129488e-01
2.05996141e-01 0.00000000e+00 -2.14953482e-01
2.00735703e-01 5.19471690e-02 -2.03124717e-01
2.73060262e-01 0.00000000e+00 -2.27840990e-01
2.66311407e-01 5.39800525e-02 -2.14343697e-01
3.26515794e-01 0.00000000e+00 -2.33773574e-01
3.38070095e-01 6.08600304e-02 -2.25014672e-01
3.43827307e-02 1.14369638e-01 -1.51930839e-01
0.00000000e+00 1.20513469e-01 -1.46778166e-01
7.80087784e-02 1.13397799e-01 -1.58140272e-01
1.26602247e-01 1.17755041e-01 -1.62410647e-01
1.91221148e-01 1.31888032e-01 -1.80362284e-01
2.58632720e-01 1.34094596e-01 -1.74943253e-01
3.17818224e-01 1.43906236e-01 -1.87211767e-01
3.00494209e-02 1.65739760e-01 -1.25057787e-01
0.00000000e+00 1.68333650e-01 -1.20166063e-01
6.60327449e-02 1.67168707e-01 -1.11356989e-01
5.93394488e-02 1.45295858e-01 9.41057503e-03
3.24129313e-02 2.07559094e-01 -1.01429671e-01
0.00000000e+00 2.02344343e-01 -1.10090509e-01
7.11104572e-02 1.90021455e-01 -7.35832751e-02
9.15668830e-02 1.60670161e-01 -3.22382152e-02
3.99207845e-02 2.24629909e-01 -1.09233528e-01
0.00000000e+00 2.31445581e-01 -1.16014645e-01
6.67640716e-02 2.13798612e-01 -8.85584056e-02
1.13918260e-01 1.97813272e-01 -6.89878911e-02
3.48305628e-02 2.63867438e-01 -1.37658328e-01
0.00000000e+00 2.62453616e-01 -1.42294556e-01
6.80234209e-02 2.70090133e-01 -1.28716484e-01
1.23647757e-01 2.58778006e-01 -1.26134425e-01
1.19421266e-01 1.87739953e-01 3.44663858e-05
1.19420812e-01 1.89673692e-01 3.14861536e-05
1.17484987e-01 1.89681157e-01 -1.70916319e-05
1.17458358e-01 1.87752411e-01 -3.35425138e-05
0.00000000e+00 0.00000000e+00 -2.51533747e-01
4.77087423e-02 0.00000000e+00 -2.53514200e-01
5.03582880e-02 5.22376522e-02 -2.47620001e-01
0.00000000e+00 5.03132194e-02 -2.42580160e-01
1.05785623e-01 0.00000000e+00 -2.67114878e-01
9.43702087e-02 4.44899946e-02 -2.58315951e-01
1.57441169e-01 0.00000000e+00 -2.82123923e-01
1.58479169e-01 3.98189500e-02 -2.78563410e-01
2.19626158e-01 0.00000000e+00 -2.95406938e-01
2.22438470e-01 4.15177345e-02 -3.00077677e-01
2.84905791e-01 0.00000000e+00 -3.11725855e-01
2.85563529e-01 4.42953780e-02 -3.09289813e-01
3.45146090e-01 0.00000000e+00 -3.17330003e-01
3.44910562e-01 4.47050035e-02 -3.15268278e-01
3.53476927e-02 9.86169949e-02 -2.27053076e-01
0.00000000e+00 1.12345263e-01 -2.23812699e-01
9.36097652e-02 1.00176401e-01 -2.48467520e-01
1.48565620e-01 1.06550902e-01 -2.89505541e-01
2.18331337e-01 1.17921352e-01 -2.99872667e-01
2.81206816e-01 1.10695422e-01 -2.98075646e-01
3.35235089e-01 1.16798498e-01 -3.03296447e-01
3.10408324e-02 1.69158831e-01 -1.84972227e-01
0.00000000e+00 1.65999129e-01 -1.88884124e-01
8.39966536e-02 1.48456499e-01 -2.15205714e-01
3.12929228e-02 2.09092498e-01 -1.54951036e-01
0.00000000e+00 2.16838941e-01 -1.61346182e-01
7.44723529e-02 2.09710658e-01 -1.22296289e-01
3.24631929e-02 2.59088397e-01 -1.67164773e-01
0.00000000e+00 2.53070354e-01 -1.70995489e-01
7.18346536e-02 2.55540192e-01 -1.58258632e-01
8.77202004e-02 2.56689966e-01 1.91644579e-02
1.10631749e-01 2.47156650e-01 -1.79017469e-01
3.54948342e-02 2.97657967e-01 -2.00602144e-01
0.00000000e+00 3.01293433e-01 -2.11568028e-01
</DataArray>
<DataArray type="Float32" Name="Spatial_acceleration" NumberOfComponents="3" format="ascii">
0.00000000e+00 0.00000000e+00 0.00000000e+00
-3.02990287e-07 0.00000000e+00 0.00000000e+00
-3.18010649e-07 -4.63366490e-07 0.00000000e+00
0.00000000e+00 -4.64399648e-07 0.00000000e+00
0.00000000e+00 0.00000000e+00 5.83648671e-07
-2.75055555e-07 0.00000000e+00 5.82377083e-07
-2.98827871e-07 -4.53934064e-07 5.79516097e-07
0.00000000e+00 -4.38511364e-07 5.84284464e-07
-6.09676022e-07 0.00000000e+00 0.00000000e+00
-6.27398492e-07 -4.80473034e-07 0.00000000e+00
-5.97397502e-07 0.00000000e+00 6.08444225e-07
-6.10152881e-07 -4.54664217e-07 5.88417038e-07
-9.41514941e-07 0.00000000e+00 0.00000000e+00
-9.61621595e-07 -4.95831159e-07 0.00000000e+00
-9.64423066e-07 0.00000000e+00 6.30696604e-07
-9.24229596e-07 -4.64320181e-07 6.49134336e-07
-1.34423124e-06 0.00000000e+00 0.00000000e+00
-1.27538044e-06 -5.28146813e-07 0.00000000e+00
-1.35997925e-06 0.00000000e+00 6.49134336e-07
-1.27307578e-06 -4.37140471e-07 6.61849981e-07
-1.69656676e-06 0.00000000e+00 0.00000000e+00
-1.64222718e-06 -5.40018050e-07 0.00000000e+00
-1.73155468e-06 0.00000000e+00 6.34193441e-07
-1.69777866e-06 -4.61578367e-07 6.45160696e-07
-2.07849348e-06 0.00000000e+00 0.00000000e+00
-1.86125430e-06 -6.76790876e-07 0.00000000e+00
-2.06492336e-06 0.00000000e+00 6.17980959e-07
-2.04610819e-06 -5.83251335e-07 6.54220571e-07
-3.34421799e-07 -8.45154091e-07 0.00000000e+00
0.00000000e+00 -8.47836304e-07 0.00000000e+00
-3.19287182e-07 -8.22164111e-07 5.26428209e-07
0.00000000e+00 -8.04314993e-07 5.14984151e-07
-6.79333994e-07 -9.12507346e-07 0.00000000e+00
-6.31660214e-07 -8.55882945e-07 5.55992131e-07
-9.71317263e-07 -9.76562433e-07 0.00000000e+00
-8.97373468e-07 -8.95000653e-07 5.10442817e-07
-1.16602575e-06 -1.08289714e-06 0.00000000e+00
-1.17826460e-06 -8.66201219e-07 5.20918093e-07
-1.32513048e-06 -1.06469793e-06 0.00000000e+00
-1.40639145e-06 -8.55869700e-07 4.90400510e-07
-1.54312454e-06 -1.29477178e-06 0.00000000e+00
-1.67189705e-06 -1.06165146e-06 5.12017152e-07
-3.59376259e-07 -1.13344197e-06 0.00000000e+00
0.00000000e+00 -1.08071163e-06 0.00000000e+00
-3.35852292e-07 -1.11271936e-06 4.58081558e-07
0.00000000e+00 -1.12354758e-06 4.21841946e-07
-7.43230203e-07 -1.10860663e-06 0.00000000e+00
-6.79333994e-07 -1.14593900e-06 3.98159017e-07
-9.60985858e-07 -1.14925706e-06 0.00000000e+00
-9.39326185e-07 -1.14451518e-06 8.81618902e-08
-9.77198283e-07 -1.15468765e-06 0.00000000e+00
-9.46044906e-07 -1.13466047e-06 -5.97635932e-08
-1.09418238e-06 -1.05765128e-06 0.00000000e+00
-1.07521487e-06 -9.23368702e-07 -9.51555066e-08
-1.15966793e-06 -1.24692917e-06 0.00000000e+00
-1.13741555e-06 -1.40104692e-06 8.93274930e-08
-4.05470530e-07 -1.27359226e-06 0.00000000e+00
0.00000000e+00 -1.27514204e-06 0.00000000e+00
-3.50276622e-07 -1.29234786e-06 3.88622283e-07
0.00000000e+00 -1.31005049e-06 4.12623081e-07
-7.40845962e-07 -1.23303380e-06 0.00000000e+00
-6.68406472e-07 -1.19400022e-06 2.66710913e-07
-9.25501183e-07 -1.17782747e-06 0.00000000e+00
-8.95500193e-07 -1.16946967e-06 4.89552825e-08
-9.59793738e-07 -1.21053063e-06 0.00000000e+00
-8.94970356e-07 -1.21487517e-06 4.35511289e-08
-8.05457432e-07 -1.06016796e-06 0.00000000e+00
-7.97218775e-07 -1.16699277e-06 0.00000000e+00
-8.69035716e-07 -1.17174784e-06 1.50998432e-08
-9.81807716e-07 -1.09509631e-06 -5.61608218e-08
-3.82741291e-07 -1.38811265e-06 0.00000000e+00
0.00000000e+00 -1.49114931e-06 0.00000000e+00
-3.65714214e-07 -1.44943590e-06 4.06265258e-07
0.00000000e+00 -1.50112305e-06 4.57445765e-07
-7.49826427e-07 -1.27351279e-06 0.00000000e+00
-6.37292828e-07 -1.31098432e-06 3.42686974e-07
-8.69035716e-07 -1.17142997e-06 0.00000000e+00
-8.47710510e-07 -1.21641165e-06 1.00453697e-07
-9.84509825e-07 -1.10816950e-06 0.00000000e+00
-9.07540311e-07 -1.16682054e-06 -4.03722140e-08
-9.50972208e-07 -1.11472605e-06 0.00000000e+00
-9.96152608e-07 -1.23780569e-06 -5.58873019e-08
-9.71476197e-07 -1.12819669e-06 0.00000000e+00
-9.88854367e-07 -1.07288361e-06 3.65508939e-08
-4.25815585e-07 -1.66273117e-06 0.00000000e+00
0.00000000e+00 -1.66939947e-06 0.00000000e+00
-3.81231303e-07 -1.65824099e-06 5.02904243e-07
0.00000000e+00 -1.71402098e-06 5.53131088e-07
-7.71204611e-07 -1.46547950e-06 0.00000000e+00
-6.83585768e-07 -1.58786770e-06 4.94003302e-07
-1.04149183e-06 -1.19177503e-06 0.00000000e+00
-9.36508172e-07 -1.35082666e-06 3.06871215e-07
-1.01375576e-06 -1.07256574e-06 0.00000000e+00
-1.05702873e-06 -1.12819669e-06 4.99089552e-08
-1.02559727e-06 -1.13852821e-06 0.00000000e+00
-8.69539065e-07 -1.27946009e-06 -2.24676389e-09
-9.85980023e-07 -1.22481583e-06 0.00000000e+00
-7.94172252e-07 -1.08236077e-06 5.88769709e-08
0.00000000e+00 0.00000000e+00 1.07192989e-06
-2.58157655e-07 0.00000000e+00 1.14949546e-06
-2.84671785e-07 -3.87137135e-07 1.10721589e-06
0.00000000e+00 -3.84144471e-07 1.09990435e-06
-6.05682544e-07 0.00000000e+00 1.18033086e-06
-5.50031643e-07 -3.51667410e-07 1.13360090e-06
-9.51309971e-07 0.00000000e+00 1.17174784e-06
-9.55899509e-07 -3.50952149e-07 1.21927258e-06
-1.37505924e-06 0.00000000e+00 1.22419988e-06
-1.33967399e-06 -3.65277117e-07 1.21943151e-06
-1.83171028e-06 0.00000000e+00 1.21307369e-06
-1.76652270e-06 -3.73025728e-07 1.22388201e-06
-2.15212503e-06 0.00000000e+00 1.20290122e-06
-2.23402185e-06 -4.38968328e-07 1.24231974e-06
-2.65359887e-07 -7.43945407e-07 1.01470948e-06
0.00000000e+00 -7.87019701e-07 1.01121270e-06
-5.62940329e-07 -7.55616611e-07 1.04958667e-06
-8.68988025e-07 -7.68820428e-07 1.09507243e-06
-1.29683815e-06 -8.48442312e-07 1.15966793e-06
-1.70481201e-06 -8.74320676e-07 1.10117594e-06
-2.03470381e-06 -9.42120948e-07 1.11770623e-06
-2.35080719e-07 -1.10034148e-06 8.78016124e-07
0.00000000e+00 -1.09394387e-06 8.53220627e-07
-5.08308403e-07 -1.10297731e-06 8.54916038e-07
-4.38372297e-07 -8.79923505e-07 -6.39756479e-08
-2.50597793e-07 -1.40434497e-06 7.51336415e-07
0.00000000e+00 -1.35810171e-06 7.78516153e-07
-5.83194549e-07 -1.26820521e-06 5.72022941e-07
-7.51283437e-07 -1.00983516e-06 2.42869049e-07
-3.06288399e-07 -1.53187909e-06 8.10146332e-07
0.00000000e+00 -1.59905596e-06 8.71658301e-07
-5.36203402e-07 -1.45761169e-06 6.84897088e-07
-8.55048484e-07 -1.34845573e-06 5.37236531e-07
-2.80658412e-07 -1.84019405e-06 1.00866953e-06
0.00000000e+00 -1.83206794e-06 1.04904177e-06
-5.14229157e-07 -1.85537340e-06 9.77834020e-07
-9.58442683e-07 -1.77359584e-06 9.02811678e-07
-9.35549508e-07 -1.15436978e-06 2.22697849e-07
-7.95831284e-07 -1.18216872e-06 -2.08392734e-07
-1.10149381e-06 -1.24168150e-06 1.67836745e-07
-8.72095427e-07 -9.11960967e-07 -2.62265388e-07
0.00000000e+00 0.00000000e+00 1.64286291e-06
-2.83241263e-07 0.00000000e+00 1.63269044e-06
-3.25510882e-07 -3.40034575e-07 1.61441164e-06
0.00000000e+00 -3.34699934e-07 1.58945716e-06
-6.71943042e-07 0.00000000e+00 1.68418887e-06
-6.13798704e-07 -3.15457584e-07 1.67814892e-06
-9.85662155e-07 0.00000000e+00 1.78527830e-06
-1.00485488e-06 -3.09069947e-07 1.72837576e-06
-1.39389931e-06 0.00000000e+00 1.80880227e-06
-1.44751868e-06 -3.51170684e-07 1.79386132e-06
-1.87964736e-06 0.00000000e+00 1.84059138e-06
-1.86204909e-06 -3.56115407e-07 1.84917451e-06
-2.35722450e-06 0.00000000e+00 1.88954664e-06
-2.31587887e-06 -3.78121939e-07 1.90830224e-06
-2.48988471e-07 -6.73611964e-07 1.53064730e-06
0.00000000e+00 -7.49707226e-07 1.51570634e-06
-6.42776456e-07 -7.10532788e-07 1.58982050e-06
-9.50622564e-07 -7.35092158e-07 1.78782147e-06
-1.40925249e-06 -7.70211216e-07 1.80625909e-06
-1.76652270e-06 -7.74741181e-07 1.76811216e-06
-2.12094187e-06 -9.04520334e-07 1.84885664e-06
-2.57333113e-07 -1.12152100e-06 1.32569812e-06
0.00000000e+00 -1.10524888e-06 1.33991239e-06
-5.93344339e-07 -1.00994112e-06 1.45848594e-06
-2.81152268e-07 -1.41561600e-06 1.13351007e-06
0.00000000e+00 -1.46346292e-06 1.21466314e-06
-5.99861153e-07 -1.40782197e-06 9.93092840e-07
-2.46524820e-07 -1.79684162e-06 1.25455858e-06
0.00000000e+00 -1.77923835e-06 1.33037565e-06
-5.53312759e-07 -1.72260832e-06 1.12043108e-06
-7.00533406e-07 -1.87667206e-06 -1.67210899e-07
-7.61561921e-07 -1.71195143e-06 1.30886508e-06
-2.68379836e-07 -2.08576512e-06 1.49440768e-06
0.00000000e+00 -2.14123725e-06 1.61361697e-06
</DataArray>
<DataArray type="Float32" Name="Spatial_velocity" NumberOfComponents="3" format="ascii">
0.00000000e+00 0.00000000e+00 0.00000000e+00
6.20105420e-05 0.00000000e+00 0.00000000e+00
6.45362306e-05 8.95347912e-05 0.00000000e+00
0.00000000e+00 8.81589149e-05 0.00000000e+00
0.00000000e+00 0.00000000e+00 -1.07112159e-04
5.96105347e-05 0.00000000e+00 -1.10003159e-04
6.10633142e-05 8.53255406e-05 -1.06002037e-04
0.00000000e+00 8.41648798e-05 -1.08049899e-04
1.24732585e-04 0.00000000e+00 0.00000000e+00
1.26573577e-04 9.26950743e-05 0.00000000e+00
1.21077079e-04 0.00000000e+00 -1.10494890e-04
1.23170481e-04 8.66788469e-05 -1.07121370e-04
1.86809484e-04 0.00000000e+00 0.00000000e+00
1.92263076e-04 9.65701911e-05 0.00000000e+00
1.91203348e-04 0.00000000e+00 -1.08553482e-04
1.84311561e-04 8.60163054e-05 -1.15126240e-04
2.64816015e-04 0.00000000e+00 0.00000000e+00
2.50538200e-04 9.75712101e-05 0.00000000e+00
2.66790797e-04 0.00000000e+00 -1.12368536e-04
2.50555837e-04 8.37360858e-05 -1.14591006e-04
3.29719594e-04 0.00000000e+00 0.00000000e+00
3.21494474e-04 1.01952857e-04 0.00000000e+00
3.37728939e-04 0.00000000e+00 -1.11003748e-04
3.29438422e-04 8.47062474e-05 -1.15066294e-04
4.02243808e-04 0.00000000e+00 0.00000000e+00
3.66154592e-04 1.18516946e-04 0.00000000e+00
4.03027836e-04 0.00000000e+00 -1.04846527e-04
3.94121162e-04 1.07459826e-04 -1.19016840e-04
6.82259706e-05 1.66509955e-04 0.00000000e+00
0.00000000e+00 1.64408601e-04 0.00000000e+00
6.44192696e-05 1.60828989e-04 -9.90999179e-05
0.00000000e+00 1.57944771e-04 -9.98089308e-05
1.34342932e-04 1.75616689e-04 0.00000000e+00
1.25007529e-04 1.67068749e-04 -1.02671598e-04
1.90300183e-04 1.84615084e-04 0.00000000e+00
1.82158619e-04 1.73398643e-04 -9.73880742e-05
2.35792162e-04 2.08664831e-04 0.00000000e+00
2.36588356e-04 1.63495017e-04 -9.83338759e-05
2.64338218e-04 1.97616682e-04 0.00000000e+00
2.80101696e-04 1.64883721e-04 -9.32399271e-05
3.03620909e-04 2.36109205e-04 0.00000000e+00
3.27448011e-04 1.94824184e-04 -9.05608904e-05
7.24508427e-05 2.18668531e-04 0.00000000e+00
0.00000000e+00 2.15004853e-04 0.00000000e+00
6.59909128e-05 2.19816240e-04 -8.80122388e-05
0.00000000e+00 2.17639623e-04 -8.33125523e-05
1.49788437e-04 2.19753187e-04 0.00000000e+00
1.40313467e-04 2.19754715e-04 -7.73768479e-05
1.94947279e-04 2.24033211e-04 0.00000000e+00
1.85425073e-04 2.23090945e-04 -1.73681310e-05
2.03372168e-04 2.25349635e-04 0.00000000e+00
1.91578976e-04 2.15367007e-04 9.98496216e-06
2.19489521e-04 2.14992353e-04 0.00000000e+00
2.24663207e-04 1.76795613e-04 2.06350469e-05
2.19819209e-04 2.48700060e-04 0.00000000e+00
2.31092054e-04 2.51026649e-04 5.67197685e-06
7.63344069e-05 2.49454955e-04 0.00000000e+00
0.00000000e+00 2.57248204e-04 0.00000000e+00
6.75331466e-05 2.52146652e-04 -7.82625575e-05
0.00000000e+00 2.60182773e-04 -7.74569271e-05
1.53764704e-04 2.40704336e-04 0.00000000e+00
1.36538118e-04 2.33324405e-04 -5.83846886e-05
1.93842236e-04 2.21894923e-04 0.00000000e+00
1.84823395e-04 2.22478498e-04 -9.62818285e-06
1.89128259e-04 2.25856755e-04 0.00000000e+00
1.89207232e-04 2.25915588e-04 -2.85685303e-07
1.89176091e-04 2.13846099e-04 0.00000000e+00
1.89246930e-04 2.19957263e-04 0.00000000e+00
1.89193481e-04 2.13962150e-04 3.99868441e-08
1.89121303e-04 2.19815993e-04 4.77047095e-08
7.57617599e-05 2.76487553e-04 0.00000000e+00
0.00000000e+00 2.91231088e-04 0.00000000e+00
7.34605637e-05 2.87242670e-04 -7.92391875e-05
0.00000000e+00 2.95096397e-04 -8.71425218e-05
1.53795831e-04 2.48798897e-04 0.00000000e+00
1.32204805e-04 2.54763407e-04 -7.09284286e-05
1.85416051e-04 2.23045499e-04 0.00000000e+00
1.77216891e-04 2.33220955e-04 -2.16832050e-05
1.95267945e-04 2.25907468e-04 0.00000000e+00
1.95057510e-04 2.25854208e-04 -8.28120648e-08
1.95143075e-04 2.19943700e-04 0.00000000e+00
1.95135857e-04 2.19970199e-04 1.66095884e-08
1.95148852e-04 2.13936539e-04 0.00000000e+00
1.95155779e-04 2.13902589e-04 -1.50335353e-08
8.64587637e-05 3.23405518e-04 0.00000000e+00
0.00000000e+00 3.30288342e-04 0.00000000e+00
7.86770106e-05 3.29704286e-04 -9.81293415e-05
0.00000000e+00 3.40201717e-04 -1.02912723e-04
1.62105265e-04 2.83261994e-04 0.00000000e+00
1.39212018e-04 3.09279392e-04 -9.78726457e-05
2.03366624e-04 2.45269417e-04 0.00000000e+00
1.88238730e-04 2.69751763e-04 -5.67152529e-05
2.01341885e-04 2.26126329e-04 0.00000000e+00
2.01160627e-04 2.26364631e-04 7.13250472e-08
2.01147472e-04 2.19955749e-04 0.00000000e+00
2.01117611e-04 2.19923342e-04 -3.69251154e-08
2.01138057e-04 2.13988198e-04 0.00000000e+00
2.01138624e-04 2.13941457e-04 1.95654959e-08
0.00000000e+00 0.00000000e+00 -2.07483929e-04
5.56842533e-05 0.00000000e+00 -2.12274754e-04
5.67155548e-05 7.45526268e-05 -2.06922981e-04
0.00000000e+00 7.44030185e-05 -2.09015852e-04
1.23970123e-04 0.00000000e+00 -2.16219283e-04
1.13057380e-04 6.88104701e-05 -2.09869278e-04
1.89642291e-04 0.00000000e+00 -2.16541506e-04
1.88932492e-04 7.04578633e-05 -2.21885653e-04
2.69172713e-04 0.00000000e+00 -2.23356736e-04
2.63006485e-04 6.88749569e-05 -2.22113929e-04
3.52563453e-04 0.00000000e+00 -2.24044386e-04
3.43713938e-04 6.92615649e-05 -2.24824878e-04
4.19714343e-04 0.00000000e+00 -2.17541135e-04
4.30556858e-04 8.28702032e-05 -2.26652599e-04
5.48318858e-05 1.45093101e-04 -1.96312933e-04
0.00000000e+00 1.51774584e-04 -1.96632434e-04
1.15848037e-04 1.45487924e-04 -2.01738527e-04
1.73394830e-04 1.45556609e-04 -2.05796037e-04
2.52578437e-04 1.60024705e-04 -2.12968676e-04
3.28145892e-04 1.61628544e-04 -2.03522170e-04
3.87740787e-04 1.79399867e-04 -2.04476717e-04
5.06379183e-05 2.11967737e-04 -1.72894579e-04
0.00000000e+00 2.16987217e-04 -1.71600535e-04
1.00936501e-04 2.14777392e-04 -1.68927989e-04
8.54184254e-05 1.60648880e-04 1.71478187e-05
5.10409336e-05 2.75586004e-04 -1.48017338e-04
0.00000000e+00 2.65984971e-04 -1.57820396e-04
1.18046133e-04 2.43887334e-04 -1.19055054e-04
1.49281695e-04 2.01182178e-04 -5.44824761e-05
6.71724338e-05 3.04077519e-04 -1.61829885e-04
0.00000000e+00 3.15636105e-04 -1.69055405e-04
1.08102686e-04 2.83713016e-04 -1.40759948e-04
1.73897308e-04 2.61044857e-04 -1.02621023e-04
6.37686680e-05 3.61560233e-04 -1.94920925e-04
0.00000000e+00 3.65579675e-04 -2.08190002e-04
1.12960450e-04 3.64801876e-04 -1.95152519e-04
1.88710561e-04 3.39868857e-04 -1.87020109e-04
1.95106652e-04 2.19921189e-04 -4.82496034e-08
1.95110450e-04 2.13932231e-04 4.02265208e-08
2.01131028e-04 2.13940424e-04 -1.37416425e-08
2.01096176e-04 2.19928872e-04 -2.86691382e-09
0.00000000e+00 0.00000000e+00 -3.05179070e-04
5.95405254e-05 0.00000000e+00 -3.05395020e-04
6.58640784e-05 6.74259063e-05 -3.05210735e-04
0.00000000e+00 6.39122445e-05 -3.02719971e-04
1.33868874e-04 0.00000000e+00 -3.14345787e-04
1.21591002e-04 6.28831986e-05 -3.11245967e-04
1.98637106e-04 0.00000000e+00 -3.24004097e-04
2.00307783e-04 6.25722460e-05 -3.20080784e-04
2.76673265e-04 0.00000000e+00 -3.28848109e-04
2.79283558e-04 6.29178903e-05 -3.31652322e-04
3.63960862e-04 0.00000000e+00 -3.33594740e-04
3.60717153e-04 6.44536776e-05 -3.34783428e-04
4.47369850e-04 0.00000000e+00 -3.30143754e-04
4.42943070e-04 7.06361607e-05 -3.35436955e-04
5.09410165e-05 1.30162283e-04 -2.94887606e-04
0.00000000e+00 1.45153157e-04 -2.92421930e-04
1.30010667e-04 1.37341398e-04 -2.99810781e-04
1.91449624e-04 1.39672673e-04 -3.26094829e-04
2.68398871e-04 1.51398737e-04 -3.36536556e-04
3.40878381e-04 1.49187108e-04 -3.28658323e-04
4.03061131e-04 1.72731467e-04 -3.32808151e-04
5.36410589e-05 2.18030822e-04 -2.62923713e-04
0.00000000e+00 2.16074273e-04 -2.62447516e-04
1.18604912e-04 1.92798281e-04 -2.76782986e-04
5.69508848e-05 2.75765371e-04 -2.26901335e-04
0.00000000e+00 2.85541377e-04 -2.42083333e-04
1.17589028e-04 2.75484548e-04 -1.96405992e-04
5.42949019e-05 3.49931826e-04 -2.51360208e-04
0.00000000e+00 3.44593544e-04 -2.57896783e-04
1.11606103e-04 3.37165053e-04 -2.27889628e-04
1.32699977e-04 3.73242132e-04 3.04531550e-05
1.49788073e-04 3.31545569e-04 -2.53539794e-04
5.97586768e-05 4.08255699e-04 -2.97963183e-04
0.00000000e+00 4.17323463e-04 -3.04972869e-04
</DataArray>
<DataArray type="Float32" Name="Reaction_force" NumberOfComponents="3" format="ascii">
4.64716792e-01 -2.04408795e-01 8.76150036e+00
0.00000000e+00 -6.17126226e-01 1.79022865e+01
0.00000000e+00 0.00000000e+00 3.42191544e+01
4.83788967e-01 0.00000000e+00 1.72679672e+01
9.45493877e-01 -4.51790482e-01 0.00000000e+00
0.00000000e+00 -8.47799420e-01 0.00000000e+00
0.00000000e+00 0.00000000e+00 0.00000000e+00
9.70912039e-01 0.00000000e+00 0.00000000e+00
0.00000000e+00 -8.05499732e-01 1.80520363e+01
0.00000000e+00 0.00000000e+00 3.58757668e+01
0.00000000e+00 -5.58349490e-01 0.00000000e+00
0.00000000e+00 0.00000000e+00 0.00000000e+00
0.00000000e+00 -5.72284937e-01 1.91227798e+01
0.00000000e+00 0.00000000e+00 3.53989182e+01
0.00000000e+00 -1.93090335e-01 0.00000000e+00
0.00000000e+00 0.00000000e+00 0.00000000e+00
0.00000000e+00 -8.20061445e-01 1.88596268e+01
0.00000000e+00 0.00000000e+00 3.47082863e+01
0.00000000e+00 -4.81733978e-01 0.00000000e+00
0.00000000e+00 0.00000000e+00 0.00000000e+00
0.00000000e+00 -1.28096211e+00 1.67165833e+01
0.00000000e+00 0.00000000e+00 3.12448635e+01
0.00000000e+00 -1.69433951e+00 0.00000000e+00
0.00000000e+00 0.00000000e+00 0.00000000e+00
0.00000000e+00 -2.33323622e+00 1.05524893e+01
0.00000000e+00 0.00000000e+00 1.95865746e+01
0.00000000e+00 -3.15849400e+00 0.00000000e+00
0.00000000e+00 0.00000000e+00 0.00000000e+00
0.00000000e+00 0.00000000e+00 3.21075058e+01
-4.73425627e-01 0.00000000e+00 1.58538799e+01
0.00000000e+00 0.00000000e+00 0.00000000e+00
-3.34440142e-01 0.00000000e+00 0.00000000e+00
0.00000000e+00 0.00000000e+00 2.91781921e+01
0.00000000e+00 0.00000000e+00 0.00000000e+00
0.00000000e+00 0.00000000e+00 2.33456898e+01
0.00000000e+00 0.00000000e+00 0.00000000e+00
0.00000000e+00 0.00000000e+00 1.90313416e+01
0.00000000e+00 0.00000000e+00 0.00000000e+00
0.00000000e+00 0.00000000e+00 1.87794838e+01
0.00000000e+00 0.00000000e+00 0.00000000e+00
0.00000000e+00 0.00000000e+00 1.52633762e+01
0.00000000e+00 0.00000000e+00 0.00000000e+00
0.00000000e+00 0.00000000e+00 2.88565693e+01
-1.02959740e+00 0.00000000e+00 1.46160069e+01
0.00000000e+00 0.00000000e+00 0.00000000e+00
-1.50075960e+00 0.00000000e+00 0.00000000e+00
0.00000000e+00 0.00000000e+00 2.12119389e+01
0.00000000e+00 0.00000000e+00 0.00000000e+00
0.00000000e+00 0.00000000e+00 1.24725313e+01
0.00000000e+00 0.00000000e+00 0.00000000e+00
0.00000000e+00 0.00000000e+00 4.80547857e+00
0.00000000e+00 0.00000000e+00 0.00000000e+00
0.00000000e+00 0.00000000e+00 3.76403952e+00
0.00000000e+00 0.00000000e+00 0.00000000e+00
0.00000000e+00 0.00000000e+00 3.17431593e+00
0.00000000e+00 0.00000000e+00 0.00000000e+00
0.00000000e+00 0.00000000e+00 2.64889050e+01
-1.68568540e+00 0.00000000e+00 1.44813709e+01
0.00000000e+00 0.00000000e+00 0.00000000e+00
-2.72014093e+00 0.00000000e+00 0.00000000e+00
0.00000000e+00 0.00000000e+00 1.95459633e+01
0.00000000e+00 0.00000000e+00 0.00000000e+00
0.00000000e+00 0.00000000e+00 9.67345428e+00
0.00000000e+00 0.00000000e+00 0.00000000e+00
0.00000000e+00 0.00000000e+00 3.93134356e-01
0.00000000e+00 0.00000000e+00 0.00000000e+00
0.00000000e+00 0.00000000e+00 -2.31065392e+00
0.00000000e+00 0.00000000e+00 -3.36749554e+00
0.00000000e+00 0.00000000e+00 0.00000000e+00
0.00000000e+00 0.00000000e+00 0.00000000e+00
0.00000000e+00 0.00000000e+00 2.71458931e+01
-2.29565811e+00 0.00000000e+00 1.41383324e+01
0.00000000e+00 0.00000000e+00 0.00000000e+00
-3.32073879e+00 0.00000000e+00 0.00000000e+00
0.00000000e+00 0.00000000e+00 2.26844559e+01
0.00000000e+00 0.00000000e+00 0.00000000e+00
0.00000000e+00 0.00000000e+00 1.78813248e+01
0.00000000e+00 0.00000000e+00 0.00000000e+00
0.00000000e+00 0.00000000e+00 7.11535358e+00
0.00000000e+00 0.00000000e+00 0.00000000e+00
0.00000000e+00 0.00000000e+00 -4.23905468e+00
0.00000000e+00 0.00000000e+00 0.00000000e+00
0.00000000e+00 0.00000000e+00 1.86478066e+00
0.00000000e+00 0.00000000e+00 0.00000000e+00
0.00000000e+00 0.00000000e+00 1.78836002e+01
-2.08917308e+00 0.00000000e+00 8.81059647e+00
0.00000000e+00 0.00000000e+00 0.00000000e+00
-3.67226362e+00 0.00000000e+00 0.00000000e+00
0.00000000e+00 0.00000000e+00 1.85881939e+01
0.00000000e+00 0.00000000e+00 0.00000000e+00
0.00000000e+00 0.00000000e+00 1.43732052e+01
0.00000000e+00 0.00000000e+00 0.00000000e+00
0.00000000e+00 0.00000000e+00 6.35944891e+00
0.00000000e+00 0.00000000e+00 0.00000000e+00
0.00000000e+00 0.00000000e+00 -2.98646855e+00
0.00000000e+00 0.00000000e+00 0.00000000e+00
0.00000000e+00 0.00000000e+00 3.82671505e-01
0.00000000e+00 0.00000000e+00 0.00000000e+00
4.42007244e-01 -5.56686819e-01 0.00000000e+00
0.00000000e+00 1.50769055e-01 0.00000000e+00
0.00000000e+00 0.00000000e+00 0.00000000e+00
1.47017932e+00 0.00000000e+00 0.00000000e+00
0.00000000e+00 8.64238679e-01 0.00000000e+00
0.00000000e+00 0.00000000e+00 0.00000000e+00
0.00000000e+00 1.20189142e+00 0.00000000e+00
0.00000000e+00 0.00000000e+00 0.00000000e+00
0.00000000e+00 1.70165110e+00 0.00000000e+00
0.00000000e+00 0.00000000e+00 0.00000000e+00
0.00000000e+00 -1.49295449e-01 0.00000000e+00
0.00000000e+00 0.00000000e+00 0.00000000e+00
0.00000000e+00 -1.06331551e+00 0.00000000e+00
0.00000000e+00 0.00000000e+00 0.00000000e+00
0.00000000e+00 0.00000000e+00 0.00000000e+00
5.33156872e-01 0.00000000e+00 0.00000000e+00
0.00000000e+00 0.00000000e+00 0.00000000e+00
0.00000000e+00 0.00000000e+00 0.00000000e+00
0.00000000e+00 0.00000000e+00 0.00000000e+00
0.00000000e+00 0.00000000e+00 0.00000000e+00
0.00000000e+00 0.00000000e+00 0.00000000e+00
0.00000000e+00 0.00000000e+00 0.00000000e+00
-7.97254801e-01 0.00000000e+00 0.00000000e+00
0.00000000e+00 0.00000000e+00 0.00000000e+00
0.00000000e+00 0.00000000e+00 0.00000000e+00
0.00000000e+00 0.00000000e+00 0.00000000e+00
-5.50250292e-01 0.00000000e+00 0.00000000e+00
0.00000000e+00 0.00000000e+00 0.00000000e+00
0.00000000e+00 0.00000000e+00 0.00000000e+00
0.00000000e+00 0.00000000e+00 0.00000000e+00
-1.15180206e+00 0.00000000e+00 0.00000000e+00
0.00000000e+00 0.00000000e+00 0.00000000e+00
0.00000000e+00 0.00000000e+00 0.00000000e+00
0.00000000e+00 0.00000000e+00 0.00000000e+00
-2.03499031e+00 0.00000000e+00 0.00000000e+00
0.00000000e+00 0.00000000e+00 0.00000000e+00
0.00000000e+00 0.00000000e+00 0.00000000e+00
0.00000000e+00 0.00000000e+00 0.00000000e+00
0.00000000e+00 0.00000000e+00 0.00000000e+00
0.00000000e+00 0.00000000e+00 0.00000000e+00
0.00000000e+00 0.00000000e+00 0.00000000e+00
4.79827970e-02 -1.77055091e-01 0.00000000e+00
0.00000000e+00 9.07610893e-01 0.00000000e+00
0.00000000e+00 0.00000000e+00 0.00000000e+00
1.75999427e+00 0.00000000e+00 0.00000000e+00
0.00000000e+00 1.53713346e+00 0.00000000e+00
0.00000000e+00 0.00000000e+00 0.00000000e+00
0.00000000e+00 2.02011752e+00 0.00000000e+00
0.00000000e+00 0.00000000e+00 0.00000000e+00
0.00000000e+00 2.84493256e+00 0.00000000e+00
0.00000000e+00 0.00000000e+00 0.00000000e+00
0.00000000e+00 1.22676313e+00 0.00000000e+00
0.00000000e+00 0.00000000e+00 0.00000000e+00
0.00000000e+00 1.59370959e-01 0.00000000e+00
0.00000000e+00 0.00000000e+00 0.00000000e+00
0.00000000e+00 0.00000000e+00 0.00000000e+00
1.47463727e+00 0.00000000e+00 0.00000000e+00
0.00000000e+00 0.00000000e+00 0.00000000e+00
0.00000000e+00 0.00000000e+00 0.00000000e+00
0.00000000e+00 0.00000000e+00 0.00000000e+00
0.00000000e+00 0.00000000e+00 0.00000000e+00
0.00000000e+00 0.00000000e+00 0.00000000e+00
0.00000000e+00 0.00000000e+00 0.00000000e+00
2.24288329e-02 0.00000000e+00 0.00000000e+00
0.00000000e+00 0.00000000e+00 0.00000000e+00
0.00000000e+00 0.00000000e+00 0.00000000e+00
8.55974913e-01 0.00000000e+00 0.00000000e+00
0.00000000e+00 0.00000000e+00 0.00000000e+00
0.00000000e+00 0.00000000e+00 0.00000000e+00
4.69820142e-01 0.00000000e+00 0.00000000e+00
0.00000000e+00 0.00000000e+00 0.00000000e+00
0.00000000e+00 0.00000000e+00 0.00000000e+00
0.00000000e+00 0.00000000e+00 0.00000000e+00
0.00000000e+00 0.00000000e+00 0.00000000e+00
-6.47743881e-01 0.00000000e+00 0.00000000e+00
</DataArray>
<DataArray type="Float32" Name="Equivalent_plastic_strain" format="ascii">
9.30406749e-02
9.67712142e-02
9.11911968e-02
8.93771835e-02
8.91973525e-02
9.22225844e-02
8.82892841e-02
8.68124403e-02
1.03711192e-01
9.77908708e-02
9.79239680e-02
9.41661261e-02
1.12488978e-01
1.10920003e-01
1.04974484e-01
1.03490945e-01
1.21841915e-01
1.19535502e-01
1.12615308e-01
1.09266365e-01
1.30248494e-01
1.29010890e-01
1.19049344e-01
1.14391503e-01
1.42356932e-01
1.42577298e-01
1.26741044e-01
1.25898443e-01
7.84553569e-02
7.77193010e-02
7.81914936e-02
7.62399640e-02
7.88878072e-02
8.12738435e-02
5.60216922e-02
7.77823968e-02
5.54372035e-02
7.35000813e-02
3.94881347e-02
7.04383999e-02
4.11390914e-02
8.12019780e-02
6.50185477e-02
6.49585426e-02
6.45921486e-02
6.38735294e-02
4.68559125e-02
5.10623423e-02
7.66080234e-03
6.23259010e-03
-1.47840776e-03
2.16252841e-02
-2.85553971e-03
1.84507562e-02
3.77195515e-03
2.48733144e-02
5.78776235e-02
6.12280257e-02
5.48775573e-02
5.80760166e-02
4.15071435e-02
4.09308211e-02
6.32861489e-03
1.38067228e-02
1.66439678e-04
2.75498906e-03
1.01748798e-02
3.13578729e-03
8.70225392e-03
4.54020907e-03
6.03861539e-02
6.50581121e-02
5.65290255e-02
6.12236345e-02
4.56697736e-02
4.11132833e-02
6.42856956e-03
3.25674107e-02
1.14488475e-04
2.50838155e-03
-5.22374932e-05
-6.38510028e-06
0.00000000e+00
0.00000000e+00
7.06170499e-02
7.48048723e-02
6.64162692e-02
7.19364882e-02
5.84841818e-02
6.51433421e-02
2.15416253e-02
4.89718455e-02
-2.01076444e-04
7.68455572e-03
1.34002592e-04
-2.20573371e-05
0.00000000e+00
0.00000000e+00
8.41514021e-02
8.45863521e-02
8.27369336e-02
8.24861173e-02
8.62619430e-02
8.73916699e-02
9.15369429e-02
8.83517335e-02
9.64037366e-02
1.03630149e-01
9.82391853e-02
1.05285113e-01
9.95449461e-02
1.06109375e-01
7.90142706e-02
7.69081544e-02
8.58585654e-02
1.11610323e-01
1.18830243e-01
1.21623544e-01
1.23257279e-01
6.38420526e-02
6.40537515e-02
7.72283810e-02
5.92463911e-02
4.90907319e-02
5.40529573e-02
4.21534340e-02
1.76014751e-02
5.57904602e-02
5.65962028e-02
5.58772396e-02
8.74182908e-02
6.49673827e-02
6.45982064e-02
6.99522058e-02
1.13287997e-01
0.00000000e+00
0.00000000e+00
0.00000000e+00
0.00000000e+00
8.49820003e-02
8.46159533e-02
8.42424501e-02
8.45024586e-02
8.34046286e-02
8.68872432e-02
8.42214096e-02
8.42947303e-02
8.47039055e-02
9.75046745e-02
8.35905839e-02
9.45793856e-02
8.23631249e-02
9.16380938e-02
8.70710528e-02
8.32772516e-02
9.04302427e-02
1.19419333e-01
1.18405519e-01
1.15545982e-01
1.12298623e-01
8.47228116e-02
7.53155947e-02
1.12929633e-01
6.12852792e-02
6.97901109e-02
8.79621245e-02
4.11185368e-02
7.20683485e-02
5.42082606e-02
7.70839676e-02
1.31409623e-01
9.07762684e-02
6.99365400e-02
</DataArray>
<DataArray type="Float32" Name="Stress_Mises" format="ascii">
3.15002842e+01
3.72736912e+01
3.32878194e+01
3.41999493e+01
2.94280939e+01
3.43681355e+01
3.17103969e+01
3.33872013e+01
4.00510406e+01
4.20196848e+01
3.62620225e+01
3.63247273e+01
4.40764885e+01
4.97202330e+01
3.66662910e+01
4.13516881e+01
4.93382578e+01
5.69807811e+01
3.90962121e+01
2.98515153e+01
4.89610615e+01
4.29885321e+01
3.54053326e+01
3.24126281e+01
7.76046982e+01
8.55839348e+01
5.58080263e+01
5.44965205e+01
3.27133851e+01
3.05578499e+01
3.16528378e+01
2.79137659e+01
3.78965172e+01
3.60873584e+01
2.72027128e+01
3.76588739e+01
2.67567716e+01
5.47553495e+01
2.05112984e+01
4.74354038e+01
4.76016073e+01
8.74805552e+01
3.41157534e+01
2.48202891e+01
3.03094689e+01
2.32391739e+01
3.88906012e+01
2.96034732e+01
2.05106624e+01
2.16488043e+01
1.46202264e+01
3.31012942e+01
8.74951720e+00
2.63766060e+01
2.55905857e+01
3.51512375e+01
3.21535501e+01
3.12078094e+01
2.45269095e+01
2.67206073e+01
2.15404977e+01
2.49289430e+01
1.58184955e+01
2.24149545e+01
1.24486047e+01
2.11961365e+01
3.34064665e+01
8.97399426e+00
3.29144926e+01
2.15873766e+01
3.04711659e+01
3.23000011e+01
2.33497191e+01
2.79545684e+01
2.21600804e+01
2.72097207e+01
2.39099985e+01
4.05369094e+01
1.67083356e+01
2.27211177e+01
1.22290601e+01
8.56190243e+00
1.01250689e+01
7.61019341e+00
5.87635880e+01
5.79841232e+01
4.40055275e+01
5.66204758e+01
6.87024479e+01
5.10620406e+01
5.33159828e+01
7.26466703e+01
2.07343225e+01
3.85724649e+01
1.85488591e+01
1.44480969e+01
4.79038286e+00
5.41793180e+00
3.04080420e+01
2.94845557e+01
2.59722871e+01
3.08488379e+01
2.43114122e+01
2.54122773e+01
2.62874897e+01
2.92796322e+01
2.61704488e+01
2.58252898e+01
1.92864919e+01
2.58971983e+01
1.96852989e+01
2.50124547e+01
2.45567769e+01
3.00028868e+01
4.22512985e+01
9.68515888e+01
7.65815411e+01
7.20942612e+01
7.64261246e+01
2.98566623e+01
1.72582670e+01
6.58280417e+01
3.84462585e+01
1.59147661e+01
1.36959558e+01
2.04140476e+01
1.35754592e+01
1.86835371e+01
1.86282927e+01
2.87480465e+01
5.86781123e+01
3.35472175e+01
3.70669765e+01
6.17123003e+01
1.28994099e+02
1.70444942e+00
1.27717817e+00
2.09376645e+00
2.95659387e+00
2.83718376e+01
2.80413764e+01
2.30331230e+01
2.74229541e+01
2.27256734e+01
2.45580174e+01
2.27601125e+01
2.50792575e+01
2.05553726e+01
2.62547695e+01
1.65179234e+01
3.05630316e+01
1.43455446e+01
2.49302981e+01
2.56269602e+01
2.44442363e+01
4.32186782e+01
1.16255968e+02
8.67323895e+01
6.70545826e+01
5.71051292e+01
2.57663070e+01
2.82652800e+01
1.42728153e+02
2.54313158e+01
1.68252940e+01
8.84081287e+01
2.33827659e+01
2.24926939e+01
3.78805235e+01
4.81467133e+01
1.17904816e+02
2.69097090e+01
3.67633018e+01
</DataArray>
<DataArray type="Float32" Name="Stress_Max_Principal" format="ascii">
5.38111031e-01
-4.04459143e+00
-1.38766551e+00
-2.35574460e+00
2.17576957e+00
-1.79922765e+00
-7.69411623e-02
-1.55487847e+00
-6.10045338e+00
-7.93918598e+00
-3.62485561e+00
-3.47065067e+00
-9.40924168e+00
-1.37501273e+01
-4.53283310e+00
-7.33132937e+00
-1.39493517e+01
-1.74482560e+01
-6.25193727e+00
1.63612518e+00
-1.29383166e+01
-4.00605309e+00
1.12324464e+00
8.55422500e+00
-3.28780327e+01
-3.49378624e+01
-1.78844042e+01
-1.59304090e+01
-7.65642881e-01
8.11833858e-01
-5.83478227e-01
2.30757260e+00
-3.65008688e+00
-1.10301634e+00
2.76052639e+01
1.42645461e+01
3.81870754e+01
2.48259322e+00
3.67104971e+01
6.26802794e+00
3.04969974e+01
-1.13842468e+01
6.59293592e-01
6.73166275e+00
3.08758679e+00
7.21041933e+00
3.07724266e+01
1.92130579e+01
4.18777673e+01
4.17612966e+01
3.36921406e+01
5.97857838e+01
4.11493587e+01
5.35152931e+01
3.21160154e+01
6.29708891e+01
3.36498100e+00
2.77469993e+00
8.24565434e+00
5.44572550e+00
1.75008722e+01
2.58365666e+01
2.96258647e+01
4.44458600e+01
2.76568848e+01
2.10468000e+01
-6.63116455e-01
1.91761291e+01
7.38518429e+00
1.68513311e+01
4.27514780e+00
2.07620335e+00
1.15708839e+01
4.82288516e+00
1.71745713e+01
1.44534522e+01
2.37615333e+01
3.21261213e+01
2.90500593e+01
2.12713444e+01
8.51621470e+00
6.63434927e+00
2.96748531e+00
1.37544914e+00
-1.85292668e+01
-1.72125988e+01
-8.17852265e+00
-1.78292480e+01
-2.44751062e+01
-9.37295496e+00
3.49588547e+01
-2.31498973e+01
3.76962767e+01
7.80271006e+00
8.64629817e+00
7.92892639e+00
4.68168676e-01
1.45655978e+00
1.11407399e+00
1.40059870e+00
4.57338911e+00
8.53981286e-01
5.76500431e+00
5.86871597e+00
3.66378021e+00
1.03276034e+01
4.22133631e+00
6.51480699e+00
1.04521774e+01
5.40542784e+00
9.74108267e+00
6.00563455e+00
7.89982721e+00
1.42127630e+00
-5.41774395e+00
-4.77996763e+01
-3.76031084e+01
-3.23598779e+01
-3.36547413e+01
2.38332341e+01
1.14082178e+01
-2.38092860e+01
8.40430641e+01
1.63419526e+01
1.63141176e+01
4.09081083e+01
3.25737216e+01
1.96088889e+01
1.12048744e+01
9.98789915e+00
-1.53761531e+01
-1.07043815e+00
-4.35871768e+00
8.46264839e+00
-7.90773869e+01
9.49221760e-01
6.91356122e-01
1.07957220e+00
1.75648022e+00
1.81460786e+00
2.45692010e+00
7.26344270e+00
3.15027541e+00
7.27765012e+00
7.96713932e+00
6.88240147e+00
1.47430063e+01
9.26687273e+00
5.82991236e+00
1.24424871e+01
1.43814703e+01
1.39552188e+01
2.40187975e+01
5.91291925e+00
7.23673701e+00
2.91343232e+01
-6.92581894e+01
-4.57750425e+01
-2.86653605e+01
-1.84172678e+01
6.04956996e+00
2.09974413e+01
-8.62428951e+01
3.52758011e+01
1.57673002e+01
-4.47832452e+01
2.38042882e+01
1.97202037e+01
4.12799835e+01
8.47131729e+01
-5.90112602e+01
1.56327838e+01
1.12394876e+01
</DataArray>
<DataArray type="Float32" Name="Stress_Mid_Principal" format="ascii">
-3.22139001e+00
-8.57470861e+00
-4.31297314e+00
-4.89461792e+00
-1.27465904e+00
-5.79507244e+00
-2.90234134e+00
-4.30122221e+00
-1.13108764e+01
-1.28112910e+01
-7.11671197e+00
-7.17387550e+00
-1.48186982e+01
-2.01381080e+01
-6.84950471e+00
-1.21482075e+01
-1.93117179e+01
-2.91093469e+01
-9.32600331e+00
-1.17824236e+00
-1.96931511e+01
-1.43440760e+01
-2.43264091e+00
1.57262056e+00
-4.92956161e+01
-6.19149151e+01
-2.64952476e+01
-2.59471045e+01
-3.89971232e+00
-1.75933266e+00
-2.15932466e+00
1.36149192e+00
-9.91161561e+00
-6.16194707e+00
1.65142069e+01
4.68185261e+00
2.55584288e+01
-1.79331452e+01
2.79763982e+01
-9.33231807e+00
5.81375313e+00
-4.46445948e+01
-8.19641757e+00
2.03746605e+00
-3.54434448e+00
4.40958595e+00
1.09046091e+01
5.06971085e+00
2.82044166e+01
2.66556395e+01
2.60594266e+01
3.23568182e+01
3.44120057e+01
3.12700046e+01
2.00566026e+01
4.28140755e+01
-7.80331311e+00
-5.31240940e+00
1.23608841e+00
1.52168691e-01
7.32605863e+00
1.27973574e+01
2.28987367e+01
3.16557975e+01
2.45519457e+01
7.88538194e+00
-1.34743257e+01
1.34258456e+01
-2.23968285e+00
-1.14366706e+00
-5.73959044e+00
-6.51890278e+00
4.93718219e+00
-1.60135841e+00
6.75750661e+00
4.59302992e+00
1.20399942e+01
1.00998818e+01
1.77151188e+01
6.59607983e+00
3.37025991e+00
7.62110586e-01
-1.36859912e+00
3.08900714e-01
-3.13216658e+01
-3.15584354e+01
-1.58796272e+01
-2.81468830e+01
-4.14738979e+01
-1.90269901e+01
7.48606300e+00
-4.35881243e+01
2.91248708e+01
-1.44871726e+01
4.59540617e+00
3.11174575e+00
-4.37385499e-01
1.70202404e-01
-1.83986044e+00
-4.85276658e-01
2.35699131e+00
-2.34809470e+00
4.17889740e+00
3.41612619e+00
2.77648199e+00
5.76613009e+00
2.42227340e+00
4.06074262e+00
8.72746399e+00
3.32475725e+00
8.29414964e+00
2.92294312e+00
5.35549454e+00
-1.42491344e+00
-1.00689724e+01
-6.47221392e+01
-4.22113905e+01
-3.97022159e+01
-4.62783489e+01
1.42888498e+01
1.06123734e+01
-3.19597536e+01
4.94812393e+01
1.25396365e+01
1.45969564e+01
2.85606951e+01
2.40870396e+01
1.39858388e+01
8.69005352e+00
8.56665015e-01
-2.16916946e+01
-3.32733238e+00
-7.48056054e+00
-1.06446228e+01
-8.86273575e+01
-3.50612257e-01
-3.58453165e-01
-1.23398546e-01
-6.18763506e-01
1.05016136e+00
9.75852460e-01
5.56116804e+00
1.38680976e+00
5.31431520e+00
4.89542786e+00
5.60146779e+00
9.55684471e+00
7.18386170e+00
3.01555037e+00
1.07181226e+01
7.23855245e+00
1.30564804e+01
1.65931017e+01
1.80278522e+00
3.11052322e+00
1.38540944e+01
-8.12450020e+01
-5.14056149e+01
-3.48258886e+01
-2.83103857e+01
1.85083716e+00
1.25817471e+01
-1.07854398e+02
2.34467679e+01
1.32983109e+01
-5.41762821e+01
1.63307112e+01
1.44951970e+01
2.20847097e+01
3.76872215e+01
-7.74817486e+01
1.11988251e+01
3.11789608e+00
</DataArray>
<DataArray type="Float32" Name="Stress_Min_Principal" format="ascii">
-3.26732140e+01
-4.33762541e+01
-3.60336977e+01
-3.77460394e+01
-2.88253736e+01
-3.79902403e+01
-3.31005704e+01
-3.62228787e+01
-4.85016899e+01
-5.21799832e+01
-4.15012035e+01
-4.14963981e+01
-5.59255085e+01
-6.63493869e+01
-4.23005020e+01
-5.08785160e+01
-6.57413044e+01
-7.93218422e+01
-4.67939789e+01
-2.95116622e+01
-6.49222088e+01
-5.10410056e+01
-3.54159613e+01
-2.58426706e+01
-1.17377953e+02
-1.30708035e+02
-7.74971733e+01
-7.47176144e+01
-3.49279625e+01
-3.09397516e+01
-3.29917748e+01
-2.60668910e+01
-4.42568097e+01
-3.91822460e+01
-1.53527200e+00
-2.55195934e+01
9.07499790e+00
-5.81062171e+01
1.46924162e+01
-4.56332459e+01
-2.36706161e+01
-1.08994947e+02
-3.69749724e+01
-2.00998044e+01
-2.99129418e+01
-1.72846408e+01
-1.21304846e+01
-1.40257631e+01
1.87740893e+01
1.81634514e+01
1.75765107e+01
2.31457901e+01
3.15300236e+01
2.45809997e+01
3.20154667e+00
2.33374348e+01
-3.28762553e+01
-3.16707726e+01
-1.89951491e+01
-2.35198765e+01
-7.00055075e+00
-2.53574562e+00
1.19396265e+01
1.91140005e+01
1.39722743e+01
-3.16204254e+00
-3.71187768e+01
8.87493714e+00
-2.91195412e+01
-6.83751740e+00
-2.98723907e+01
-3.36465867e+01
-1.41121366e+01
-2.57741593e+01
-7.89158821e+00
-1.55236704e+01
-3.57101870e+00
-1.29425405e+01
1.00834574e+01
-4.28385264e+00
-5.21697015e+00
-2.81877404e+00
-8.51301646e+00
-6.63569069e+00
-8.26333027e+01
-8.10230179e+01
-5.55134535e+01
-7.88986053e+01
-1.00040028e+02
-6.41485252e+01
-2.45487690e+01
-1.03315910e+02
1.54840169e+01
-3.63178349e+01
-1.10874987e+01
-8.20725171e+00
-4.71036196e+00
-4.47965670e+00
-3.06631131e+01
-2.89695697e+01
-2.24347700e+01
-3.14701152e+01
-1.92934761e+01
-2.05782708e+01
-2.30536147e+01
-1.96154407e+01
-2.28005416e+01
-2.01423032e+01
-9.63715327e+00
-2.13711189e+01
-1.06276855e+01
-2.03849833e+01
-1.74613986e+01
-2.98954251e+01
-4.97596830e+01
-1.51389466e+02
-1.16379610e+02
-1.07835402e+02
-1.15605152e+02
-7.35474885e+00
-6.22471380e+00
-9.33132076e+01
4.26819029e+01
-9.80349600e-01
1.90042412e+00
1.89122698e+01
1.71742665e+01
-5.69980323e-01
-8.53433371e+00
-2.16210477e+01
-7.69161916e+01
-3.56098652e+01
-4.28867435e+01
-5.73933897e+01
-2.12573784e+02
-9.80527729e-01
-7.14729339e-01
-1.33802703e+00
-1.51970601e+00
-2.69311566e+01
-2.62946529e+01
-1.65622814e+01
-2.51020225e+01
-1.63621580e+01
-1.76830668e+01
-1.64838390e+01
-1.11344832e+01
-1.22132864e+01
-2.15379890e+01
-4.86822677e+00
-1.74415531e+01
-8.12470913e-01
-1.91407824e+00
-2.14704320e+01
-1.89939948e+01
-1.61618283e+01
-1.90645264e+02
-1.35177855e+02
-9.85849533e+01
-7.98224773e+01
-2.14708348e+01
-8.38185096e+00
-2.38507992e+02
9.07150875e+00
-1.70388889e+00
-1.37345527e+02
-8.13003689e-01
-3.63713527e+00
3.80641937e-01
3.55189552e+01
-1.84667470e+02
-1.19859552e+01
-2.69494953e+01
</DataArray>
<DataArray type="Float32" Name="Stress_Pressure" format="ascii">
1.17854977e+01
1.86651850e+01
1.39114456e+01
1.49988010e+01
9.30808783e+00
1.51948469e+01
1.20266176e+01
1.40263270e+01
2.19710065e+01
2.43101540e+01
1.74142574e+01
1.73803080e+01
2.67178149e+01
3.34125405e+01
1.78942803e+01
2.34526847e+01
3.30007920e+01
4.19598163e+01
2.07906396e+01
9.68459374e+00
3.25178919e+01
2.31303787e+01
1.22417860e+01
5.23860860e+00
6.65171967e+01
7.58536034e+01
4.06256070e+01
3.88650432e+01
1.31977724e+01
1.06290830e+01
1.19115259e+01
7.46594286e+00
1.92728385e+01
1.54824032e+01
-1.41947328e+01
2.19106429e+00
-2.42735007e+01
2.45189226e+01
-2.64597707e+01
1.62325124e+01
-4.21337700e+00
5.50079320e+01
1.48373648e+01
3.77689171e+00
1.01232333e+01
1.88821173e+00
-9.84884989e+00
-3.41900122e+00
-2.96187572e+01
-2.88601292e+01
-2.57760255e+01
-3.84294643e+01
-3.56971296e+01
-3.64554325e+01
-1.84580541e+01
-4.30407987e+01
1.24381960e+01
1.14028273e+01
3.17113519e+00
5.97399398e+00
-5.94212723e+00
-1.20327264e+01
-2.14880760e+01
-3.17385530e+01
-2.20603685e+01
-8.59004625e+00
1.70854059e+01
-1.38256373e+01
7.99134624e+00
-2.95671566e+00
1.04456115e+01
1.26964288e+01
-7.98643187e-01
7.51754427e+00
-5.34682977e+00
-1.17427069e+00
-1.07435026e+01
-9.76115449e+00
-1.89495450e+01
-7.86119080e+00
-2.22316816e+00
-1.52589525e+00
2.30471003e+00
1.65044693e+00
4.41614113e+01
4.32646828e+01
2.65238678e+01
4.16249123e+01
5.53296757e+01
3.08494897e+01
-5.96538544e+00
5.66846437e+01
-2.74350548e+01
1.43340995e+01
-7.18068600e-01
-9.44473376e-01
1.55985963e+00
9.50964853e-01
1.04629664e+01
9.35141563e+00
5.16812990e+00
1.09880766e+01
3.11652482e+00
3.76447608e+00
5.53778464e+00
1.17390220e+00
5.38564388e+00
3.18891764e+00
-3.18082893e+00
4.21364495e+00
-2.46918219e+00
3.81880149e+00
1.40202546e+00
9.96635413e+00
2.17487996e+01
8.79704271e+01
6.53980360e+01
5.99658327e+01
6.51794147e+01
-1.02557780e+01
-5.26529294e+00
4.96940816e+01
-5.87354012e+01
-9.30041334e+00
-1.09371663e+01
-2.94603568e+01
-2.46116753e+01
-1.10082491e+01
-3.78686476e+00
3.59216136e+00
3.79946802e+01
1.33358781e+01
1.82420068e+01
1.98584547e+01
1.26759506e+02
1.27306089e-01
1.27275467e-01
1.27284471e-01
1.27329756e-01
8.02212965e+00
7.62062657e+00
1.24589026e+00
6.85497934e+00
1.25673068e+00
1.60683304e+00
1.33332336e+00
-4.38845596e+00
-1.41248274e+00
4.23084229e+00
-6.09746109e+00
-1.39282370e+00
-8.73307562e+00
-1.28992751e+01
4.58490928e+00
2.88224506e+00
-8.94219678e+00
1.13716150e+02
7.74528370e+01
5.40253992e+01
4.21833763e+01
4.52347633e+00
-8.39911211e+00
1.44201761e+02
-2.25980253e+01
-9.12057447e+00
7.87683499e+01
-1.31073319e+01
-1.01927551e+01
-2.12484455e+01
-5.26397820e+01
1.07053494e+02
-4.94855142e+00
4.19737053e+00
</DataArray>
<DataArray type="Float32" Name="Stress_Tresca" format="ascii">
3.32113266e+01
3.93316612e+01
3.46460328e+01
3.53902950e+01
3.10011425e+01
3.61910124e+01
3.30236287e+01
3.46680012e+01
4.24012375e+01
4.42407970e+01
3.78763475e+01
3.80257473e+01
4.65162659e+01
5.25992594e+01
3.77676678e+01
4.35471863e+01
5.17919521e+01
6.18735857e+01
4.05420411e+01
3.11477880e+01
5.19838943e+01
4.70349512e+01
3.65392065e+01
3.43968954e+01
8.44999237e+01
9.57701721e+01
5.96127701e+01
5.87872045e+01
3.41623194e+01
3.17515850e+01
3.24082965e+01
2.83744645e+01
4.06067224e+01
3.80792296e+01
2.91405358e+01
3.97841402e+01
2.91120772e+01
6.05888112e+01
2.20180807e+01
5.19012744e+01
5.41676140e+01
9.76107025e+01
3.76342649e+01
2.68314681e+01
3.30005283e+01
2.44950607e+01
4.29029117e+01
3.32388210e+01
2.31036782e+01
2.35978452e+01
1.61156298e+01
3.66399930e+01
9.61933517e+00
2.89342931e+01
2.89144688e+01
3.96334543e+01
3.62412372e+01
3.44454727e+01
2.72408034e+01
2.89656019e+01
2.45014229e+01
2.83723125e+01
1.76862381e+01
2.53318596e+01
1.36846104e+01
2.42088420e+01
3.64556599e+01
1.03011920e+01
3.65047264e+01
2.36888479e+01
3.41475391e+01
3.57227888e+01
2.56830204e+01
3.05970442e+01
2.50661592e+01
2.99771225e+01
2.73325524e+01
4.50686614e+01
1.89666021e+01
2.55551968e+01
1.37331848e+01
9.45312328e+00
1.14805017e+01
8.01113971e+00
6.41040344e+01
6.38104172e+01
4.73349295e+01
6.10693569e+01
7.55649185e+01
5.47755690e+01
5.95076237e+01
8.01660118e+01
2.22122593e+01
4.41205444e+01
1.97337961e+01
1.61361783e+01
5.17853069e+00
5.93621635e+00
3.17771873e+01
3.03701687e+01
2.70081590e+01
3.23240962e+01
2.50584798e+01
2.64469867e+01
2.67173951e+01
2.99430437e+01
2.70218780e+01
2.66571108e+01
2.00893307e+01
2.67765473e+01
2.03687687e+01
2.63906176e+01
2.53612260e+01
3.13167017e+01
4.43419388e+01
1.03589787e+02
7.87765026e+01
7.54755249e+01
8.19504128e+01
3.11879832e+01
1.76329322e+01
6.95039221e+01
4.13611603e+01
1.73223021e+01
1.44136937e+01
2.19958384e+01
1.53994548e+01
2.01788689e+01
1.97392082e+01
3.16089472e+01
6.15400391e+01
3.45394282e+01
3.85280247e+01
6.58560362e+01
1.33496399e+02
1.92974949e+00
1.40608543e+00
2.41759920e+00
3.27618623e+00
2.87457657e+01
2.87515736e+01
2.38257236e+01
2.82522984e+01
2.36398079e+01
2.56502063e+01
2.33662410e+01
2.58774898e+01
2.14801593e+01
2.73679011e+01
1.73107142e+01
3.18230231e+01
1.47676897e+01
2.59328752e+01
2.73833507e+01
2.62307324e+01
4.52961510e+01
1.21387073e+02
8.94028130e+01
6.99195938e+01
6.14052086e+01
2.75204052e+01
2.93792930e+01
1.52265100e+02
2.62042926e+01
1.74711895e+01
9.25622849e+01
2.46172920e+01
2.33573384e+01
4.08993419e+01
4.91942177e+01
1.25656207e+02
2.76187396e+01
3.81889820e+01
</DataArray>
<DataArray type="Float32" Name="Stress_Third_Invariant" format="ascii">
-3.09895267e+01
-3.66465292e+01
-3.29723003e+01
-3.39613342e+01
-2.89675617e+01
-3.38383970e+01
-3.14100775e+01
-3.31083550e+01
-3.92776384e+01
-4.13689206e+01
-3.58644490e+01
-3.58067093e+01
-4.32717876e+01
-4.87641220e+01
-3.64949191e+01
-4.07070659e+01
-4.86495247e+01
-5.40741954e+01
-3.88214931e+01
-2.95152623e+01
-4.78834572e+01
-3.83879505e+01
-3.18790929e+01
-2.53526450e+01
-7.35435944e+01
-7.48373604e+01
-5.42825460e+01
-5.22865586e+01
-3.23566536e+01
-3.02804937e+01
-3.15551622e+01
-2.78767087e+01
-3.65435528e+01
-3.38267579e+01
-1.03119369e+01
-2.28666556e+01
-4.88627386e+00
-3.71409593e+01
-1.24181676e+00
-3.21461802e+01
-1.53543062e+01
-5.86251876e+01
-3.12296095e+01
-2.37881041e+01
-2.83407136e+01
-2.27997305e+01
-1.06811008e+01
-1.47765838e+01
3.45768631e+00
5.53183401e+00
-2.61277358e+00
2.96261654e+01
5.63455649e+00
2.37258294e+01
-7.05094242e+00
4.32794857e+00
-2.72066879e+01
-2.86651411e+01
-2.19668728e+01
-2.54809146e+01
-1.15808218e+01
-7.77067658e+00
-5.90953720e+00
1.16447735e+00
-1.14298763e+01
3.38370959e-01
-1.56835613e+01
2.43656603e+00
-2.87261572e+01
1.88015391e+01
-2.60259589e+01
-2.95368185e+01
-1.93988632e+01
-2.61770656e+01
-1.11451371e+01
-1.81391744e+01
-9.50467607e+00
-1.08786117e+01
7.09145498e+00
1.07607573e+00
-6.89089739e+00
3.22680411e+00
-4.19403124e+00
-6.48644896e+00
-5.54922199e+01
-5.37694550e+01
-4.24062619e+01
-5.44433613e+01
-6.35438156e+01
-4.62566048e+01
-1.44952755e+01
-6.34259033e+01
-3.96343756e+00
8.76553249e+00
-1.08743005e+01
-1.19439793e+01
-4.59185314e+00
-5.02186179e+00
-3.00826302e+01
-2.93116007e+01
-2.57542061e+01
-3.04688134e+01
-2.41716758e+01
-2.45773178e+01
-2.62461925e+01
-2.25780159e+01
-2.60256310e+01
-2.41495436e+01
-1.91068242e+01
-2.51056126e+01
-1.95648918e+01
-2.45134838e+01
-2.26797345e+01
-2.96724002e+01
-4.15286756e+01
-9.12974934e+01
-7.62530651e+01
-7.12178507e+01
-7.40206528e+01
-1.31928361e+01
-1.71877919e+01
-6.46146803e+01
3.69516754e+01
-1.36525514e+01
-1.26875978e+01
2.44330307e+00
-1.17211994e+00
-1.18953831e+01
-1.81757472e+01
-2.20043869e+01
-5.77792091e+01
-3.26136420e+01
-3.67659378e+01
-3.71630983e+01
-1.28172787e+02
1.40423739e+00
1.10278586e+00
-1.94080099e-01
2.50133729e+00
-2.83469334e+01
-2.79501765e+01
-2.28519590e+01
-2.72650690e+01
-2.25217252e+01
-2.27480972e+01
-2.26567197e+01
-1.78548491e+01
-2.00447695e+01
-2.48710737e+01
-1.63081191e+01
-1.99118048e+01
-1.42633135e+01
-1.09611790e+01
-2.46878493e+01
-2.35932042e+01
-1.58873080e+01
-1.13581596e+02
-8.62963295e+01
-6.64051476e+01
-5.51271057e+01
-2.46650535e+01
-1.44738201e+01
-1.38856031e+02
-2.80798115e+00
-1.39350222e+01
-8.67422433e+01
-1.08004068e+01
-1.31909304e+01
-2.83641265e+00
4.80366783e+01
-1.13112432e+02
-1.91195868e+01
-2.49710550e+01
</DataArray>
<DataArray type="Float32" Name="Logarithmic_strain_Max_Principal" format="ascii">
6.92298785e-02
7.16953538e-02
6.53348267e-02
6.31525796e-02
6.58596009e-02
6.72662053e-02
6.25166395e-02
6.14807140e-02
7.69982599e-02
7.11382460e-02
6.92031253e-02
6.62764576e-02
8.22937153e-02
7.67228063e-02
7.13704731e-02
7.11629158e-02
8.80535021e-02
8.44650343e-02
7.60078989e-02
7.27803223e-02
9.52128805e-02
9.29754712e-02
7.98955709e-02
8.01024130e-02
1.14484914e-01
1.09163105e-01
9.49472897e-02
9.34438892e-02
5.39671332e-02
5.19351810e-02
5.23168696e-02
4.95024491e-02
5.83545212e-02
5.56069822e-02
5.36198970e-02
5.72146002e-02
6.12420151e-02
6.69271493e-02
6.24732822e-02
6.85805144e-02
6.70556035e-02
7.74529129e-02
4.94573638e-02
4.79894914e-02
4.58517596e-02
4.29826956e-02
4.13942020e-02
4.39718990e-02
2.00715670e-02
2.81005828e-02
1.56743761e-02
3.69671552e-02
1.80198584e-02
3.62345446e-02
1.57470074e-02
3.21208695e-02
4.85085472e-02
4.90757488e-02
4.35294928e-02
4.46817735e-02
3.61939352e-02
3.62068564e-02
1.32054297e-02
1.96110942e-02
2.15893301e-03
4.13689837e-03
8.28708766e-03
5.35689057e-03
9.27147729e-03
8.58562521e-03
4.77255359e-02
5.07395994e-02
4.37128581e-02
4.60075866e-02
3.70576084e-02
3.79961901e-02
1.41476822e-02
2.64447130e-02
1.69371247e-03
4.50545973e-03
1.56148746e-04
1.34321416e-04
9.85724146e-05
5.24834695e-05
5.34121990e-02
5.74805662e-02
4.77052815e-02
5.21673635e-02
4.60977107e-02
4.44620103e-02
2.19045933e-02
3.82337340e-02
1.93473394e-03
9.29429766e-03
2.93819925e-04
1.82344598e-04
3.03237030e-05
4.68572416e-05
5.84737081e-02
5.64300008e-02
5.76942237e-02
5.85173918e-02
5.59859620e-02
5.88275958e-02
5.81260361e-02
6.20608325e-02
6.44870317e-02
6.82163951e-02
6.33281842e-02
6.95820479e-02
6.55952189e-02
7.25960266e-02
5.45725236e-02
5.57192285e-02
5.92645529e-02
7.51529828e-02
7.70519041e-02
7.88366757e-02
8.35301653e-02
4.68781721e-02
4.40211818e-02
5.51178542e-02
7.35178422e-02
4.14795685e-02
3.57756913e-02
4.05455109e-02
3.88709034e-02
4.10176967e-02
3.95156275e-02
4.81330394e-02
5.64671168e-02
4.16195104e-02
3.99424843e-02
5.50618088e-02
6.66524991e-02
2.43495633e-05
1.80785964e-05
2.76818246e-05
4.33473469e-05
5.18282205e-02
5.32108322e-02
5.60927149e-02
5.37449168e-02
5.69952819e-02
5.96280862e-02
5.82029112e-02
6.22170386e-02
6.09530332e-02
6.54686908e-02
5.86885223e-02
6.19693026e-02
5.68125024e-02
6.20585140e-02
6.37226235e-02
6.21093372e-02
5.86907816e-02
7.98154309e-02
7.64085241e-02
7.33991787e-02
7.45407641e-02
6.24391873e-02
5.61321527e-02
8.87469277e-02
4.51786225e-02
4.77179838e-02
6.15943484e-02
4.56668586e-02
4.57999120e-02
5.98064459e-02
1.01431653e-01
9.01771958e-02
5.48828868e-02
5.06380089e-02
</DataArray>
<DataArray type="Float32" Name="Logarithmic_strain_Min_Principal" format="ascii">
-9.20600668e-02
-9.60853919e-02
-9.08348653e-02
-8.92732628e-02
-8.83969814e-02
-9.17474143e-02
-8.81269565e-02
-8.65509715e-02
-1.03111539e-01
-9.76895858e-02
-9.81204920e-02
-9.43533313e-02
-1.12603020e-01
-1.06732296e-01
-1.05730053e-01
-1.02602756e-01
-1.22536823e-01
-1.15724903e-01
-1.13344945e-01
-1.07159475e-01
-1.31374098e-01
-1.19501725e-01
-1.18134758e-01
-1.12941247e-01
-1.42861128e-01
-1.32620670e-01
-1.27862178e-01
-1.22811263e-01
-7.87703432e-02
-7.81848989e-02
-7.85986325e-02
-7.67272990e-02
-7.77012873e-02
-8.01914968e-02
-6.96750879e-02
-8.23916729e-02
-7.08900429e-02
-8.50856304e-02
-6.55168919e-02
-8.46701004e-02
-7.07082525e-02
-9.35580830e-02
-6.45886697e-02
-6.46844991e-02
-6.48754709e-02
-6.41899165e-02
-4.97131553e-02
-5.67855849e-02
-1.76761239e-02
-2.46309506e-02
-1.16337050e-02
-2.83106494e-02
-1.25209442e-02
-2.85058534e-02
-1.50848906e-02
-2.61802562e-02
-5.63398944e-02
-6.02897536e-02
-5.42542110e-02
-5.76048121e-02
-3.85590056e-02
-3.86195164e-02
-9.01397807e-03
-1.70650438e-02
-2.41206784e-03
-3.54692551e-03
-1.22661030e-02
-3.99132349e-03
-1.26918194e-02
-5.21138586e-03
-5.95585005e-02
-6.42571449e-02
-5.59077035e-02
-6.08152524e-02
-4.27024923e-02
-4.60882327e-02
-1.16292799e-02
-3.04521387e-02
-7.36586557e-04
-2.65340705e-03
-1.19720788e-04
-8.79634103e-05
-1.76516656e-04
-1.39672575e-04
-7.13052712e-02
-7.48393908e-02
-6.68513961e-02
-7.28301890e-02
-5.86863812e-02
-6.35856390e-02
-2.35477816e-02
-5.05029857e-02
-2.06782279e-03
-8.50501467e-03
-4.25481077e-04
-2.03673451e-04
-9.41387698e-05
-9.60318357e-05
-8.41652639e-02
-8.49891473e-02
-8.25009383e-02
-8.23926367e-02
-8.65710713e-02
-8.74564461e-02
-9.19397026e-02
-9.44658872e-02
-9.66524947e-02
-1.02634832e-01
-9.78078805e-02
-1.06186904e-01
-9.90465134e-02
-1.07270865e-01
-7.79049248e-02
-7.63424728e-02
-8.91077518e-02
-1.13966809e-01
-1.22560797e-01
-1.24327583e-01
-1.25285048e-01
-6.58520786e-02
-6.38165195e-02
-8.06794229e-02
-6.54131863e-02
-5.45374299e-02
-5.43950452e-02
-4.92349799e-02
-3.95560755e-02
-5.54093174e-02
-5.68707511e-02
-6.23351354e-02
-8.84394627e-02
-6.58707041e-02
-6.53741397e-02
-7.89096076e-02
-1.14978131e-01
-2.17865163e-05
-1.56478400e-05
-3.03354591e-05
-3.50962891e-05
-8.53443928e-02
-8.52544177e-02
-8.41491837e-02
-8.52078125e-02
-8.32892023e-02
-8.68377965e-02
-8.37165304e-02
-8.97448631e-02
-8.42093900e-02
-9.61832684e-02
-8.34081508e-02
-9.48267542e-02
-8.21830183e-02
-9.14714299e-02
-8.66297418e-02
-8.24288595e-02
-9.57930886e-02
-1.27716844e-01
-1.22710925e-01
-1.16940025e-01
-1.13141857e-01
-8.21234967e-02
-7.48781618e-02
-1.26030220e-01
-6.57143737e-02
-6.61944477e-02
-9.34410058e-02
-6.63384204e-02
-6.64953878e-02
-7.95165279e-02
-9.44742486e-02
-1.26499241e-01
-7.59941898e-02
-7.28486888e-02
</DataArray>
<DataArray type="Float32" Name="Plastic_strain_Max_Principal" format="ascii">
6.90845177e-02
7.16378726e-02
6.52441457e-02
6.30473588e-02
6.56717978e-02
6.71874192e-02
6.23848895e-02
6.14196295e-02
7.70024806e-02
7.11772628e-02
6.91084638e-02
6.62489589e-02
8.22224505e-02
8.13518222e-02
7.12518618e-02
7.24024773e-02
8.80710818e-02
8.98874979e-02
7.60906134e-02
7.47421281e-02
9.49628353e-02
1.02596108e-01
8.07690118e-02
8.14921465e-02
1.14602193e-01
1.19698547e-01
9.48865749e-02
9.66562666e-02
5.38689028e-02
5.17945755e-02
5.22318487e-02
4.93205320e-02
5.91397146e-02
5.67409704e-02
4.49894606e-02
5.41467664e-02
4.58212218e-02
5.69591001e-02
3.98436757e-02
5.50192905e-02
3.57948206e-02
6.43533766e-02
4.93012294e-02
4.76791263e-02
4.56581190e-02
4.26894939e-02
3.80503270e-02
4.27695091e-02
1.87437686e-02
2.56256275e-02
1.51556403e-02
2.58399357e-02
1.44680218e-02
2.55742750e-02
1.81834269e-02
3.09699019e-02
4.82880864e-02
4.87815160e-02
4.33530710e-02
4.44496712e-02
3.75603642e-02
3.63019190e-02
7.07083219e-03
1.45389576e-02
1.78577802e-03
3.74097172e-03
8.38345382e-03
5.08619396e-03
9.17071383e-03
8.24645799e-03
4.74582287e-02
5.05991857e-02
4.34520729e-02
4.57780408e-02
3.86181148e-02
3.54688370e-02
1.17799179e-02
2.77080111e-02
1.24396149e-03
4.10470450e-03
4.47224543e-05
1.08325714e-05
0.00000000e+00
0.00000000e+00
5.35558127e-02
5.77729866e-02
4.79350500e-02
5.24245985e-02
4.68759537e-02
4.69183065e-02
2.01845597e-02
3.87923010e-02
1.58780976e-03
8.92599145e-03
9.93555077e-05
3.02662277e-05
0.00000000e+00
0.00000000e+00
5.84008098e-02
5.62758530e-02
5.75354849e-02
5.83586795e-02
5.58195468e-02
5.85416416e-02
5.79905575e-02
5.72532376e-02
6.42641187e-02
6.89571174e-02
6.31625140e-02
6.91374438e-02
6.55479208e-02
7.19221514e-02
5.51159945e-02
5.56274131e-02
5.88297588e-02
7.73364805e-02
7.72454236e-02
7.95455091e-02
8.41923505e-02
4.47257080e-02
4.38404242e-02
5.83409096e-02
7.50555340e-02
3.68611086e-02
3.54549931e-02
3.77827782e-02
3.88244415e-02
4.07273695e-02
3.92201515e-02
4.86385757e-02
6.15668911e-02
4.16731248e-02
4.01019119e-02
4.87089828e-02
7.13218190e-02
0.00000000e+00
0.00000000e+00
0.00000000e+00
0.00000000e+00
5.17949220e-02
5.29961111e-02
5.59637239e-02
5.34840692e-02
5.67585211e-02
5.93842315e-02
5.80466501e-02
5.77531434e-02
6.05549924e-02
6.62924689e-02
5.81998983e-02
6.15530596e-02
5.63213117e-02
6.14477964e-02
6.31791730e-02
6.20007189e-02
5.92517635e-02
8.29730287e-02
7.68352300e-02
7.44480677e-02
7.51549825e-02
6.37540839e-02
5.53897787e-02
9.03127026e-02
4.15828239e-02
4.94990973e-02
6.39326321e-02
5.22120562e-02
4.97474875e-02
5.73097133e-02
9.97625962e-02
1.05401774e-01
6.54738881e-02
4.82825786e-02
</DataArray>
<DataArray type="Float32" Name="Plastic_strain_Min_Principal" format="ascii">
-9.14066061e-02
-9.51585472e-02
-9.01136361e-02
-8.84648860e-02
-8.78125466e-02
-9.09966305e-02
-8.74429271e-02
-8.58829841e-02
-1.02057353e-01
-9.65299923e-02
-9.71545316e-02
-9.35396496e-02
-1.11022100e-01
-1.11606810e-01
-1.04615364e-01
-1.03541647e-01
-1.20565109e-01
-1.19938206e-01
-1.12383645e-01
-1.10047661e-01
-1.28745832e-01
-1.30331814e-01
-1.18995175e-01
-1.14708610e-01
-1.38484359e-01
-1.41074032e-01
-1.24857638e-01
-1.25721410e-01
-7.80594256e-02
-7.75320493e-02
-7.79532148e-02
-7.61627853e-02
-7.81103410e-02
-8.13727193e-02
-5.74436354e-02
-7.77776164e-02
-5.26412566e-02
-6.88320357e-02
-3.44904858e-02
-6.54922458e-02
-3.15616064e-02
-7.51088696e-02
-6.37782654e-02
-6.41653314e-02
-6.42026858e-02
-6.37025982e-02
-4.49985033e-02
-5.24076839e-02
-1.14176512e-02
-1.67804891e-02
-8.42787853e-03
-1.93732238e-02
-8.17808850e-03
-1.92657734e-02
-1.63576463e-02
-2.81887278e-02
-5.56010967e-02
-5.94566762e-02
-5.39545538e-02
-5.70709873e-02
-3.98074239e-02
-3.91860548e-02
-5.35923062e-03
-1.17830599e-02
-2.50242409e-03
-3.35932281e-03
-1.15151349e-02
-4.15430021e-03
-1.20565211e-02
-4.84681688e-03
-5.88308023e-02
-6.36002347e-02
-5.56385629e-02
-6.02250453e-02
-4.50902674e-02
-4.07177186e-02
-7.83910591e-03
-3.31149058e-02
-8.06213636e-04
-2.52288905e-03
-2.96460686e-05
-8.44068036e-06
0.00000000e+00
0.00000000e+00
-6.95033148e-02
-7.32525811e-02
-6.59820754e-02
-7.12261312e-02
-5.75989578e-02
-6.66798921e-02
-2.14234516e-02
-4.93366544e-02
-2.15760351e-03
-7.81909414e-03
-1.50513122e-04
-2.07754250e-05
0.00000000e+00
0.00000000e+00
-8.36508051e-02
-8.43817629e-02
-8.21870286e-02
-8.17482155e-02
-8.63933954e-02
-8.70490475e-02
-9.16453954e-02
-8.61820267e-02
-9.62401368e-02
-1.04238110e-01
-9.80162211e-02
-1.05390715e-01
-9.93298329e-02
-1.06052773e-01
-7.89856249e-02
-7.58592170e-02
-8.68360145e-02
-1.14321533e-01
-1.18603388e-01
-1.21949108e-01
-1.22994754e-01
-6.31415513e-02
-6.38884688e-02
-8.34094379e-02
-7.36281350e-02
-4.68962483e-02
-5.44597162e-02
-4.59545369e-02
-4.02525552e-02
-5.55893518e-02
-5.66076152e-02
-5.81948040e-02
-9.38974470e-02
-6.52945302e-02
-6.49032891e-02
-6.76150993e-02
-1.16446093e-01
0.00000000e+00
0.00000000e+00
0.00000000e+00
0.00000000e+00
-8.50650892e-02
-8.46536662e-02
-8.41318686e-02
-8.45624357e-02
-8.31051860e-02
-8.65821149e-02
-8.36961847e-02
-8.19264292e-02
-8.39243568e-02
-9.79406536e-02
-8.31465945e-02
-9.44979824e-02
-8.20349194e-02
-9.13993381e-02
-8.58268859e-02
-8.24212488e-02
-9.54599285e-02
-1.25372556e-01
-1.18310086e-01
-1.15687896e-01
-1.11936621e-01
-8.46194465e-02
-7.42487889e-02
-1.22780137e-01
-6.06376066e-02
-7.00747063e-02
-9.33177853e-02
-5.80530742e-02
-7.40915071e-02
-6.80102500e-02
-1.03316121e-01
-1.48995558e-01
-9.53774424e-02
-6.88976385e-02
</DataArray>
</PointData>
<Cells>
<DataArray type="Int32" Name="connectivity" format="ascii">
0 1 2 3 4 5 6 7
1 8 9 2 5 10 11 6
8 12 13 9 10 14 15 11
12 16 17 13 14 18 19 15
16 20 21 17 18 22 23 19
20 24 25 21 22 26 27 23
3 2 28 29 7 6 30 31
2 9 32 28 6 11 33 30
9 13 34 32 11 15 35 33
13 17 36 34 15 19 37 35
17 21 38 36 19 23 39 37
21 25 40 38 23 27 41 39
29 28 42 43 31 30 44 45
28 32 46 42 30 33 47 44
32 34 48 46 33 35 49 47
34 36 50 48 35 37 51 49
36 38 52 50 37 39 53 51
38 40 54 52 39 41 55 53
43 42 56 57 45 44 58 59
42 46 60 56 44 47 61 58
46 48 62 60 47 49 63 61
48 50 64 62 49 51 65 63
52 54 66 67 53 55 68 69
57 56 70 71 59 58 72 73
56 60 74 70 58 61 75 72
60 62 76 74 61 63 77 75
62 64 78 76 63 65 79 77
64 67 80 78 65 69 81 79
67 66 82 80 69 68 83 81
71 70 84 85 73 72 86 87
70 74 88 84 72 75 89 86
74 76 90 88 75 77 91 89
76 78 92 90 77 79 93 91
78 80 94 92 79 81 95 93
80 82 96 94 81 83 97 95
4 5 6 7 98 99 100 101
5 10 11 6 99 102 103 100
10 14 15 11 102 104 105 103
14 18 19 15 104 106 107 105
18 22 23 19 106 108 109 107
22 26 27 23 108 110 111 109
7 6 30 31 101 100 112 113
6 11 33 30 100 103 114 112
11 15 35 33 103 105 115 114
15 19 37 35 105 107 116 115
19 23 39 37 107 109 117 116
23 27 41 39 109 111 118 117
31 30 44 45 113 112 119 120
30 33 47 44 112 114 121 119
33 35 49 47 114 115 122 121
45 44 58 59 120 119 123 124
44 47 61 58 119 121 125 123
47 49 63 61 121 122 126 125
59 58 72 73 124 123 127 128
58 61 75 72 123 125 129 127
61 63 77 75 125 126 130 129
73 72 86 87 128 127 131 132
72 75 89 86 127 129 133 131
75 77 91 89 129 130 134 133
81 83 97 95 135 136 137 138
98 99 100 101 139 140 141 142
99 102 103 100 140 143 144 141
102 104 105 103 143 145 146 144
104 106 107 105 145 147 148 146
106 108 109 107 147 149 150 148
108 110 111 109 149 151 152 150
101 100 112 113 142 141 153 154
100 103 114 112 141 144 155 153
103 105 115 114 144 146 156 155
105 107 116 115 146 148 157 156
107 109 117 116 148 150 158 157
109 111 118 117 150 152 159 158
113 112 119 120 154 153 160 161
112 114 121 119 153 155 162 160
120 119 123 124 161 160 163 164
119 121 125 123 160 162 165 163
124 123 127 128 164 163 166 167
123 125 129 127 163 165 168 166
125 126 130 129 165 169 170 168
128 127 131 132 167 166 171 172
</DataArray>
<DataArray type="Int32" Name="offsets" format="ascii">
8
16
24
32
40
48
56
64
72
80
88
96
104
112
120
128
136
144
152
160
168
176
184
192
200
208
216
224
232
240
248
256
264
272
280
288
296
304
312
320
328
336
344
352
360
368
376
384
392
400
408
416
424
432
440
448
456
464
472
480
488
496
504
512
520
528
536
544
552
560
568
576
584
592
600
608
616
624
632
640
</DataArray>
<DataArray type="UInt8" Name="types" format="ascii">
12
12
12
12
12
12
12
12
12
12
12
12
12
12
12
12
12
12
12
12
12
12
12
12
12
12
12
12
12
12
12
12
12
12
12
12
12
12
12
12
12
12
12
12
12
12
12
12
12
12
12
12
12
12
12
12
12
12
12
12
12
12
12
12
12
12
12
12
12
12
12
12
12
12
12
12
12
12
12
12
</DataArray>
</Cells>
</Piece>
</UnstructuredGrid>
</VTKFile>
