<VTKFile type="UnstructuredGrid" version="0.1" byte_order="LittleEndian">
<UnstructuredGrid>
<Piece NumberOfPoints="191" NumberOfCells="79">
<Points>
<DataArray type="Float64" NumberOfComponents="3" format="ascii">
 1.00010121e+00  5.00095034e+00  1.99900675e+00
 2.00019598e+00  5.00091362e+00  1.99914122e+00
 2.00015974e+00  6.00106096e+00  1.99891269e+00
 1.00007522e+00  6.00107908e+00  1.99886262e+00
 1.00007510e+00  5.00113010e+00  2.99850821e+00
 2.00010872e+00  5.00118399e+00  2.99858022e+00
 2.00000310e+00  6.00136566e+00  2.99820185e+00
 1.00003421e+00  6.00116587e+00  2.99839664e+00
 3.00029302e+00  5.00087690e+00  1.99923539e+00
 3.00026464e+00  6.00100422e+00  1.99903202e+00
 3.00026846e+00  5.00111294e+00  2.99880576e+00
 3.00050545e+00  6.00165176e+00  2.99761510e+00
 5.00042391e+00  5.00094366e+00  2.00000477e+00
 6.00042343e+00  5.00101566e+00  1.99997830e+00
 6.00035286e+00  6.00101662e+00  1.99999928e+00
 5.00034857e+00  6.00094700e+00  2.00002289e+00
 5.00045252e+00  5.00092077e+00  3.00000286e+00
 6.00045109e+00  5.00099707e+00  2.99997592e+00
 6.00037670e+00  6.00099421e+00  2.99999809e+00
 5.00037813e+00  6.00092030e+00  3.00002813e+00
 0.00000000e+00  0.00000000e+00  2.99774694e+00
 1.00022447e+00  0.00000000e+00  2.99769163e+00
 1.00019777e+00  1.00022995e+00  2.99780393e+00
 0.00000000e+00  1.00025547e+00  2.99787045e+00
 0.00000000e+00  0.00000000e+00  3.99695492e+00
 1.00034308e+00  0.00000000e+00  3.99691653e+00
 1.00035000e+00  1.00021303e+00  3.99692059e+00
 0.00000000e+00  1.00021088e+00  3.99700522e+00
 2.00048733e+00  0.00000000e+00  2.99753070e+00
 2.00042295e+00  1.00013649e+00  2.99766755e+00
 2.00067019e+00  0.00000000e+00  3.99680758e+00
 2.00067925e+00  1.00023019e+00  3.99670506e+00
 3.00077319e+00  0.00000000e+00  2.99736476e+00
 3.00076127e+00  1.00007010e+00  2.99740767e+00
 3.00098038e+00  0.00000000e+00  3.99662852e+00
 3.00096822e+00  1.00020456e+00  3.99651623e+00
 4.00109529e+00  0.00000000e+00  2.99721742e+00
 4.00109673e+00  1.00009561e+00  2.99712420e+00
 4.00124216e+00  0.00000000e+00  3.99646997e+00
 4.00124407e+00  1.00015485e+00  3.99637413e+00
 5.00136518e+00  0.00000000e+00  2.99704933e+00
 5.00139236e+00  1.00013649e+00  2.99703956e+00
 5.00145435e+00  0.00000000e+00  3.99641442e+00
 5.00146675e+00  1.00012183e+00  3.99627757e+00
 6.00155067e+00  0.00000000e+00  2.99695325e+00
 6.00161743e+00  1.00008810e+00  2.99697566e+00
 6.00159550e+00  0.00000000e+00  3.99637699e+00
 6.00165606e+00  1.00008142e+00  3.99625778e+00
 1.00008118e+00  2.00044346e+00  2.99803782e+00
 0.00000000e+00  2.00054502e+00  2.99810863e+00
 1.00035226e+00  2.00051570e+00  3.99722457e+00
 0.00000000e+00  2.00054145e+00  3.99736404e+00
 2.00029373e+00  2.00036049e+00  2.99744821e+00
 2.00074577e+00  2.00050139e+00  3.99673891e+00
 3.00061560e+00  2.00036144e+00  2.99701834e+00
 3.00096726e+00  2.00044298e+00  3.99596500e+00
 4.00114632e+00  2.00050354e+00  2.99726939e+00
 4.00117445e+00  2.00030160e+00  3.99588633e+00
 5.00146675e+00  2.00040913e+00  2.99707270e+00
 5.00150204e+00  2.00039434e+00  3.99622536e+00
 6.00172567e+00  2.00032043e+00  2.99707532e+00
 6.00177622e+00  2.00029016e+00  3.99616241e+00
 1.00003076e+00  3.00076103e+00  2.99852586e+00
 0.00000000e+00  3.00081062e+00  2.99829006e+00
 1.00017595e+00  3.00092411e+00  3.99732208e+00
 0.00000000e+00  3.00081539e+00  3.99795270e+00
 2.00023150e+00  3.00062537e+00  2.99798131e+00
 2.00072432e+00  3.00091386e+00  3.99630213e+00
 3.00005174e+00  3.00038338e+00  2.99488640e+00
 3.00124431e+00  3.00065351e+00  3.99558330e+00
 1.00004327e+00  4.00098610e+00  2.99866939e+00
 0.00000000e+00  4.00101900e+00  2.99849367e+00
 1.00008714e+00  4.00113249e+00  3.99800158e+00
 0.00000000e+00  4.00103569e+00  3.99814248e+00
 0.00000000e+00  5.00108051e+00  2.99852467e+00
 1.00011218e+00  5.00133896e+00  3.99822354e+00
 0.00000000e+00  5.00124550e+00  3.99804640e+00
 2.00013304e+00  4.00101948e+00  2.99913168e+00
 2.00019360e+00  4.00134611e+00  3.99788499e+00
 2.00040722e+00  5.00134945e+00  3.99810362e+00
 0.00000000e+00  6.00117683e+00  2.99831247e+00
 1.00016510e+00  6.00169945e+00  3.99740171e+00
 0.00000000e+00  6.00162268e+00  3.99759555e+00
 2.00050402e+00  6.00202894e+00  3.99723625e+00
 3.00086951e+00  5.00133562e+00  3.99606562e+00
 3.00119567e+00  6.00176001e+00  3.99626207e+00
 0.00000000e+00  0.00000000e+00  4.99597168e+00
 1.00047040e+00  0.00000000e+00  4.99593401e+00
 1.00050855e+00  1.00023377e+00  4.99597359e+00
 0.00000000e+00  1.00020850e+00  4.99602079e+00
 2.00085092e+00  0.00000000e+00  4.99584532e+00
 2.00091290e+00  1.00030315e+00  4.99583626e+00
 3.00112510e+00  0.00000000e+00  4.99577236e+00
 3.00116324e+00  1.00035691e+00  4.99566412e+00
 4.00132895e+00  0.00000000e+00  4.99571896e+00
 4.00132513e+00  1.00032389e+00  4.99560452e+00
 5.00150776e+00  0.00000000e+00  4.99571085e+00
 5.00149345e+00  1.00026166e+00  4.99563169e+00
 6.00168943e+00  0.00000000e+00  4.99567986e+00
 6.00168610e+00  1.00025678e+00  4.99565458e+00
 1.00062382e+00  2.00055838e+00  4.99592829e+00
 0.00000000e+00  2.00047159e+00  4.99612331e+00
 2.00107217e+00  2.00063658e+00  4.99563360e+00
 3.00128603e+00  2.00062299e+00  4.99545670e+00
 4.00135994e+00  2.00053716e+00  4.99525595e+00
 5.00148916e+00  2.00042796e+00  4.99518585e+00
 6.00162649e+00  2.00043058e+00  4.99525213e+00
 1.00072682e+00  3.00072622e+00  4.99681139e+00
 0.00000000e+00  3.00085759e+00  4.99703789e+00
 2.00120902e+00  3.00079656e+00  4.99565649e+00
 3.00140119e+00  3.00070500e+00  4.99508572e+00
 4.00122499e+00  3.00010443e+00  3.99470806e+00
 4.00151634e+00  3.00066400e+00  4.99492884e+00
 1.00060964e+00  4.00077772e+00  4.99759912e+00
 0.00000000e+00  4.00085402e+00  4.99748564e+00
 2.00119042e+00  4.00092506e+00  4.99583340e+00
 1.00066125e+00  5.00166655e+00  4.99657488e+00
 0.00000000e+00  5.00163937e+00  4.99681950e+00
 1.00064218e+00  6.00245476e+00  4.99650526e+00
 0.00000000e+00  6.00235701e+00  4.99646378e+00
 2.00129914e+00  5.00165701e+00  4.99609661e+00
 2.00159097e+00  6.00221443e+00  4.99611616e+00
 3.00160527e+00  5.00138998e+00  4.99535751e+00
 3.00212717e+00  6.00143814e+00  4.99543381e+00
 4.00070333e+00  5.00109673e+00  3.99448800e+00
 4.00121784e+00  6.00106001e+00  3.99464536e+00
 4.00179148e+00  5.00084543e+00  4.99481535e+00
 4.00219250e+00  6.00096607e+00  4.99488831e+00
 5.00189686e+00  5.00057459e+00  3.99484301e+00
 6.00189686e+00  5.00032473e+00  3.99486160e+00
 6.00213671e+00  6.00033283e+00  3.99485564e+00
 5.00212669e+00  6.00057650e+00  3.99486136e+00
 5.00187445e+00  5.00056601e+00  4.99485254e+00
 6.00188446e+00  5.00033903e+00  4.99485970e+00
 6.00212574e+00  6.00032473e+00  4.99485779e+00
 5.00214958e+00  6.00056505e+00  4.99485493e+00
 0.00000000e+00  0.00000000e+00  5.99485874e+00
 1.00052381e+00  0.00000000e+00  5.99485874e+00
 1.00058413e+00  1.00028634e+00  5.99485874e+00
 0.00000000e+00  1.00023174e+00  5.99485874e+00
 2.00093055e+00  0.00000000e+00  5.99485874e+00
 2.00099611e+00  1.00036359e+00  5.99485874e+00
 3.00118017e+00  0.00000000e+00  5.99485874e+00
 3.00123787e+00  1.00040412e+00  5.99485874e+00
 4.00134230e+00  0.00000000e+00  5.99485874e+00
 4.00137520e+00  1.00041831e+00  5.99485874e+00
 5.00152254e+00  0.00000000e+00  5.99485874e+00
 5.00150490e+00  1.00039208e+00  5.99485874e+00
 6.00179005e+00  0.00000000e+00  5.99485874e+00
 6.00167322e+00  1.00043309e+00  5.99485874e+00
 1.00073826e+00  2.00041938e+00  5.99485874e+00
 0.00000000e+00  2.00035977e+00  5.99485874e+00
 2.00119376e+00  2.00061202e+00  5.99485874e+00
 3.00137353e+00  2.00068331e+00  5.99485874e+00
 4.00146484e+00  2.00063992e+00  5.99485874e+00
 5.00149679e+00  2.00059342e+00  5.99485874e+00
 6.00153446e+00  2.00059533e+00  5.99485874e+00
 1.00094974e+00  3.00110126e+00  5.99485874e+00
 0.00000000e+00  3.00118709e+00  5.99485874e+00
 2.00149989e+00  3.00091481e+00  5.99485874e+00
 3.00155830e+00  3.00081468e+00  5.99485874e+00
 4.00152445e+00  3.00072145e+00  5.99485874e+00
 5.00152302e+00  3.00050664e+00  4.99480343e+00
 5.00154734e+00  3.00060296e+00  5.99485874e+00
 6.00156450e+00  3.00044584e+00  4.99481821e+00
 6.00154448e+00  3.00053382e+00  5.99485874e+00
 3.00150847e+00  4.00076294e+00  4.99461699e+00
 3.00172186e+00  4.00090027e+00  5.99485874e+00
 2.00175428e+00  4.00093842e+00  5.99485874e+00
 4.00166273e+00  4.00068712e+00  4.99485302e+00
 4.00162983e+00  4.00073099e+00  5.99485874e+00
 5.00164270e+00  4.00059271e+00  4.99486113e+00
 5.00165081e+00  4.00057364e+00  5.99485874e+00
 6.00165415e+00  4.00040865e+00  4.99484873e+00
 6.00165319e+00  4.00038910e+00  5.99485874e+00
 0.00000000e+00  4.00053358e+00  5.99485874e+00
 1.00148737e+00  4.00079823e+00  5.99485874e+00
 1.00105047e+00  5.00199652e+00  5.99485874e+00
 0.00000000e+00  5.00199986e+00  5.99485874e+00
 5.00185490e+00  5.00056553e+00  5.99485874e+00
 4.00188875e+00  5.00083542e+00  5.99485874e+00
 6.00188446e+00  5.00034666e+00  5.99485874e+00
 1.00107396e+00  6.00255823e+00  5.99485874e+00
 0.00000000e+00  6.00275898e+00  5.99485874e+00
 2.00152755e+00  5.00170040e+00  5.99485874e+00
 2.00201058e+00  6.00209522e+00  5.99485874e+00
 3.00184536e+00  5.00132751e+00  5.99485874e+00
 3.00238347e+00  6.00141144e+00  5.99485874e+00
 4.00229740e+00  6.00087738e+00  5.99485874e+00
 5.00215006e+00  6.00055265e+00  5.99485874e+00
 6.00211954e+00  6.00032759e+00  5.99485874e+00
</DataArray>
</Points>
<PointData Tensors="Stress_Components,Plastic_strain_components" Vevtors="Spatial_displacement,Reaction_force" Scalars="Equivalent_plastic_strain,Stress_Mises,Stress_Max_Principal,Stress_Mid_Principal,Stress_Min_Principal,Stress_Pressure,Stress_Tresca,Stress_Third_Invariant,Plastic_strain_Max_Principal,Plastic_strain_Min_Principal">
<DataArray type="Float32" Name="Stress_Components" NumberOfComponents="9" format="ascii">
-7.23818690e-03 -1.09989301e+00 3.68487464e-01 -1.09989301e+00 7.50580058e-03 1.04980609e+00 3.68487464e-01 1.04980609e+00 -2.47778897e+01
2.99900562e-01 -1.21665175e+00 -5.54424457e-01 -1.21665175e+00 5.35110377e-01 6.87668075e-01 -5.54424457e-01 6.87668075e-01 -2.39748313e+01
-3.68538689e-01 -1.40017357e+00 -1.91497982e-01 -1.40017357e+00 1.59042902e+00 -1.02011744e+00 -1.91497982e-01 -1.02011744e+00 -2.94743810e+01
-1.54185089e+00 -5.61039545e-01 -9.44721043e-01 -5.61039545e-01 5.07030055e-01 -1.09207165e+00 -9.44721043e-01 -1.09207165e+00 -2.67182827e+01
-1.92244368e+00 1.04581813e+00 1.20656231e+00 1.04581813e+00 -2.64684021e-01 8.15606259e-01 1.20656231e+00 8.15606259e-01 -2.21087651e+01
-5.78344735e-01 -1.03051588e+00 -5.05751903e+00 -1.03051588e+00 3.28426496e+00 3.77006800e+00 -5.05751903e+00 3.77006800e+00 -2.82333270e+01
-3.78214270e-01 2.32279432e+00 1.29293111e+00 2.32279432e+00 -1.38895273e+00 -3.92020944e+00 1.29293111e+00 -3.92020944e+00 -3.04968672e+01
-1.44001378e+00 9.73600417e-01 2.87242803e+00 9.73600417e-01 -2.61764079e-01 -4.11110058e-01 2.87242803e+00 -4.11110058e-01 -2.56643810e+01
9.54303518e-01 -6.08804538e-01 -3.52124630e+00 -6.08804538e-01 2.10839652e+00 1.32269236e+00 -3.52124630e+00 1.32269236e+00 -2.46217265e+01
-3.91891748e-01 -1.08916542e+00 1.69255304e+00 -1.08916542e+00 5.40196896e-02 2.93260995e+00 1.69255304e+00 2.93260995e+00 -3.10275011e+01
-4.17265590e+00 2.35253100e+00 -1.09383777e+01 2.35253100e+00 -2.33286953e+00 4.18387914e+00 -1.09383777e+01 4.18387914e+00 -2.88778776e+01
-4.43499327e+00 5.27152896e+00 -7.27322102e+00 5.27152896e+00 -3.22049344e+00 -7.47615516e-01 -7.27322102e+00 -7.47615516e-01 -3.67461987e+01
-6.22511050e-02 -6.31842054e-02 -1.74541809e-02 -6.31842054e-02 8.70819204e-02 6.56282529e-04 -1.74541809e-02 6.56282529e-04 -7.75646195e-02
4.75635454e-02 3.20655201e-02 1.05058216e-03 3.20655201e-02 1.12943765e-01 -1.23857027e-02 1.05058216e-03 -1.23857027e-02 -2.13241888e-01
7.99510507e-02 -9.90913948e-03 6.64517339e-02 -9.90913948e-03 -4.51716708e-02 1.30785648e-02 6.64517339e-02 1.30785648e-02 -8.75136890e-02
-6.71969140e-02 -1.05159946e-01 -7.50230998e-03 -1.05159946e-01 -1.08360781e-01 -5.24160229e-02 -7.50230998e-03 -5.24160229e-02 1.22822747e-01
4.50445572e-03 3.07369940e-02 4.48370166e-02 3.07369940e-02 5.32826222e-02 4.03202809e-02 4.48370166e-02 4.03202809e-02 -1.69715323e-02
4.26563732e-02 3.68856378e-02 6.94788024e-02 3.68856378e-02 -5.30683016e-03 2.01724917e-02 6.94788024e-02 2.01724917e-02 3.46756121e-03
3.46933231e-02 -1.14843436e-02 -7.34708412e-03 -1.14843436e-02 -2.55542491e-02 -1.22990273e-01 -7.34708412e-03 -1.22990273e-01 3.16768102e-02
-8.49456564e-02 -1.76347680e-02 -2.56067012e-02 -1.76347680e-02 -4.84552868e-02 -1.37332557e-02 -2.56067012e-02 -1.37332557e-02 1.74218968e-01
-1.18973345e-01 1.64935860e-03 1.89755368e+00 1.64935860e-03 7.72407964e-01 -8.44049662e-01 1.89755368e+00 -8.44049662e-01 -2.90815945e+01
3.59315578e-01 -3.87332611e-01 1.73765156e+00 -3.87332611e-01 -6.77511413e-02 -1.86370648e-01 1.73765156e+00 -1.86370648e-01 -2.94990788e+01
-9.97112384e-02 -1.94097812e+00 2.24931152e+00 -1.94097812e+00 1.87195216e-01 1.67307623e-01 2.24931152e+00 1.67307623e-01 -2.94521320e+01
-6.95490439e-01 -3.58167492e-01 2.07421058e+00 -3.58167492e-01 1.44150716e+00 -1.01410128e+00 2.07421058e+00 -1.01410128e+00 -2.88165221e+01
1.42202336e+00 -9.19008162e-05 6.86026692e-01 -9.19008162e-05 -2.44933152e+00 -5.59514731e-01 6.86026692e-01 -5.59514731e-01 -3.09009819e+01
1.22578016e+00 1.02518303e-01 7.08451252e-02 1.02518303e-01 -2.37751812e+00 6.65201351e-01 7.08451252e-02 6.65201351e-01 -3.10510774e+01
5.14578775e-01 2.16165412e-01 2.01971075e+00 2.16165412e-01 -1.94005909e+00 5.80230355e-02 2.01971075e+00 5.80230355e-02 -3.10053148e+01
4.56143014e-01 3.12251551e-02 2.28614149e+00 3.12251551e-02 -1.97633061e+00 -1.12077105e+00 2.28614149e+00 -1.12077105e+00 -3.09476323e+01
1.90369549e+00 -9.95601267e-01 2.19084793e+00 -9.95601267e-01 -2.34333256e+00 -3.81257087e-02 2.19084793e+00 -3.81257087e-02 -2.99654455e+01
5.28750135e-01 -2.61762746e+00 -2.90457532e-01 -2.61762746e+00 -2.48440081e+00 -2.59705920e-01 -2.90457532e-01 -2.59705920e-01 -3.13936076e+01
7.19254464e-01 1.49327580e-01 -1.41572437e+00 1.49327580e-01 -1.96504802e+00 5.10529437e-01 -1.41572437e+00 5.10529437e-01 -3.11976862e+01
3.17577316e-01 4.71000081e-01 7.06774998e-01 4.71000081e-01 -1.43254108e+00 5.68304176e-01 7.06774998e-01 5.68304176e-01 -3.14189212e+01
3.17560911e+00 -1.86678983e-01 7.40871713e-01 -1.86678983e-01 -4.26489103e+00 4.94489711e-01 7.40871713e-01 4.94489711e-01 -3.03301048e+01
7.06628151e-01 -1.35980263e+00 -1.89997526e+00 -1.35980263e+00 -3.84198728e+00 -1.16464864e+00 -1.89997526e+00 -1.16464864e+00 -3.24668245e+01
8.56823146e-01 -1.75022524e-01 -1.62452176e+00 -1.75022524e-01 -1.66140521e+00 9.62513722e-02 -1.62452176e+00 9.62513722e-02 -3.07414784e+01
1.33028168e-01 -5.77461969e-01 -2.50255627e+00 -5.77461969e-01 -1.65701969e+00 4.67687523e-01 -2.50255627e+00 4.67687523e-01 -3.09946461e+01
2.81976479e+00 2.89448162e-02 -1.51906741e+00 2.89448162e-02 -3.83474725e+00 -6.50761803e-02 -1.51906741e+00 -6.50761803e-02 -3.04360251e+01
-1.51949123e-01 7.73289599e-01 2.11263821e-01 7.73289599e-01 -2.07011393e+00 -2.50511408e-01 2.11263821e-01 -2.50511408e-01 -3.22091796e+01
1.31046878e+00 3.07297716e-02 -1.51172197e+00 3.07297716e-02 -1.35372366e+00 1.47986833e-01 -1.51172197e+00 1.47986833e-01 -2.98508682e+01
1.01435307e+00 -1.14746363e+00 -2.74187043e+00 -1.14746363e+00 -2.02755098e+00 -7.66003863e-02 -2.74187043e+00 -7.66003863e-02 -3.02270355e+01
1.37780811e+00 4.90869179e-01 -1.56306369e-01 4.90869179e-01 -1.93962711e+00 -5.61057556e-01 -1.56306369e-01 -5.61057556e-01 -3.05311084e+01
2.46568721e-01 6.22475311e-01 -3.09380826e-01 6.22475311e-01 -1.41746648e+00 4.80503488e-01 -3.09380826e-01 4.80503488e-01 -3.11528404e+01
1.11004489e+00 2.12822903e-01 -2.47931242e+00 2.12822903e-01 -8.33385743e-01 4.64023141e-01 -2.47931242e+00 4.64023141e-01 -2.93021150e+01
1.10186674e-02 -2.24070502e-01 -5.33197797e-01 -2.24070502e-01 -3.72236045e-01 -9.70676234e-02 -5.33197797e-01 -9.70676234e-02 -3.04751196e+01
1.62896520e+00 1.30729949e+00 4.53005835e-01 1.30729949e+00 -2.29816055e+00 -8.62561345e-01 4.53005835e-01 -8.62561345e-01 -3.04556694e+01
7.65694900e-01 6.11009099e-01 2.35586092e-01 6.11009099e-01 -1.40739278e+00 -3.67463812e-01 2.35586092e-01 -3.67463812e-01 -3.05654349e+01
1.30484065e+00 1.18162990e+00 -2.37022579e+00 1.18162990e+00 -1.03049740e+00 6.07066832e-01 -2.37022579e+00 6.07066832e-01 -2.92989750e+01
7.17864431e-01 8.63715447e-01 -3.47940862e-01 8.63715447e-01 -9.62312646e-01 2.16289075e-01 -3.47940862e-01 2.16289075e-01 -3.01762228e+01
-2.99020836e+00 -2.66545832e+00 5.00187711e+00 -2.66545832e+00 4.81053740e-01 -2.76847818e+00 5.00187711e+00 -2.76847818e+00 -2.88075769e+01
-2.49149558e+00 -1.63090086e+00 3.22861052e+00 -1.63090086e+00 3.70995826e+00 -1.18702444e+00 3.22861052e+00 -1.18702444e+00 -2.73805132e+01
-5.76890483e-02 -1.12715850e+00 3.29925233e+00 -1.12715850e+00 -9.41234179e-01 -4.24833521e-01 3.29925233e+00 -4.24833521e-01 -3.04780548e+01
3.32454249e-01 -2.70416781e-01 5.40718037e+00 -2.70416781e-01 -1.43396451e+00 -1.53622970e+00 5.40718037e+00 -1.53622970e+00 -2.94254274e+01
-1.56380109e+00 -1.94193777e+00 1.72312895e+00 -1.94193777e+00 -1.81811066e+00 -3.23414057e+00 1.72312895e+00 -3.23414057e+00 -3.32956042e+01
-2.05835324e-01 -7.34979156e-02 -3.85241657e-01 -7.34979156e-02 3.07694822e-01 -2.88553573e+00 -3.85241657e-01 -2.88553573e+00 -2.92441247e+01
-2.19343468e+00 -1.61342186e+00 -7.26813350e+00 -1.61342186e+00 -5.43330317e+00 1.24189942e+00 -7.26813350e+00 1.24189942e+00 -3.41983078e+01
2.45145602e-01 4.48351741e-01 -5.04185169e+00 4.48351741e-01 5.46797849e-01 -1.78439239e+00 -5.04185169e+00 -1.78439239e+00 -2.76555955e+01
-2.06110242e+00 6.63572684e-01 -8.25654119e-02 6.63572684e-01 -2.30756266e+00 1.83679265e+00 -8.25654119e-02 1.83679265e+00 -3.47375097e+01
1.04507957e+00 -1.26792746e+00 -7.65960474e+00 -1.26792746e+00 -4.21385241e+00 3.10810645e+00 -7.65960474e+00 3.10810645e+00 -2.89153034e+01
-5.97607255e-01 -2.91464381e-01 -7.50353411e-01 -2.91464381e-01 -1.01202642e+00 4.37305853e-01 -7.50353411e-01 4.37305853e-01 -3.16732163e+01
-8.09226505e-01 3.37811142e-01 -7.81252630e-01 3.37811142e-01 -1.63847686e+00 1.87358666e+00 -7.81252630e-01 1.87358666e+00 -3.25319033e+01
4.50810026e-02 2.85183817e-01 -6.02707744e-01 2.85183817e-01 -7.02513278e-01 6.83048308e-01 -6.02707744e-01 6.83048308e-01 -3.06566563e+01
-6.75144792e-02 2.20958561e-01 -5.72087705e-01 2.20958561e-01 -2.03522551e+00 -1.79901685e+00 -5.72087705e-01 -1.79901685e+00 -3.20519943e+01
-4.09598242e+00 -1.77635391e+00 5.81569311e+00 -1.77635391e+00 1.12463917e+00 -1.55478924e+00 5.81569311e+00 -1.55478924e+00 -2.77298268e+01
-3.26221040e+00 -9.62789893e-01 4.71547407e+00 -9.62789893e-01 4.94272673e+00 4.49587578e+00 4.71547407e+00 4.49587578e+00 -2.59534464e+01
8.53314246e-01 -1.03664392e+00 4.06475543e+00 -1.03664392e+00 -1.83805415e-01 -4.82724263e+00 4.06475543e+00 -4.82724263e+00 -2.67484373e+01
-7.15579450e-01 1.53108013e+00 6.17066532e+00 1.53108013e+00 7.09931575e-01 -9.42111886e+00 6.17066532e+00 -9.42111886e+00 -2.30583344e+01
-4.92674762e+00 -1.96631503e+00 7.00933266e+00 -1.96631503e+00 -2.25612881e+00 -6.98371590e+00 7.00933266e+00 -6.98371590e+00 -3.29343047e+01
7.78370380e-01 -2.17669474e+00 4.31424451e-01 -2.17669474e+00 -1.62626796e+00 -3.63398044e+00 4.31424451e-01 -3.63398044e+00 -2.88887146e+01
-1.86476707e+01 -7.38471746e+00 -1.50402632e+01 -7.38471746e+00 -1.30396814e+01 -1.86865501e+01 -1.50402632e+01 -1.86865501e+01 1.70087337e+00
2.75404978e+00 -2.92613811e+00 -7.29355399e+00 -2.92613811e+00 -1.26791660e+00 -7.24535495e+00 -7.29355399e+00 -7.24535495e+00 -1.72427648e+01
-1.48272866e+00 3.92183377e-01 2.14640551e+00 3.92183377e-01 3.32150646e+00 5.52240263e+00 2.14640551e+00 5.52240263e+00 -2.54601209e+01
-2.39572510e+00 -6.99220687e-01 3.93234816e+00 -6.99220687e-01 1.42759135e+00 3.73156798e+00 3.93234816e+00 3.73156798e+00 -2.19899626e+01
-2.95620859e-02 1.51280928e+00 6.12678691e+00 1.51280928e+00 3.30629752e+00 2.32432403e+00 6.12678691e+00 2.32432403e+00 -2.37616866e+01
6.75729409e-01 1.73789942e+00 1.78416319e-01 1.73789942e+00 5.19810277e+00 -2.70795387e+00 1.78416319e-01 -2.70795387e+00 -2.18929720e+01
-3.34027700e-01 1.05534109e+00 9.39691186e-01 1.05534109e+00 -5.36512733e-02 -3.04890975e-01 9.39691186e-01 -3.04890975e-01 -2.32149429e+01
-1.67916435e+00 1.39037832e+00 -1.07572539e+00 1.39037832e+00 1.08863679e+00 3.02557203e+00 -1.07572539e+00 3.02557203e+00 -2.55931718e+01
-9.06270534e-01 1.29627250e+00 -2.42199421e-01 1.29627250e+00 4.37241077e+00 2.47821540e+00 -2.42199421e-01 2.47821540e+00 -2.56941652e+01
-5.95019841e+00 6.18136380e-01 1.09408051e-01 6.18136380e-01 -3.51182729e-01 6.59863341e+00 1.09408051e-01 6.59863341e+00 -1.86328785e+01
-2.97763944e+00 1.04463458e+00 7.69493175e+00 1.04463458e+00 -3.54822719e+00 3.16897333e+00 7.69493175e+00 3.16897333e+00 -3.29962711e+01
-4.01761737e+00 1.84617769e+00 -2.79136596e+00 1.84617769e+00 -2.05897939e+00 -3.05369186e+00 -2.79136596e+00 -3.05369186e+00 -3.02949684e+01
-9.52881016e-01 -2.24260554e-01 1.21194267e+00 -2.24260554e-01 1.55115619e+00 1.63663405e+00 1.21194267e+00 1.63663405e+00 -2.77809343e+01
-5.34970433e-01 2.94274265e+00 -1.57014279e+00 2.94274265e+00 1.78112283e+00 1.58655033e+00 -1.57014279e+00 1.58655033e+00 -2.85439010e+01
-2.50839984e+00 9.79119956e-01 1.78032506e+00 9.79119956e-01 2.76816285e+00 -2.80802178e+00 1.78032506e+00 -2.80802178e+00 -2.91129217e+01
-2.99085981e+00 1.31502444e+00 -3.74354056e+00 1.31502444e+00 -8.87123793e-02 1.85493937e+00 -3.74354056e+00 1.85493937e+00 -3.12522354e+01
-3.75939202e+00 1.91638968e+00 2.93245745e+00 1.91638968e+00 5.62177499e-01 -1.06086303e+01 2.93245745e+00 -1.06086303e+01 -3.01321119e+01
8.40896599e-01 -1.20937294e+00 -1.98478699e-01 -1.20937294e+00 5.00445803e-01 -3.55231218e+00 -1.98478699e-01 -3.55231218e+00 -3.02912464e+01
1.81789333e+00 8.05730000e-04 6.44357651e-01 8.05730000e-04 -4.74484062e+00 -4.67144370e-01 6.44357651e-01 -4.67144370e-01 -3.24454632e+01
1.24311285e+00 4.56537873e-01 5.41263074e-01 4.56537873e-01 -3.70361912e+00 3.35158076e-01 5.41263074e-01 3.35158076e-01 -3.22093029e+01
1.04043511e+00 1.45265156e+00 4.80700312e-01 1.45265156e+00 -3.48366213e+00 3.09941402e-01 4.80700312e-01 3.09941402e-01 -3.21836588e+01
1.80187112e+00 2.78882191e-01 1.06052724e+00 2.78882191e-01 -4.84372461e+00 -5.84441572e-01 1.06052724e+00 -5.84441572e-01 -3.25874200e+01
-2.87229419e-01 7.92049229e-01 -5.33053270e-02 7.92049229e-01 -1.13068270e+00 6.30843962e-01 -5.33053270e-02 6.30843962e-01 -3.14628277e+01
-3.45694646e-01 2.19301733e+00 -4.14001130e-01 2.19301733e+00 -7.99161015e-01 5.85242510e-02 -4.14001130e-01 5.85242510e-02 -3.07457724e+01
-1.75524491e+00 5.31339645e-01 -1.44577590e+00 5.31339645e-01 1.31438798e+00 4.96781163e-01 -1.44577590e+00 4.96781163e-01 -3.02216163e+01
-1.26404301e+00 1.30631613e+00 -8.21610369e-01 1.30631613e+00 1.56372810e+00 2.13168268e-01 -8.21610369e-01 2.13168268e-01 -2.92946904e+01
-1.74665236e+00 -3.21544367e-02 -1.72683099e+00 -3.21544367e-02 2.15935871e+00 2.81236331e-01 -1.72683099e+00 2.81236331e-01 -2.92129884e+01
-1.09782922e+00 -4.72324021e-01 -1.53668353e+00 -4.72324021e-01 1.97626260e+00 7.35492777e-01 -1.53668353e+00 7.35492777e-01 -2.85351605e+01
-6.93541259e-01 -2.03650251e-01 -1.30468655e+00 -2.03650251e-01 1.82935393e+00 2.27985110e-01 -1.30468655e+00 2.27985110e-01 -2.86522956e+01
-6.38576038e-02 -6.89366512e-01 -2.12714776e+00 -6.89366512e-01 1.02017919e+00 7.11646482e-01 -2.12714776e+00 7.11646482e-01 -2.85284448e+01
-4.32731099e-01 -6.64038863e-02 -4.38592315e-01 -6.64038863e-02 1.94150162e+00 1.03726077e+00 -4.38592315e-01 1.03726077e+00 -2.83656187e+01
5.98966498e-02 -6.21690266e-01 -6.99170470e-01 -6.21690266e-01 7.86774278e-01 5.50253116e-01 -6.99170470e-01 5.50253116e-01 -2.86692643e+01
1.66114621e+00 1.87530574e+00 3.47379971e+00 1.87530574e+00 -4.50279279e+00 -6.44363627e-01 3.47379971e+00 -6.44363627e-01 -3.06835787e+01
1.18147691e+00 7.77786300e-01 3.61869278e+00 7.77786300e-01 -5.17487329e+00 -1.89677116e+00 3.61869278e+00 -1.89677116e+00 -3.20846801e+01
1.54206862e+00 2.25002949e+00 -4.17948636e-01 2.25002949e+00 -6.54788062e-01 -2.66672716e-01 -4.17948636e-01 -2.66672716e-01 -2.87294364e+01
1.59271345e+00 1.32009199e+00 -3.19495878e+00 1.32009199e+00 2.73442647e+00 2.91700214e-01 -3.19495878e+00 2.91700214e-01 -2.54926825e+01
1.04906806e+00 -1.69408832e-01 -4.01088044e+00 -1.69408832e-01 4.06679494e+00 -1.45658399e-01 -4.01088044e+00 -1.45658399e-01 -2.40636539e+01
9.18670174e-01 -8.19332133e-01 -5.48928587e+00 -8.19332133e-01 9.40931340e-01 6.02715214e-03 -5.48928587e+00 6.02715214e-03 -2.28800941e+01
1.72565158e+00 -1.14144741e+00 -4.94557365e+00 -1.14144741e+00 9.32233691e-01 -8.30895066e-01 -4.94557365e+00 -8.30895066e-01 -2.43259875e+01
3.53471853e+00 -1.54210781e-01 8.21593173e+00 -1.54210781e-01 -6.87864312e+00 -2.22377114e+00 8.21593173e+00 -2.22377114e+00 -2.51652934e+01
3.02028330e+00 -1.16321347e+00 7.16022301e+00 -1.16321347e+00 -5.96707169e+00 -1.83308697e+00 7.16022301e+00 -1.83308697e+00 -2.81120904e+01
3.62166641e+00 8.82100215e-01 1.33734710e+00 8.82100215e-01 -9.85725025e-01 -5.98451895e+00 1.33734710e+00 -5.98451895e+00 -2.57773094e+01
3.35903064e+00 9.23263744e-01 -6.37436422e+00 9.23263744e-01 1.21347507e-02 -4.30524589e+00 -6.37436422e+00 -4.30524589e+00 -1.68587612e+01
-5.16698265e+00 -1.06906223e+01 -1.42221451e+01 -1.06906223e+01 -1.32490225e+01 -1.24519930e+01 -1.42221451e+01 -1.24519930e+01 2.24942231e+00
-9.20139861e-01 1.36699903e+00 -1.35928239e+00 1.36699903e+00 -3.19043112e-01 -1.64122715e+00 -1.35928239e+00 -1.64122715e+00 -4.28062449e+00
1.42834550e+00 -2.86716536e-01 -1.93836582e+00 -2.86716536e-01 -4.66152617e+00 8.86207223e-01 -1.93836582e+00 8.86207223e-01 -2.29688871e+01
2.49965411e+00 -2.87499368e-01 -3.20583566e+00 -2.87499368e-01 -1.36747448e+00 8.71855209e-01 -3.20583566e+00 8.71855209e-01 -2.57337716e+01
3.23709559e+00 -2.95363188e-01 4.54213738e-01 -2.95363188e-01 -2.07024725e+00 -5.18834543e+00 4.54213738e-01 -5.18834543e+00 -3.22109137e+01
-1.54807851e+00 8.35284616e-02 -4.54595486e-02 8.35284616e-02 4.41996371e-01 1.08053066e+00 -4.54595486e-02 1.08053066e+00 -3.16265990e+01
-9.07715499e-01 -2.66889846e-02 -5.46886083e-01 -2.66889846e-02 4.63490095e-01 -1.94627044e+00 -5.46886083e-01 -1.94627044e+00 -3.07947321e+01
-5.51262014e-01 -7.46873751e-01 3.25975844e+00 -7.46873751e-01 -6.64975137e-01 2.17675736e+00 3.25975844e+00 2.17675736e+00 -3.00325780e+01
-7.69328043e-01 5.18213376e-01 2.05044240e+00 5.18213376e-01 8.39632452e-02 1.45617634e-01 2.05044240e+00 1.45617634e-01 -3.06538525e+01
-1.74585593e+00 1.21816441e+00 1.34564151e+00 1.21816441e+00 6.96423471e-01 -7.61429667e-01 1.34564151e+00 -7.61429667e-01 -3.11444330e+01
8.39329034e-01 -2.04491042e+00 2.66972154e-01 -2.04491042e+00 -9.44044620e-01 1.78081456e+00 2.66972154e-01 1.78081456e+00 -2.96009803e+01
7.34906471e+00 1.53932869e+00 1.34425136e+00 1.53932869e+00 1.62228139e+00 -3.38210666e+00 1.34425136e+00 -3.38210666e+00 -2.39088192e+01
6.66520715e+00 -1.52472529e+00 -1.41161248e+00 -1.52472529e+00 3.95050168e-01 -1.06215000e+00 -1.41161248e+00 -1.06215000e+00 -2.37556000e+01
-1.04038734e+01 5.99484015e+00 -1.55102396e+00 5.99484015e+00 -2.86021829e+00 -1.19286108e+01 -1.55102396e+00 -1.19286108e+01 8.14797401e+00
-3.19715333e+00 -4.67005253e+00 1.09789193e+00 -4.67005253e+00 -4.00327682e+00 -1.52127218e+01 1.09789193e+00 -1.52127218e+01 2.31575656e+00
-4.48715802e-01 -1.66663843e+00 -5.14264509e-01 -1.66663843e+00 -7.82489359e-01 2.04843223e+00 -5.14264509e-01 2.04843223e+00 -1.35924453e+00
-3.36809572e+00 -9.43796065e-01 -4.32909876e-01 -9.43796065e-01 3.64403069e-01 6.75741076e-01 -4.32909876e-01 6.75741076e-01 -2.60039524e+00
-2.06274822e-01 -4.21272337e-01 1.97859854e-01 -4.21272337e-01 -1.18549570e-01 -8.22799131e-02 1.97859854e-01 -8.22799131e-02 1.97677925e-01
-1.35388285e-01 -2.08113670e-01 1.76386639e-01 -2.08113670e-01 2.18343079e-01 1.33527979e-01 1.76386639e-01 1.33527979e-01 -2.10112318e-01
9.27398652e-02 -7.51017630e-02 -2.99676299e-01 -7.51017630e-02 2.01330762e-02 -3.49060625e-01 -2.99676299e-01 -3.49060625e-01 -2.40021452e-01
3.02071840e-01 -2.88283199e-01 1.38051242e-01 -2.88283199e-01 -3.65383327e-02 3.59363109e-01 1.38051242e-01 3.59363109e-01 -3.92684460e-01
1.46263021e+00 2.08060397e-01 -8.35118681e-02 2.08060397e-01 -6.45335573e-01 -2.04639733e-02 -8.35118681e-02 -2.04639733e-02 1.06757471e-01
4.35375656e-01 2.28137312e-01 2.53475765e-01 2.28137312e-01 -1.36066024e+00 6.22813031e-02 2.53475765e-01 6.22813031e-02 -4.49558087e-02
-6.88283682e-01 2.21774671e-02 -9.72806439e-02 2.21774671e-02 -2.96696730e-01 -1.18001007e-01 -9.72806439e-02 -1.18001007e-01 3.71619515e-01
-8.94776205e-01 -3.86262536e-01 -2.06399058e-01 -3.86262536e-01 3.26039893e-01 -2.47114226e-02 -2.06399058e-01 -2.47114226e-02 3.78001454e-01
1.62768674e+00 3.99565324e-03 -3.30466777e-04 3.99565324e-03 -5.32466412e+00 4.78919595e-04 -3.30466777e-04 4.78919595e-04 -3.32339211e+01
7.11763397e-01 7.13434070e-01 1.64495502e-03 7.13434070e-01 -3.73870230e+00 6.41673118e-01 1.64495502e-03 6.41673118e-01 -3.28938351e+01
1.88372325e+00 1.90044853e+00 5.99637434e-01 1.90044853e+00 -4.71583539e+00 8.84312898e-01 5.99637434e-01 8.84312898e-01 -3.20014496e+01
2.56748354e+00 5.69345862e-01 2.45499671e-01 5.69345862e-01 -6.30444717e+00 -3.42686661e-04 2.45499671e-01 -3.42686661e-04 -3.27733135e+01
-1.10010687e+00 8.07058722e-01 9.73785296e-04 8.07058722e-01 -4.31114167e-01 1.02660334e+00 9.73785296e-04 1.02660334e+00 -3.14967213e+01
-1.32563082e-01 2.30185610e+00 7.63608903e-01 2.30185610e+00 -7.87261240e-01 1.04843041e+00 7.63608903e-01 1.04843041e+00 -3.04623246e+01
-2.67016327e+00 7.53898144e-01 -5.33878803e-03 7.53898144e-01 2.41056883e+00 7.35833943e-01 -5.33878803e-03 7.35833943e-01 -2.97798586e+01
-1.75083524e+00 1.76650944e+00 6.62326172e-01 1.76650944e+00 2.42812648e+00 1.06755519e+00 6.62326172e-01 1.06755519e+00 -2.86299782e+01
-3.26386046e+00 4.68408704e-01 -1.07703144e-02 4.68408704e-01 3.45965683e+00 1.72264434e-01 -1.07703144e-02 1.72264434e-01 -2.90787592e+01
-1.82716032e+00 8.53375323e-01 1.40962848e+00 8.53375323e-01 3.56956989e+00 7.30499968e-01 1.40962848e+00 7.30499968e-01 -2.76555133e+01
-1.89940256e+00 -2.66233549e-01 -1.56429177e-02 -2.66233549e-01 2.64569628e+00 2.23430060e-01 -1.56429177e-02 2.23430060e-01 -2.89109020e+01
-7.68548936e-01 -1.11353599e-01 1.92587906e+00 -1.11353599e-01 3.38970762e+00 1.52197551e-01 1.92587906e+00 1.52197551e-01 -2.79488702e+01
-1.69781137e+00 -1.65799975e+00 -1.58750396e-02 -1.65799975e+00 2.69958591e+00 1.39064407e+00 -1.58750396e-02 1.39064407e+00 -2.84423218e+01
-6.25696778e-01 -1.32101381e+00 2.55495083e+00 -1.32101381e+00 2.66998243e+00 -1.80181570e-01 2.55495083e+00 -1.80181570e-01 -2.77351770e+01
4.65771556e-01 3.04614341e+00 -1.25644788e+00 3.04614341e+00 -3.50901100e+00 1.22100377e+00 -1.25644788e+00 1.22100377e+00 -3.24049511e+01
1.71942472e-01 3.73701513e-01 -7.42825747e-01 3.73701513e-01 -4.73720050e+00 -3.68233060e-03 -7.42825747e-01 -3.68233060e-03 -3.43152828e+01
2.58268476e-01 5.12133682e+00 -3.47860590e-01 5.12133682e+00 -7.58192211e-01 1.70112821e+00 -3.47860590e-01 1.70112821e+00 -2.83390255e+01
1.24900968e+00 3.28683889e+00 1.06055443e+00 3.28683889e+00 3.67649680e+00 1.60603866e+00 1.06055443e+00 1.60603866e+00 -2.62926297e+01
5.69124639e-01 7.00066574e-01 2.21665567e+00 7.00066574e-01 4.57353652e+00 2.24329740e+00 2.21665567e+00 2.24329740e+00 -2.01600862e+01
-1.12048507e-01 -1.81585755e-02 3.55104965e+00 -1.81585755e-02 2.97270074e+00 1.72376357e-01 3.55104965e+00 1.72376357e-01 -1.63969119e+01
1.43637192e+00 -1.37316833e+00 3.56754196e+00 -1.37316833e+00 2.04905239e+00 -1.92529237e+00 3.56754196e+00 -1.92529237e+00 -1.79485426e+01
-3.79770100e+00 1.66145861e-02 3.65632176e+00 1.66145861e-02 -3.94653916e+00 1.71610135e+00 3.65632176e+00 1.71610135e+00 -3.85153122e+01
-4.14014101e+00 -8.47263873e-01 3.11515641e+00 -8.47263873e-01 -5.59561825e+00 -7.85487518e-03 3.11515641e+00 -7.85487518e-03 -4.04845161e+01
1.35295002e+00 2.19434955e+00 1.87801584e+00 2.19434955e+00 1.52144408e+00 4.28495844e+00 1.87801584e+00 4.28495844e+00 -2.89790268e+01
-1.57876891e+00 1.80502048e+00 2.37429911e+00 1.80502048e+00 2.59453471e+00 3.48489082e+00 2.37429911e+00 3.48489082e+00 -1.29483510e+01
-6.70898169e-01 -4.88759629e-01 1.19468793e+00 -4.88759629e-01 1.45519307e+00 1.69463601e-01 1.19468793e+00 1.69463601e-01 -3.38031453e+00
-2.08013552e+00 -6.71639875e-01 -1.37588149e+00 -6.71639875e-01 3.47227827e-01 -6.47907630e-01 -1.37588149e+00 -6.47907630e-01 -7.81487297e-01
-1.19369243e+00 -3.52388971e-01 2.00490409e+00 -3.52388971e-01 -2.01524705e+00 5.07579505e-01 2.00490409e+00 5.07579505e-01 6.94547176e-01
-4.35237885e-01 -9.77147877e-01 -2.36959541e+00 -9.77147877e-01 -2.61664534e+00 -1.13323964e-01 -2.36959541e+00 -1.13323964e-01 -4.77848589e-01
-3.92637551e-01 -2.03851551e-01 1.83499324e+00 -2.03851551e-01 -4.55842710e+00 -4.21460897e-01 1.83499324e+00 -4.21460897e-01 1.42134324e+00
1.47421622e+00 -3.46413255e-01 -6.72883034e+00 -3.46413255e-01 -6.50100994e+00 -6.65365887e+00 -6.72883034e+00 -6.65365887e+00 -1.12364054e+00
-8.37360883e+00 1.39176549e+00 2.87686706e+00 1.39176549e+00 -2.05309725e+00 4.87318969e+00 2.87686706e+00 4.87318969e+00 3.72847527e+00
4.59661674e+00 3.43534994e+00 1.64151132e-01 3.43534994e+00 5.72896719e+00 8.56047726e+00 1.64151132e-01 8.56047726e+00 -3.06497192e+01
1.67386512e+00 1.08394136e+00 -4.05510450e-01 1.08394136e+00 2.92332618e+00 1.06778904e+00 -4.05510450e-01 1.06778904e+00 3.21990003e-01
5.20031214e-01 -9.95804866e-02 9.14004405e-01 -9.95804866e-02 2.93965973e+00 -6.84552948e-01 9.14004405e-01 -6.84552948e-01 1.45950115e+00
1.83375183e-01 7.58243039e-01 1.21461198e-01 7.58243039e-01 1.58941570e+00 1.19607227e-01 1.21461198e-01 1.19607227e-01 2.48861860e-01
1.29410924e+00 -3.61362509e-01 -3.90884936e-01 -3.61362509e-01 3.02611589e-02 1.61934119e-01 -3.90884936e-01 1.61934119e-01 6.97290331e-01
7.48225570e-01 -4.97123361e-01 2.24168971e-02 -4.97123361e-01 -1.94977194e+00 -2.81221762e-01 2.24168971e-02 -2.81221762e-01 6.79439276e-01
1.06213167e+00 -3.06333780e-01 -4.09893751e-01 -3.06333780e-01 -2.94554597e+00 -2.20814338e-02 -4.09893751e-01 -2.20814338e-02 1.36130784e+00
-4.86118603e+00 1.33960211e+00 -2.63055968e+00 1.33960211e+00 -4.96626139e+00 -1.50520876e-02 -2.63055968e+00 -1.50520876e-02 -4.08263321e+01
-3.93720007e+00 -1.22392893e+00 -1.50489402e+00 -1.22392893e+00 -6.63997221e+00 4.92996359e+00 -1.50489402e+00 4.92996359e+00 -4.05407982e+01
-7.21075594e-01 -1.54936619e+00 2.24890820e+00 -1.54936619e+00 -1.09093799e+00 2.76896024e+00 2.24890820e+00 2.76896024e+00 -3.10888398e+01
-2.94696171e+00 7.50728622e-02 1.84903574e+00 7.50728622e-02 -1.37629406e+00 -3.69258970e-03 1.84903574e+00 -3.69258970e-03 -3.45661068e+01
3.99337798e-01 1.13222532e-01 -2.95983750e-03 1.13222532e-01 4.43741009e-02 -4.07372132e-01 -2.95983750e-03 -4.07372132e-01 7.43137144e-01
-2.15112146e+00 3.08506101e-01 -2.07039654e-01 3.08506101e-01 8.06275368e-01 2.02987035e+00 -2.07039654e-01 2.02987035e+00 -5.26054700e-03
8.01767975e-01 2.97140375e-01 1.57314636e-01 2.97140375e-01 -1.71683210e+00 -1.70055579e-03 1.57314636e-01 -1.70055579e-03 -4.76731062e-01
2.42791945e+00 -2.30526268e+00 8.81830394e-01 -2.30526268e+00 -3.15200329e+00 2.97500730e+00 8.81830394e-01 2.97500730e+00 -2.95615387e+01
1.21447742e+00 -1.61999643e+00 2.82423067e+00 -1.61999643e+00 -2.48646164e+00 -2.08049864e-02 2.82423067e+00 -2.08049864e-02 -3.07661648e+01
9.03606951e-01 1.32948452e+00 7.93227732e-01 1.32948452e+00 1.67960113e+00 2.13661885e+00 7.93227732e-01 2.13661885e+00 -2.75378532e+01
1.95795685e+00 -1.15040945e+00 -1.04807699e+00 -1.15040945e+00 -9.99031186e-01 3.80054688e+00 -1.04807699e+00 3.80054688e+00 -2.78224573e+01
4.58018470e+00 1.83566439e+00 -1.13518125e+00 1.83566439e+00 1.62188214e+00 4.52644777e+00 -1.13518125e+00 4.52644777e+00 -2.21711960e+01
3.35263866e+00 -1.29898859e+00 -5.18653095e-01 -1.29898859e+00 2.54173696e+00 4.66202974e+00 -5.18653095e-01 4.66202974e+00 -2.24216862e+01
-5.22891903e+00 -4.32823598e-01 -1.84950477e+00 -4.32823598e-01 1.37705034e+00 2.18380678e+00 -1.84950477e+00 2.18380678e+00 -1.61153746e+00
-2.41126817e+00 4.28706259e-01 -2.58507565e-01 4.28706259e-01 7.40494281e-01 1.15065603e-02 -2.58507565e-01 1.15065603e-02 1.44823699e+00
-9.63914573e-01 2.16434270e-01 6.15665466e-02 2.16434270e-01 -4.85832334e-01 -1.27524793e-01 6.15665466e-02 -1.27524793e-01 3.50191712e-01
</DataArray>
<DataArray type="Float32" Name="Logarithmic_strain_components" NumberOfComponents="9" format="ascii">
9.90162807e-05 -5.28844703e-05 1.76505587e-05 -5.28844703e-05 9.95237688e-05 5.04055783e-05 1.76505587e-05 5.04055783e-05 -4.95598324e-04
9.95340547e-05 -5.76473913e-05 -2.72757752e-05 -5.76473913e-05 1.05470928e-04 3.31678598e-05 -2.72757752e-05 3.31678598e-05 -4.82590098e-04
1.13392347e-04 -7.40173946e-05 -9.49023161e-06 -7.40173946e-05 1.65452991e-04 -5.11505568e-05 -9.49023161e-06 -5.11505568e-05 -6.14256540e-04
7.34411506e-05 -2.68864612e-05 -4.52781005e-05 -2.68864612e-05 1.22789424e-04 -5.23127960e-05 -4.52781005e-05 -5.23127960e-05 -5.29276731e-04
3.77274537e-05 4.72133759e-05 5.78956244e-05 4.72133759e-05 7.34543927e-05 3.34770482e-05 5.78956244e-05 3.34770482e-05 -4.08234770e-04
7.05485312e-05 -7.02420722e-05 -2.27713301e-04 -7.02420722e-05 1.57315078e-04 2.15942786e-04 -2.27713301e-04 2.15942786e-04 -5.41918470e-04
2.60551562e-04 1.37190727e-04 1.05222705e-04 1.37190727e-04 2.06724426e-04 -2.19020314e-04 1.05222705e-04 -2.19020314e-04 -8.13514722e-04
1.29213652e-04 5.35515173e-05 1.98292889e-04 5.35515173e-05 1.63670380e-04 -1.02046879e-05 1.98292889e-04 -1.02046879e-05 -6.02900509e-04
9.42550669e-05 -3.17866555e-05 -1.61122361e-04 -3.17866555e-05 1.16588926e-04 5.74203195e-05 -1.61122361e-04 5.74203195e-05 -4.75268636e-04
2.62196991e-04 -8.49168609e-05 1.70314259e-04 -8.49168609e-05 2.85054564e-04 2.04276221e-04 1.70314259e-04 2.04276221e-04 -8.76160775e-04
2.92788302e-04 1.58287434e-04 -8.40840881e-04 1.58287434e-04 4.50969767e-04 4.09346831e-04 -8.40840881e-04 4.09346831e-04 -1.06755754e-03
4.85526631e-04 5.22859598e-04 -8.15088832e-04 5.22859598e-04 5.21499052e-04 -1.22243440e-04 -8.15088832e-04 -1.22243440e-04 -1.40214874e-03
-1.19293068e-06 -3.11841302e-06 -7.66692665e-07 -3.11841302e-06 2.47981302e-06 4.00337854e-07 -7.66692665e-07 4.00337854e-07 -1.47659262e-06
1.38798360e-06 1.65095105e-06 -1.17166849e-07 1.65095105e-06 2.98447094e-06 -6.70568966e-07 -1.17166849e-07 -6.70568966e-07 -5.07973215e-06
1.97727843e-06 7.57848042e-08 3.07275855e-06 7.57848042e-08 -8.86085342e-07 5.49984804e-07 3.07275855e-06 5.49984804e-07 -1.91181749e-06
-1.09841667e-06 -5.11753797e-06 -6.60056685e-08 -5.11753797e-06 -2.44029965e-06 -2.80580480e-06 -6.60056685e-08 -2.80580480e-06 3.14619894e-06
7.13142612e-08 1.72714886e-06 2.24683686e-06 1.72714886e-06 9.65668846e-07 2.21924552e-06 2.24683686e-06 2.21924552e-06 -6.81492281e-07
8.44570764e-07 1.68305678e-06 3.09017923e-06 1.68305678e-06 -4.27275410e-07 7.88186583e-07 3.09017923e-06 7.88186583e-07 3.40179653e-08
9.94529159e-07 -8.67985477e-07 -4.14192272e-07 -8.67985477e-07 -3.96265250e-07 -5.64963693e-06 -4.14192272e-07 -5.64963693e-06 8.57768271e-07
-2.52256746e-06 -7.51544576e-07 -1.42588442e-06 -7.51544576e-07 -1.38021130e-06 -7.45420380e-07 -1.42588442e-06 -7.45420380e-07 3.84531268e-06
2.18828653e-04 2.29706458e-08 1.23881022e-04 2.29706458e-08 2.49865800e-04 -5.51360263e-05 1.23881022e-04 -5.51360263e-05 -7.74805900e-04
2.35236497e-04 -2.68306717e-05 1.12260439e-04 -2.68306717e-05 2.21381448e-04 -1.27225408e-05 1.12260439e-04 -1.27225408e-05 -7.72772022e-04
2.25419477e-04 -1.31369648e-04 1.47421294e-04 -1.31369648e-04 2.35706146e-04 1.42660836e-05 1.47421294e-04 1.42660836e-05 -7.77816087e-04
2.00282975e-04 -2.56486437e-05 1.36668767e-04 -2.56486437e-05 2.75311813e-04 -6.68250832e-05 1.36668767e-04 -6.68250832e-05 -7.75261724e-04
3.44195098e-04 -6.83548933e-08 5.03004230e-05 -6.83548933e-08 2.11706152e-04 -3.84403938e-05 5.03004230e-05 -3.84403938e-05 -8.87144764e-04
3.33499280e-04 6.78657193e-06 4.39266307e-06 6.78657193e-06 2.11501971e-04 4.90902917e-05 4.39266307e-06 4.90902917e-05 -8.80979729e-04
3.35196411e-04 1.42310380e-05 1.56348554e-04 1.42310380e-05 2.53404354e-04 4.98434383e-06 1.56348554e-04 4.98434383e-06 -9.20041501e-04
3.41542727e-04 1.93101698e-06 1.81192114e-04 1.93101698e-06 2.62403919e-04 -8.45721825e-05 1.81192114e-04 -8.45721825e-05 -9.32916533e-04
2.80606844e-04 -6.41245078e-05 1.37121729e-04 -6.41245078e-05 1.42781004e-04 -3.97609620e-06 1.37121729e-04 -3.97609620e-06 -7.57824440e-04
2.74086795e-04 -1.76544751e-04 -1.68394427e-05 -1.76544751e-04 1.72480779e-04 -4.10423206e-06 -1.68394427e-05 -4.10423206e-06 -8.10477984e-04
3.02134591e-04 9.09517371e-06 -1.02619735e-04 9.09517371e-06 2.13929437e-04 3.77461573e-05 -1.02619735e-04 3.77461573e-05 -8.59583772e-04
3.15484795e-04 3.36514233e-05 4.89555039e-05 3.36514233e-05 2.56974756e-04 4.23626198e-05 4.89555039e-05 4.23626198e-05 -9.09556031e-04
3.15658588e-04 -1.17558432e-05 4.31839899e-05 -1.17558432e-05 8.14455125e-05 3.27684884e-05 4.31839899e-05 3.27684884e-05 -7.46446196e-04
3.12334176e-04 -9.91960429e-05 -1.43815644e-04 -9.91960429e-05 1.56216237e-04 -8.43712105e-05 -1.43815644e-04 -8.43712105e-05 -8.54089441e-04
2.74154256e-04 -1.20967500e-05 -1.12321992e-04 -1.20967500e-05 1.92499712e-04 6.82492373e-06 -1.12321992e-04 6.82492373e-06 -8.08154888e-04
2.90938318e-04 -4.41709799e-05 -1.88578105e-04 -4.41709799e-05 2.29960959e-04 3.53703873e-05 -1.88578105e-04 3.53703873e-05 -8.63374997e-04
2.84863090e-04 1.17824436e-06 -9.32226540e-05 1.17824436e-06 8.47853753e-05 -1.80566185e-06 -9.32226540e-05 -1.80566185e-06 -7.23816003e-04
3.00387697e-04 5.85548912e-05 1.58585290e-05 5.85548912e-05 2.36418901e-04 -1.78639120e-05 1.58585290e-05 -1.78639120e-05 -9.00031482e-04
2.45730978e-04 1.78081061e-06 -9.58843593e-05 1.78081061e-06 1.63584995e-04 9.57668976e-06 -9.58843593e-05 9.57668976e-06 -7.40629548e-04
2.54241182e-04 -7.50085405e-05 -1.78050871e-04 -7.50085405e-05 1.55935271e-04 -5.20860692e-06 -1.78050871e-04 -5.20860692e-06 -7.55098357e-04
1.99674098e-04 2.70720884e-05 -9.94252014e-06 2.70720884e-05 1.08443895e-04 -3.26218714e-05 -9.94252014e-06 -3.26218714e-05 -6.69476605e-04
2.67983760e-04 4.72026418e-05 -2.34312363e-05 4.72026418e-05 2.12213876e-04 3.62350329e-05 -2.34312363e-05 3.62350329e-05 -8.28118165e-04
1.88781964e-04 1.26571410e-05 -1.37000552e-04 1.26571410e-05 1.33951153e-04 2.48389578e-05 -1.37000552e-04 2.48389578e-05 -6.57644021e-04
1.89880952e-04 -1.28788220e-05 -3.21324387e-05 -1.28788220e-05 1.80859870e-04 -7.59368419e-06 -3.21324387e-05 -7.59368419e-06 -7.20166543e-04
1.71785359e-04 6.67010390e-05 2.23101770e-05 6.67010390e-05 7.52891610e-05 -4.36052269e-05 2.23101770e-05 -4.36052269e-05 -6.18825812e-04
2.36308071e-04 3.93542000e-05 1.42752815e-05 3.93542000e-05 1.71393018e-04 -2.04988164e-05 1.42752815e-05 -2.04988164e-05 -7.54465495e-04
1.65099606e-04 6.06059712e-05 -1.19161574e-04 6.06059712e-05 1.05042149e-04 3.22512567e-05 -1.19161574e-04 3.22512567e-05 -6.13579294e-04
1.80684918e-04 4.95501890e-05 -2.31219574e-05 4.95501890e-05 1.36369083e-04 1.43206448e-05 -2.31219574e-05 1.43206448e-05 -6.69166882e-04
1.36628616e-04 -1.75744088e-04 3.43019323e-04 -1.75744088e-04 2.55654822e-04 -1.79066284e-04 3.43019323e-04 -1.79066284e-04 -7.33181063e-04
9.74330451e-05 -1.01816537e-04 1.95375866e-04 -1.01816537e-04 2.94113779e-04 -7.07512245e-05 1.95375866e-04 -7.07512245e-05 -6.80756944e-04
3.83522813e-04 -1.06990756e-04 2.58393504e-04 -1.06990756e-04 3.66217162e-04 -4.16405601e-05 2.58393504e-04 -4.16405601e-05 -1.04464173e-03
3.67879635e-04 -2.57837710e-05 4.37528455e-04 -2.57837710e-05 3.18109593e-04 -1.39392552e-04 4.37528455e-04 -1.39392552e-04 -9.77102987e-04
2.91401782e-04 -1.47482874e-04 1.34923333e-04 -1.47482874e-04 2.73358676e-04 -2.32422684e-04 1.34923333e-04 -2.32422684e-04 -9.50985829e-04
2.98127967e-04 -1.38575836e-05 -6.34974913e-05 -1.38575836e-05 3.32409480e-04 -2.41157118e-04 -6.34974913e-05 -2.41157118e-04 -9.16831930e-04
5.08560363e-04 -1.71713488e-04 -7.38082395e-04 -1.71713488e-04 3.40255586e-04 1.06506940e-04 -7.38082395e-04 1.06506940e-04 -1.23364412e-03
2.20120498e-04 2.42462239e-05 -3.41149710e-04 2.42462239e-05 2.31177363e-04 -1.43706360e-04 -3.41149710e-04 -1.43706360e-04 -7.37302945e-04
4.20207180e-04 7.34316736e-05 7.12347810e-06 7.34316736e-05 4.02227866e-04 1.76460751e-04 7.12347810e-06 1.76460751e-04 -1.19470168e-03
3.45330063e-04 -9.30563761e-05 -5.65662549e-04 -9.30563761e-05 1.68001964e-04 2.10785148e-04 -5.65662549e-04 2.10785148e-04 -8.41575186e-04
3.24734188e-04 -1.67095202e-05 -6.28416606e-05 -1.67095202e-05 3.07824466e-04 3.97920103e-05 -6.28416606e-05 3.97920103e-05 -9.68555178e-04
3.03583874e-04 2.90473909e-05 -4.32459797e-05 2.90473909e-05 2.75042592e-04 1.49311134e-04 -4.32459797e-05 1.49311134e-04 -9.41278588e-04
2.97627703e-04 1.99464239e-05 -4.27141131e-05 1.99464239e-05 2.71369820e-04 5.32595313e-05 -4.27141131e-05 5.32595313e-05 -8.91632459e-04
2.96720653e-04 1.59712799e-05 -4.00670233e-05 1.59712799e-05 2.31507533e-04 -1.12316321e-04 -4.00670233e-05 -1.12316321e-04 -8.89419229e-04
1.10658604e-04 -1.09735005e-04 3.92802924e-04 -1.09735005e-04 2.84976870e-04 -5.93477910e-05 3.92802924e-04 -5.93477910e-05 -7.26754835e-04
1.08513559e-05 -4.96242055e-05 2.18210309e-04 -4.96242055e-05 2.16970777e-04 2.36081352e-04 2.18210309e-04 2.36081352e-04 -5.20299196e-04
3.01307163e-04 -8.11196990e-05 3.03995494e-04 -8.11196990e-05 2.88527119e-04 -4.21435727e-04 3.03995494e-04 -4.21435727e-04 -8.42085108e-04
1.64058030e-04 1.08748447e-04 4.12824687e-04 1.08748447e-04 2.35244694e-04 -6.31317729e-04 4.12824687e-04 -6.31317729e-04 -6.37672172e-04
3.53083931e-04 -2.32978433e-04 7.70244507e-04 -2.32978433e-04 5.44849085e-04 -8.88458755e-04 7.70244507e-04 -8.88458755e-04 -1.24382140e-03
4.89685812e-04 -2.33643296e-04 1.17577787e-05 -2.33643296e-04 3.69314954e-04 -4.13015019e-04 1.17577787e-05 -4.13015019e-04 -1.10655129e-03
-4.38432646e-04 -8.08272220e-04 -1.86156144e-03 -8.08272220e-04 -2.37375483e-04 -1.90073648e-03 -1.86156144e-03 -1.90073648e-03 4.42437420e-04
1.20284888e-04 -7.93674311e-05 -2.57066158e-04 -7.93674311e-05 -9.80985351e-06 -2.69322123e-04 -2.57066158e-04 -2.69322123e-04 -3.19355822e-04
5.95060891e-05 1.90378994e-05 9.16566786e-05 1.90378994e-05 1.75186998e-04 2.72306103e-04 9.16566786e-05 2.72306103e-04 -5.18373970e-04
3.59675223e-05 -3.30369785e-05 1.93363648e-04 -3.30369785e-05 1.27683445e-04 1.75940968e-04 1.93363648e-04 1.75940968e-04 -4.38333671e-04
9.26769123e-05 1.04010569e-04 3.46890922e-04 1.04010569e-04 2.06448181e-04 1.50117532e-04 3.46890922e-04 1.50117532e-04 -5.36355544e-04
9.21180028e-05 9.71102436e-05 -3.55669058e-05 9.71102436e-05 2.19906446e-04 -1.40709111e-04 -3.55669058e-05 -1.40709111e-04 -4.98879439e-04
8.22685070e-05 4.96595085e-05 4.57708802e-05 4.96595085e-05 8.64049216e-05 -1.63205509e-05 4.57708802e-05 -1.63205509e-05 -4.53215936e-04
2.34789795e-04 9.88385052e-05 -1.15223449e-04 9.88385052e-05 3.38857926e-04 3.06109303e-04 -1.15223449e-04 3.06109303e-04 -8.25164216e-04
1.87726047e-04 9.35510670e-05 5.72206591e-06 9.35510670e-05 3.69559886e-04 1.77223046e-04 5.72206591e-06 1.77223046e-04 -7.77199923e-04
1.72696432e-05 3.58574948e-05 7.72577550e-05 3.58574948e-05 1.91107447e-04 4.37900941e-04 7.72577550e-05 4.37900941e-04 -4.75605269e-04
4.35556416e-04 5.47809614e-05 8.55181541e-04 5.47809614e-05 5.46489755e-04 4.11262821e-04 8.55181541e-04 4.11262821e-04 -1.32071349e-03
3.16241688e-04 1.20691050e-04 -4.28931054e-04 1.20691050e-04 4.98457588e-04 -3.52611445e-04 -4.28931054e-04 -3.52611445e-04 -1.13455018e-03
9.98010109e-05 -1.09196458e-05 6.78753131e-05 -1.09196458e-05 1.62205026e-04 8.43208363e-05 6.78753131e-05 8.43208363e-05 -5.83936635e-04
2.75729431e-04 2.56000389e-04 -1.78881568e-04 2.56000389e-04 3.84870211e-04 1.24293896e-04 -1.78881568e-04 1.24293896e-04 -9.22032137e-04
1.96611785e-04 7.70035804e-05 1.38456800e-04 7.70035804e-05 4.08955122e-04 -1.94122702e-04 1.38456800e-04 -1.94122702e-04 -8.92947457e-04
3.65995205e-04 1.27319679e-04 -4.44077043e-04 1.27319679e-04 5.30156227e-04 2.22876097e-04 -4.44077043e-04 2.22876097e-04 -1.19236138e-03
4.01439401e-04 2.37716988e-04 3.07371549e-04 2.37716988e-04 5.72738839e-04 -1.19635391e-03 3.07371549e-04 -1.19635391e-03 -1.23668551e-03
4.18117736e-04 -8.64898733e-05 1.86604642e-05 -8.64898733e-05 3.73475671e-04 -3.38630233e-04 1.86604642e-05 -3.38630233e-04 -1.05410102e-03
4.77476467e-04 -6.59666455e-08 4.89187405e-05 -6.59666455e-08 2.16395951e-04 -3.81604750e-05 4.89187405e-05 -3.81604750e-05 -1.04124722e-03
4.34187205e-04 3.79220128e-05 3.95800125e-05 3.79220128e-05 2.42567883e-04 2.68182816e-05 3.95800125e-05 2.68182816e-05 -1.02040285e-03
4.42508775e-04 1.23997792e-04 3.40352638e-05 1.23997792e-04 2.65314326e-04 2.47057947e-05 3.40352638e-05 2.47057947e-05 -1.04551103e-03
5.03465257e-04 2.51782371e-05 8.62066072e-05 2.51782371e-05 2.31014095e-04 -4.74468907e-05 8.62066072e-05 -4.74468907e-05 -1.07896770e-03
3.32314194e-04 6.17299447e-05 -8.92428307e-06 6.17299447e-05 3.08217277e-04 4.93815194e-05 -8.92428307e-06 4.93815194e-05 -9.70129360e-04
3.13138509e-04 1.72031816e-04 -3.92960842e-05 1.72031816e-04 3.03972505e-04 3.54758959e-06 -3.92960842e-05 3.54758959e-06 -9.37923774e-04
2.31090155e-04 3.81488217e-05 -1.08420052e-04 3.81488217e-05 3.48994756e-04 3.66495780e-05 -1.08420052e-04 3.66495780e-05 -8.93358621e-04
2.09197497e-04 9.08446076e-05 -5.81391737e-05 9.08446076e-05 3.14427278e-04 1.87041425e-05 -5.81391737e-05 1.87041425e-05 -8.26255768e-04
1.87119127e-04 -3.77507058e-06 -1.14646631e-04 -3.77507058e-06 3.19468920e-04 1.91589726e-05 -1.14646631e-04 1.91589726e-05 -8.10327445e-04
1.73525663e-04 -3.20849375e-05 -1.00249383e-04 -3.20849375e-05 2.77361276e-04 4.93686157e-05 -1.00249383e-04 4.93686157e-05 -7.49551982e-04
1.93953980e-04 -1.45410042e-05 -7.91323018e-05 -1.45410042e-05 2.75447717e-04 1.46148375e-05 -7.91323018e-05 1.46148375e-05 -7.64403972e-04
1.83792456e-04 -4.31987012e-05 -1.27742193e-04 -4.31987012e-05 2.17185692e-04 4.41575748e-05 -1.27742193e-04 4.41575748e-05 -7.06576808e-04
1.92521547e-04 -3.23005247e-06 -2.48519445e-05 -3.23005247e-06 2.67150950e-04 6.62363709e-05 -2.48519445e-05 6.62363709e-05 -7.48883904e-04
1.86695768e-04 -3.63013141e-05 -3.81762147e-05 -3.63013141e-05 2.09424750e-04 3.16189314e-05 -3.81762147e-05 3.16189314e-05 -7.05748986e-04
5.71363576e-04 1.91697358e-04 3.71156645e-04 1.91697358e-04 2.81508803e-04 -5.23299859e-05 3.71156645e-04 -5.23299859e-05 -1.14812893e-03
6.22324456e-04 8.66459868e-05 4.18569648e-04 8.66459868e-05 3.23266635e-04 -1.95041575e-04 4.18569648e-04 -1.95041575e-04 -1.25476433e-03
3.61620019e-04 1.80412013e-04 -3.46914750e-05 1.80412013e-04 2.76882199e-04 -1.21709472e-05 -3.46914750e-05 -1.21709472e-05 -9.10206596e-04
1.39610070e-04 6.93014103e-05 -1.69111510e-04 6.93014103e-05 1.69825336e-04 1.41072205e-05 -1.69111510e-04 1.41072205e-05 -5.57614319e-04
9.60053377e-05 -8.92837384e-06 -1.79773109e-04 -8.92837384e-06 1.74662132e-04 -5.55245684e-06 -1.79773109e-04 -5.55245684e-06 -4.98966164e-04
1.52441843e-04 -4.49525208e-05 -3.03379983e-04 -4.49525208e-05 1.56498755e-04 -7.39470124e-07 -3.03379983e-04 -7.39470124e-07 -5.45325961e-04
1.56100611e-04 -5.76776232e-05 -2.56601139e-04 -5.76776232e-05 1.39774216e-04 -4.40329744e-05 -2.56601139e-04 -4.40329744e-05 -5.47088576e-04
6.12808474e-04 -7.84843602e-07 8.44789349e-04 -7.84843602e-07 1.37407532e-04 -2.50133490e-04 8.44789349e-04 -2.50133490e-04 -9.83120602e-04
7.71393437e-04 -1.31232451e-04 8.97897058e-04 -1.31232451e-04 3.01016920e-04 -2.27154174e-04 8.97897058e-04 -2.27154174e-04 -1.29220212e-03
3.36307249e-04 7.43803909e-05 7.47704677e-05 7.43803909e-05 1.48500150e-04 -4.75718686e-04 7.47704677e-05 -4.75718686e-04 -7.22765738e-04
1.29122374e-04 4.62607701e-05 -3.13334691e-04 4.62607701e-05 4.94880390e-05 -2.06819834e-04 -3.13334691e-04 -2.06819834e-04 -3.41839647e-04
-8.85737318e-05 -4.98707639e-04 -6.17747835e-04 -4.98707639e-04 -2.66741496e-04 -5.83643676e-04 -6.17747835e-04 -5.83643676e-04 1.52512453e-04
1.43031539e-06 6.47891067e-05 -6.87561522e-05 6.47891067e-05 1.51266835e-05 -7.95320026e-05 -6.87561522e-05 -7.95320026e-05 -8.26632397e-05
5.16190255e-04 -5.28184123e-05 -3.79554942e-04 -5.28184123e-05 3.83923580e-04 2.54215964e-04 -3.79554942e-04 2.54215964e-04 -1.07334052e-03
6.23097032e-04 -7.58683600e-05 -5.23583702e-04 -7.58683600e-05 5.35848840e-04 1.13503459e-04 -5.23583702e-04 1.13503459e-04 -1.30045129e-03
6.78217664e-04 -2.63039110e-05 -2.63818656e-05 -2.63039110e-05 3.57147772e-04 -7.13068293e-04 -2.63818656e-05 -7.13068293e-04 -1.28458865e-03
6.57707812e-04 1.95405168e-05 -5.97939894e-05 1.95405168e-05 8.25954892e-04 1.45540505e-04 -5.97939894e-05 1.45540505e-04 -1.67922679e-03
6.58317600e-04 2.71171302e-05 -1.34922760e-04 2.71171302e-05 7.49076527e-04 -2.45086288e-04 -1.34922760e-04 -2.45086288e-04 -1.59775856e-03
6.21177089e-04 -9.00645628e-05 3.59556511e-04 -9.00645628e-05 6.13819226e-04 2.80168745e-04 3.59556511e-04 2.80168745e-04 -1.44698936e-03
5.71819546e-04 9.73122042e-05 2.11158102e-04 9.73122042e-05 6.47540786e-04 4.14121732e-05 2.11158102e-04 4.14121732e-05 -1.43954105e-03
5.96229031e-04 1.54023781e-04 1.95334200e-04 1.54023781e-04 6.81826452e-04 -4.99001835e-05 1.95334200e-04 -4.99001835e-05 -1.49934311e-03
6.31958661e-04 -2.16127624e-04 5.31840760e-05 -2.16127624e-04 4.46959035e-04 2.16388265e-04 5.31840760e-05 2.16388265e-04 -1.30034110e-03
2.92092733e-04 1.16313666e-04 7.25921479e-05 1.16313666e-04 9.33192596e-05 -1.53077693e-04 7.25921479e-05 -1.53077693e-04 -5.58280888e-04
3.60881953e-04 -1.02458016e-04 -9.76973233e-05 -1.02458016e-04 1.08074383e-04 -2.07797784e-05 -9.76973233e-05 -2.07797784e-05 -6.41880819e-04
-2.32287974e-04 2.75665312e-04 -9.31823306e-05 2.75665312e-04 -1.03748156e-04 -4.88370133e-04 -9.31823306e-05 -4.88370133e-04 2.61550857e-04
-7.81901545e-05 -1.85185214e-04 6.47336128e-05 -1.85185214e-04 -1.37692783e-04 -6.41670544e-04 6.47336128e-05 -6.41670544e-04 1.42987643e-04
-2.00824326e-06 -7.92592600e-05 -2.49357226e-05 -7.92592600e-05 -6.15744284e-06 9.28152294e-05 -2.49357226e-05 9.28152294e-05 -2.23267953e-05
-6.40975037e-05 -4.70926144e-05 -1.74108451e-05 -4.70926144e-05 2.76987381e-05 1.98005995e-05 -1.74108451e-05 1.98005995e-05 -3.23524558e-05
-4.24856080e-06 -2.04282205e-05 9.50239428e-06 -2.04282205e-05 -1.96589508e-06 -4.06126583e-06 9.50239428e-06 -4.06126583e-06 5.22891560e-06
-2.65468157e-06 -9.56979693e-06 8.96820984e-06 -9.56979693e-06 5.81033373e-06 6.10383313e-06 8.96820984e-06 6.10383313e-06 -4.34773847e-06
3.03715547e-06 -3.26003351e-06 -1.51520644e-05 -3.26003351e-06 3.69738814e-07 -1.65029360e-05 -1.51520644e-05 -1.65029360e-05 -4.92898289e-06
7.64410015e-06 -1.39717404e-05 7.19798436e-06 -1.39717404e-05 -6.96185680e-07 1.68877468e-05 7.19798436e-06 1.68877468e-05 -9.24052256e-06
3.14809432e-05 9.80392069e-06 -4.27906648e-06 9.80392069e-06 -1.91431674e-05 -8.77272578e-07 -4.27906648e-06 -8.77272578e-07 -1.22252532e-06
1.46997521e-05 1.14389262e-05 1.23346126e-05 1.14389262e-05 -2.87904580e-05 3.23864530e-06 1.23346126e-05 3.23864530e-06 2.76089397e-06
-1.42483636e-05 9.26630435e-07 -5.17247355e-06 9.26630435e-07 -4.70220903e-06 -5.75391755e-06 -5.17247355e-06 -5.75391755e-06 1.11176014e-05
-2.08124560e-05 -1.87386116e-05 -9.92491732e-06 -1.87386116e-05 8.60486345e-06 -1.06201105e-06 -9.92491732e-06 -1.06201105e-06 9.72131208e-06
5.24612318e-04 -2.13612566e-07 2.24708629e-07 -2.13612566e-07 2.32733320e-04 -1.03593493e-07 2.24708629e-07 -1.03593493e-07 -1.11272058e-03
4.57101632e-04 6.01499087e-05 -2.18790319e-09 6.01499087e-05 2.78603111e-04 5.34795017e-05 -2.18790319e-09 5.34795017e-05 -1.08414708e-03
5.23612143e-04 1.73087095e-04 5.25854030e-05 1.73087095e-04 2.35528430e-04 7.57345042e-05 5.25854030e-05 7.57345042e-05 -1.08944628e-03
6.03349297e-04 5.45268613e-05 2.30971282e-05 5.45268613e-05 1.99234884e-04 1.00590796e-07 2.30971282e-05 1.00590796e-07 -1.14379241e-03
3.17730766e-04 6.55697513e-05 3.52334837e-07 6.55697513e-05 3.53117342e-04 7.96530949e-05 3.52334837e-07 7.96530949e-05 -9.97648429e-04
3.39268066e-04 1.90369217e-04 6.05273535e-05 1.90369217e-04 3.18520433e-04 8.31828784e-05 6.05273535e-05 8.31828784e-05 -9.65666302e-04
2.07607445e-04 5.76248367e-05 -1.69130431e-07 5.76248367e-05 4.05704544e-04 5.51039248e-05 -1.69130431e-07 5.51039248e-05 -9.12549120e-04
1.84155731e-04 1.24138533e-04 4.72426173e-05 1.24138533e-04 3.36585254e-04 7.43980654e-05 4.72426173e-05 7.43980654e-05 -8.11553924e-04
1.64440185e-04 3.32658310e-05 1.42460806e-07 3.32658310e-05 4.11381043e-04 1.35101554e-05 1.42460806e-07 1.35101554e-05 -8.67597671e-04
1.39092710e-04 5.53924756e-05 9.43614177e-05 5.53924756e-05 3.25211498e-04 5.02935800e-05 9.43614177e-05 5.02935800e-05 -7.40721182e-04
2.08055812e-04 -1.78500313e-05 4.23051802e-07 -1.78500313e-05 3.75722957e-04 1.49106831e-05 4.23051802e-07 1.49106831e-05 -8.68400268e-04
1.68548981e-04 -5.41378586e-06 1.30188404e-04 -5.41378586e-06 3.16509075e-04 1.10965805e-05 1.30188404e-04 1.10965805e-05 -7.53792730e-04
2.16561544e-04 -1.17235490e-04 -7.98831934e-08 -1.17235490e-04 3.82831844e-04 1.00108962e-04 -7.98831934e-08 1.00108962e-04 -8.72151344e-04
1.89503437e-04 -8.60910732e-05 1.76412788e-04 -8.60910732e-05 3.18571772e-04 -1.33908406e-05 1.76412788e-04 -1.33908406e-05 -7.75659719e-04
5.10567486e-04 3.08607232e-04 -1.38786851e-04 3.08607232e-04 3.21279595e-04 1.14475091e-04 -1.38786851e-04 1.14475091e-04 -1.15700625e-03
6.42879837e-04 5.92938486e-05 -1.11621917e-04 5.92938486e-05 3.82592640e-04 -6.85395207e-08 -1.11621917e-04 -6.85395207e-08 -1.36086624e-03
2.79343032e-04 3.83790117e-04 -2.47282605e-05 3.83790117e-04 2.37368477e-04 1.21675344e-04 -2.47282605e-05 1.21675344e-04 -8.13851831e-04
1.39075401e-04 1.74339466e-04 6.03843728e-05 1.74339466e-04 2.08815312e-04 8.75076039e-05 6.03843728e-05 8.75076039e-05 -5.94951067e-04
6.13092361e-05 2.97363454e-05 1.02755497e-04 2.97363454e-05 1.51151164e-04 1.05039453e-04 1.02755497e-04 1.05039453e-04 -3.97714321e-04
4.17421402e-05 -8.24310064e-07 1.65730795e-04 -8.24310064e-07 1.12449627e-04 7.90878335e-06 1.65730795e-04 7.90878335e-06 -3.20503910e-04
8.05127852e-05 -6.25431380e-05 1.64580808e-04 -6.25431380e-05 9.32841413e-05 -9.12287287e-05 1.64580808e-04 -9.12287287e-05 -3.51110080e-04
8.10340338e-04 7.50600557e-05 3.74890864e-04 7.50600557e-05 7.42059870e-04 2.22756942e-04 3.74890864e-04 2.22756942e-04 -1.89380191e-03
9.69442248e-04 -8.59680367e-05 3.29199247e-04 -8.59680367e-05 8.47523450e-04 -1.35699338e-07 3.29199247e-04 -1.35699338e-07 -2.16116197e-03
2.51157944e-04 1.59919320e-04 1.18386658e-04 1.59919320e-04 2.38296421e-04 2.90532276e-04 1.18386658e-04 2.90532276e-04 -7.69459875e-04
-9.95352138e-07 7.74134605e-05 1.09643537e-04 7.74134605e-05 9.48849820e-05 1.57187857e-04 1.09643537e-04 1.57187857e-04 -2.41086447e-04
-5.75797480e-06 -2.35205282e-05 5.74299738e-05 -2.35205282e-05 4.51334690e-05 8.13889551e-06 5.74299738e-05 8.13889551e-06 -7.07569993e-05
-3.99519490e-05 -3.20577296e-05 -6.62949496e-05 -3.20577296e-05 1.81861308e-05 -3.10056175e-05 -6.62949496e-05 -3.10056175e-05 -8.79992189e-06
-1.82856984e-05 -1.68754527e-05 9.64075534e-05 -1.68754527e-05 -3.79518660e-05 2.44763946e-05 9.64075534e-05 2.44763946e-05 2.68843667e-05
4.06373238e-06 -4.68452217e-05 -1.13630922e-04 -4.68452217e-05 -4.86190766e-05 -5.52177357e-06 -1.13630922e-04 -5.52177357e-06 2.32485763e-06
4.05804258e-06 -9.91289198e-06 8.79744402e-05 -9.91289198e-06 -9.56318327e-05 -2.02862502e-05 8.79744402e-05 -2.02862502e-05 4.79361979e-05
3.03190554e-05 -1.17373984e-05 -3.31127987e-04 -1.17373984e-05 -1.47473125e-04 -2.77387910e-04 -3.31127987e-04 -2.77387910e-04 3.57553708e-05
-1.77961294e-04 5.98663441e-05 1.37575618e-04 5.98663441e-05 -3.00697193e-05 2.13622880e-04 1.37575618e-04 2.13622880e-04 1.25502906e-04
2.18492904e-04 2.16968605e-04 1.34439024e-05 2.16968605e-04 2.74303777e-04 5.63863723e-04 1.34439024e-05 5.63863723e-04 -7.24555808e-04
2.04681364e-05 5.22167550e-05 -1.95661223e-05 5.22167550e-05 5.05234299e-05 5.13033944e-05 -1.95661223e-05 5.13033944e-05 -1.21678061e-05
-7.10530215e-06 -4.83771388e-06 4.37667950e-05 -4.83771388e-06 5.08448629e-05 -3.27197461e-05 4.37667950e-05 -3.27197461e-05 1.52689060e-05
-3.60813078e-06 3.65441729e-05 5.94227504e-06 3.65441729e-05 3.01825476e-05 5.92069784e-06 5.94227504e-06 5.92069784e-06 -2.25084534e-06
2.27993287e-05 -1.73052931e-05 -1.86388179e-05 -1.73052931e-05 -7.46647356e-06 7.95479423e-06 -1.86388179e-05 7.95479423e-06 8.54292739e-06
1.98283560e-05 -2.39617348e-05 1.12416456e-06 -2.39617348e-05 -4.48326264e-05 -1.38619980e-05 1.12416456e-06 -1.38619980e-05 1.80766438e-05
2.76349297e-05 -1.46027687e-05 -1.97312365e-05 -1.46027687e-05 -6.84110491e-05 -1.05653075e-06 -1.97312365e-05 -1.05653075e-06 3.45378135e-05
1.30219909e-03 2.64328410e-04 -3.20180901e-04 2.64328410e-04 1.28207775e-03 9.51122274e-08 -3.20180901e-04 9.51122274e-08 -2.81528593e-03
1.42991415e-03 -1.72054657e-04 2.00557042e-05 -1.72054657e-04 1.14151649e-03 8.76703765e-04 2.00557042e-05 8.76703765e-04 -2.80153425e-03
8.27553779e-04 -2.30683187e-04 3.29863125e-04 -2.30683187e-04 7.42553753e-04 3.89121434e-04 3.29863125e-04 3.89121434e-04 -1.74920513e-03
9.17131314e-04 -3.49928416e-06 3.60360500e-04 -3.49928416e-06 9.79379896e-04 -1.31834895e-07 3.60360500e-04 -1.31834895e-07 -2.09600118e-03
4.70843702e-06 5.61454954e-06 -2.95607542e-07 5.61454954e-06 -3.57455781e-06 -1.95500756e-05 -2.95607542e-07 -1.95500756e-05 1.29438695e-05
-4.65046748e-05 1.48190162e-05 -1.02212149e-05 1.48190162e-05 2.45462907e-05 9.74710614e-05 -1.02212149e-05 9.74710614e-05 5.06968718e-06
2.45828605e-05 1.41671144e-05 7.63560070e-06 1.41671144e-05 -3.56678884e-05 -3.48077961e-07 7.63560070e-06 -3.48077961e-07 -5.83836857e-06
9.80140554e-04 -3.08849820e-04 1.03901501e-04 -3.08849820e-04 5.36682346e-04 4.31071414e-04 1.03901501e-04 4.31071414e-04 -1.67306449e-03
9.41086386e-04 -2.00723996e-04 4.01302852e-04 -2.00723996e-04 6.27072295e-04 -1.44654223e-07 4.01302852e-04 -1.44654223e-07 -1.73908833e-03
4.83458047e-04 1.48338855e-04 4.31512035e-05 1.48338855e-04 4.80032904e-04 2.28528625e-04 4.31512035e-05 2.28528625e-04 -1.15286332e-03
6.61072583e-04 -9.05358738e-05 -1.19752473e-04 -9.05358738e-05 4.01449142e-04 4.19326549e-04 -1.19752473e-04 4.19326549e-04 -1.25230441e-03
1.96256882e-04 1.05492942e-04 -6.23431370e-05 1.05492942e-04 9.92227287e-05 2.40128182e-04 -6.23431370e-05 2.40128182e-04 -4.83472671e-04
1.96756937e-04 -7.07547467e-05 -2.67596633e-05 -7.07547467e-05 1.36709135e-04 2.56142186e-04 -2.67596633e-05 2.56142186e-04 -5.22331844e-04
-1.03166651e-04 -2.07500125e-05 -8.88699251e-05 -2.07500125e-05 5.50488539e-05 1.04659855e-04 -8.88699251e-05 1.04659855e-04 -1.68043016e-05
-5.69389322e-05 2.04337966e-05 -1.27259445e-05 2.04337966e-05 1.84099681e-05 9.23513255e-07 -1.27259445e-05 9.23513255e-07 3.55529987e-05
-1.88427748e-05 1.08945551e-05 3.36623566e-06 1.08945551e-05 -6.72116767e-06 -6.40165945e-06 3.36623566e-06 -6.40165945e-06 1.25861379e-05
</DataArray>
<DataArray type="Float32" Name="Plastic_strain_components" NumberOfComponents="9" format="ascii">
6.34289137e-08 -1.42015892e-08 1.05429052e-08 -1.42015892e-08 7.74711282e-08 -1.37104674e-08 1.05429052e-08 -1.37104674e-08 -1.18715718e-07
-1.69598604e-07 9.43892349e-07 -5.65518789e-07 9.43892349e-07 3.02892715e-08 1.83533758e-07 -5.65518789e-07 1.83533758e-07 2.02713331e-07
9.03555886e-06 -6.63542941e-06 -3.37894996e-07 -6.63542941e-06 1.44700817e-05 -2.23814139e-06 -3.37894996e-07 -2.23814139e-06 -2.00147928e-05
-4.73439940e-07 1.06002112e-07 -7.86933185e-08 1.06002112e-07 -5.78252411e-07 1.02336315e-07 -7.86933185e-08 1.02336315e-07 8.86106193e-07
-1.31386579e-05 -2.93950668e-06 -1.76830746e-08 -2.93950668e-06 -1.71896838e-05 -5.78287933e-06 -1.76830746e-08 -5.78287933e-06 2.52949269e-05
-1.77569524e-05 -2.08212697e-05 1.52787127e-05 -2.08212697e-05 -2.38284003e-05 3.50217354e-05 1.52787127e-05 3.50217354e-05 3.33888718e-05
1.40421092e-04 2.58316471e-05 4.30173328e-05 2.58316471e-05 1.10802801e-04 -3.07335313e-05 4.30173328e-05 -3.07335313e-05 -2.10800489e-04
5.44016377e-05 6.68218567e-06 6.05712419e-05 6.68218567e-06 6.05161134e-05 9.31716590e-06 6.05712419e-05 9.31716590e-06 -9.65344507e-05
-1.50089902e-05 -2.39033663e-06 7.70510567e-06 -2.39033663e-06 -2.02887558e-05 -6.12612926e-06 7.70510567e-06 -6.12612926e-06 2.92274982e-05
1.46342886e-04 -3.28256573e-05 8.93652107e-05 -3.28256573e-05 1.58329923e-04 6.34712250e-05 8.93652107e-05 6.34712250e-05 -2.56802439e-04
2.51644242e-04 4.51352674e-05 -3.16197635e-04 4.51352674e-05 3.65928441e-04 2.08707391e-04 -3.16197635e-04 2.08707391e-04 -5.16028750e-04
4.14398877e-04 2.69654134e-04 -4.65580597e-04 2.69654134e-04 4.21288729e-04 -8.64392223e-05 -4.65580597e-04 -8.64392223e-05 -6.97656040e-04
0.00000000e+00 0.00000000e+00 0.00000000e+00 0.00000000e+00 0.00000000e+00 0.00000000e+00 0.00000000e+00 0.00000000e+00 0.00000000e+00
0.00000000e+00 0.00000000e+00 0.00000000e+00 0.00000000e+00 0.00000000e+00 0.00000000e+00 0.00000000e+00 0.00000000e+00 0.00000000e+00
0.00000000e+00 0.00000000e+00 0.00000000e+00 0.00000000e+00 0.00000000e+00 0.00000000e+00 0.00000000e+00 0.00000000e+00 0.00000000e+00
0.00000000e+00 0.00000000e+00 0.00000000e+00 0.00000000e+00 0.00000000e+00 0.00000000e+00 0.00000000e+00 0.00000000e+00 0.00000000e+00
0.00000000e+00 0.00000000e+00 0.00000000e+00 0.00000000e+00 0.00000000e+00 0.00000000e+00 0.00000000e+00 0.00000000e+00 0.00000000e+00
0.00000000e+00 0.00000000e+00 0.00000000e+00 0.00000000e+00 0.00000000e+00 0.00000000e+00 0.00000000e+00 0.00000000e+00 0.00000000e+00
0.00000000e+00 0.00000000e+00 0.00000000e+00 0.00000000e+00 0.00000000e+00 0.00000000e+00 0.00000000e+00 0.00000000e+00 0.00000000e+00
0.00000000e+00 0.00000000e+00 0.00000000e+00 0.00000000e+00 0.00000000e+00 0.00000000e+00 0.00000000e+00 0.00000000e+00 0.00000000e+00
1.08469754e-04 -7.58566685e-08 3.25324709e-05 -7.58566685e-08 1.18103930e-04 -1.48926638e-05 3.25324709e-05 -1.48926638e-05 -1.90701307e-04
1.09695888e-04 -8.13014356e-06 2.88089850e-05 -8.13014356e-06 1.06238340e-04 -3.60590826e-06 2.88089850e-05 -3.60590826e-06 -1.81761814e-04
1.10342905e-04 -3.79664672e-05 3.93809228e-05 -3.79664672e-05 1.13593860e-04 6.33897430e-06 3.93809228e-05 6.33897430e-06 -1.88344831e-04
1.04732166e-04 -8.38572089e-06 3.71958236e-05 -8.38572089e-06 1.28229503e-04 -1.81273792e-05 3.71958236e-05 -1.81273792e-05 -1.95978708e-04
1.81965108e-04 4.97834662e-09 1.72936061e-05 4.97834662e-09 1.42658460e-04 -1.16499332e-05 1.72936061e-05 -1.16499332e-05 -2.73283258e-04
1.75050231e-04 1.95565269e-06 7.29248555e-07 1.95565269e-06 1.39414960e-04 1.72267014e-05 7.29248555e-07 1.72267014e-05 -2.64734335e-04
1.93170430e-04 3.86463383e-06 5.91384224e-05 3.86463383e-06 1.70211217e-04 2.33844139e-06 5.91384224e-05 2.33844139e-06 -3.05599606e-04
2.01057581e-04 6.65067944e-07 7.14235016e-05 6.65067944e-07 1.80152110e-04 -3.08055769e-05 7.14235016e-05 -3.08055769e-05 -3.20409010e-04
1.13205617e-04 -1.64116589e-05 3.17593144e-05 -1.64116589e-05 7.73202100e-05 -2.12068886e-06 3.17593144e-05 -2.12068886e-06 -1.60189946e-04
1.28030096e-04 -5.10202603e-05 -2.90419598e-06 -5.10202603e-05 9.87590388e-05 8.32954174e-06 -2.90419598e-06 8.32954174e-06 -1.90528944e-04
1.54978576e-04 1.91031964e-06 -3.47322621e-05 1.91031964e-06 1.30940471e-04 1.31116978e-05 -3.47322621e-05 1.31116978e-05 -2.40684698e-04
1.77760139e-04 1.09340050e-05 1.50037515e-05 1.09340050e-05 1.61266596e-04 1.51639808e-05 1.50037515e-05 1.51639808e-05 -2.85797531e-04
1.13540407e-04 -2.82306777e-06 7.54891198e-06 -2.82306777e-06 5.81521172e-05 8.98858519e-06 7.54891198e-06 8.98858519e-06 -1.44161277e-04
1.52909284e-04 -3.38846952e-05 -5.26931354e-05 -3.38846952e-05 1.05999432e-04 -2.85073219e-05 -5.26931354e-05 -2.85073219e-05 -2.17287794e-04
1.27304758e-04 -3.75660710e-06 -3.41877171e-05 -3.75660710e-06 1.06343687e-04 2.34001664e-06 -3.41877171e-05 2.34001664e-06 -1.96692174e-04
1.57562086e-04 -1.64705212e-05 -6.85352535e-05 -1.64705212e-05 1.39709793e-04 1.28157508e-05 -6.85352535e-05 1.28157508e-05 -2.49670837e-04
9.13136919e-05 -1.97815226e-07 -2.04325888e-05 -1.97815226e-07 5.06759716e-05 1.20913666e-06 -2.04325888e-05 1.20913666e-06 -1.19297112e-04
1.66153164e-04 2.14691256e-05 5.63874426e-06 2.14691256e-05 1.48454547e-04 -5.74135652e-06 5.63874426e-06 -5.74135652e-06 -2.64885544e-04
9.45915981e-05 2.04592261e-07 -2.35620837e-05 2.04592261e-07 7.64554643e-05 2.42718048e-06 -2.35620837e-05 2.42718048e-06 -1.43961846e-04
1.04856154e-04 -2.01050506e-05 -4.63885592e-05 -2.01050506e-05 7.94276684e-05 -1.66227161e-06 -4.63885592e-05 -1.66227161e-06 -1.54704798e-04
4.20333404e-05 3.65488933e-06 -2.40417170e-06 3.65488933e-06 3.06696279e-05 -5.68753381e-06 -2.40417170e-06 -5.68753381e-06 -6.12272079e-05
1.32515379e-04 1.72588777e-05 -8.58257857e-06 1.72588777e-05 1.16729073e-04 1.30455157e-05 -8.58257857e-06 1.30455157e-05 -2.09843665e-04
4.59070015e-05 2.29815879e-06 -1.79660212e-05 2.29815879e-06 3.77521988e-05 2.48543408e-06 -1.79660212e-05 2.48543408e-06 -7.03608230e-05
6.64268287e-05 -2.17419377e-06 -6.54841593e-06 -2.17419377e-06 6.66701626e-05 -2.93492777e-06 -6.54841593e-06 -2.93492777e-06 -1.12185026e-04
8.91438731e-06 3.92964444e-06 4.80902031e-07 3.92964444e-06 5.83362953e-06 -1.95721316e-06 4.80902031e-07 -1.95721316e-06 -1.24100186e-05
9.28923746e-05 9.82057520e-06 3.00641159e-06 9.82057520e-06 8.03434723e-05 -2.69178659e-06 3.00641159e-06 -2.69178659e-06 -1.45869111e-04
1.75012610e-05 3.87352242e-06 -5.55384543e-06 3.87352242e-06 1.36875005e-05 2.81303477e-06 -5.55384543e-06 2.81303477e-06 -2.62474878e-05
4.16853395e-05 8.39623863e-06 -6.26550286e-06 8.39623863e-06 3.77279121e-05 4.24998458e-06 -6.26550286e-06 4.24998458e-06 -6.68593443e-05
8.32661485e-05 -4.78133475e-05 1.02993881e-04 -4.78133475e-05 1.18664231e-04 -4.61753442e-05 1.02993881e-04 -4.61753442e-05 -1.67287555e-04
5.27476113e-05 -2.34430017e-05 4.03714075e-05 -2.34430017e-05 1.00231908e-04 -1.36888075e-05 4.03714075e-05 -1.36888075e-05 -1.28283717e-04
2.58885457e-04 -5.28710898e-05 1.00062837e-04 -5.28710898e-05 2.62770785e-04 -2.11969605e-05 1.00062837e-04 -2.11969605e-05 -4.39132378e-04
2.38070781e-04 -1.27373062e-05 1.77999376e-04 -1.27373062e-05 2.30522703e-04 -6.57461451e-05 1.77999376e-04 -6.57461451e-05 -3.92888614e-04
1.82167738e-04 -5.42023364e-05 5.21738083e-05 -5.42023364e-05 1.70322964e-04 -7.71905683e-05 5.21738083e-05 -7.71905683e-05 -2.98456087e-04
1.86490707e-04 -1.02775948e-05 -4.50872235e-05 -1.02775948e-05 2.08437285e-04 -1.02696418e-04 -4.50872235e-05 -1.02696418e-04 -3.31581412e-04
3.93887761e-04 -9.44023048e-05 -3.89311157e-04 -9.44023048e-05 3.03448984e-04 4.68756247e-05 -3.89311157e-04 4.68756247e-05 -5.80230885e-04
1.06797710e-04 2.77747469e-06 -9.91071420e-05 2.77747469e-06 1.10515781e-04 -5.80287937e-05 -9.91071420e-05 -5.80287937e-05 -1.80927958e-04
3.13176646e-04 4.15258207e-05 1.11498143e-05 4.15258207e-05 3.01387154e-04 8.82894237e-05 1.11498143e-05 8.82894237e-05 -5.17476044e-04
1.92070375e-04 -3.22507915e-05 -1.98133219e-04 -3.22507915e-05 1.40975279e-04 6.17446836e-05 -1.98133219e-04 6.17446836e-05 -2.75993938e-04
2.06383054e-04 -2.98298062e-06 -2.69161659e-05 -2.98298062e-06 1.99172948e-04 1.86748414e-05 -2.69161659e-05 1.86748414e-05 -3.41491541e-04
1.82715841e-04 1.30737467e-05 -5.52164350e-06 1.30737467e-05 1.74325105e-04 5.93702966e-05 -5.52164350e-06 5.93702966e-05 -3.00526946e-04
1.71175554e-04 6.10020766e-06 -1.37839370e-05 6.10020766e-06 1.62617791e-04 2.04003218e-05 -1.37839370e-05 2.04003218e-05 -2.81101471e-04
1.61715936e-04 5.21078186e-06 -1.28239567e-05 5.21078186e-06 1.43388628e-04 -2.61806991e-05 -1.28239567e-05 -2.61806991e-05 -2.56882122e-04
8.63256899e-05 -2.45593124e-05 1.13673559e-04 -2.45593124e-05 1.35274942e-04 1.53104250e-05 1.13673559e-04 1.53104250e-05 -1.84005236e-04
-7.94170410e-06 -3.31209997e-06 -8.21963749e-06 -3.31209997e-06 1.21053381e-06 2.01967450e-05 -8.21963749e-06 2.01967450e-05 5.48835851e-06
1.76396235e-04 -3.12681867e-05 1.08789536e-04 -3.12681867e-05 1.88523492e-04 -1.89608750e-04 1.08789536e-04 -1.89608750e-04 -3.04522189e-04
8.90723672e-05 3.53073540e-05 1.16738302e-04 3.53073540e-05 1.25969616e-04 -1.78795804e-04 1.16738302e-04 -1.78795804e-04 -1.76692816e-04
3.11012554e-04 -1.38672529e-04 4.33910925e-04 -1.38672529e-04 4.38737785e-04 -5.53410892e-04 4.33910925e-04 -5.53410892e-04 -6.14040342e-04
3.52161287e-04 -1.29098944e-04 -8.82709865e-06 -1.29098944e-04 2.89225150e-04 -2.38455946e-04 -8.82709865e-06 -2.38455946e-04 -5.32046385e-04
-1.12247551e-04 -4.52932611e-04 -1.13947515e-03 -4.52932611e-04 -4.58040959e-05 -1.00350764e-03 -1.13947515e-03 -1.00350764e-03 2.80757929e-04
-9.01818415e-06 6.09754607e-05 9.31223573e-05 6.09754607e-05 -4.23265337e-05 7.84596038e-05 9.31223573e-05 7.84596038e-05 3.13409000e-05
5.42431824e-07 2.32485405e-07 -1.15029417e-05 2.32485405e-07 8.22056401e-07 7.35087833e-06 -1.15029417e-05 7.35087833e-06 -1.92193274e-06
1.54868877e-06 5.86957128e-07 4.62905234e-06 5.86957128e-07 1.53777808e-06 -3.13369463e-06 4.62905234e-06 -3.13369463e-06 -2.47252615e-06
1.13922388e-05 3.13090236e-05 5.27216571e-05 3.13090236e-05 4.51080659e-05 3.87283937e-05 5.27216571e-05 3.87283937e-05 -4.79797742e-05
1.18393436e-05 1.37784363e-05 -4.41986019e-05 1.37784363e-05 3.11430122e-05 -1.09819181e-05 -4.41986019e-05 -1.09819181e-05 -3.76686075e-05
-4.15602210e-06 -1.05786737e-06 8.21043074e-07 -1.05786737e-06 -6.95250449e-06 -1.64529898e-06 8.21043074e-07 -1.64529898e-06 9.29851439e-06
1.70474268e-04 3.21809428e-05 -6.36261328e-05 3.21809428e-05 2.07887698e-04 1.61010409e-04 -6.36261328e-05 1.61010409e-04 -3.15953421e-04
1.20712309e-04 3.12279603e-05 1.72797544e-05 3.12279603e-05 1.75537517e-04 5.81676370e-05 1.72797544e-05 5.81676370e-05 -2.49454293e-04
6.03709195e-05 6.25509142e-06 7.18346200e-05 6.25509142e-06 9.98818359e-05 1.21252120e-04 7.18346200e-05 1.21252120e-04 -1.28080374e-04
3.49217968e-04 4.38457209e-06 4.85833203e-04 4.38457209e-06 4.73955610e-04 2.59290156e-04 4.85833203e-04 2.59290156e-04 -6.86974017e-04
2.67351526e-04 3.22552132e-05 -2.94790193e-04 3.22552132e-05 4.02587639e-04 -2.06000169e-04 -2.94790193e-04 -2.06000169e-04 -5.52786297e-04
1.42415001e-05 -2.08094406e-07 9.70093424e-06 -2.08094406e-07 1.64514040e-05 5.63417007e-06 9.70093424e-06 5.63417007e-06 -2.58173241e-05
1.79175437e-04 1.14856094e-04 -1.03162756e-04 1.14856094e-04 2.32382565e-04 4.79186558e-05 -1.03162756e-04 4.79186558e-05 -3.46313267e-04
1.41448385e-04 2.96872240e-05 5.30028003e-05 2.96872240e-05 2.27157048e-04 -5.91854896e-05 5.30028003e-05 -5.91854896e-05 -3.09841715e-04
3.00184503e-04 6.40465460e-05 -2.64272376e-04 6.40465460e-05 3.94520132e-04 1.33948784e-04 -2.64272376e-04 1.33948784e-04 -5.79743471e-04
3.58194467e-04 1.45652941e-04 1.66580074e-04 1.45652941e-04 4.26025212e-04 -6.87225984e-04 1.66580074e-04 -6.87225984e-04 -6.46984593e-04
2.81977150e-04 -2.84496406e-05 2.83010534e-05 -2.84496406e-05 2.45557026e-04 -1.68152723e-04 2.83010534e-05 -1.68152723e-04 -4.42851558e-04
2.92502737e-04 -3.78982747e-08 1.81105552e-05 -3.78982747e-08 1.88253740e-04 -1.57480958e-05 1.81105552e-05 -1.57480958e-05 -4.04220904e-04
2.65943589e-04 1.62166425e-05 1.36569413e-05 1.62166425e-05 1.92992939e-04 1.08813376e-05 1.36569413e-05 1.08813376e-05 -3.86135434e-04
2.78912170e-04 5.42662992e-05 1.09130352e-05 5.42662992e-05 2.10305634e-04 9.65532831e-06 1.09130352e-05 9.65532831e-06 -4.11599212e-04
3.17708087e-04 1.18482196e-05 3.54481017e-05 1.18482196e-05 2.04617241e-04 -1.95184416e-05 3.54481017e-05 -1.95184416e-05 -4.39240648e-04
2.07672118e-04 2.37644645e-05 -6.64774200e-06 2.37644645e-05 2.03728883e-04 1.91256705e-05 -6.64774200e-06 1.91256705e-05 -3.46428758e-04
1.93882594e-04 6.68342232e-05 -1.93636183e-05 6.68342232e-05 1.95637598e-04 8.04609726e-07 -1.93636183e-05 8.04609726e-07 -3.27555957e-04
1.50481337e-04 1.28076576e-05 -3.88605513e-05 1.28076576e-05 1.94746663e-04 1.27222959e-05 -3.88605513e-05 1.27222959e-05 -2.90506425e-04
1.23413813e-04 2.81945142e-05 -1.87662121e-05 2.81945142e-05 1.60936268e-04 8.52404821e-06 -1.87662121e-05 8.52404821e-06 -2.39181642e-04
1.13937820e-04 -2.17360000e-06 -3.17437443e-05 -2.17360000e-06 1.52673401e-04 5.61058056e-06 -3.17437443e-05 5.61058056e-06 -2.24339219e-04
8.93788456e-05 -9.26698049e-06 -2.63248899e-05 -9.26698049e-06 1.19065257e-04 1.40734948e-05 -2.63248899e-05 1.40734948e-05 -1.75219018e-04
1.00658035e-04 -4.47819957e-06 -1.66074146e-05 -4.47819957e-06 1.21367766e-04 3.65057520e-06 -1.66074146e-05 3.65057520e-06 -1.86945992e-04
7.50170902e-05 -9.80444884e-06 -2.55433737e-05 -9.80444884e-06 8.23215232e-05 1.00228942e-05 -2.55433737e-05 1.00228942e-05 -1.32154120e-04
9.51708244e-05 -4.05699012e-08 -4.09980180e-06 -4.05699012e-08 1.13348658e-04 1.63646341e-05 -4.09980180e-06 1.63646341e-05 -1.75610177e-04
7.40777587e-05 -6.55758467e-06 -4.56272801e-06 -6.55758467e-06 7.92173637e-05 5.15933183e-06 -4.56272801e-06 5.15933183e-06 -1.28914095e-04
3.97593456e-04 1.01508426e-04 2.04577636e-04 1.01508426e-04 2.55699315e-04 -2.13711144e-05 2.04577636e-04 -2.13711144e-05 -5.45700401e-04
4.49597268e-04 4.93194166e-05 2.44720096e-04 4.93194166e-05 3.02947767e-04 -1.04292738e-04 2.44720096e-04 -1.04292738e-04 -6.28968046e-04
2.13052105e-04 7.24813067e-05 -1.45855547e-05 7.24813067e-05 1.81347773e-04 6.87302986e-07 -1.45855547e-05 6.87302986e-07 -3.32199385e-04
1.67800703e-05 5.84072261e-06 -1.58751050e-05 5.84072261e-06 1.95136801e-05 3.56274086e-08 -1.58751050e-05 3.56274086e-08 -3.04608025e-05
-5.05555805e-06 -7.34562881e-07 1.27074049e-05 -7.34562881e-07 1.18908767e-06 1.41725198e-06 1.27074049e-05 1.41725198e-06 2.80814857e-06
4.62540887e-05 -5.61540917e-06 -3.99657711e-05 -5.61540917e-06 4.97074719e-05 -1.02386336e-06 -3.99657711e-05 -1.02386336e-06 -8.04494151e-05
2.82451632e-05 -3.07384228e-06 -1.92651726e-05 -3.07384228e-06 3.09849905e-05 -4.46835300e-06 -1.92651726e-05 -4.46835300e-06 -4.97472841e-05
4.14008612e-04 6.52555976e-06 4.50621815e-04 6.52555976e-06 1.88574826e-04 -1.43474889e-04 4.50621815e-04 -1.43474889e-04 -4.93371881e-04
5.75035665e-04 -7.53874386e-05 5.54190803e-04 -7.53874386e-05 3.20029336e-04 -1.38855292e-04 5.54190803e-04 -1.38855292e-04 -7.41613874e-04
1.56753460e-04 3.20855800e-05 1.03931863e-05 3.20855800e-05 7.96463937e-05 -1.88494447e-04 1.03931863e-05 -1.88494447e-04 -1.96553855e-04
-5.45053437e-06 1.89847757e-06 -7.38156117e-06 1.89847757e-06 -4.83400117e-06 -1.10000504e-07 -7.38156117e-06 -1.10000504e-07 8.79831608e-06
-2.98576670e-05 1.41652799e-05 6.48568384e-05 1.41652799e-05 -1.34690727e-05 1.40308530e-05 6.48568384e-05 1.40308530e-05 3.34033284e-05
1.60006748e-06 -7.59114982e-07 -3.47566711e-06 -7.59114982e-07 7.21805372e-07 -7.51911102e-07 -3.47566711e-06 -7.51911102e-07 -1.79007875e-06
3.77341068e-04 -3.90594289e-05 -2.86821305e-04 -3.90594289e-05 3.90968394e-04 2.11712671e-04 -2.86821305e-04 2.11712671e-04 -6.26904377e-04
4.64949990e-04 -6.20866619e-05 -3.69443878e-04 -6.20866619e-05 4.70388534e-04 7.14071721e-05 -3.69443878e-04 7.14071721e-05 -7.81584250e-04
4.76248752e-04 -1.20185850e-05 -4.81751340e-05 -1.20185850e-05 2.82554080e-04 -4.64116121e-04 -4.81751340e-05 -4.64116121e-04 -6.35903722e-04
5.64162901e-04 1.55790509e-05 -5.77510242e-05 1.55790509e-05 6.84423663e-04 9.38063107e-05 -5.77510242e-05 9.38063107e-05 -1.05096056e-03
5.55141494e-04 2.82634965e-05 -1.08702460e-04 2.82634965e-05 6.12666663e-04 -1.51648223e-04 -1.08702460e-04 -1.51648223e-04 -9.83754406e-04
5.09148449e-04 -5.42740572e-05 2.02892946e-04 -5.42740572e-05 5.04680058e-04 1.75663089e-04 2.02892946e-04 1.75663089e-04 -8.51072153e-04
4.64762401e-04 7.25007521e-05 1.13017722e-04 7.25007521e-05 5.20095651e-04 3.45654043e-05 1.13017722e-04 3.45654043e-05 -8.29374476e-04
5.09565747e-04 9.55079680e-05 1.30820184e-04 9.55079680e-05 5.36184387e-04 -1.33058984e-05 1.30820184e-04 -1.33058984e-05 -8.80731415e-04
4.92978063e-04 -1.17911561e-04 4.05256442e-05 -1.17911561e-04 3.50666960e-04 1.30809376e-04 4.05256442e-05 1.30809376e-04 -7.08485764e-04
5.56806108e-05 4.21662378e-05 7.92396395e-06 4.21662378e-05 -5.11683788e-06 9.25155291e-06 7.92396395e-06 9.25155291e-06 -4.40394765e-05
1.34206479e-04 -2.92696764e-05 -2.99515605e-05 -2.92696764e-05 3.19497449e-05 3.02058143e-05 -2.99515605e-05 3.02058143e-05 -1.38536665e-04
-3.21460971e-06 -1.21184676e-05 -1.91067302e-05 -1.21184676e-05 -5.53278478e-05 8.39007043e-05 -1.91067302e-05 8.39007043e-05 4.54991605e-05
-2.15453347e-05 3.90036039e-05 1.17463915e-05 3.90036039e-05 -6.15425961e-05 8.86036651e-05 1.17463915e-05 8.86036651e-05 6.72679816e-05
-1.57865884e-06 8.36423794e-07 -1.03074214e-07 8.36423794e-07 1.96857536e-06 -5.65176515e-06 -1.03074214e-07 -5.65176515e-06 -6.45452474e-08
-5.48983129e-06 -1.96053740e-06 3.47135817e-06 -1.96053740e-06 -3.63917782e-06 -1.24356763e-05 3.47135817e-06 -1.24356763e-05 7.85862479e-06
0.00000000e+00 0.00000000e+00 0.00000000e+00 0.00000000e+00 0.00000000e+00 0.00000000e+00 0.00000000e+00 0.00000000e+00 0.00000000e+00
0.00000000e+00 0.00000000e+00 0.00000000e+00 0.00000000e+00 0.00000000e+00 0.00000000e+00 0.00000000e+00 0.00000000e+00 0.00000000e+00
0.00000000e+00 0.00000000e+00 0.00000000e+00 0.00000000e+00 0.00000000e+00 0.00000000e+00 0.00000000e+00 0.00000000e+00 0.00000000e+00
0.00000000e+00 0.00000000e+00 0.00000000e+00 0.00000000e+00 0.00000000e+00 0.00000000e+00 0.00000000e+00 0.00000000e+00 0.00000000e+00
0.00000000e+00 0.00000000e+00 0.00000000e+00 0.00000000e+00 0.00000000e+00 0.00000000e+00 0.00000000e+00 0.00000000e+00 0.00000000e+00
0.00000000e+00 0.00000000e+00 0.00000000e+00 0.00000000e+00 0.00000000e+00 0.00000000e+00 0.00000000e+00 0.00000000e+00 0.00000000e+00
0.00000000e+00 0.00000000e+00 0.00000000e+00 0.00000000e+00 0.00000000e+00 0.00000000e+00 0.00000000e+00 0.00000000e+00 0.00000000e+00
0.00000000e+00 0.00000000e+00 0.00000000e+00 0.00000000e+00 0.00000000e+00 0.00000000e+00 0.00000000e+00 0.00000000e+00 0.00000000e+00
3.37937818e-04 -1.91901336e-07 1.61554681e-08 -1.91901336e-07 2.12853192e-04 -2.28026522e-08 1.61554681e-08 -2.28026522e-08 -4.63064382e-04
2.96375700e-04 2.60079660e-05 -8.02454281e-08 2.60079660e-05 2.24263633e-04 2.26320117e-05 -8.02454281e-08 2.26320117e-05 -4.38128467e-04
3.39317463e-04 8.18441113e-05 2.37768172e-05 8.18441113e-05 2.09447211e-04 3.31017309e-05 2.37768172e-05 3.31017309e-05 -4.60811440e-04
3.95421041e-04 2.72283714e-05 1.14601739e-05 2.72283714e-05 2.04332551e-04 1.59546829e-08 1.14601739e-05 1.59546829e-08 -5.03370626e-04
2.12205807e-04 2.66588659e-05 -4.92674701e-08 2.66588659e-05 2.31615064e-04 3.03662637e-05 -4.92674701e-08 3.03662637e-05 -3.73634699e-04
2.16732922e-04 7.98989759e-05 2.37903132e-05 7.98989759e-05 2.11656035e-04 3.29272889e-05 2.37903132e-05 3.29272889e-05 -3.60199352e-04
1.51112254e-04 2.14717747e-05 2.54869548e-07 2.14717747e-05 2.27459052e-04 1.97366726e-05 2.54869548e-07 1.97366726e-05 -3.18344217e-04
1.14590301e-04 3.92644297e-05 1.54489601e-05 3.92644297e-05 1.66284150e-04 2.31589306e-05 1.54489601e-05 2.31589306e-05 -2.36050153e-04
1.27001244e-04 1.07314208e-05 5.16903725e-07 1.07314208e-05 2.12598054e-04 5.18628076e-06 5.16903725e-07 5.18628076e-06 -2.85424976e-04
7.90877366e-05 1.44016330e-05 2.66586658e-05 1.44016330e-05 1.35971575e-04 1.53237647e-05 2.66586658e-05 1.53237647e-05 -1.80662555e-04
1.41029261e-04 -5.00161036e-06 7.50654976e-07 -5.00161036e-06 2.00157192e-04 4.01392958e-06 7.50654976e-07 4.01392958e-06 -2.87095725e-04
8.55412618e-05 -6.02899490e-08 3.79452667e-05 -6.02899490e-08 1.33620711e-04 3.90814057e-06 3.79452667e-05 3.90814057e-06 -1.84316257e-04
1.47774830e-04 -3.71534115e-05 7.66354333e-07 -3.71534115e-05 2.08013997e-04 3.35696132e-05 7.66354333e-07 3.35696132e-05 -2.99259962e-04
1.01458802e-04 -2.31370195e-05 5.35782819e-05 -2.31370195e-05 1.51704968e-04 -4.53137375e-06 5.35782819e-05 -4.53137375e-06 -2.12703839e-04
3.57218443e-04 1.62529701e-04 -7.85994616e-05 1.62529701e-04 2.63246362e-04 5.57642570e-05 -7.85994616e-05 5.57642570e-05 -5.21043759e-04
4.83208525e-04 4.15175200e-05 -7.60788716e-05 4.15175200e-05 3.40602281e-04 1.78279493e-07 -7.60788716e-05 1.78279493e-07 -6.92843692e-04
1.57806960e-04 1.37944566e-04 -7.84263057e-06 1.37944566e-04 1.40054875e-04 3.98976026e-05 -7.84263057e-06 3.98976026e-05 -2.48932094e-04
2.37085792e-05 1.64169282e-05 9.41123039e-06 1.64169282e-05 3.51428741e-05 1.04378714e-05 9.41123039e-06 1.04378714e-05 -4.93923126e-05
-1.24325497e-05 -4.01064869e-06 -3.68803148e-06 -4.01064869e-06 -1.86137067e-05 -2.73567593e-06 -3.68803148e-06 -2.73567593e-06 2.61112209e-05
-9.64544370e-06 -5.17163130e-08 -4.90064622e-06 -5.17163130e-08 -1.30425501e-05 -4.42539942e-07 -4.90064622e-06 -4.42539942e-07 1.91234121e-05
-1.18893677e-05 3.48444564e-06 -6.47353181e-06 3.48444564e-06 -1.39225549e-05 7.89740795e-07 -6.47353181e-06 7.89740795e-07 2.17226261e-05
7.16744456e-04 7.43782111e-05 1.99239585e-04 7.43782111e-05 6.52359362e-04 1.40411023e-04 1.99239585e-04 1.40411023e-04 -1.15434721e-03
8.68522446e-04 -4.52242093e-05 1.79766794e-04 -4.52242093e-05 7.81191338e-04 3.83086785e-07 1.79766794e-04 3.83086785e-07 -1.39022619e-03
1.14341571e-04 5.46991469e-05 2.79836543e-05 5.46991469e-05 9.74843279e-05 8.49774297e-05 2.79836543e-05 8.49774297e-05 -1.78180594e-04
-1.11534780e-05 -9.14805310e-06 -4.26575309e-06 -9.14805310e-06 -1.52010750e-05 -1.00701495e-05 -4.26575309e-06 -1.00701495e-05 2.20712950e-05
0.00000000e+00 0.00000000e+00 0.00000000e+00 0.00000000e+00 0.00000000e+00 0.00000000e+00 0.00000000e+00 0.00000000e+00 0.00000000e+00
0.00000000e+00 0.00000000e+00 0.00000000e+00 0.00000000e+00 0.00000000e+00 0.00000000e+00 0.00000000e+00 0.00000000e+00 0.00000000e+00
0.00000000e+00 0.00000000e+00 0.00000000e+00 0.00000000e+00 0.00000000e+00 0.00000000e+00 0.00000000e+00 0.00000000e+00 0.00000000e+00
0.00000000e+00 0.00000000e+00 0.00000000e+00 0.00000000e+00 0.00000000e+00 0.00000000e+00 0.00000000e+00 0.00000000e+00 0.00000000e+00
0.00000000e+00 0.00000000e+00 0.00000000e+00 0.00000000e+00 0.00000000e+00 0.00000000e+00 0.00000000e+00 0.00000000e+00 0.00000000e+00
-2.98351042e-05 5.03934052e-06 -8.10829988e-06 5.03934052e-06 -1.64727535e-05 4.24249301e-05 -8.10829988e-06 4.24249301e-05 3.80847778e-05
-3.60959734e-06 -6.91953983e-06 -7.39662482e-07 -6.91953983e-06 -7.46424894e-06 -2.04988373e-05 -7.39662482e-07 -2.04988373e-05 9.42429961e-06
2.69423945e-05 5.16481450e-05 5.52091069e-06 5.16481450e-05 5.57139101e-05 1.53005414e-04 5.52091069e-06 1.53005414e-04 -7.03439146e-05
0.00000000e+00 0.00000000e+00 0.00000000e+00 0.00000000e+00 0.00000000e+00 0.00000000e+00 0.00000000e+00 0.00000000e+00 0.00000000e+00
0.00000000e+00 0.00000000e+00 0.00000000e+00 0.00000000e+00 0.00000000e+00 0.00000000e+00 0.00000000e+00 0.00000000e+00 0.00000000e+00
0.00000000e+00 0.00000000e+00 0.00000000e+00 0.00000000e+00 0.00000000e+00 0.00000000e+00 0.00000000e+00 0.00000000e+00 0.00000000e+00
0.00000000e+00 0.00000000e+00 0.00000000e+00 0.00000000e+00 0.00000000e+00 0.00000000e+00 0.00000000e+00 0.00000000e+00 0.00000000e+00
0.00000000e+00 0.00000000e+00 0.00000000e+00 0.00000000e+00 0.00000000e+00 0.00000000e+00 0.00000000e+00 0.00000000e+00 0.00000000e+00
0.00000000e+00 0.00000000e+00 0.00000000e+00 0.00000000e+00 0.00000000e+00 0.00000000e+00 0.00000000e+00 0.00000000e+00 0.00000000e+00
1.21730706e-03 1.99951566e-04 -1.93787710e-04 1.99951566e-04 1.19914720e-03 7.53278528e-07 -1.93787710e-04 7.53278528e-07 -2.03651888e-03
1.32053532e-03 -1.13255068e-04 9.23449697e-05 -1.13255068e-04 1.09677017e-03 6.39861217e-04 9.23449697e-05 6.39861217e-04 -2.03180336e-03
7.13182186e-04 -1.56382305e-04 2.22057667e-04 -1.56382305e-04 6.36758884e-04 2.55994411e-04 2.22057667e-04 2.55994411e-04 -1.13479498e-03
8.32217309e-04 -6.99472093e-06 2.71479192e-04 -6.99472093e-06 8.56881292e-04 1.68187853e-07 2.71479192e-04 1.68187853e-07 -1.42172968e-03
0.00000000e+00 0.00000000e+00 0.00000000e+00 0.00000000e+00 0.00000000e+00 0.00000000e+00 0.00000000e+00 0.00000000e+00 0.00000000e+00
0.00000000e+00 0.00000000e+00 0.00000000e+00 0.00000000e+00 0.00000000e+00 0.00000000e+00 0.00000000e+00 0.00000000e+00 0.00000000e+00
0.00000000e+00 0.00000000e+00 0.00000000e+00 0.00000000e+00 0.00000000e+00 0.00000000e+00 0.00000000e+00 0.00000000e+00 0.00000000e+00
8.00766225e-04 -1.97670339e-04 6.13344328e-05 -1.97670339e-04 4.91499624e-04 2.88556301e-04 6.13344328e-05 2.88556301e-04 -1.08438137e-03
7.83904281e-04 -1.22936064e-04 2.66072806e-04 -1.22936064e-04 5.58299304e-04 1.02851618e-06 2.66072806e-04 1.02851618e-06 -1.12844491e-03
3.61677550e-04 8.45690920e-05 4.92849949e-06 8.45690920e-05 3.40347848e-04 1.25879931e-04 4.92849949e-06 1.25879931e-04 -5.91888383e-04
5.06789584e-04 -3.54552740e-05 -6.92307367e-05 -3.54552740e-05 3.18055812e-04 2.36779684e-04 -6.92307367e-05 2.36779684e-04 -6.91801601e-04
2.22206218e-05 1.75072619e-05 -8.12048711e-06 1.75072619e-05 -3.73951343e-06 2.27927558e-05 -8.12048711e-06 2.27927558e-05 -1.54636036e-05
5.00615133e-05 -8.44417718e-06 -2.08880601e-06 -8.44417718e-06 9.84151484e-06 3.23110435e-05 -2.08880601e-06 3.23110435e-05 -5.01869254e-05
0.00000000e+00 0.00000000e+00 0.00000000e+00 0.00000000e+00 0.00000000e+00 0.00000000e+00 0.00000000e+00 0.00000000e+00 0.00000000e+00
0.00000000e+00 0.00000000e+00 0.00000000e+00 0.00000000e+00 0.00000000e+00 0.00000000e+00 0.00000000e+00 0.00000000e+00 0.00000000e+00
0.00000000e+00 0.00000000e+00 0.00000000e+00 0.00000000e+00 0.00000000e+00 0.00000000e+00 0.00000000e+00 0.00000000e+00 0.00000000e+00
</DataArray>
<DataArray type="Float32" Name="Spatial_displacement" NumberOfComponents="3" format="ascii">
1.01240541e-04 9.50202812e-04 -9.93276481e-04
1.96034394e-04 9.13803698e-04 -8.58764281e-04
1.59655829e-04 1.06093427e-03 -1.08726427e-03
7.52430933e-05 1.07910344e-03 -1.13740703e-03
7.51353800e-05 1.13015226e-03 -1.49172137e-03
1.08684137e-04 1.18407595e-03 -1.41969172e-03
3.17380182e-06 1.36563706e-03 -1.79821998e-03
3.42263520e-05 1.16606371e-03 -1.60343468e-03
2.93074932e-04 8.76666047e-04 -7.64577242e-04
2.64602888e-04 1.00421335e-03 -9.67968372e-04
2.68510485e-04 1.11312466e-03 -1.19417941e-03
5.05434291e-04 1.65157579e-03 -2.38493131e-03
4.23751771e-04 9.43713239e-04 4.80041490e-06
4.23280057e-04 1.01572322e-03 -2.17267661e-05
3.52810079e-04 1.01682043e-03 -6.76402124e-07
3.48709873e-04 9.46825836e-04 2.29434227e-05
4.52641340e-04 9.20694903e-04 2.84853741e-06
4.51202097e-04 9.96847637e-04 -2.41039379e-05
3.76820390e-04 9.94256930e-04 -1.89125421e-06
3.77964810e-04 9.20425868e-04 2.80211098e-05
0.00000000e+00 0.00000000e+00 -2.25295639e-03
2.24484393e-04 0.00000000e+00 -2.30832165e-03
1.97754940e-04 2.29933357e-04 -2.19619041e-03
0.00000000e+00 2.55522318e-04 -2.12943670e-03
0.00000000e+00 0.00000000e+00 -3.04498849e-03
3.43096384e-04 0.00000000e+00 -3.08346236e-03
3.49975482e-04 2.12998682e-04 -3.07933521e-03
0.00000000e+00 2.10840750e-04 -2.99481163e-03
4.87273384e-04 0.00000000e+00 -2.46927748e-03
4.23055608e-04 1.36518283e-04 -2.33246083e-03
6.70280890e-04 0.00000000e+00 -3.19234794e-03
6.79360703e-04 2.30187463e-04 -3.29495128e-03
7.73171778e-04 0.00000000e+00 -2.63535883e-03
7.61385192e-04 7.01413519e-05 -2.59228004e-03
9.80409910e-04 0.00000000e+00 -3.37158982e-03
9.68248525e-04 2.04588418e-04 -3.48366518e-03
1.09553011e-03 0.00000000e+00 -2.78257392e-03
1.09672290e-03 9.56180156e-05 -2.87585566e-03
1.24226045e-03 0.00000000e+00 -3.52991885e-03
1.24394009e-03 1.54846144e-04 -3.62597220e-03
1.36515545e-03 0.00000000e+00 -2.95061246e-03
1.39237917e-03 1.36538030e-04 -2.96051521e-03
1.45427196e-03 0.00000000e+00 -3.58552998e-03
1.46678567e-03 1.21862970e-04 -3.72241065e-03
1.55059935e-03 0.00000000e+00 -3.04665184e-03
1.61729183e-03 8.81012311e-05 -3.02444119e-03
1.59558537e-03 0.00000000e+00 -3.62297473e-03
1.65618339e-03 8.14512678e-05 -3.74222174e-03
8.11736172e-05 4.43361292e-04 -1.96208525e-03
0.00000000e+00 5.45123359e-04 -1.89145247e-03
3.52240691e-04 5.15614520e-04 -2.77539995e-03
0.00000000e+00 5.41359768e-04 -2.63606338e-03
2.93635239e-04 3.60448175e-04 -2.55182059e-03
7.45759695e-04 5.01296599e-04 -3.26101296e-03
6.15694793e-04 3.61494167e-04 -2.98157148e-03
9.67288914e-04 4.42975317e-04 -4.03499464e-03
1.14634773e-03 5.03529853e-04 -2.73066387e-03
1.17457111e-03 3.01652821e-04 -4.11374588e-03
1.46698265e-03 4.09109110e-04 -2.92741973e-03
1.50180166e-03 3.94328119e-04 -3.77475983e-03
1.72580127e-03 3.20403429e-04 -2.92461971e-03
1.77613529e-03 2.90212658e-04 -3.83746997e-03
3.07839618e-05 7.61081115e-04 -1.47418655e-03
0.00000000e+00 8.10586149e-04 -1.71005528e-03
1.75971247e-04 9.24195861e-04 -2.67781038e-03
0.00000000e+00 8.15499225e-04 -2.04722956e-03
2.31548664e-04 6.25472749e-04 -2.01873435e-03
7.24280893e-04 9.13901487e-04 -3.69783584e-03
5.17319859e-05 3.83326551e-04 -5.11355791e-03
1.24432181e-03 6.53423485e-04 -4.41661431e-03
4.32194720e-05 9.85951978e-04 -1.33053237e-03
0.00000000e+00 1.01891649e-03 -1.50643510e-03
8.71739685e-05 1.13270781e-03 -1.99852651e-03
0.00000000e+00 1.03549974e-03 -1.85763452e-03
0.00000000e+00 1.08054955e-03 -1.47545128e-03
1.12194954e-04 1.33903138e-03 -1.77652459e-03
0.00000000e+00 1.24555582e-03 -1.95350335e-03
1.33055873e-04 1.01942569e-03 -8.68391129e-04
1.93502434e-04 1.34609267e-03 -2.11509271e-03
4.07299434e-04 1.34945195e-03 -1.89640687e-03
0.00000000e+00 1.17703958e-03 -1.68757653e-03
1.65129502e-04 1.69961969e-03 -2.59826798e-03
0.00000000e+00 1.62290677e-03 -2.40447652e-03
5.03912976e-04 2.02901568e-03 -2.76372721e-03
8.69430718e-04 1.33585196e-03 -3.93440714e-03
1.19566917e-03 1.76011922e-03 -3.73802707e-03
0.00000000e+00 0.00000000e+00 -4.02808702e-03
4.70366736e-04 0.00000000e+00 -4.06621769e-03
5.08514175e-04 2.33762868e-04 -4.02662111e-03
0.00000000e+00 2.08523386e-04 -3.97909945e-03
8.50989600e-04 0.00000000e+00 -4.15467191e-03
9.12792631e-04 3.03145993e-04 -4.16386826e-03
1.12503057e-03 0.00000000e+00 -4.22754046e-03
1.16335019e-03 3.56859033e-04 -4.33570240e-03
1.32874970e-03 0.00000000e+00 -4.28106030e-03
1.32503023e-03 3.23910790e-04 -4.39560134e-03
1.50781602e-03 0.00000000e+00 -4.28919727e-03
1.49355852e-03 2.61637964e-04 -4.36836807e-03
1.68946828e-03 0.00000000e+00 -4.32011904e-03
1.68623717e-03 2.56828527e-04 -4.34525358e-03
6.23820641e-04 5.58305357e-04 -4.07154625e-03
0.00000000e+00 4.71657346e-04 -3.87646956e-03
1.07218046e-03 6.36605779e-04 -4.36631311e-03
1.28606835e-03 6.23082509e-04 -4.54315078e-03
1.36004970e-03 5.37175802e-04 -4.74422891e-03
1.48908177e-03 4.27860476e-04 -4.81426343e-03
1.62626884e-03 4.30515473e-04 -4.74763615e-03
7.26773054e-04 7.26226601e-04 -3.18868738e-03
0.00000000e+00 8.57595587e-04 -2.96208868e-03
1.20905507e-03 7.96550768e-04 -4.34370525e-03
1.40114001e-03 7.05072540e-04 -4.91425628e-03
1.22476404e-03 1.04324630e-04 -5.29183308e-03
1.51645369e-03 6.64082938e-04 -5.07102627e-03
6.09624956e-04 7.77917565e-04 -2.40102597e-03
0.00000000e+00 8.53852252e-04 -2.51413742e-03
1.19035842e-03 9.24943713e-04 -4.16646944e-03
6.61248225e-04 1.66633178e-03 -3.42515344e-03
0.00000000e+00 1.63931318e-03 -3.18046520e-03
6.42157218e-04 2.45461520e-03 -3.49474093e-03
0.00000000e+00 2.35718605e-03 -3.53624253e-03
1.29904994e-03 1.65716559e-03 -3.90360178e-03
1.59103610e-03 2.21465644e-03 -3.88362352e-03
1.60528626e-03 1.39015168e-03 -4.64262813e-03
2.12728744e-03 1.43825193e-03 -4.56636865e-03
7.03195634e-04 1.09686435e-03 -5.51203266e-03
1.21805305e-03 1.06021645e-03 -5.35460981e-03
1.79137290e-03 8.45456729e-04 -5.18480781e-03
2.19257781e-03 9.66256834e-04 -5.11178374e-03
1.89686194e-03 5.74748497e-04 -5.15705766e-03
1.89666054e-03 3.24758759e-04 -5.13847079e-03
2.13665795e-03 3.33043747e-04 -5.14445361e-03
2.12662993e-03 5.76646999e-04 -5.13862120e-03
1.87431974e-03 5.65811992e-04 -5.14753954e-03
1.88448303e-03 3.39212100e-04 -5.14043774e-03
2.12573819e-03 3.24640248e-04 -5.14238188e-03
2.14970810e-03 5.64833404e-04 -5.14523918e-03
0.00000000e+00 0.00000000e+00 -5.14146127e-03
5.23823255e-04 0.00000000e+00 -5.14146127e-03
5.84104331e-04 2.86338705e-04 -5.14146127e-03
0.00000000e+00 2.31770915e-04 -5.14146127e-03
9.30658018e-04 0.00000000e+00 -5.14146127e-03
9.96077550e-04 3.63615167e-04 -5.14146127e-03
1.18009839e-03 0.00000000e+00 -5.14146127e-03
1.23776891e-03 4.04120219e-04 -5.14146127e-03
1.34220696e-03 0.00000000e+00 -5.14146127e-03
1.37542782e-03 4.18263051e-04 -5.14146127e-03
1.52255781e-03 0.00000000e+00 -5.14146127e-03
1.50477281e-03 3.92063550e-04 -5.14146127e-03
1.78981270e-03 0.00000000e+00 -5.14146127e-03
1.67304324e-03 4.33096517e-04 -5.14146127e-03
7.38240837e-04 4.19360440e-04 -5.14146127e-03
0.00000000e+00 3.59867961e-04 -5.14146127e-03
1.19376730e-03 6.12086849e-04 -5.14146127e-03
1.37361418e-03 6.83421502e-04 -5.14146127e-03
1.46499812e-03 6.39904873e-04 -5.14146127e-03
1.49691280e-03 5.93427452e-04 -5.14146127e-03
1.53463497e-03 5.95294288e-04 -5.14146127e-03
9.49730049e-04 1.10120710e-03 -5.14146127e-03
0.00000000e+00 1.18715747e-03 -5.14146127e-03
1.49978767e-03 9.14702541e-04 -5.14146127e-03
1.55835599e-03 8.14787345e-04 -5.14146127e-03
1.52458437e-03 7.21429824e-04 -5.14146127e-03
1.52316934e-03 5.06732555e-04 -5.19672129e-03
1.54753192e-03 6.02967339e-04 -5.14146127e-03
1.56469864e-03 4.45811020e-04 -5.18193329e-03
1.54446973e-03 5.33882179e-04 -5.14146127e-03
1.50840916e-03 7.63110467e-04 -5.38281305e-03
1.72181800e-03 9.00479732e-04 -5.14146127e-03
1.75425515e-03 9.38383047e-04 -5.14146127e-03
1.66273885e-03 6.87254011e-04 -5.14720567e-03
1.62988086e-03 7.31127337e-04 -5.14146127e-03
1.64285838e-03 5.92627213e-04 -5.13883214e-03
1.65063131e-03 5.73864556e-04 -5.14146127e-03
1.65431143e-03 4.08884953e-04 -5.15127555e-03
1.65325147e-03 3.89211928e-04 -5.14146127e-03
0.00000000e+00 5.33378450e-04 -5.14146127e-03
1.48733100e-03 7.98010733e-04 -5.14146127e-03
1.05042465e-03 1.99654233e-03 -5.14146127e-03
0.00000000e+00 1.99994887e-03 -5.14146127e-03
1.85476663e-03 5.65669383e-04 -5.14146127e-03
1.88880682e-03 8.35519168e-04 -5.14146127e-03
1.88440143e-03 3.46763001e-04 -5.14146127e-03
1.07393006e-03 2.55825627e-03 -5.14146127e-03
0.00000000e+00 2.75911321e-03 -5.14146127e-03
1.52757450e-03 1.70018338e-03 -5.14146127e-03
2.01051147e-03 2.09504552e-03 -5.14146127e-03
1.84538960e-03 1.32754457e-03 -5.14146127e-03
2.38341372e-03 1.41125859e-03 -5.14146127e-03
2.29738979e-03 8.77473038e-04 -5.14146127e-03
2.15026084e-03 5.52424986e-04 -5.14146127e-03
2.11961754e-03 3.27595306e-04 -5.14146127e-03
</DataArray>
<DataArray type="Float32" Name="Spatial_acceleration" NumberOfComponents="3" format="ascii">
-1.66477753e-06 2.53487633e-06 1.81214011e-06
-7.29858840e-08 5.41905536e-07 2.08187112e-06
1.03529492e-05 -1.31475929e-06 1.47056573e-06
-1.37519839e-06 8.67075687e-06 -4.82050564e-06
2.63732659e-06 -1.87442697e-06 -3.38157020e-06
4.24612125e-07 -4.66700976e-06 -1.20831446e-05
6.80542007e-06 8.57035332e-07 -3.88781245e-06
7.11252278e-06 4.74633771e-06 7.09406550e-06
3.37525216e-06 -6.57312057e-06 -8.72643795e-06
9.84451162e-06 -4.02212117e-06 -5.28462715e-06
-9.78681783e-07 -2.07943390e-06 3.22808160e-06
1.15334587e-05 -7.66805806e-06 -6.34638445e-06
-4.57425176e-06 8.69141877e-06 1.81262442e-06
-1.88686977e-06 5.06991682e-06 3.41975692e-06
-1.24628714e-05 1.15725570e-05 -4.71087833e-06
-1.22567317e-05 -4.75317222e-07 -4.99382122e-06
-1.94231816e-05 2.68195236e-05 5.53350446e-07
-1.78408682e-05 2.30947171e-06 3.82823691e-06
-4.46239119e-06 1.67976905e-05 1.93127926e-06
-7.61371723e-07 1.36123645e-05 -1.14928653e-05
0.00000000e+00 0.00000000e+00 1.25509896e-05
9.11415839e-07 0.00000000e+00 -2.53041571e-06
-3.14122440e-06 7.93511674e-07 4.60592901e-06
0.00000000e+00 -8.58716157e-06 -3.95838424e-06
0.00000000e+00 0.00000000e+00 -3.54131060e-07
4.11935662e-06 0.00000000e+00 5.95887514e-06
4.99185171e-06 -2.25761710e-06 2.32998536e-06
0.00000000e+00 4.49973322e-06 1.92441930e-05
3.29786531e-06 0.00000000e+00 6.44302372e-06
5.20765798e-06 1.33617721e-06 4.51819096e-06
4.49772688e-06 0.00000000e+00 1.49250027e-05
3.07015193e-06 -5.84882491e-06 -2.17898673e-06
1.06919606e-05 0.00000000e+00 1.71333941e-05
7.29133660e-07 -5.39700204e-06 2.57078796e-06
6.83131066e-06 0.00000000e+00 -1.58309933e-06
7.29976591e-06 5.44381146e-06 8.58958538e-06
6.31030389e-06 0.00000000e+00 4.31569424e-06
8.66209461e-07 2.70509713e-06 4.53186021e-06
1.44529140e-05 0.00000000e+00 8.86440284e-06
9.85490260e-06 3.09900429e-06 -2.34508502e-06
1.18156668e-05 0.00000000e+00 -4.25783810e-06
1.24256185e-05 -5.86445140e-07 2.42074339e-06
4.07439484e-06 0.00000000e+00 3.35502614e-06
9.64480660e-06 4.41791599e-06 -8.92003357e-07
9.70021847e-06 0.00000000e+00 7.30832426e-06
1.04327100e-05 1.27041039e-05 5.31228397e-06
1.36819272e-05 0.00000000e+00 8.52902758e-06
1.05735853e-05 8.63432888e-07 1.31855013e-05
2.26942689e-06 -5.00852366e-06 2.79585515e-06
0.00000000e+00 -1.23567579e-05 3.86873899e-06
-7.61137380e-06 2.63768425e-06 6.76790876e-07
0.00000000e+00 2.96823191e-06 -7.50287381e-06
-2.54049746e-06 -1.67206349e-06 2.26810994e-06
8.82583379e-07 -7.04896956e-06 5.04557283e-06
4.84873453e-06 2.85873421e-06 -3.46171055e-06
-7.40312373e-07 5.11487315e-07 -8.07389733e-06
5.77039509e-06 1.73762442e-06 -1.24794642e-05
1.90773017e-06 6.26754763e-06 -9.05482011e-06
1.83896464e-05 2.67502173e-06 3.44912195e-07
5.00764463e-06 9.58778492e-06 -9.27861493e-06
3.09662755e-06 6.43501664e-07 -1.15343728e-05
9.74270733e-06 2.09427872e-05 1.06493635e-05
1.42744602e-06 -7.02785292e-06 2.40071608e-06
0.00000000e+00 2.58549062e-06 6.00878411e-06
2.70121427e-06 -1.39060475e-07 1.53338115e-05
0.00000000e+00 3.37847064e-06 2.47955313e-07
-1.54077206e-05 -2.62101480e-06 4.56078851e-06
5.46137471e-07 -9.30404713e-06 1.90925607e-06
-1.43309435e-05 1.14789009e-05 2.52672044e-06
-1.25705928e-05 -1.83275017e-06 -3.09732218e-06
2.50795915e-06 -7.58429906e-06 -3.47500759e-06
0.00000000e+00 -1.10701721e-05 -2.69571933e-06
5.57634579e-08 -3.68838846e-06 2.10825601e-06
0.00000000e+00 -2.38501025e-06 -9.91821253e-07
0.00000000e+00 -2.25830081e-06 4.17168940e-06
-3.36094126e-06 -1.42176095e-05 -6.45828231e-06
0.00000000e+00 -1.12608277e-05 2.63754532e-06
-5.45310968e-06 -5.36795460e-06 -1.05857850e-06
1.06441175e-05 1.91307072e-06 -9.76181036e-06
7.25444170e-06 -6.45955424e-06 -6.69606516e-06
0.00000000e+00 -5.93543064e-06 -5.23694371e-06
1.03140870e-07 -1.85123681e-05 -2.97641759e-06
0.00000000e+00 -1.19157630e-05 1.31861370e-05
-1.24124090e-05 -7.81120889e-06 -1.47126511e-05
5.05669914e-06 -3.76849698e-06 -5.25368569e-06
-1.82448491e-06 5.60103535e-06 -9.64694550e-07
0.00000000e+00 0.00000000e+00 9.06244895e-06
-2.83086297e-06 0.00000000e+00 -5.78467052e-06
9.84313101e-06 9.04992794e-06 5.26730219e-06
0.00000000e+00 2.67926839e-06 -9.36889683e-06
8.79297022e-06 0.00000000e+00 1.45139693e-05
2.55856912e-06 3.99408736e-06 -4.94321171e-07
6.34042408e-06 0.00000000e+00 1.67115525e-06
9.79264541e-07 2.32597188e-07 4.54139717e-06
-5.06726883e-06 0.00000000e+00 -5.10946893e-06
6.43491740e-06 1.40206021e-06 -7.66181893e-06
7.41598978e-06 0.00000000e+00 -9.92870355e-06
3.78717482e-06 7.00041664e-06 3.46151978e-06
1.56685510e-05 0.00000000e+00 1.76671347e-05
-1.01957721e-05 -1.42931938e-07 -2.20648440e-06
-6.51450955e-06 1.86691679e-07 1.15839634e-06
0.00000000e+00 3.31783281e-06 1.87695823e-05
1.36470794e-06 4.76072228e-06 -6.88679984e-06
4.88834576e-06 -1.25916802e-06 1.88573199e-06
6.71068847e-07 4.68517464e-06 -5.02595458e-06
-6.96195514e-07 -2.41745852e-06 1.58860951e-06
-3.78704067e-06 -7.18296906e-06 9.72578255e-06
-8.65035588e-07 3.01721366e-06 1.92599828e-06
0.00000000e+00 -9.03129603e-06 9.08152288e-06
9.52980281e-06 5.70000566e-06 -8.90011233e-06
-1.31540833e-06 4.37487506e-06 -4.74082117e-06
-2.43230661e-05 1.08823178e-05 1.40205420e-05
3.16232058e-06 1.62785852e-06 5.70907605e-06
-7.69774090e-07 -1.57769523e-06 3.26029453e-06
0.00000000e+00 -4.84328802e-06 1.46450466e-05
3.06592392e-06 7.30176771e-06 4.47591134e-07
8.07921060e-06 -3.91774711e-06 4.08596452e-06
0.00000000e+00 -1.32118657e-05 1.26673376e-05
-4.82916812e-06 -8.09550238e-06 -2.81143184e-06
0.00000000e+00 -8.45607155e-06 -5.76019261e-07
-1.13773342e-06 6.89389299e-06 -2.46938066e-06
-8.90886804e-06 -5.29875342e-06 -1.71477004e-05
-1.91232357e-05 -1.57403940e-06 -3.11406461e-06
-2.51889219e-06 -1.39602025e-06 -7.47680679e-06
2.78411312e-06 5.92227252e-06 1.64300454e-05
-6.61571812e-06 -4.32072056e-06 -1.38071573e-05
-3.44600767e-06 -7.14262342e-07 -4.71580006e-06
-9.52042501e-06 3.09443476e-06 8.34041202e-07
-1.43223515e-05 -7.08984226e-06 2.38994453e-05
-1.65844940e-05 -4.82066980e-06 4.78575930e-06
1.17337340e-05 -2.28353110e-05 3.51802464e-06
2.13487147e-05 8.44230908e-06 -5.47981836e-06
-3.56885994e-06 1.38704272e-05 4.59618877e-06
-7.93268282e-06 -5.36869629e-06 5.93705636e-06
9.75845069e-06 7.88889065e-06 3.63375989e-06
-4.19188882e-06 9.30321221e-06 3.15525972e-06
0.00000000e+00 0.00000000e+00 -2.59261378e-06
-7.62307627e-06 0.00000000e+00 -2.59261378e-06
-1.83757140e-06 1.48448351e-06 -2.59261378e-06
0.00000000e+00 -8.36372351e-07 -2.59261378e-06
-1.38674777e-05 0.00000000e+00 -2.59261378e-06
1.90865990e-06 1.09452403e-05 -2.59261378e-06
3.92301854e-06 0.00000000e+00 -2.59261378e-06
6.02463888e-06 4.81406823e-06 -2.59261378e-06
8.38359210e-06 0.00000000e+00 -2.59261378e-06
4.16034436e-06 1.19026504e-06 -2.59261378e-06
-6.61083050e-06 0.00000000e+00 -2.59261378e-06
-2.71600493e-06 -2.73855517e-06 -2.59261378e-06
5.50554114e-06 0.00000000e+00 -2.59261378e-06
1.01921951e-05 -8.07126355e-07 -2.59261378e-06
1.36994522e-05 6.48593914e-06 -2.59261378e-06
0.00000000e+00 -2.58064279e-06 -2.59261378e-06
8.11862901e-06 1.11689860e-05 -2.59261378e-06
7.17043861e-07 5.07291134e-06 -2.59261378e-06
-5.89831643e-06 -2.57273518e-06 -2.59261378e-06
1.44521391e-06 3.33767639e-06 -2.59261378e-06
-2.38911298e-06 1.33948224e-05 -2.59261378e-06
1.13456645e-05 9.89401360e-06 -2.59261378e-06
0.00000000e+00 1.64939556e-05 -2.59261378e-06
2.74933723e-06 -2.38757661e-06 -2.59261378e-06
3.34802257e-06 3.12773386e-06 -2.59261378e-06
-2.11377937e-07 -1.45864487e-06 -2.59261378e-06
-3.19215656e-06 1.19958315e-06 -7.32954322e-06
-2.21851838e-06 -2.34921771e-07 -2.59261378e-06
-5.61600928e-06 3.88153376e-06 -9.36802189e-06
-2.56999328e-06 9.45703141e-06 -2.59261378e-06
1.08003615e-05 1.27208232e-05 1.24518078e-06
8.40544726e-06 -2.54690644e-06 -2.59261378e-06
2.82134260e-05 1.38108335e-05 -2.59261378e-06
9.31416616e-06 -3.21229300e-06 -7.18243928e-06
-9.11837196e-06 -4.63591675e-07 -2.59261378e-06
-4.66334814e-06 8.32609294e-06 -3.28364968e-06
-3.65369510e-06 8.70088741e-07 -2.59261378e-06
4.20458127e-06 -4.33071455e-06 -1.27522526e-06
-3.23034328e-06 1.45077706e-06 -2.59261378e-06
0.00000000e+00 -1.87554160e-05 -2.59261378e-06
2.86220111e-05 -1.52283174e-05 -2.59261378e-06
3.28871943e-06 1.15550893e-06 -2.59261378e-06
0.00000000e+00 -1.24923383e-06 -2.59261378e-06
-1.81072949e-06 -5.00088572e-06 -2.59261378e-06
-1.88670947e-05 -4.21974391e-06 -2.59261378e-06
-6.10095276e-06 9.26848224e-06 -2.59261378e-06
7.91708590e-06 1.45876402e-06 -2.59261378e-06
0.00000000e+00 1.17667714e-05 -2.59261378e-06
-9.19040031e-06 1.70067949e-06 -2.59261378e-06
-3.19639844e-06 1.20891727e-05 -2.59261378e-06
-5.13899340e-06 5.10104474e-06 -2.59261378e-06
-2.40044592e-05 7.72182102e-06 -2.59261378e-06
-1.04614892e-05 -1.03454986e-05 -2.59261378e-06
-1.66546906e-05 -4.59512057e-06 -2.59261378e-06
-1.12009657e-05 1.11683084e-05 -2.59261378e-06
</DataArray>
<DataArray type="Float32" Name="Spatial_velocity" NumberOfComponents="3" format="ascii">
3.38032805e-06 4.09064669e-05 -5.65713253e-06
4.33059222e-06 3.94289964e-05 -5.21166248e-06
3.99476312e-06 4.28783715e-05 -4.72477313e-06
4.30993765e-08 4.26725128e-05 -8.03028979e-06
9.34656271e-07 4.54347028e-05 -1.15888106e-05
6.37864832e-06 4.23118618e-05 -8.69886753e-06
2.08778602e-06 4.72752872e-05 -1.35608689e-05
4.47218417e-06 4.09387831e-05 -7.85097563e-06
6.00949397e-06 3.73287257e-05 -3.53055270e-06
7.22533468e-06 3.75890631e-05 3.09830227e-07
1.60232539e-05 3.04844125e-05 -7.86670626e-06
2.86615923e-05 6.71364032e-05 -5.76850871e-05
8.49226467e-07 7.48334642e-05 5.89655338e-06
2.18160085e-06 7.76080196e-05 1.51026716e-05
-5.64186712e-06 8.10459605e-05 -7.85789143e-06
-4.00778481e-06 7.20784883e-05 -1.60361524e-05
-7.44423687e-06 9.39559759e-05 4.97241217e-06
-6.09387234e-06 1.06760919e-04 1.68123152e-05
-1.88435624e-05 1.05830812e-04 -6.24620725e-06
-1.83445063e-05 9.40749524e-05 -1.93346059e-05
0.00000000e+00 0.00000000e+00 -5.26337535e-05
1.04778564e-05 0.00000000e+00 -5.72771569e-05
9.04141416e-06 1.13257511e-05 -4.75607230e-05
0.00000000e+00 8.70992426e-06 -4.62252210e-05
0.00000000e+00 0.00000000e+00 -6.80390294e-05
1.84877190e-05 0.00000000e+00 -7.38882154e-05
1.98304078e-05 9.97114967e-06 -7.77000823e-05
0.00000000e+00 1.02461190e-05 -6.68239227e-05
2.48753204e-05 0.00000000e+00 -6.56158008e-05
2.31218237e-05 8.74554553e-06 -5.99315499e-05
3.59628684e-05 0.00000000e+00 -8.37545231e-05
3.82230755e-05 1.15965886e-05 -8.89951334e-05
4.10068315e-05 0.00000000e+00 -7.90286431e-05
3.97936456e-05 7.50578965e-06 -7.51127955e-05
5.46040355e-05 0.00000000e+00 -9.96577364e-05
5.32889753e-05 1.02559025e-05 -9.95521623e-05
5.69147778e-05 0.00000000e+00 -8.67509734e-05
5.65250593e-05 7.95187043e-06 -9.59686658e-05
6.88751243e-05 0.00000000e+00 -1.12411806e-04
6.93055554e-05 8.71862358e-06 -1.13375878e-04
7.19417440e-05 0.00000000e+00 -1.08058754e-04
7.21112810e-05 1.10518786e-05 -1.06731364e-04
7.97052417e-05 0.00000000e+00 -1.18757016e-04
7.92992505e-05 5.35428990e-06 -1.25635692e-04
8.37109546e-05 0.00000000e+00 -1.12380709e-04
9.01968451e-05 7.93665004e-06 -1.12511450e-04
8.33582890e-05 0.00000000e+00 -1.29564185e-04
8.47453266e-05 5.76802540e-06 -1.23680948e-04
5.45253579e-06 2.31961440e-05 -3.77701072e-05
0.00000000e+00 2.63121055e-05 -3.34175566e-05
1.87950027e-05 2.34696345e-05 -5.91197058e-05
0.00000000e+00 2.38528010e-05 -5.56277191e-05
1.71599040e-05 2.16144981e-05 -6.13731681e-05
4.16578550e-05 2.39556502e-05 -8.41586734e-05
3.33897879e-05 2.56227322e-05 -8.53818055e-05
5.55302468e-05 2.14511474e-05 -1.20514233e-04
5.97239668e-05 2.97308470e-05 -8.77757484e-05
6.88191794e-05 1.80819734e-05 -1.28799948e-04
7.88970283e-05 2.26978664e-05 -1.03482402e-04
8.00251946e-05 1.68197330e-05 -1.22103957e-04
8.79418003e-05 2.24044688e-05 -1.02989361e-04
9.16127319e-05 1.27775802e-05 -1.28013708e-04
5.03185902e-07 3.69442023e-05 -1.95042012e-05
0.00000000e+00 3.90018977e-05 -2.05026336e-05
1.18797898e-05 4.00470817e-05 -4.75312881e-05
0.00000000e+00 3.62803548e-05 -2.56134026e-05
1.10201754e-05 3.67282264e-05 -3.54420008e-05
3.84617560e-05 4.36806840e-05 -9.65651561e-05
4.40020949e-06 2.78397620e-05 -1.65296631e-04
6.90850720e-05 3.44512482e-05 -1.28732543e-04
-1.81674736e-07 4.29690044e-05 -9.14414250e-06
0.00000000e+00 4.41107550e-05 -1.48550125e-05
5.26028134e-06 4.76795649e-05 -2.07566973e-05
0.00000000e+00 4.34692047e-05 -1.07328060e-05
0.00000000e+00 4.24280151e-05 -8.41046767e-06
5.52515758e-06 4.72976826e-05 -9.19665490e-06
0.00000000e+00 4.83780968e-05 -1.14294262e-05
1.93597452e-06 3.91335379e-05 -5.31555906e-06
1.06786083e-05 4.92352301e-05 -3.77079341e-05
2.46063864e-05 4.17944684e-05 -1.39940894e-05
0.00000000e+00 4.56429043e-05 -1.25499155e-05
1.11317086e-05 6.72814713e-05 -4.40842305e-05
0.00000000e+00 6.67342465e-05 -3.40328588e-05
3.24054381e-05 8.37222833e-05 -5.98893821e-05
6.33259697e-05 4.30303371e-05 -1.07546934e-04
7.84106815e-05 6.97846481e-05 -1.04469720e-04
0.00000000e+00 0.00000000e+00 -1.01931088e-04
2.74463455e-05 0.00000000e+00 -1.08457716e-04
3.06059846e-05 1.27129679e-05 -1.03917846e-04
0.00000000e+00 1.10428891e-05 -1.02626109e-04
5.05385906e-05 0.00000000e+00 -1.15942006e-04
5.04856071e-05 1.35176151e-05 -1.12422771e-04
6.41434090e-05 0.00000000e+00 -1.21648598e-04
6.74810290e-05 1.54129884e-05 -1.25821040e-04
7.48208404e-05 0.00000000e+00 -1.28472399e-04
7.55307556e-05 1.25191737e-05 -1.32809553e-04
8.16109023e-05 0.00000000e+00 -1.31370689e-04
8.15854073e-05 8.34391267e-06 -1.31885550e-04
8.77955972e-05 0.00000000e+00 -1.32232410e-04
8.76365812e-05 5.19882224e-06 -1.36722025e-04
3.55303237e-05 2.87226212e-05 -1.07276734e-04
0.00000000e+00 2.47954376e-05 -9.44401909e-05
6.11994692e-05 3.00224747e-05 -1.19308410e-04
7.34138011e-05 2.68859621e-05 -1.32698624e-04
7.85496159e-05 1.91046238e-05 -1.41007360e-04
8.40747598e-05 1.48733689e-05 -1.45425161e-04
8.65632537e-05 1.25880833e-05 -1.43201425e-04
3.86143765e-05 3.38395039e-05 -6.81854290e-05
0.00000000e+00 4.05825813e-05 -5.79378138e-05
7.19608870e-05 3.81881000e-05 -1.25063452e-04
8.23258451e-05 2.84914895e-05 -1.44278674e-04
7.01107710e-05 7.79331458e-06 -1.58475057e-04
8.47822957e-05 2.36252599e-05 -1.47503437e-04
2.99155181e-05 3.66009408e-05 -2.93402391e-05
0.00000000e+00 3.09895113e-05 -3.55319971e-05
7.87813406e-05 4.97900146e-05 -1.20334334e-04
3.44890614e-05 6.85256600e-05 -6.66135893e-05
0.00000000e+00 7.17419462e-05 -5.41636255e-05
4.04105122e-05 1.10982808e-04 -8.20974237e-05
0.00000000e+00 1.11695859e-04 -7.67110469e-05
7.38239542e-05 6.31615330e-05 -1.01317964e-04
8.82526874e-05 9.53719646e-05 -1.02322636e-04
9.17641155e-05 5.33303864e-05 -1.36230447e-04
1.15390954e-04 5.49765864e-05 -1.36614617e-04
6.12124131e-05 3.04309197e-05 -1.58601120e-04
8.95032135e-05 2.78338612e-05 -1.60689160e-04
9.94787042e-05 2.85254846e-05 -1.46797916e-04
1.19831369e-04 3.28597198e-05 -1.50550433e-04
1.07684624e-04 2.75271523e-05 -1.45533515e-04
1.05810635e-04 1.59080391e-05 -1.49066196e-04
1.14988405e-04 1.92684547e-05 -1.40721429e-04
1.15032584e-04 2.61433797e-05 -1.38112664e-04
1.06683743e-04 1.96506116e-05 -1.45727841e-04
1.08061111e-04 9.40944483e-06 -1.47256753e-04
1.17757729e-04 1.15030480e-05 -1.41179844e-04
1.17263480e-04 1.67751223e-05 -1.41611235e-04
0.00000000e+00 0.00000000e+00 -1.45896222e-04
3.26280024e-05 0.00000000e+00 -1.45896222e-04
3.19865576e-05 1.48235840e-05 -1.45896222e-04
0.00000000e+00 1.39944141e-05 -1.45896222e-04
5.44231880e-05 0.00000000e+00 -1.45896222e-04
5.88862240e-05 1.71474730e-05 -1.45896222e-04
6.84586485e-05 0.00000000e+00 -1.45896222e-04
7.11500106e-05 1.60311429e-05 -1.45896222e-04
7.54133434e-05 0.00000000e+00 -1.45896222e-04
7.85003431e-05 1.40304492e-05 -1.45896222e-04
8.22712464e-05 0.00000000e+00 -1.45896222e-04
8.27779950e-05 1.33481844e-05 -1.45896222e-04
8.94541154e-05 0.00000000e+00 -1.45896222e-04
8.86734560e-05 1.14832574e-05 -1.45896222e-04
4.05409883e-05 2.34879535e-05 -1.45896222e-04
0.00000000e+00 2.30870282e-05 -1.45896222e-04
6.60232763e-05 3.19540341e-05 -1.45896222e-04
7.99380432e-05 2.92699060e-05 -1.45896222e-04
8.25168900e-05 2.47675944e-05 -1.45896222e-04
8.46734110e-05 1.45427730e-05 -1.45896222e-04
8.51684090e-05 1.29973105e-05 -1.45896222e-04
5.82758294e-05 6.80560915e-05 -1.45896222e-04
0.00000000e+00 7.43325872e-05 -1.45896222e-04
8.72547826e-05 4.57182941e-05 -1.45896222e-04
8.98398430e-05 3.45315930e-05 -1.45896222e-04
9.11028110e-05 2.28824083e-05 -1.45896222e-04
8.76667982e-05 1.56905080e-05 -1.45900456e-04
8.77505809e-05 1.75398036e-05 -1.45896222e-04
8.76651029e-05 1.06692096e-05 -1.46301376e-04
8.76703780e-05 1.20376217e-05 -1.45896222e-04
9.30091046e-05 3.12435877e-05 -1.53406683e-04
1.02240570e-04 3.34140204e-05 -1.45896222e-04
1.03413855e-04 4.64372060e-05 -1.45896222e-04
1.00260557e-04 2.56567564e-05 -1.45636615e-04
9.41414401e-05 2.37828481e-05 -1.45896222e-04
9.48890083e-05 1.77046823e-05 -1.44756661e-04
9.76839146e-05 2.01761704e-05 -1.45896222e-04
9.53729541e-05 1.04374485e-05 -1.47561470e-04
9.63588755e-05 7.64374272e-06 -1.45896222e-04
0.00000000e+00 -4.95265340e-08 -1.45896222e-04
9.12441683e-05 1.23893878e-05 -1.45896222e-04
5.85792877e-05 9.23116168e-05 -1.45896222e-04
0.00000000e+00 8.89874427e-05 -1.45896222e-04
1.04642480e-04 1.79993513e-05 -1.45896222e-04
1.03609455e-04 3.22494452e-05 -1.45896222e-04
1.08288128e-04 5.87758450e-06 -1.45896222e-04
6.76136551e-05 1.22857440e-04 -1.45896222e-04
0.00000000e+00 1.41863915e-04 -1.45896222e-04
8.37608095e-05 6.73182512e-05 -1.45896222e-04
1.11700363e-04 8.60682121e-05 -1.45896222e-04
1.04470426e-04 5.39178436e-05 -1.45896222e-04
1.21989651e-04 5.56111881e-05 -1.45896222e-04
1.18367629e-04 3.31619594e-05 -1.45896222e-04
1.18120392e-04 1.68223141e-05 -1.45896222e-04
1.17558448e-04 7.69309372e-06 -1.45896222e-04
</DataArray>
<DataArray type="Float32" Name="Reaction_force" NumberOfComponents="3" format="ascii">
0.00000000e+00 0.00000000e+00 0.00000000e+00
0.00000000e+00 0.00000000e+00 0.00000000e+00
0.00000000e+00 0.00000000e+00 0.00000000e+00
0.00000000e+00 0.00000000e+00 0.00000000e+00
0.00000000e+00 0.00000000e+00 0.00000000e+00
0.00000000e+00 0.00000000e+00 0.00000000e+00
0.00000000e+00 0.00000000e+00 0.00000000e+00
0.00000000e+00 0.00000000e+00 0.00000000e+00
0.00000000e+00 0.00000000e+00 0.00000000e+00
0.00000000e+00 0.00000000e+00 0.00000000e+00
0.00000000e+00 0.00000000e+00 0.00000000e+00
0.00000000e+00 0.00000000e+00 0.00000000e+00
0.00000000e+00 0.00000000e+00 0.00000000e+00
0.00000000e+00 0.00000000e+00 0.00000000e+00
0.00000000e+00 0.00000000e+00 0.00000000e+00
0.00000000e+00 0.00000000e+00 0.00000000e+00
0.00000000e+00 0.00000000e+00 0.00000000e+00
0.00000000e+00 0.00000000e+00 0.00000000e+00
0.00000000e+00 0.00000000e+00 0.00000000e+00
0.00000000e+00 0.00000000e+00 0.00000000e+00
5.91252372e-02 -1.69269696e-01 0.00000000e+00
0.00000000e+00 4.94021088e-01 0.00000000e+00
0.00000000e+00 0.00000000e+00 0.00000000e+00
8.32194686e-01 0.00000000e+00 0.00000000e+00
-6.55738115e-01 1.27984440e+00 0.00000000e+00
0.00000000e+00 2.52583194e+00 0.00000000e+00
0.00000000e+00 0.00000000e+00 0.00000000e+00
-4.39650714e-01 0.00000000e+00 0.00000000e+00
0.00000000e+00 1.93725526e+00 0.00000000e+00
0.00000000e+00 0.00000000e+00 0.00000000e+00
0.00000000e+00 2.57736874e+00 0.00000000e+00
0.00000000e+00 0.00000000e+00 0.00000000e+00
0.00000000e+00 3.43664145e+00 0.00000000e+00
0.00000000e+00 0.00000000e+00 0.00000000e+00
0.00000000e+00 2.10927510e+00 0.00000000e+00
0.00000000e+00 0.00000000e+00 0.00000000e+00
0.00000000e+00 4.21215248e+00 0.00000000e+00
0.00000000e+00 0.00000000e+00 0.00000000e+00
0.00000000e+00 1.06779087e+00 0.00000000e+00
0.00000000e+00 0.00000000e+00 0.00000000e+00
0.00000000e+00 3.71716189e+00 0.00000000e+00
0.00000000e+00 0.00000000e+00 0.00000000e+00
0.00000000e+00 4.62061673e-01 0.00000000e+00
0.00000000e+00 0.00000000e+00 0.00000000e+00
0.00000000e+00 2.12788773e+00 0.00000000e+00
0.00000000e+00 0.00000000e+00 0.00000000e+00
0.00000000e+00 5.24532378e-01 0.00000000e+00
0.00000000e+00 0.00000000e+00 0.00000000e+00
0.00000000e+00 0.00000000e+00 0.00000000e+00
2.01726341e+00 0.00000000e+00 0.00000000e+00
0.00000000e+00 0.00000000e+00 0.00000000e+00
4.23069865e-01 0.00000000e+00 0.00000000e+00
0.00000000e+00 0.00000000e+00 0.00000000e+00
0.00000000e+00 0.00000000e+00 0.00000000e+00
0.00000000e+00 0.00000000e+00 0.00000000e+00
0.00000000e+00 0.00000000e+00 0.00000000e+00
0.00000000e+00 0.00000000e+00 0.00000000e+00
0.00000000e+00 0.00000000e+00 0.00000000e+00
0.00000000e+00 0.00000000e+00 0.00000000e+00
0.00000000e+00 0.00000000e+00 0.00000000e+00
0.00000000e+00 0.00000000e+00 0.00000000e+00
0.00000000e+00 0.00000000e+00 0.00000000e+00
0.00000000e+00 0.00000000e+00 0.00000000e+00
3.84130573e+00 0.00000000e+00 0.00000000e+00
0.00000000e+00 0.00000000e+00 0.00000000e+00
-6.08024180e-01 0.00000000e+00 0.00000000e+00
0.00000000e+00 0.00000000e+00 0.00000000e+00
0.00000000e+00 0.00000000e+00 0.00000000e+00
0.00000000e+00 0.00000000e+00 0.00000000e+00
0.00000000e+00 0.00000000e+00 0.00000000e+00
0.00000000e+00 0.00000000e+00 0.00000000e+00
1.84242797e+00 0.00000000e+00 0.00000000e+00
0.00000000e+00 0.00000000e+00 0.00000000e+00
-1.39034462e+00 0.00000000e+00 0.00000000e+00
6.68215394e-01 0.00000000e+00 0.00000000e+00
0.00000000e+00 0.00000000e+00 0.00000000e+00
1.04455745e+00 0.00000000e+00 0.00000000e+00
0.00000000e+00 0.00000000e+00 0.00000000e+00
0.00000000e+00 0.00000000e+00 0.00000000e+00
0.00000000e+00 0.00000000e+00 0.00000000e+00
8.39464188e-01 0.00000000e+00 0.00000000e+00
0.00000000e+00 0.00000000e+00 0.00000000e+00
1.57071972e+00 0.00000000e+00 0.00000000e+00
0.00000000e+00 0.00000000e+00 0.00000000e+00
0.00000000e+00 0.00000000e+00 0.00000000e+00
0.00000000e+00 0.00000000e+00 0.00000000e+00
-9.43604290e-01 2.19491196e+00 0.00000000e+00
0.00000000e+00 3.30774140e+00 0.00000000e+00
0.00000000e+00 0.00000000e+00 0.00000000e+00
-1.81813574e+00 0.00000000e+00 0.00000000e+00
0.00000000e+00 9.25514936e-01 0.00000000e+00
0.00000000e+00 0.00000000e+00 0.00000000e+00
0.00000000e+00 -1.07525802e+00 0.00000000e+00
0.00000000e+00 0.00000000e+00 0.00000000e+00
0.00000000e+00 -2.05914068e+00 0.00000000e+00
0.00000000e+00 0.00000000e+00 0.00000000e+00
0.00000000e+00 -2.37846375e+00 0.00000000e+00
0.00000000e+00 0.00000000e+00 0.00000000e+00
0.00000000e+00 -1.19742286e+00 0.00000000e+00
0.00000000e+00 0.00000000e+00 0.00000000e+00
0.00000000e+00 0.00000000e+00 0.00000000e+00
-1.00806749e+00 0.00000000e+00 0.00000000e+00
0.00000000e+00 0.00000000e+00 0.00000000e+00
0.00000000e+00 0.00000000e+00 0.00000000e+00
0.00000000e+00 0.00000000e+00 0.00000000e+00
0.00000000e+00 0.00000000e+00 0.00000000e+00
0.00000000e+00 0.00000000e+00 0.00000000e+00
0.00000000e+00 0.00000000e+00 0.00000000e+00
-2.83099365e+00 0.00000000e+00 0.00000000e+00
0.00000000e+00 0.00000000e+00 0.00000000e+00
0.00000000e+00 0.00000000e+00 0.00000000e+00
0.00000000e+00 0.00000000e+00 0.00000000e+00
0.00000000e+00 0.00000000e+00 0.00000000e+00
0.00000000e+00 0.00000000e+00 0.00000000e+00
-1.37415743e+00 0.00000000e+00 0.00000000e+00
0.00000000e+00 0.00000000e+00 0.00000000e+00
0.00000000e+00 0.00000000e+00 0.00000000e+00
1.37353539e+00 0.00000000e+00 0.00000000e+00
0.00000000e+00 0.00000000e+00 0.00000000e+00
7.54467249e-01 0.00000000e+00 0.00000000e+00
0.00000000e+00 0.00000000e+00 0.00000000e+00
0.00000000e+00 0.00000000e+00 0.00000000e+00
0.00000000e+00 0.00000000e+00 0.00000000e+00
0.00000000e+00 0.00000000e+00 0.00000000e+00
0.00000000e+00 0.00000000e+00 0.00000000e+00
0.00000000e+00 0.00000000e+00 0.00000000e+00
0.00000000e+00 0.00000000e+00 0.00000000e+00
0.00000000e+00 0.00000000e+00 0.00000000e+00
0.00000000e+00 0.00000000e+00 0.00000000e+00
0.00000000e+00 0.00000000e+00 0.00000000e+00
0.00000000e+00 0.00000000e+00 0.00000000e+00
0.00000000e+00 0.00000000e+00 0.00000000e+00
0.00000000e+00 0.00000000e+00 0.00000000e+00
0.00000000e+00 0.00000000e+00 0.00000000e+00
0.00000000e+00 0.00000000e+00 0.00000000e+00
0.00000000e+00 0.00000000e+00 0.00000000e+00
-4.69612628e-01 1.31731153e+00 -8.46585274e+00
0.00000000e+00 2.02429247e+00 -1.67022362e+01
0.00000000e+00 0.00000000e+00 -3.16755104e+01
-1.28354001e+00 0.00000000e+00 -1.63774643e+01
0.00000000e+00 4.17994738e-01 -1.58546524e+01
0.00000000e+00 0.00000000e+00 -2.98497849e+01
0.00000000e+00 -1.23028207e+00 -1.47492552e+01
0.00000000e+00 0.00000000e+00 -2.84899693e+01
0.00000000e+00 -1.69474101e+00 -1.44772930e+01
0.00000000e+00 0.00000000e+00 -2.71558132e+01
0.00000000e+00 -1.37936306e+00 -1.45761967e+01
0.00000000e+00 0.00000000e+00 -2.64199657e+01
0.00000000e+00 -7.71954536e-01 -7.13180876e+00
0.00000000e+00 0.00000000e+00 -1.32959642e+01
0.00000000e+00 0.00000000e+00 -3.43992310e+01
-2.36193061e-01 0.00000000e+00 -1.80236492e+01
0.00000000e+00 0.00000000e+00 -3.02485027e+01
0.00000000e+00 0.00000000e+00 -2.46038914e+01
0.00000000e+00 0.00000000e+00 -1.93519039e+01
0.00000000e+00 0.00000000e+00 -1.64745140e+01
0.00000000e+00 0.00000000e+00 -8.59906960e+00
0.00000000e+00 0.00000000e+00 -1.53635798e+01
4.34524566e-01 0.00000000e+00 -8.32068253e+00
0.00000000e+00 0.00000000e+00 -2.02814121e+01
0.00000000e+00 0.00000000e+00 -1.50633774e+01
0.00000000e+00 0.00000000e+00 -5.12757683e+00
0.00000000e+00 0.00000000e+00 0.00000000e+00
0.00000000e+00 0.00000000e+00 -3.30581307e+00
0.00000000e+00 0.00000000e+00 0.00000000e+00
0.00000000e+00 0.00000000e+00 -1.33563793e+00
0.00000000e+00 0.00000000e+00 0.00000000e+00
0.00000000e+00 0.00000000e+00 -3.98339963e+00
0.00000000e+00 0.00000000e+00 -5.14828682e+00
0.00000000e+00 0.00000000e+00 0.00000000e+00
0.00000000e+00 0.00000000e+00 1.61160553e+00
0.00000000e+00 0.00000000e+00 0.00000000e+00
0.00000000e+00 0.00000000e+00 1.29761767e+00
0.00000000e+00 0.00000000e+00 0.00000000e+00
0.00000000e+00 0.00000000e+00 5.99778831e-01
1.27745426e+00 0.00000000e+00 -9.46365070e+00
0.00000000e+00 0.00000000e+00 -8.36058331e+00
0.00000000e+00 0.00000000e+00 -2.44397373e+01
1.27030504e+00 0.00000000e+00 -1.82812023e+01
0.00000000e+00 0.00000000e+00 9.30138230e-01
0.00000000e+00 0.00000000e+00 -2.44722271e+00
0.00000000e+00 0.00000000e+00 -1.68318018e-01
0.00000000e+00 0.00000000e+00 -1.41992788e+01
-1.36193514e-01 0.00000000e+00 -7.64705324e+00
0.00000000e+00 0.00000000e+00 -1.35107584e+01
0.00000000e+00 0.00000000e+00 -1.34862394e+01
0.00000000e+00 0.00000000e+00 -1.01704283e+01
0.00000000e+00 0.00000000e+00 -1.04654074e+01
0.00000000e+00 0.00000000e+00 -3.06203675e+00
0.00000000e+00 0.00000000e+00 3.60114813e-01
0.00000000e+00 0.00000000e+00 -6.50470331e-03
</DataArray>
<DataArray type="Float32" Name="Equivalent_plastic_strain" format="ascii">
1.18418420e-07
3.38444728e-07
1.86340375e-05
-8.83887196e-07
-2.68681290e-05
-4.37521038e-05
2.15777783e-04
9.81292205e-05
-3.24027633e-05
2.55529777e-04
5.42038300e-04
7.36803602e-04
0.00000000e+00
0.00000000e+00
0.00000000e+00
0.00000000e+00
0.00000000e+00
0.00000000e+00
0.00000000e+00
0.00000000e+00
1.91485160e-04
1.82410189e-04
1.89987744e-04
1.97412548e-04
2.74052007e-04
2.65459668e-04
3.08436545e-04
3.24553206e-04
1.61931461e-04
1.93555295e-04
2.41460002e-04
2.84135185e-04
1.46960756e-04
2.22169379e-04
1.97270310e-04
2.54091869e-04
1.21132056e-04
2.65414519e-04
1.44579499e-04
1.57890072e-04
6.12569911e-05
2.10319899e-04
7.09857331e-05
1.11627090e-04
1.24800572e-05
1.46083126e-04
2.63765232e-05
6.70123736e-05
1.84921607e-04
1.31825518e-04
4.40508757e-04
4.04107683e-04
2.88432385e-04
3.38141101e-04
6.25105225e-04
1.94223904e-04
5.18246728e-04
3.04539801e-04
3.41973337e-04
3.01668770e-04
2.81267421e-04
2.57409469e-04
2.00682089e-04
-6.63400169e-06
3.22399381e-04
2.04705023e-04
7.24414065e-04
5.83651749e-04
6.54999283e-04
-1.06779130e-04
-2.97561136e-06
3.27718863e-06
4.54818446e-05
2.83652198e-05
-9.66171967e-06
3.33132525e-04
2.49792125e-04
1.71734238e-04
7.27025006e-04
6.25356009e-04
2.60253582e-05
3.48274225e-04
3.13676486e-04
6.13657059e-04
7.32552396e-04
4.52029965e-04
4.08543885e-04
3.88609049e-04
4.14325201e-04
4.43502104e-04
3.46818277e-04
3.30762101e-04
2.92102857e-04
2.41107744e-04
2.25645850e-04
1.77353617e-04
1.87254664e-04
1.34433613e-04
1.75668400e-04
1.30144590e-04
5.74322326e-04
6.59643527e-04
3.32023872e-04
3.11357512e-05
-5.64933829e-06
8.28031589e-05
5.06182466e-05
5.82967497e-04
8.19108177e-04
2.12695667e-04
-7.93334220e-06
-5.29706449e-05
2.83868794e-06
7.54812805e-04
8.20734412e-04
6.56028293e-04
1.05492006e-03
9.82470810e-04
8.68779447e-04
8.29962722e-04
8.80856460e-04
7.21475793e-04
3.48271151e-05
1.47432263e-04
-6.96243078e-05
-8.44461320e-05
1.73681178e-06
-6.78126041e-06
0.00000000e+00
0.00000000e+00
0.00000000e+00
0.00000000e+00
0.00000000e+00
0.00000000e+00
0.00000000e+00
0.00000000e+00
4.68279613e-04
4.40439355e-04
4.69489452e-04
5.14486281e-04
3.74648662e-04
3.63989384e-04
3.21487620e-04
2.39267203e-04
2.89179312e-04
1.83607543e-04
2.88733834e-04
1.86004203e-04
3.01744672e-04
2.15973312e-04
5.30699966e-04
6.99099997e-04
2.61185149e-04
5.04927225e-05
-2.63428983e-05
-1.90275123e-05
-2.18284167e-05
1.14635739e-03
1.38513499e-03
1.79598365e-04
-2.28638523e-05
0.00000000e+00
0.00000000e+00
0.00000000e+00
0.00000000e+00
0.00000000e+00
-4.38942661e-05
-8.80524203e-06
6.57232231e-05
0.00000000e+00
0.00000000e+00
0.00000000e+00
0.00000000e+00
0.00000000e+00
0.00000000e+00
2.02808995e-03
2.05779448e-03
1.14842881e-03
1.42720138e-03
0.00000000e+00
0.00000000e+00
0.00000000e+00
1.10967574e-03
1.14102999e-03
5.87904477e-04
7.10179913e-04
1.61069656e-05
5.18636698e-05
0.00000000e+00
0.00000000e+00
0.00000000e+00
</DataArray>
<DataArray type="Float32" Name="Stress_Mises" format="ascii">
2.51476693e+01
2.49100294e+01
3.04901538e+01
2.64605169e+01
2.15885568e+01
3.25734689e+01
3.34209213e+01
2.67318115e+01
2.74241900e+01
3.23438034e+01
3.55165831e+01
3.70017586e+01
2.58970849e-01
3.30985650e-01
2.56131634e-01
5.15843391e-01
1.32780358e-01
1.47448167e-01
2.22248867e-01
2.50013411e-01
2.96376324e+01
2.98535318e+01
3.00586782e+01
2.95711055e+01
3.06110210e+01
3.06714053e+01
3.08169942e+01
3.07977667e+01
3.02693176e+01
3.14359605e+01
3.07899513e+01
3.10173852e+01
3.05235195e+01
3.21653979e+01
3.05695210e+01
3.10527692e+01
3.06020036e+01
3.16879280e+01
3.00909977e+01
3.08060119e+01
3.04648604e+01
3.07612283e+01
2.98411613e+01
3.05295827e+01
3.04456635e+01
3.04569168e+01
2.98901787e+01
3.03497300e+01
3.10127406e+01
2.92654562e+01
3.09390497e+01
3.06907983e+01
3.37945505e+01
3.04116068e+01
3.63540516e+01
3.12677860e+01
3.32028828e+01
3.29792336e+01
3.11362867e+01
3.19553604e+01
3.05113897e+01
3.14107561e+01
3.16311493e+01
3.00326209e+01
3.05933326e+01
3.09468074e+01
3.68187628e+01
3.28365154e+01
4.71295090e+01
3.00084877e+01
2.96890161e+01
2.40460114e+01
3.01856610e+01
2.65601983e+01
2.36230016e+01
3.07475215e+01
2.89727263e+01
2.91336164e+01
3.48307362e+01
3.47991756e+01
2.89243393e+01
3.04592185e+01
3.04092579e+01
3.25294013e+01
3.63825976e+01
3.32771346e+01
3.15299416e+01
3.13330536e+01
3.14131393e+01
3.16792312e+01
3.08587813e+01
3.06228769e+01
3.02854123e+01
2.98734872e+01
2.97939367e+01
2.95052898e+01
2.94001670e+01
2.97960021e+01
2.92580547e+01
2.97027955e+01
3.16392043e+01
3.19768968e+01
2.99688723e+01
2.90012279e+01
2.80387982e+01
2.59604769e+01
2.74653937e+01
3.08613968e+01
3.10569750e+01
3.05085526e+01
2.42855444e+01
3.99386406e+01
1.08643884e+01
3.14448352e+01
2.95857512e+01
3.50673656e+01
3.15026843e+01
3.08211126e+01
3.10411739e+01
3.06529236e+01
3.14624515e+01
3.09926906e+01
3.08946800e+01
3.04980326e+01
2.83378830e+01
2.82632465e+01
1.43342801e+01
1.39500640e+01
8.97554100e-01
6.58712089e-01
8.62385988e-01
1.02762496e+00
2.65118666e+00
1.81195537e+00
9.88920718e-01
2.86702542e+00
3.19577351e+01
3.16806555e+01
3.14325900e+01
3.18762236e+01
3.08723917e+01
3.04726391e+01
3.00518942e+01
2.95243158e+01
2.97653399e+01
2.92095380e+01
2.95734386e+01
2.98120499e+01
2.94323196e+01
2.95553703e+01
3.22560344e+01
3.29129124e+01
2.98436952e+01
2.97663398e+01
2.38185487e+01
1.93827653e+01
2.16015167e+01
3.55068512e+01
3.60749207e+01
3.21488298e+01
1.62166874e+01
5.08069110e+00
9.09688962e+00
4.64455462e+00
9.38727999e+00
6.60503578e+00
3.17633848e+01
1.48858075e+01
3.92279053e+01
6.57827266e+00
4.53223697e+00
4.10567689e+00
2.31668907e+00
3.88497674e+00
4.81868017e+00
3.62748871e+01
3.65020409e+01
3.12384103e+01
3.27818375e+01
2.40421894e+00
5.89818446e+00
2.27828550e+00
3.04309750e+01
3.08205013e+01
2.92426519e+01
2.97272024e+01
2.71888323e+01
2.77339115e+01
8.57787228e+00
4.47318995e+00
1.23607337e+00
</DataArray>
<DataArray type="Float32" Name="Stress_Max_Principal" format="ascii">
1.33082695e+00
2.10691804e+00
2.46986288e+00
7.34881341e-01
6.44219197e-01
5.26311583e+00
4.88271490e+00
1.60805130e+00
3.18060231e+00
1.44628413e+00
4.30938466e+00
2.49485381e+00
1.50727194e-01
1.37637269e-01
1.03667520e-01
3.23561296e-01
9.79826972e-02
9.80518460e-02
1.56234533e-01
1.77646294e-01
8.95287395e-01
7.18406450e-01
2.11863450e+00
1.68926182e+00
1.43179056e+00
1.25071134e+00
5.76087344e-01
5.17351404e-01
2.13873333e+00
2.32903741e+00
7.42377371e-01
6.02829789e-01
3.18991321e+00
1.71724254e+00
8.81846189e-01
4.63913497e-01
2.82147574e+00
1.41668546e+00
1.34389746e+00
1.58477076e+00
1.48697229e+00
1.05137810e+00
1.15404169e+00
1.16029062e+00
2.04010320e+00
1.34078851e+00
1.80951864e+00
1.62094624e+00
3.53458968e+00
4.48597085e+00
1.27793285e+00
7.22810641e-01
1.28042630e+00
1.46655684e+00
6.76094883e-01
3.67261137e+00
-1.83160089e-01
2.92633952e+00
-1.91281432e-01
4.10862297e-01
1.56389363e-01
1.24223188e-01
4.10433761e+00
5.66834319e+00
4.23526420e+00
4.11367232e+00
2.25238305e+00
3.96732352e+00
1.61688919e+01
7.89524142e+00
4.38119967e+00
2.28587280e+00
6.11125700e+00
6.22500372e+00
1.09563453e+00
4.26885508e+00
5.11075324e+00
5.20295817e+00
1.79724902e+00
3.80043250e+00
1.96822113e+00
4.35093820e+00
3.12486577e+00
2.11174673e+00
4.66786941e+00
5.05376410e+00
1.82427830e+00
1.30117962e+00
1.62788256e+00
1.82218710e+00
4.15166620e-01
1.92202221e+00
1.47009695e+00
2.48522338e+00
2.25524029e+00
2.27800747e+00
1.90291798e+00
1.87658953e+00
1.95071071e+00
1.78357218e+00
2.33520182e+00
1.34664141e+00
3.55473243e+00
4.87504119e+00
5.22169597e+00
3.04709065e+00
3.47316579e+00
4.74064575e+00
3.55330531e+00
5.59994558e+00
6.11174424e+00
1.31229649e+01
4.45580735e+00
6.61642647e+00
5.11763521e+00
5.38713145e+00
6.45215365e-01
4.85987425e-01
1.76370944e+00
5.11468112e-01
2.06696133e+00
3.97346276e+00
8.91295779e+00
8.20821166e+00
1.49322777e+01
1.57738008e+01
8.15534544e+00
5.82083321e+00
4.36062425e-01
3.37135017e-01
3.53849262e-01
5.39936900e-01
1.91861552e+00
5.25636693e-01
4.16984186e-01
1.26578153e+00
1.62768900e+00
8.46074283e-01
2.47329104e+00
2.60434055e+00
5.76702332e-01
2.24246676e+00
2.52636480e+00
3.35866666e+00
3.49219251e+00
3.95952767e+00
2.66266394e+00
3.64676899e+00
3.26129508e+00
3.89637744e+00
3.28786322e+00
1.17233759e+00
5.26321614e+00
6.49338317e+00
5.11776453e+00
4.05440676e+00
5.19394350e+00
-1.66660410e+00
-3.69963312e+00
5.49607031e+00
4.13107559e+00
1.97856592e+00
4.70828456e+00
1.85125666e+00
3.75948715e+00
2.11398129e+00
1.74086232e+01
6.74349487e+00
9.56170559e+00
5.83256118e+00
4.34345738e+00
3.10782886e+00
1.94488463e+00
1.62080336e+00
1.55977827e+00
-3.47981501e+00
-2.76502204e+00
2.12351660e+00
-5.62717831e-02
1.67618693e+00
2.48613314e+00
8.40352029e-01
3.67580378e+00
1.85628450e+00
3.08298206e+00
4.12224841e+00
6.29735804e+00
7.51890349e+00
3.00715327e+00
1.75436789e+00
3.64475310e-01
</DataArray>
<DataArray type="Float32" Name="Stress_Mid_Principal" format="ascii">
-1.14623868e+00
-1.03360835e+00
-1.08504699e+00
-1.65176446e+00
-2.62894984e+00
-8.64218042e-01
-4.90526682e+00
-2.23905598e+00
6.66574076e-01
-8.52466643e-01
-5.10903104e+00
-8.22954679e+00
-6.90306462e-02
3.61341208e-02
2.17647129e-02
-1.54718768e-01
-5.40597644e-03
1.49558270e-02
-2.29597744e-02
-4.28473763e-02
-9.72892940e-02
-2.96999902e-01
-1.80803388e+00
-7.42069898e-01
-2.43275118e+00
-2.38033825e+00
-1.71196637e+00
-1.69749350e+00
-2.40115699e+00
-3.92752403e+00
-1.90240920e+00
-1.65923677e+00
-4.24795252e+00
-4.34044318e+00
-1.58695515e+00
-1.47738229e+00
-3.74844307e+00
-3.46159303e+00
-1.27486118e+00
-1.98218331e+00
-2.02413547e+00
-2.19261973e+00
-6.50308669e-01
-1.42406812e+00
-2.67669606e+00
-1.94530591e+00
-1.31487113e+00
-1.76643267e+00
-4.25008613e+00
-2.89044130e+00
-1.72938452e+00
-6.28770616e-01
-3.38593742e+00
-6.79759810e-01
-4.58793054e+00
-9.76256532e-01
-3.86727852e+00
-2.60118675e+00
-1.24966368e+00
-2.49912822e+00
-6.97604090e-01
-1.98949093e+00
-4.11388049e+00
-2.39416969e+00
-1.56418880e+00
1.05819396e+00
-4.84700614e+00
-2.32283902e+00
-8.01230812e+00
1.14815482e+00
-6.12323933e-01
-1.82569804e+00
1.61514630e-02
4.66417938e-01
-1.13540970e+00
-1.69435155e+00
-1.00433855e+00
-3.48048877e+00
-5.37236941e+00
-5.67967324e+00
-8.77209030e-01
-2.67370504e+00
-2.34167612e+00
-3.66721684e+00
-3.13322564e+00
-2.69795962e+00
-4.72985291e+00
-3.73840100e+00
-4.03324625e+00
-4.81046176e+00
-1.80529863e+00
-2.97504582e+00
-1.81979892e+00
-2.07987486e+00
-1.72835374e+00
-1.16928202e+00
-7.05326475e-01
-4.52858170e-01
-3.97213258e-01
-5.77414181e-01
-3.92394287e+00
-4.37967333e+00
-2.48191746e+00
1.18774839e-01
6.25140236e-01
1.51627177e-01
2.84968903e-01
-3.96816119e+00
-4.30630581e+00
-1.24266157e+00
7.40345379e-01
1.92877555e+00
-2.25627904e+00
-4.61332561e+00
-2.70018780e+00
-3.24221009e+00
-1.50415122e+00
-7.77962774e-01
-2.02923928e+00
-9.88817900e-01
-2.74170820e+00
-3.59468389e+00
1.12663862e+00
-2.41225958e-02
-2.27371335e+00
-4.07244205e+00
-2.82278128e+00
-1.37741945e+00
2.96069384e-02
-4.08172347e-02
1.20268747e-01
-2.10035630e-02
3.48683458e-02
-2.31879527e-02
-3.26279454e-01
4.58565010e-01
-5.32466650e+00
-3.86074233e+00
-5.27116507e+00
-6.33902407e+00
-2.07312566e+00
-3.11007482e+00
-2.76594114e+00
-2.62757093e+00
-3.29524004e+00
-2.13482379e+00
-1.91451532e+00
-9.06559587e-01
-2.18724751e+00
-1.63677695e+00
-6.21534562e+00
-5.71700180e+00
-5.64484113e+00
-1.44792879e+00
4.52952683e-01
-5.25761813e-01
-8.98524642e-01
-5.61170101e+00
-5.76004076e+00
-1.92000840e+00
-1.89821380e+00
-8.67252767e-01
-1.60442139e+00
-9.30286579e-01
-3.79549801e-01
-3.19519699e-01
-4.54617279e+00
-3.07271457e+00
2.74277997e+00
6.18827899e-01
1.32741095e+00
3.06225374e-01
7.83461072e-01
5.35960034e-01
1.29813927e+00
-6.15550375e+00
-7.10848618e+00
-3.49130114e+00
-4.16253304e+00
5.33824526e-01
2.84805655e-01
-4.55578700e-01
-4.07914472e+00
-2.84837937e+00
-3.23815629e-01
-2.64584923e+00
7.73230553e-01
-7.11354196e-01
-1.72922182e+00
1.05039410e+00
-4.02578413e-01
</DataArray>
<DataArray type="Float32" Name="Stress_Min_Principal" format="ascii">
-2.49622102e+01
-2.42131302e+01
-2.96373062e+01
-2.68362207e+01
-2.23111620e+01
-2.99263044e+01
-3.22414823e+01
-2.67351542e+01
-2.54062028e+01
-3.19591904e+01
-3.45837561e+01
-3.86669941e+01
-1.34430356e-01
-2.26505961e-01
-1.78166538e-01
-2.21577466e-01
-5.17611764e-02
-7.21905679e-02
-9.24588665e-02
-9.39808860e-02
-2.92261581e+01
-2.96289210e+01
-2.96752484e+01
-2.90176978e+01
-3.09273300e+01
-3.10731888e+01
-3.12949159e+01
-3.12876782e+01
-3.01426587e+01
-3.17507713e+01
-3.12834482e+01
-3.14774780e+01
-3.03613477e+01
-3.29789829e+01
-3.08409514e+01
-3.15051687e+01
-3.05240407e+01
-3.23863347e+01
-2.99631600e+01
-3.08428206e+01
-3.05557642e+01
-3.11824963e+01
-2.95291891e+01
-3.05725594e+01
-3.04882717e+01
-3.06026154e+01
-2.95192795e+01
-3.02751846e+01
-3.06012352e+01
-2.77575803e+01
-3.10255263e+01
-3.06209779e+01
-3.45720049e+01
-2.99290624e+01
-3.79132095e+01
-2.95600063e+01
-3.50557361e+01
-3.24092285e+01
-3.18419046e+01
-3.28913407e+01
-3.07728739e+01
-3.22894669e+01
-3.06916270e+01
-2.75471039e+01
-2.87500044e+01
-2.82358484e+01
-3.75225573e+01
-3.13810970e+01
-3.81430626e+01
-2.48000278e+01
-2.73902190e+01
-2.34182711e+01
-2.66123597e+01
-2.27105613e+01
-2.35628467e+01
-2.87582030e+01
-2.63344398e+01
-2.66567287e+01
-3.59470158e+01
-3.44923248e+01
-2.82736712e+01
-2.89749818e+01
-2.96363478e+01
-3.27763381e+01
-3.48639704e+01
-3.13057086e+01
-3.24668369e+01
-3.22325883e+01
-3.22215219e+01
-3.26409984e+01
-3.14906082e+01
-3.08376048e+01
-3.03127713e+01
-2.94003537e+01
-2.93271685e+01
-2.87654529e+01
-2.87140741e+01
-2.89958546e+01
-2.84103460e+01
-2.90287514e+01
-3.19364846e+01
-3.30450449e+01
-2.89149709e+01
-2.61593587e+01
-2.47946273e+01
-2.42192105e+01
-2.54262371e+01
-2.92817020e+01
-3.03058783e+01
-2.74986521e+01
-2.03396854e+01
-3.12183228e+01
-7.71933570e+00
-2.82051687e+01
-2.70190398e+01
-3.31889868e+01
-3.18737450e+01
-3.09469824e+01
-3.09832850e+01
-3.08618679e+01
-3.15191183e+01
-3.00844755e+01
-2.49770689e+01
-2.48794317e+01
-1.77746811e+01
-1.65860329e+01
-7.92301387e+00
-1.00475014e+01
-5.92815816e-01
-4.23475325e-01
-6.01266503e-01
-6.46084309e-01
-1.02943177e+00
-1.47268913e+00
-7.04065621e-01
-1.91508146e+00
-3.32339211e+01
-3.29061050e+01
-3.20356874e+01
-3.27755928e+01
-3.15315189e+01
-3.05145411e+01
-2.97998772e+01
-2.86837821e+01
-2.90799150e+01
-2.77378078e+01
-2.89127569e+01
-2.80679207e+01
-2.85145950e+01
-2.79504919e+01
-3.25207081e+01
-3.43358784e+01
-2.84573250e+01
-2.64125776e+01
-2.05881422e+01
-1.70649047e+01
-1.87585373e+01
-3.89812469e+01
-4.07606010e+01
-2.96806946e+01
-1.41654470e+01
-3.70733286e+00
-5.61825818e+00
-3.43536228e+00
-6.90966928e+00
-5.32418299e+00
-1.90128846e+01
-1.03690109e+01
-3.26286201e+01
-1.53220783e+00
-7.51676202e-01
-1.39240138e+00
-7.06684977e-01
-2.67887056e+00
-3.38002408e+00
-4.10184593e+01
-4.12444611e+01
-3.15330696e+01
-3.46705570e+01
-1.02316240e+00
-4.12104535e+00
-1.77656847e+00
-2.98822813e+01
-3.10460548e+01
-2.77138119e+01
-2.83399315e+01
-2.30397177e+01
-2.33348608e+01
-6.74133754e+00
-3.02729893e+00
-1.06145215e+00
</DataArray>
<DataArray type="Float32" Name="Stress_Pressure" format="ascii">
8.25920731e+00
7.71327335e+00
9.41749716e+00
9.25103450e+00
8.09863102e+00
8.50913565e+00
1.07546781e+01
9.12205303e+00
7.18634212e+00
1.04551244e+01
1.17944681e+01
1.48005619e+01
1.75779355e-02
1.75781925e-02
1.75781040e-02
1.75783155e-02
-1.36051821e-02
-1.36057017e-02
-1.36052947e-02
-1.36060081e-02
9.47605324e+00
9.73583817e+00
9.78821599e+00
9.35683513e+00
1.06427631e+01
1.07342720e+01
1.08102651e+01
1.08226068e+01
1.01350276e+01
1.11164194e+01
1.08144934e+01
1.08446283e+01
1.04731288e+01
1.18673947e+01
1.05153534e+01
1.08395458e+01
1.04836693e+01
1.14770809e+01
9.96470785e+00
1.04134110e+01
1.03643091e+01
1.07745794e+01
9.67515182e+00
1.02787791e+01
1.03749547e+01
1.04023776e+01
9.67487717e+00
1.01402237e+01
1.04389105e+01
8.72068357e+00
1.04923261e+01
1.01756461e+01
1.22258388e+01
9.71408850e+00
1.39416821e+01
8.95455081e+00
1.30353918e+01
1.06946919e+01
1.10942831e+01
1.16598690e+01
1.04380293e+01
1.13849115e+01
1.02337232e+01
8.09097672e+00
8.69297617e+00
7.68799412e+00
1.33723938e+01
9.91220407e+00
9.99549294e+00
5.25221054e+00
7.87378100e+00
7.65269887e+00
6.82831701e+00
5.33971316e+00
7.86754072e+00
8.72789989e+00
7.40934169e+00
8.31141984e+00
1.31740460e+01
1.21238551e+01
9.06088638e+00
9.09924972e+00
9.61771965e+00
1.14439359e+01
1.11097755e+01
9.64996815e+00
1.17908034e+01
1.15566030e+01
1.15422953e+01
1.18764246e+01
1.09602466e+01
1.06302094e+01
1.02208242e+01
9.66500175e+00
9.60009384e+00
9.21890914e+00
9.17216086e+00
9.19070762e+00
8.95228243e+00
9.27419758e+00
1.11750751e+01
1.20260255e+01
9.28071862e+00
7.05518091e+00
6.31593035e+00
7.00683089e+00
7.22270068e+00
9.50307274e+00
1.03529595e+01
7.71378938e+00
4.49586536e+00
5.38886070e+00
1.83993577e+00
8.73402262e+00
8.20053069e+00
1.03480220e+01
1.09108936e+01
1.04129856e+01
1.04162717e+01
1.04464059e+01
1.07312883e+01
9.90189862e+00
4.97915781e+00
5.56511426e+00
1.70537257e+00
1.62822449e+00
8.63483239e-01
1.86802925e+00
4.23821546e-02
4.23858427e-02
4.23828363e-02
4.23836522e-02
-3.08017344e-01
3.23413471e-01
2.04453634e-01
6.35782865e-02
1.23102999e+01
1.19735913e+01
1.16111870e+01
1.21700921e+01
1.10093141e+01
1.04607162e+01
1.00131512e+01
9.31756234e+00
9.62765408e+00
8.63770127e+00
9.38820314e+00
8.44257057e+00
9.14684868e+00
8.56363010e+00
1.18160636e+01
1.29601803e+01
9.61298323e+00
7.12237442e+00
5.00580829e+00
4.51208648e+00
4.82103944e+00
1.54198508e+01
1.67400913e+01
8.70154413e+00
3.97752848e+00
8.65339890e-01
8.38131640e-01
8.38130765e-01
1.17657731e+00
1.17657378e+00
2.05014485e+00
2.23274356e+00
6.77471161e+00
-1.63972708e+00
-1.63973071e+00
-6.73884213e-01
-6.73886906e-01
1.74035698e-01
1.74035482e-01
1.68845940e+01
1.70393238e+01
1.09669511e+01
1.29631209e+01
-3.95616349e-01
4.50035557e-01
4.63931739e-01
1.00952072e+01
1.06793833e+01
8.31821489e+00
8.95451069e+00
5.32304299e+00
5.50910354e+00
1.82113540e+00
7.41789714e-02
3.66518408e-01
</DataArray>
<DataArray type="Float32" Name="Stress_Tresca" format="ascii">
2.62930374e+01
2.63200483e+01
3.21071687e+01
2.75711021e+01
2.29553816e+01
3.51894212e+01
3.71241975e+01
2.83432050e+01
2.85868044e+01
3.34054737e+01
3.88931414e+01
4.11618481e+01
2.85157546e-01
3.64143230e-01
2.81834051e-01
5.45138747e-01
1.49743870e-01
1.70242414e-01
2.48693407e-01
2.71627188e-01
3.01214457e+01
3.03473272e+01
3.17938826e+01
3.07069597e+01
3.23591213e+01
3.23239012e+01
3.18710034e+01
3.18050303e+01
3.22813921e+01
3.40798090e+01
3.20258255e+01
3.20803075e+01
3.35512609e+01
3.46962256e+01
3.17227974e+01
3.19690821e+01
3.33455172e+01
3.38030195e+01
3.13070579e+01
3.24275913e+01
3.20427361e+01
3.22338748e+01
3.06832309e+01
3.17328496e+01
3.25283737e+01
3.19434032e+01
3.13287983e+01
3.18961306e+01
3.41358247e+01
3.22435513e+01
3.23034594e+01
3.13437881e+01
3.58524312e+01
3.13956194e+01
3.85893044e+01
3.32326172e+01
3.48725767e+01
3.53355682e+01
3.16506233e+01
3.33022041e+01
3.09292631e+01
3.24136906e+01
3.47959641e+01
3.32154465e+01
3.29852687e+01
3.23495202e+01
3.97749405e+01
3.53484203e+01
5.43119545e+01
3.26952686e+01
3.17714187e+01
2.57041435e+01
3.27236172e+01
2.89355645e+01
2.46584811e+01
3.30270579e+01
3.14451923e+01
3.18596873e+01
3.77442646e+01
3.82927582e+01
3.02418919e+01
3.33259211e+01
3.27612133e+01
3.48880844e+01
3.95318400e+01
3.63594716e+01
3.42911148e+01
3.35337677e+01
3.38494039e+01
3.44631853e+01
3.19057751e+01
3.27596264e+01
3.17828684e+01
3.18855770e+01
3.15824089e+01
3.10434601e+01
3.06169920e+01
3.08724444e+01
3.03610573e+01
3.08123236e+01
3.42716861e+01
3.43916869e+01
3.24697034e+01
3.10344002e+01
3.00163231e+01
2.72663008e+01
2.88994033e+01
3.40223478e+01
3.38591843e+01
3.30985978e+01
2.64514297e+01
4.43412857e+01
1.21751430e+01
3.48215957e+01
3.21366755e+01
3.85761185e+01
3.25189606e+01
3.14329700e+01
3.27469945e+01
3.13733368e+01
3.35860786e+01
3.40579381e+01
3.38900270e+01
3.30876436e+01
3.27069588e+01
3.23598328e+01
1.60783591e+01
1.58683345e+01
1.02887821e+00
7.60610342e-01
9.55115795e-01
1.18602121e+00
2.94804721e+00
1.99832582e+00
1.12104982e+00
3.18086298e+00
3.48616104e+01
3.37521801e+01
3.45089779e+01
3.53799324e+01
3.21082211e+01
3.27570076e+01
3.23262424e+01
3.20424485e+01
3.25721073e+01
3.16973362e+01
3.15754213e+01
3.17146893e+01
3.17758904e+01
3.18468685e+01
3.58085709e+01
3.55082169e+01
3.37205410e+01
3.29059601e+01
2.57059069e+01
2.11193113e+01
2.39524813e+01
3.73146420e+01
3.70609665e+01
3.51767654e+01
1.82965224e+01
5.68589878e+00
1.03265431e+01
5.28661895e+00
1.06691566e+01
7.43816447e+00
3.64215078e+01
1.71125059e+01
4.21903267e+01
7.36476890e+00
5.09513354e+00
4.50023037e+00
2.65156955e+00
4.29967380e+00
4.93980241e+00
3.75386429e+01
3.84794388e+01
3.36565857e+01
3.46142845e+01
2.69934940e+00
6.60717869e+00
2.61692059e+00
3.35580845e+01
3.29023399e+01
3.07967939e+01
3.24621792e+01
2.93370752e+01
3.08537655e+01
9.74849129e+00
4.78166676e+00
1.42592740e+00
</DataArray>
<DataArray type="Float32" Name="Stress_Third_Invariant" format="ascii">
-2.48662946e+01
-2.44223781e+01
-3.00039306e+01
-2.62108712e+01
-2.07346840e+01
-3.11933517e+01
-2.94247332e+01
-2.57464609e+01
-2.71389017e+01
-3.20784273e+01
-3.04641171e+01
-3.31482334e+01
2.38351181e-01
-1.88599192e-01
-1.20370567e-01
5.03116995e-01
1.12281390e-01
-5.09235561e-02
1.95460558e-01
2.37817898e-01
-2.96001787e+01
-2.98117671e+01
-2.93593464e+01
-2.93303156e+01
-3.00527258e+01
-3.01777158e+01
-3.05444605e+01
-3.04939771e+01
-2.94840088e+01
-2.99367924e+01
-3.05290895e+01
-3.08120549e+01
-2.83604207e+01
-3.06089413e+01
-3.03247418e+01
-3.08890393e+01
-2.89221458e+01
-3.06887538e+01
-2.98091135e+01
-3.03153157e+01
-2.99237432e+01
-3.03071382e+01
-2.96596885e+01
-3.02611589e+01
-2.96055098e+01
-2.99809227e+01
-2.95167761e+01
-2.99036670e+01
-2.85737839e+01
-2.70353851e+01
-3.05156021e+01
-3.06223044e+01
-3.29515029e+01
-3.01413686e+01
-3.51120113e+01
-3.01457915e+01
-3.26792474e+01
-3.17146221e+01
-3.10916762e+01
-3.16284885e+01
-3.04840097e+01
-3.12484970e+01
-2.84941243e+01
-2.73281236e+01
-2.89743135e+01
-3.05680628e+01
-3.49617128e+01
-3.07139328e+01
-2.70156994e+01
-2.77821814e+01
-2.83821477e+01
-2.27847748e+01
-2.85931638e+01
-2.49818521e+01
-2.33814349e+01
-2.83873217e+01
-2.70937128e+01
-1.59110346e+01
-3.26974831e+01
-3.05224178e+01
-2.86069031e+01
-2.84282641e+01
-2.92369556e+01
-3.08145666e+01
-3.39832662e+01
-3.07030557e+01
-2.99363804e+01
-3.03557644e+01
-3.02009370e+01
-3.00306377e+01
-3.06682816e+01
-2.96674972e+01
-2.98380141e+01
-2.90478201e+01
-2.91763778e+01
-2.89391038e+01
-2.91369386e+01
-2.95288939e+01
-2.90442915e+01
-2.94890175e+01
-3.00953777e+01
-3.05805106e+01
-2.83387845e+01
-2.79340825e+01
-2.70486919e+01
-2.55276658e+01
-2.69777921e+01
-2.65949249e+01
-2.66640892e+01
-2.77444410e+01
-2.26284383e+01
-3.61484566e+01
1.78665700e+00
-1.54643962e+01
-2.11224262e+01
-3.25459929e+01
-3.13268023e+01
-3.07606807e+01
-3.04617925e+01
-3.05635462e+01
-3.06065593e+01
-2.87317462e+01
-2.79340668e+01
-2.39814188e+01
1.27060528e+01
2.04792366e+01
1.12934834e+01
8.34623973e-04
-6.34910345e-01
-1.45223290e-01
-7.86359310e-01
-4.66418564e-01
8.54208469e-01
-1.20288437e+00
7.93192148e-01
-2.57859663e+00
-3.01850700e+01
-3.08185101e+01
-2.88826857e+01
-2.87901096e+01
-3.06036253e+01
-2.92584872e+01
-2.89065456e+01
-2.80510092e+01
-2.79405575e+01
-2.74399872e+01
-2.86950827e+01
-2.86401463e+01
-2.82640667e+01
-2.80611105e+01
-2.82382612e+01
-3.00852957e+01
-2.44771819e+01
-2.71186905e+01
-2.23986959e+01
-1.75678229e+01
-1.93498621e+01
-3.50086765e+01
-3.59421806e+01
-3.00083936e+01
-1.27724700e+01
2.59339958e-01
3.52329648e+00
1.79244518e-01
-6.09586620e+00
-5.15744388e+00
2.23219175e+01
9.12038231e+00
-3.78599243e+01
5.60493747e+00
1.17743309e+00
6.82227135e-01
-7.98473358e-01
-3.46549118e+00
-4.78928363e+00
-3.60518684e+01
-3.59137459e+01
-3.00427958e+01
-3.21087255e+01
-2.93098718e-01
-3.02929958e+00
-2.00717628e-01
-2.80756865e+01
-2.99966564e+01
-2.87909765e+01
-2.76660004e+01
-2.51968412e+01
-2.44647837e+01
-4.27576542e-01
-4.34000659e+00
6.27680600e-01
</DataArray>
<DataArray type="Float32" Name="Logarithmic_strain_Max_Principal" format="ascii">
1.31291784e-04
1.42707693e-04
1.88071459e-04
1.28244370e-04
9.63765369e-05
2.22854819e-04
4.17357420e-04
2.15921695e-04
1.44400816e-04
3.22369495e-04
6.41228651e-04
8.22077302e-04
4.06175980e-06
3.53842597e-06
2.51715244e-06
8.07831452e-06
2.29668967e-06
2.00584213e-06
3.75847821e-06
3.95667212e-06
2.53677819e-04
2.47650198e-04
3.00573245e-04
2.83317160e-04
3.44498243e-04
3.34343196e-04
3.37526501e-04
3.45683104e-04
2.88129362e-04
3.34892868e-04
3.02887565e-04
3.26199694e-04
3.16140569e-04
3.49648220e-04
2.74995287e-04
3.04571891e-04
2.84913964e-04
3.58230838e-04
2.46689258e-04
2.72676736e-04
2.02785799e-04
2.95002112e-04
1.90069411e-04
2.25234733e-04
1.82596501e-04
2.53923758e-04
1.78014627e-04
2.07084940e-04
3.56452747e-04
3.17396458e-04
4.49612005e-04
3.91221489e-04
3.94036145e-04
3.77181213e-04
6.35256828e-04
3.36783853e-04
5.03728101e-04
4.10549232e-04
3.38248945e-04
3.48828449e-04
3.01551932e-04
3.02227127e-04
3.75042921e-04
2.33417104e-04
4.55785676e-04
3.34465250e-04
7.97530432e-04
6.52542542e-04
1.30775967e-03
3.58895748e-04
1.99366907e-04
1.48575091e-04
2.91884709e-04
2.47247768e-04
1.14258548e-04
4.32655522e-04
3.94197185e-04
3.59049380e-04
7.59185903e-04
6.96996105e-04
1.72715168e-04
4.92180814e-04
4.20996847e-04
6.42385865e-04
7.76939793e-04
5.82864159e-04
4.77716952e-04
4.36644303e-04
4.69068771e-04
5.04350712e-04
3.62459868e-04
4.05185740e-04
3.54320990e-04
3.45045872e-04
3.22427295e-04
2.87323228e-04
2.77647538e-04
2.43436585e-04
2.67358722e-04
2.38110337e-04
6.08339244e-04
6.31418894e-04
4.42651919e-04
2.27831475e-04
2.01790384e-04
2.11359887e-04
2.02407668e-04
6.69101190e-04
8.04805662e-04
4.14052023e-04
1.99771063e-04
3.80107114e-04
1.26388263e-04
8.61402950e-04
8.09288545e-04
7.71129824e-04
8.47430124e-04
7.56847730e-04
7.61365736e-04
6.80097844e-04
7.85435128e-04
7.75158129e-04
3.43775129e-04
4.09666238e-04
3.81371938e-04
3.84166458e-04
2.03100913e-04
1.59290757e-04
1.12351054e-05
8.66906976e-06
9.33924548e-06
1.32020150e-05
4.23318757e-05
1.69009033e-05
1.23572390e-05
3.11855986e-05
5.24612376e-04
4.62987053e-04
5.51231613e-04
6.05210371e-04
3.88506902e-04
4.39383453e-04
4.10007488e-04
3.68160981e-04
4.12498310e-04
3.36828518e-04
3.76230266e-04
3.23604901e-04
4.01601545e-04
3.52378644e-04
6.48153829e-04
6.93282112e-04
4.64106226e-04
2.82523142e-04
1.63766497e-04
1.38424028e-04
1.67736500e-04
8.95034638e-04
9.83905513e-04
3.87345547e-04
1.28523194e-04
5.77757573e-05
1.23011338e-04
5.47774080e-05
1.04151446e-04
6.45425062e-05
4.23012098e-04
1.86304962e-04
3.92444956e-04
1.20473795e-04
8.44345899e-05
6.65498615e-05
3.83829698e-05
4.10731809e-05
3.95983998e-05
1.42750854e-03
1.49507448e-03
9.96315367e-04
1.12981378e-03
3.52487409e-05
6.48668611e-05
2.54962088e-05
1.05172890e-03
9.71638947e-04
5.71219629e-04
7.36867194e-04
2.41737784e-04
2.98472864e-04
9.42186707e-05
4.29072570e-05
1.29767877e-05
</DataArray>
<DataArray type="Float32" Name="Logarithmic_strain_Min_Principal" format="ascii">
-5.00030481e-04
-4.88280675e-04
-6.18093021e-04
-5.32111939e-04
-4.13546415e-04
-5.92176644e-04
-8.65269030e-04
-6.34769800e-04
-4.94028383e-04
-9.04485234e-04
-1.24917505e-03
-1.50127133e-03
-2.90024627e-06
-5.33413981e-06
-4.06162815e-06
-5.14717249e-06
-1.57114437e-06
-1.81815392e-06
-2.02494198e-06
-2.68517670e-06
-7.79297407e-04
-7.76774308e-04
-7.84796444e-04
-7.81514915e-04
-8.88025854e-04
-8.81731190e-04
-9.30425958e-04
-9.45460197e-04
-7.63158634e-04
-8.21980160e-04
-8.62644898e-04
-9.11465686e-04
-7.47363432e-04
-8.73987228e-04
-8.11573875e-04
-8.82020402e-04
-7.26546961e-04
-9.06458299e-04
-7.44090430e-04
-7.74899927e-04
-6.70187597e-04
-8.29059238e-04
-6.63866434e-04
-7.23131896e-04
-6.19665370e-04
-7.55474146e-04
-6.19108701e-04
-6.71958376e-04
-7.92774947e-04
-6.91776717e-04
-1.06468264e-03
-1.02118292e-03
-1.00622185e-03
-9.45867541e-04
-1.39712796e-03
-8.00977444e-04
-1.20996422e-03
-9.57118464e-04
-9.74483832e-04
-9.54400501e-04
-8.95308622e-04
-8.96119513e-04
-8.16651175e-04
-5.63677830e-04
-9.22192487e-04
-8.06384225e-04
-1.51512935e-03
-1.23260150e-03
-1.61089294e-03
-5.99875842e-04
-5.64093997e-04
-4.72490188e-04
-6.23083669e-04
-5.18186142e-04
-4.61524600e-04
-9.27429501e-04
-7.96863096e-04
-7.13320282e-04
-1.46105548e-03
-1.33273689e-03
-5.96465223e-04
-9.40282014e-04
-9.08582413e-04
-1.27828709e-03
-1.47926390e-03
-1.10688877e-03
-1.04196381e-03
-1.02117611e-03
-1.04687024e-03
-1.08088212e-03
-9.71135378e-04
-9.41321006e-04
-8.96537269e-04
-8.29888602e-04
-8.13807957e-04
-7.57119524e-04
-7.66109821e-04
-7.20945231e-04
-7.50198873e-04
-7.16451119e-04
-1.21113578e-03
-1.30915034e-03
-9.17058322e-04
-5.76315226e-04
-5.15798094e-04
-5.80787290e-04
-5.74792570e-04
-1.17575980e-03
-1.41706952e-03
-7.88905124e-04
-4.30654647e-04
-6.61160098e-04
-1.61671494e-04
-1.33019514e-03
-1.37280727e-03
-1.35626152e-03
-1.70356831e-03
-1.60900186e-03
-1.49649906e-03
-1.44934439e-03
-1.52153900e-03
-1.32797813e-03
-5.90211275e-04
-6.80299141e-04
-3.78548400e-04
-3.24952882e-04
-1.78189817e-04
-2.14511436e-04
-1.35402515e-05
-9.43443592e-06
-1.39079893e-05
-1.53656310e-05
-2.83375739e-05
-3.15609577e-05
-1.46234879e-05
-4.52158153e-05
-1.11272058e-03
-1.08461181e-03
-1.09078287e-03
-1.14389189e-03
-9.98857868e-04
-9.67576430e-04
-9.13227821e-04
-8.13341831e-04
-8.67641880e-04
-7.43468394e-04
-8.68452014e-04
-7.57803165e-04
-8.74453399e-04
-7.82843999e-04
-1.16291686e-03
-1.36272598e-03
-8.17795881e-04
-5.98353625e-04
-4.08126332e-04
-3.36545629e-04
-3.70417707e-04
-1.91142299e-03
-2.17014179e-03
-7.92773363e-04
-2.69898010e-04
-7.86266323e-05
-1.25005374e-04
-7.21182423e-05
-1.51773886e-04
-1.13996863e-04
-4.07043743e-04
-2.17965397e-04
-8.02883878e-04
-5.66320735e-05
-3.76786223e-05
-4.14295328e-05
-2.50992043e-05
-6.25083467e-05
-7.88529087e-05
-2.82153790e-03
-2.84655578e-03
-1.77604926e-03
-2.10666121e-03
-2.93482158e-05
-9.37396350e-05
-3.71021888e-05
-1.69235264e-03
-1.75600895e-03
-1.16098789e-03
-1.27723318e-03
-5.07349920e-04
-5.46713054e-04
-1.39489755e-04
-7.15948281e-05
-2.13115545e-05
</DataArray>
<DataArray type="Float32" Name="Plastic_strain_Max_Principal" format="ascii">
8.07196443e-08
1.14938410e-06
1.70554517e-05
8.88980367e-07
2.66842260e-05
4.76685536e-05
1.72718945e-04
6.97225270e-05
2.97481787e-05
1.70887630e-04
3.98514472e-04
5.84999041e-04
0.00000000e+00
0.00000000e+00
0.00000000e+00
0.00000000e+00
0.00000000e+00
0.00000000e+00
0.00000000e+00
0.00000000e+00
1.18977656e-04
1.13488733e-04
1.32048939e-04
1.30336197e-04
1.82040159e-04
1.75305559e-04
1.94539087e-04
2.06137476e-04
1.15128780e-04
1.45934139e-04
1.55184496e-04
1.81702204e-04
1.13687358e-04
1.66109614e-04
1.27570784e-04
1.63470489e-04
9.13463555e-05
1.86626833e-04
9.47544431e-05
1.09726142e-04
4.26096772e-05
1.40363087e-04
4.62311432e-05
7.44205799e-05
1.57936295e-05
9.67031719e-05
3.53071691e-05
4.65422991e-05
1.46393957e-04
1.04993347e-04
2.94565096e-04
2.54609084e-04
2.31786402e-04
2.25947786e-04
4.54227068e-04
1.42886357e-04
3.52134724e-04
2.13113295e-04
2.10662114e-04
1.99010257e-04
1.72372449e-04
1.62843593e-04
1.65617611e-04
9.81817866e-05
2.53001266e-04
1.59353329e-04
5.85886628e-04
4.40089894e-04
8.05208867e-04
2.45008371e-04
2.31790121e-05
8.15577505e-06
8.07296995e-05
8.18152462e-05
9.60869320e-06
2.50141888e-04
1.82783089e-04
1.38963449e-04
5.62734349e-04
4.74403240e-04
1.70184685e-05
2.79081843e-04
2.31023747e-04
4.54278234e-04
5.33233620e-04
3.46242276e-04
2.92592042e-04
2.67055704e-04
2.91478165e-04
3.18123748e-04
2.21275208e-04
2.31789158e-04
1.96404970e-04
1.69562963e-04
1.53381683e-04
1.21795964e-04
1.21844365e-04
8.81128722e-05
1.13364731e-04
8.41291562e-05
4.18715921e-04
4.55068257e-04
2.46101262e-04
2.98511836e-05
3.31516026e-05
7.94089513e-05
6.01649590e-05
4.41922556e-04
5.95773454e-04
1.88096664e-04
3.03932757e-05
5.10874488e-05
1.80234347e-06
5.99510910e-04
5.89929172e-04
5.28290315e-04
7.01508359e-04
6.22187785e-04
5.94743848e-04
5.42525944e-04
6.07401846e-04
5.63445297e-04
7.70144552e-05
1.48938378e-04
7.06648716e-05
8.67216586e-05
2.34522940e-06
1.05803216e-05
0.00000000e+00
0.00000000e+00
0.00000000e+00
0.00000000e+00
0.00000000e+00
0.00000000e+00
0.00000000e+00
0.00000000e+00
3.37937905e-04
2.99066043e-04
3.52827919e-04
3.96406889e-04
2.43008442e-04
2.59973578e-04
2.28994781e-04
1.75589161e-04
2.12933621e-04
1.38383277e-04
2.00266928e-04
1.35178516e-04
2.13316875e-04
1.57882547e-04
4.27416649e-04
5.10508893e-04
2.22370869e-04
4.13634812e-05
2.62334070e-05
1.93107198e-05
2.20158181e-05
7.58838112e-04
8.74233199e-04
1.51721879e-04
2.29107300e-05
0.00000000e+00
0.00000000e+00
0.00000000e+00
0.00000000e+00
0.00000000e+00
4.43345343e-05
1.51343083e-05
8.73826721e-05
0.00000000e+00
0.00000000e+00
0.00000000e+00
0.00000000e+00
0.00000000e+00
0.00000000e+00
1.30988914e-03
1.36106671e-03
8.14664430e-04
9.75485513e-04
0.00000000e+00
0.00000000e+00
0.00000000e+00
8.43254908e-04
8.00126058e-04
3.99389392e-04
5.36597712e-04
2.71909375e-05
5.30354264e-05
0.00000000e+00
0.00000000e+00
0.00000000e+00
</DataArray>
<DataArray type="Float32" Name="Plastic_strain_Min_Principal" format="ascii">
-1.19100783e-07
-8.50787558e-07
-2.10729010e-05
-6.02499654e-07
-1.88713434e-05
-4.02385409e-05
-2.21804119e-04
-1.04367822e-04
-2.08038495e-05
-2.64467896e-04
-5.62114956e-04
-7.51366199e-04
0.00000000e+00
0.00000000e+00
0.00000000e+00
0.00000000e+00
0.00000000e+00
0.00000000e+00
0.00000000e+00
0.00000000e+00
-1.91740655e-04
-1.82666579e-04
-1.90009635e-04
-1.97457190e-04
-2.73539074e-04
-2.64962651e-04
-3.09110375e-04
-3.24859720e-04
-1.61283031e-04
-1.93757382e-04
-2.41692185e-04
-2.86358671e-04
-1.44345480e-04
-2.25253081e-04
-1.97722391e-04
-2.56108096e-04
-1.19946986e-04
-2.67147010e-04
-1.44746853e-04
-1.59813069e-04
-6.13570573e-05
-2.10102680e-04
-7.11424550e-05
-1.12911522e-04
-1.88919714e-05
-1.46014514e-04
-4.36393630e-05
-6.73548052e-05
-1.84031982e-04
-1.30328352e-04
-4.46558170e-04
-4.08873915e-04
-3.29990133e-04
-3.44598844e-04
-6.56497886e-04
-2.00030883e-04
-5.25232572e-04
-3.08396204e-04
-3.43461881e-04
-3.05242218e-04
-2.82072288e-04
-2.58157976e-04
-2.14642603e-04
-9.28779682e-05
-3.39019381e-04
-2.33602653e-04
-7.76163688e-04
-6.00973790e-04
-8.24752031e-04
-2.01573742e-04
-2.41528319e-05
-8.32717973e-06
-9.59589258e-05
-8.58512963e-05
-7.23452347e-06
-3.64697051e-04
-2.54306749e-04
-1.75806657e-04
-7.59856091e-04
-6.64929062e-04
-2.65604376e-05
-3.54860582e-04
-3.13678647e-04
-6.29274931e-04
-7.76951764e-04
-4.72323271e-04
-4.04448787e-04
-3.86375257e-04
-4.12080564e-04
-4.39923570e-04
-3.46782421e-04
-3.28772643e-04
-2.91510019e-04
-2.40294741e-04
-2.25130050e-04
-1.77274951e-04
-1.87223999e-04
-1.35332106e-04
-1.75871966e-04
-1.30989401e-04
-5.78916304e-04
-6.60457503e-04
-3.34701430e-04
-3.77617929e-05
-2.97843105e-05
-1.09003334e-04
-7.87803607e-05
-5.88236867e-04
-8.14858824e-04
-2.22586579e-04
-2.73609379e-05
-3.36321900e-05
-2.73776786e-06
-7.59925242e-04
-8.23590090e-04
-6.87589345e-04
-1.06977132e-03
-9.91900757e-04
-8.77926126e-04
-8.34355626e-04
-8.94137193e-04
-7.24720856e-04
-5.87629856e-05
-1.51973900e-04
-5.63498033e-05
-7.06817664e-05
-3.76292223e-06
-7.95599954e-06
0.00000000e+00
0.00000000e+00
0.00000000e+00
0.00000000e+00
0.00000000e+00
0.00000000e+00
0.00000000e+00
0.00000000e+00
-4.63064382e-04
-4.38303046e-04
-4.61337222e-04
-5.03417599e-04
-3.74029114e-04
-3.60873673e-04
-3.18551756e-04
-2.36557473e-04
-2.85441391e-04
-1.81449810e-04
-2.87105475e-04
-1.85510205e-04
-2.99891602e-04
-2.14730571e-04
-5.24221090e-04
-6.94276416e-04
-2.50071931e-04
-5.00913184e-05
-1.93206611e-05
-1.32875475e-05
-1.51701270e-05
-1.16231642e-03
-1.39394100e-03
-1.84870669e-04
-1.89161665e-05
0.00000000e+00
0.00000000e+00
0.00000000e+00
0.00000000e+00
0.00000000e+00
-3.65438027e-05
-1.17070585e-05
-1.12964008e-04
0.00000000e+00
0.00000000e+00
0.00000000e+00
0.00000000e+00
0.00000000e+00
0.00000000e+00
-2.03942135e-03
-2.06289580e-03
-1.15132212e-03
-1.42988568e-03
0.00000000e+00
0.00000000e+00
0.00000000e+00
-1.09628605e-03
-1.13888795e-03
-5.96060214e-04
-7.04594218e-04
-2.10677135e-05
-5.27284174e-05
0.00000000e+00
0.00000000e+00
0.00000000e+00
</DataArray>
</PointData>
<Cells>
<DataArray type="Int32" Name="connectivity" format="ascii">
0 1 2 3 4 5 6 7
1 8 9 2 5 10 11 6
12 13 14 15 16 17 18 19
20 21 22 23 24 25 26 27
21 28 29 22 25 30 31 26
28 32 33 29 30 34 35 31
32 36 37 33 34 38 39 35
36 40 41 37 38 42 43 39
40 44 45 41 42 46 47 43
23 22 48 49 27 26 50 51
22 29 52 48 26 31 53 50
29 33 54 52 31 35 55 53
33 37 56 54 35 39 57 55
37 41 58 56 39 43 59 57
41 45 60 58 43 47 61 59
49 48 62 63 51 50 64 65
48 52 66 62 50 53 67 64
52 54 68 66 53 55 69 67
63 62 70 71 65 64 72 73
71 70 4 74 73 72 75 76
70 77 5 4 72 78 79 75
74 4 7 80 76 75 81 82
4 5 6 7 75 79 83 81
5 10 11 6 79 84 85 83
24 25 26 27 86 87 88 89
25 30 31 26 87 90 91 88
30 34 35 31 90 92 93 91
34 38 39 35 92 94 95 93
38 42 43 39 94 96 97 95
42 46 47 43 96 98 99 97
27 26 50 51 89 88 100 101
26 31 53 50 88 91 102 100
31 35 55 53 91 93 103 102
35 39 57 55 93 95 104 103
39 43 59 57 95 97 105 104
43 47 61 59 97 99 106 105
51 50 64 65 101 100 107 108
50 53 67 64 100 102 109 107
53 55 69 67 102 103 110 109
55 57 111 69 103 104 112 110
65 64 72 73 108 107 113 114
64 67 78 72 107 109 115 113
73 72 75 76 114 113 116 117
76 75 81 82 117 116 118 119
75 79 83 81 116 120 121 118
79 84 85 83 120 122 123 121
84 124 125 85 122 126 127 123
128 129 130 131 132 133 134 135
86 87 88 89 136 137 138 139
87 90 91 88 137 140 141 138
90 92 93 91 140 142 143 141
92 94 95 93 142 144 145 143
94 96 97 95 144 146 147 145
96 98 99 97 146 148 149 147
89 88 100 101 139 138 150 151
88 91 102 100 138 141 152 150
91 93 103 102 141 143 153 152
93 95 104 103 143 145 154 153
95 97 105 104 145 147 155 154
97 99 106 105 147 149 156 155
101 100 107 108 151 150 157 158
100 102 109 107 150 152 159 157
102 103 110 109 152 153 160 159
103 104 112 110 153 154 161 160
104 105 162 112 154 155 163 161
105 106 164 162 155 156 165 163
109 110 166 115 159 160 167 168
110 112 169 166 160 161 170 167
112 162 171 169 161 163 172 170
162 164 173 171 163 165 174 172
114 113 116 117 175 176 177 178
169 171 132 126 170 172 179 180
171 173 133 132 172 174 181 179
117 116 118 119 178 177 182 183
116 120 121 118 177 184 185 182
120 122 123 121 184 186 187 185
122 126 127 123 186 180 188 187
126 132 135 127 180 179 189 188
132 133 134 135 179 181 190 189
</DataArray>
<DataArray type="Int32" Name="offsets" format="ascii">
8
16
24
32
40
48
56
64
72
80
88
96
104
112
120
128
136
144
152
160
168
176
184
192
200
208
216
224
232
240
248
256
264
272
280
288
296
304
312
320
328
336
344
352
360
368
376
384
392
400
408
416
424
432
440
448
456
464
472
480
488
496
504
512
520
528
536
544
552
560
568
576
584
592
600
608
616
624
632
</DataArray>
<DataArray type="UInt8" Name="types" format="ascii">
12
12
12
12
12
12
12
12
12
12
12
12
12
12
12
12
12
12
12
12
12
12
12
12
12
12
12
12
12
12
12
12
12
12
12
12
12
12
12
12
12
12
12
12
12
12
12
12
12
12
12
12
12
12
12
12
12
12
12
12
12
12
12
12
12
12
12
12
12
12
12
12
12
12
12
12
12
12
12
</DataArray>
</Cells>
</Piece>
</UnstructuredGrid>
</VTKFile>
