<VTKFile type="UnstructuredGrid" version="0.1" byte_order="LittleEndian">
<UnstructuredGrid>
<Piece NumberOfPoints="173" NumberOfCells="80">
<Points>
<DataArray type="Float64" NumberOfComponents="3" format="ascii">
 0.00000000e+00  0.00000000e+00  0.00000000e+00
 1.01467073e+00  0.00000000e+00  0.00000000e+00
 1.01622844e+00  1.03379393e+00  0.00000000e+00
 0.00000000e+00  1.03199792e+00  0.00000000e+00
 0.00000000e+00  0.00000000e+00  9.61164057e-01
 1.01491952e+00  0.00000000e+00  9.59345341e-01
 1.01518619e+00  1.03089273e+00  9.61508095e-01
 0.00000000e+00  1.03041041e+00  9.63717997e-01
 2.03236055e+00  0.00000000e+00  0.00000000e+00
 2.03298020e+00  1.03765965e+00  0.00000000e+00
 2.03195548e+00  0.00000000e+00  9.54110384e-01
 2.03311300e+00  1.03311646e+00  9.57499266e-01
 3.05154252e+00  0.00000000e+00  0.00000000e+00
 3.05316830e+00  1.04308105e+00  0.00000000e+00
 3.05464959e+00  0.00000000e+00  9.48683202e-01
 3.05244136e+00  1.03573620e+00  9.51690078e-01
 4.07819462e+00  0.00000000e+00  0.00000000e+00
 4.07305431e+00  1.04754388e+00  0.00000000e+00
 4.08091068e+00  0.00000000e+00  9.43418205e-01
 4.07536077e+00  1.03672731e+00  9.46352839e-01
 5.10827494e+00  0.00000000e+00  0.00000000e+00
 5.09911919e+00  1.05158067e+00  0.00000000e+00
 5.11016512e+00  0.00000000e+00  9.35809851e-01
 5.10408688e+00  1.03864586e+00  9.41620409e-01
 6.14240313e+00  0.00000000e+00  0.00000000e+00
 6.12083578e+00  1.06700349e+00  0.00000000e+00
 6.13845110e+00  0.00000000e+00  9.32450533e-01
 6.13343334e+00  1.05033457e+00  9.33421552e-01
 1.01847279e+00  2.05842543e+00  0.00000000e+00
 0.00000000e+00  2.05701733e+00  0.00000000e+00
 1.01645982e+00  2.05663919e+00  9.68377352e-01
 0.00000000e+00  2.05490565e+00  9.68970597e-01
 2.03679323e+00  2.06480765e+00  0.00000000e+00
 2.03348160e+00  2.06036544e+00  9.68638539e-01
 3.05138779e+00  2.07076740e+00  0.00000000e+00
 3.04903889e+00  2.06488013e+00  9.73353267e-01
 4.06405926e+00  2.07970405e+00  0.00000000e+00
 4.06584406e+00  2.06724644e+00  9.71584678e-01
 5.07294703e+00  2.08359599e+00  0.00000000e+00
 5.08020306e+00  2.07087064e+00  9.73140359e-01
 6.08648157e+00  2.10082746e+00  0.00000000e+00
 6.09938145e+00  2.08802724e+00  9.72437501e-01
 1.02008212e+00  3.07251954e+00  0.00000000e+00
 0.00000000e+00  3.07102203e+00  0.00000000e+00
 1.01755893e+00  3.07280779e+00  9.76069570e-01
 0.00000000e+00  3.07201529e+00  9.75020766e-01
 2.03825879e+00  3.07438707e+00  0.00000000e+00
 2.03446269e+00  3.07476974e+00  9.83074784e-01
 3.04853344e+00  3.07953930e+00  0.00000000e+00
 3.04590011e+00  3.07746339e+00  9.94038761e-01
 4.05039740e+00  3.08494711e+00  0.00000000e+00
 4.04820204e+00  3.07856011e+00  1.00151765e+00
 5.05772924e+00  3.08331013e+00  0.00000000e+00
 5.05765629e+00  3.07700062e+00  1.00475156e+00
 6.05933523e+00  3.10193729e+00  0.00000000e+00
 6.06087494e+00  3.09929991e+00  1.00219953e+00
 1.02048540e+00  4.07926321e+00  0.00000000e+00
 0.00000000e+00  4.08044577e+00  0.00000000e+00
 1.01764989e+00  4.08061838e+00  9.79526699e-01
 0.00000000e+00  4.08197355e+00  9.77876246e-01
 2.03707123e+00  4.07898188e+00  0.00000000e+00
 2.03319025e+00  4.07797956e+00  9.86854911e-01
 3.04442120e+00  4.07980394e+00  0.00000000e+00
 3.04119158e+00  4.07870579e+00  9.97145176e-01
 4.04339981e+00  4.08351421e+00  0.00000000e+00
 4.04317522e+00  4.08343124e+00  9.99976814e-01
 6.04365396e+00  4.09010124e+00  0.00000000e+00
 5.04357433e+00  4.08641911e+00  0.00000000e+00
 6.04373884e+00  4.09020758e+00  9.99887884e-01
 5.04361582e+00  4.08648062e+00  1.00007761e+00
 1.01924288e+00  5.08660555e+00  0.00000000e+00
 0.00000000e+00  5.08961201e+00  0.00000000e+00
 1.01730072e+00  5.08867502e+00  9.78379071e-01
 0.00000000e+00  5.08991051e+00  9.74818051e-01
 2.03516197e+00  5.08156300e+00  0.00000000e+00
 2.02969432e+00  5.08273458e+00  9.85811055e-01
 3.04014373e+00  5.08059311e+00  0.00000000e+00
 3.03813338e+00  5.08071232e+00  9.97721910e-01
 4.04041767e+00  5.08345032e+00  0.00000000e+00
 4.04023790e+00  5.08341789e+00  1.00021839e+00
 5.04028654e+00  5.08656979e+00  0.00000000e+00
 5.04036570e+00  5.08657026e+00  1.00000775e+00
 6.04032946e+00  5.08981848e+00  0.00000000e+00
 6.04035902e+00  5.08976555e+00  9.99968588e-01
 1.02140987e+00  6.09868956e+00  0.00000000e+00
 0.00000000e+00  6.10065079e+00  0.00000000e+00
 1.01853943e+00  6.09831047e+00  9.74486649e-01
 0.00000000e+00  6.10246038e+00  9.70839500e-01
 2.03783035e+00  6.08890581e+00  0.00000000e+00
 2.02998662e+00  6.09463930e+00  9.79500473e-01
 3.03938365e+00  6.08217478e+00  0.00000000e+00
 3.03832388e+00  6.08653164e+00  9.94223535e-01
 4.03781796e+00  6.08364439e+00  0.00000000e+00
 4.03747416e+00  6.08367682e+00  1.00026798e+00
 5.03724766e+00  6.08651352e+00  0.00000000e+00
 5.03731108e+00  6.08655691e+00  1.00000727e+00
 6.03720140e+00  6.08975267e+00  0.00000000e+00
 6.03722572e+00  6.08971739e+00  1.00000978e+00
 0.00000000e+00  0.00000000e+00  1.92605066e+00
 1.01656485e+00  0.00000000e+00  1.92191541e+00
 1.01569653e+00  1.02525425e+00  1.92617440e+00
 0.00000000e+00  1.02596593e+00  1.92753041e+00
 2.03714585e+00  0.00000000e+00  1.91614401e+00
 2.03263235e+00  1.02171016e+00  1.91707397e+00
 3.05841637e+00  0.00000000e+00  1.90660131e+00
 3.05866718e+00  1.02080762e+00  1.90705383e+00
 4.08751345e+00  0.00000000e+00  1.89338231e+00
 4.08499241e+00  1.02168369e+00  1.90307283e+00
 5.11654472e+00  0.00000000e+00  1.88338566e+00
 5.11402178e+00  1.02293992e+00  1.89438796e+00
 6.13960361e+00  0.00000000e+00  1.87687421e+00
 6.14572239e+00  1.02420580e+00  1.88646793e+00
 1.01205027e+00  2.04994416e+00  1.93581533e+00
 0.00000000e+00  2.05257678e+00  1.94005919e+00
 2.02966452e+00  2.04902983e+00  1.93278778e+00
 3.05186296e+00  2.05236888e+00  1.93064511e+00
 4.08063936e+00  2.05905437e+00  1.91808510e+00
 5.11229086e+00  2.06027055e+00  1.91925561e+00
 6.14285040e+00  2.06252241e+00  1.90954363e+00
 1.01000679e+00  3.07161236e+00  1.95010674e+00
 0.00000000e+00  3.07222748e+00  1.95368934e+00
 2.02440929e+00  3.07210612e+00  1.96003342e+00
 3.02200747e+00  3.06878543e+00  2.00347853e+00
 1.01170886e+00  4.08661032e+00  1.96171939e+00
 0.00000000e+00  4.08510971e+00  1.95734215e+00
 2.02433658e+00  4.08146763e+00  1.97460020e+00
 3.03058100e+00  4.07103729e+00  1.99049580e+00
 1.01282787e+00  5.09256935e+00  1.95924020e+00
 0.00000000e+00  5.09475470e+00  1.95581031e+00
 2.02285409e+00  5.08902931e+00  1.97014880e+00
 3.04082131e+00  5.08293104e+00  1.97586977e+00
 1.00983357e+00  6.10687828e+00  1.94743586e+00
 0.00000000e+00  6.10466337e+00  1.94777381e+00
 2.02246022e+00  6.11038399e+00  1.95422053e+00
 3.04439688e+00  6.10778713e+00  1.95468450e+00
 5.04040527e+00  5.08657026e+00  2.00001335e+00
 6.04041004e+00  5.08969402e+00  1.99998105e+00
 6.03727150e+00  6.08970594e+00  2.00000358e+00
 5.03725338e+00  6.08657598e+00  2.00001359e+00
 0.00000000e+00  0.00000000e+00  2.88814640e+00
 1.02107096e+00  0.00000000e+00  2.88666034e+00
 1.02143538e+00  1.02247298e+00  2.89138651e+00
 0.00000000e+00  1.02199709e+00  2.89469624e+00
 2.04636908e+00  0.00000000e+00  2.87810707e+00
 2.04076481e+00  1.01770687e+00  2.88486910e+00
 3.06903696e+00  0.00000000e+00  2.86915278e+00
 3.06939745e+00  1.01414788e+00  2.87162733e+00
 4.09642029e+00  0.00000000e+00  2.86072230e+00
 4.09740925e+00  1.01511562e+00  2.85743260e+00
 5.12289715e+00  0.00000000e+00  2.84930134e+00
 5.12426805e+00  1.01675832e+00  2.85146713e+00
 6.14580202e+00  0.00000000e+00  2.84436345e+00
 6.14778709e+00  1.01522076e+00  2.84708428e+00
 1.01389718e+00  2.04154515e+00  2.90460324e+00
 0.00000000e+00  2.04822445e+00  2.90650344e+00
 2.03798366e+00  2.04074669e+00  2.88847756e+00
 3.06380272e+00  2.04501104e+00  2.86383247e+00
 4.09760427e+00  2.05064201e+00  2.85964131e+00
 5.12664270e+00  2.04509377e+00  2.85808182e+00
 6.15108633e+00  2.04238224e+00  2.85531020e+00
 1.00987232e+00  3.07216024e+00  2.92898583e+00
 0.00000000e+00  3.07066417e+00  2.92449498e+00
 2.03374338e+00  3.06375360e+00  2.90860224e+00
 1.00913715e+00  4.08774519e+00  2.94180131e+00
 0.00000000e+00  4.09127998e+00  2.94055581e+00
 2.02497578e+00  4.08776712e+00  2.95942521e+00
 1.01035714e+00  5.10560703e+00  2.93882418e+00
 0.00000000e+00  5.10216951e+00  2.93868780e+00
 2.02514076e+00  5.10626554e+00  2.94002771e+00
 3.02959943e+00  4.09926033e+00  3.00759220e+00
 3.04461265e+00  5.10054111e+00  2.93285418e+00
 1.01084304e+00  6.11897707e+00  2.92779613e+00
 0.00000000e+00  6.11961746e+00  2.92120838e+00
</DataArray>
</Points>
<PointData Tensors="Stress_Components,Plastic_strain_components" Vevtors="Spatial_displacement,Reaction_force" Scalars="Equivalent_plastic_strain,Stress_Mises,Stress_Max_Principal,Stress_Mid_Principal,Stress_Min_Principal,Stress_Pressure,Stress_Tresca,Stress_Third_Invariant,Plastic_strain_Max_Principal,Plastic_strain_Min_Principal">
<DataArray type="Float32" Name="Stress_Components" NumberOfComponents="9" format="ascii">
-3.75758266e+00 -9.81722958e-04 -6.13098405e-03 -9.81722958e-04 2.01224852e+00 -9.80801880e-04 -6.13098405e-03 -9.80801880e-04 -3.13295937e+01
-5.60625890e+00 2.76804559e-01 -1.22218911e-03 2.76804559e-01 4.62385654e-01 -1.06024362e-01 -1.22218911e-03 -1.06024362e-01 -3.49818516e+01
-3.76659983e+00 7.08398469e-01 -5.28698742e-01 7.08398469e-01 5.04081495e-01 -3.04612603e-01 -5.28698742e-01 -3.04612603e-01 -3.31597450e+01
-1.93576503e+00 2.65709236e-01 -3.23044166e-01 2.65709236e-01 2.05198836e+00 8.09927378e-03 -3.23044166e-01 8.09927378e-03 -2.95803823e+01
-2.41554296e+00 -1.26430346e-03 2.93909937e-01 -1.26430346e-03 2.96295655e+00 -3.72681662e-01 2.93909937e-01 -3.72681662e-01 -2.88925428e+01
-4.18080091e+00 9.53434352e-02 4.73614343e-01 9.53434352e-02 1.24712732e+00 -5.12390740e-01 4.73614343e-01 -5.12390740e-01 -3.26737885e+01
-2.49660251e+00 3.90964761e-01 -1.16945343e-02 3.90964761e-01 1.59785306e+00 -6.09665055e-01 -1.16945343e-02 -6.09665055e-01 -3.06366687e+01
-2.92671204e+00 1.14005391e-01 3.95249869e-02 1.14005391e-01 1.26963126e+00 -2.03860536e-01 3.95249869e-02 -2.03860536e-01 -3.14674864e+01
-9.19883621e+00 2.84137889e-02 -1.22587276e-02 2.84137889e-02 -2.54552317e+00 -3.78523290e-01 -1.22587276e-02 -3.78523290e-01 -4.20959063e+01
-8.84401250e+00 1.27513705e+00 -7.50530794e-01 1.27513705e+00 -3.43380839e+00 -1.36458330e-01 -7.50530794e-01 -1.36458330e-01 -4.27649488e+01
-4.21011116e+00 2.23818745e-01 4.49582815e-01 2.23818745e-01 2.89117634e-01 -3.93719701e-01 4.49582815e-01 -3.93719701e-01 -3.39335027e+01
-6.30264369e+00 5.17955380e-01 -3.92729446e-01 5.17955380e-01 -1.88622963e+00 -1.24160518e+00 -3.92729446e-01 -1.24160518e+00 -3.84595492e+01
-1.36284370e+01 6.41879439e-01 -4.89389654e-02 6.41879439e-01 -6.48138255e+00 5.41950181e-01 -4.89389654e-02 5.41950181e-01 -5.11323948e+01
-1.38672814e+01 8.51958528e-01 -1.41824695e+00 8.51958528e-01 -7.59068394e+00 -8.19790736e-01 -1.41824695e+00 -8.19790736e-01 -5.27182691e+01
-5.46851549e+00 -4.88176070e-01 -3.79382158e-02 -4.88176070e-01 -2.17369551e+00 -4.74979706e-01 -3.79382158e-02 -4.74979706e-01 -3.81698520e+01
-9.26432243e+00 -3.61504696e-01 3.06626551e-01 -3.61504696e-01 -4.44215700e+00 -7.88796961e-01 3.06626551e-01 -7.88796961e-01 -4.43012799e+01
-1.48473768e+01 -1.05873764e+00 -4.01309263e-02 -1.05873764e+00 -8.42698982e+00 3.04411627e-01 -4.01309263e-02 3.04411627e-01 -5.47097492e+01
-1.98107605e+01 -1.02807504e+00 -2.56803772e+00 -1.02807504e+00 -1.05069492e+01 3.78698166e-02 -2.56803772e+00 3.78698166e-02 -6.17982635e+01
-7.83320212e+00 -1.27193545e+00 3.96010879e-01 -1.27193545e+00 -5.06840396e+00 -2.71935955e-01 3.96010879e-01 -2.71935955e-01 -4.38612667e+01
-3.71991049e+00 -1.30447031e+00 2.87012976e-01 -1.30447031e+00 -1.28609735e+00 2.23235346e-01 2.87012976e-01 2.23235346e-01 -3.52002575e+01
-1.71090444e+01 -1.15505239e+00 -9.56829004e-02 -1.15505239e+00 -9.26401538e+00 7.59607881e-01 -9.56829004e-02 7.59607881e-01 -5.78414564e+01
-1.44654500e+01 -3.23381522e+00 -2.74313536e+00 -3.23381522e+00 -7.02031291e+00 1.05541842e+00 -2.74313536e+00 1.05541842e+00 -5.16915936e+01
-4.96650720e+00 -8.63119393e-01 6.95134822e-01 -8.63119393e-01 -2.15573049e+00 6.85582049e-01 6.95134822e-01 6.85582049e-01 -3.75770650e+01
-2.79487482e+00 -2.19955232e+00 8.05398460e-01 -2.19955232e+00 -1.26875767e+00 4.73884422e-01 8.05398460e-01 4.73884422e-01 -3.40162264e+01
-3.98220863e+01 -4.62798786e+00 -9.43427086e-02 -4.62798786e+00 -2.42856350e+01 2.40657851e-01 -9.43427086e-02 2.40657851e-01 -9.70708618e+01
-4.25287380e+01 -4.15513074e+00 -3.89087248e+00 -4.15513074e+00 -2.33852115e+01 4.42637932e+00 -3.89087248e+00 4.42637932e+00 -9.72264099e+01
-1.99736531e+01 -8.38671774e-01 -3.53368700e-01 -8.38671774e-01 -1.10501029e+01 1.06921542e+00 -3.53368700e-01 1.06921542e+00 -6.28418236e+01
-1.97012014e+01 -2.25682968e+00 4.40400153e-01 -2.25682968e+00 -1.30116451e+01 1.98207345e+00 4.40400153e-01 1.98207345e+00 -6.38989444e+01
2.78032660e-01 1.21904652e+00 -4.48213615e-01 1.21904652e+00 -9.05629992e-01 -4.72185124e-01 -4.48213615e-01 -4.72185124e-01 -3.04718550e+01
1.32229495e+00 1.50558252e-01 -7.32274383e-01 1.50558252e-01 4.01614666e-01 2.68390588e-03 -7.32274383e-01 2.68390588e-03 -2.80087128e+01
-7.55076855e-01 8.19633372e-01 5.00582132e-01 8.19633372e-01 1.72551751e-01 -9.61081069e-01 5.00582132e-01 -9.61081069e-01 -3.04924491e+01
2.64225546e+00 4.02471900e-01 9.55966838e-01 4.02471900e-01 3.47663251e+00 -1.52227247e-01 9.55966838e-01 -1.52227247e-01 -2.33320534e+01
6.02416635e-01 2.15127899e+00 -1.35817890e+00 2.15127899e+00 -1.45361137e+00 -1.16735719e+00 -1.35817890e+00 -1.16735719e+00 -3.02525611e+01
-1.45773305e+00 1.23786552e+00 1.69325042e+00 1.23786552e+00 -6.38744161e-01 -4.59972651e-01 1.69325042e+00 -4.59972651e-01 -3.17811827e+01
1.18312947e+01 1.08583597e+00 -1.07549722e+00 1.08583597e+00 1.06406559e+01 -6.37336617e-01 -1.07549722e+00 -6.37336617e-01 -6.17619419e+00
3.51993758e+00 5.11211101e-01 3.61212551e+00 5.11211101e-01 4.44937846e+00 8.38039411e-02 3.61212551e+00 8.38039411e-02 -2.09422744e+01
1.31566511e+01 -2.54493956e+00 -3.57915884e+00 -2.54493956e+00 1.07805967e+01 -1.05975185e-01 -3.57915884e+00 -1.05975185e-01 -3.64466667e+00
-1.93451552e+00 -4.14613469e+00 5.76810117e+00 -4.14613469e+00 -4.34461832e-01 1.05560207e+00 5.76810117e+00 1.05560207e+00 -2.97792206e+01
1.89029014e+01 -1.04868948e+00 -3.52767347e+00 -1.04868948e+00 1.26503107e+01 1.50865154e+00 -3.52767347e+00 1.50865154e+00 5.12294865e+00
2.37802108e-01 -3.74355011e+00 6.95159586e+00 -3.74355011e+00 -2.08354072e+00 3.51108515e+00 6.95159586e+00 3.51108515e+00 -2.69839462e+01
1.17893209e+01 -4.65805507e+00 -4.11708409e+00 -4.65805507e+00 2.64294243e+00 3.18463534e+00 -4.11708409e+00 3.18463534e+00 -1.13545265e+01
-1.47642479e+01 -7.12177046e+00 6.39374558e+00 -7.12177046e+00 -1.28074239e+01 6.24850204e+00 6.39374558e+00 6.24850204e+00 -5.46010793e+01
4.16938007e+00 7.09488004e-01 2.50828631e-01 7.09488004e-01 -2.94322681e+00 -7.46336579e-01 2.50828631e-01 -7.46336579e-01 -2.77100804e+01
3.59723318e+00 4.27465022e-01 4.45601642e-01 4.27465022e-01 -2.17575407e+00 -1.57632018e-02 4.45601642e-01 -1.57632018e-02 -2.78889198e+01
3.23631844e+00 4.78520613e-01 1.38233157e+00 4.78520613e-01 -1.88193038e+00 -4.75183046e-01 1.38233157e+00 -4.75183046e-01 -2.78545057e+01
6.08414432e+00 1.76606581e-01 1.25109011e+00 1.76606581e-01 3.28332531e+00 -1.93040676e-01 1.25109011e+00 -1.93040676e-01 -1.95782290e+01
1.23217878e+01 9.76928225e-01 3.55047226e-01 9.76928225e-01 7.25000183e+00 -1.60295589e+00 3.55047226e-01 -1.60295589e+00 -8.14828277e+00
1.24675574e+01 5.33491567e-01 1.31293588e+00 5.33491567e-01 4.73010069e+00 6.17328899e-01 1.31293588e+00 6.17328899e-01 -1.05307205e+01
2.97671363e+01 4.13395390e-01 -1.17318018e+00 4.13395390e-01 2.44810475e+01 -7.96773036e-01 -1.17318018e+00 -7.96773036e-01 2.73478727e+01
2.64881177e+01 -7.65164378e-01 5.82386409e-01 -7.65164378e-01 2.53504819e+01 1.94809562e+00 5.82386409e-01 1.94809562e+00 2.47949878e+01
3.18498729e+01 9.77285226e-01 -3.71819416e+00 9.77285226e-01 2.70051763e+01 -1.75596685e+00 -3.71819416e+00 -1.75596685e+00 3.98463163e+01
9.81682094e+00 -4.65207195e+00 -1.88913790e+00 -4.65207195e+00 1.62057519e+01 3.56853656e+00 -1.88913790e+00 3.56853656e+00 1.42144920e+01
3.26029415e+01 2.76475533e+00 -1.71918806e+00 2.76475533e+00 3.65370394e+01 -4.10888672e-01 -1.71918806e+00 -4.10888672e-01 4.30792599e+01
1.45834277e+01 1.36345641e+00 -2.57682956e+00 1.36345641e+00 2.06629601e+01 -1.12039399e+00 -2.57682956e+00 -1.12039399e+00 2.24601269e+01
2.77628016e+01 4.77279663e+00 -2.85239196e+00 4.77279663e+00 1.18476572e+01 3.23559523e-01 -2.85239196e+00 3.23559523e-01 3.84929243e+01
4.50430083e+00 -3.07503223e-01 4.16998887e+00 -3.07503223e-01 -4.56920338e+00 -1.76196527e+00 4.16998887e+00 -1.76196527e+00 2.61679006e+00
4.86146645e+00 -6.33601004e-01 3.35986942e-01 -6.33601004e-01 -4.77326456e+00 -1.15259063e+00 3.35986942e-01 -1.15259063e+00 -2.82450361e+01
3.35984063e+00 -5.93618691e-01 6.09615326e-01 -5.93618691e-01 -5.03599215e+00 -2.20229737e-02 6.09615326e-01 -2.20229737e-02 -3.06023245e+01
6.01795706e+00 -1.02113353e+00 1.88211353e+00 -1.02113353e+00 -9.96669203e-01 -7.93208349e-02 1.88211353e+00 -7.93208349e-02 -2.32375308e+01
4.25404679e+00 -8.08781371e-01 6.30736688e-01 -8.08781371e-01 -2.27250240e+00 2.32590143e-01 6.30736688e-01 2.32590143e-01 -2.70785222e+01
9.88244468e+00 -9.83525433e-01 -6.01017140e-01 -9.83525433e-01 1.94435287e+00 -2.02940717e+00 -6.01017140e-01 -2.02940717e+00 -1.58788302e+01
1.17059199e+01 -1.40365151e+00 4.24427796e-01 -1.40365151e+00 4.91029069e+00 2.01668139e+00 4.24427796e-01 2.01668139e+00 -1.01282200e+01
1.47623872e+01 -2.03445451e+00 -1.31912128e+00 -2.03445451e+00 1.42160491e+01 -5.21893927e+00 -1.31912128e+00 -5.21893927e+00 5.44305408e+00
1.84457685e+01 -4.99106107e-01 -1.97055280e-01 -4.99106107e-01 1.36695035e+01 7.99648223e-01 -1.97055280e-01 7.99648223e-01 5.52014705e+00
1.15617427e+01 2.71221320e-01 -1.89383896e+00 2.71221320e-01 1.51106634e+01 -3.17198028e+00 -1.89383896e+00 -3.17198028e+00 1.15501879e+01
1.34226378e+01 2.34236953e+00 1.70123239e-01 2.34236953e+00 4.98889351e+00 5.39664761e+00 1.70123239e-01 5.39664761e+00 -9.23809856e-01
7.89260149e-01 -3.90241981e+00 1.08762161e+00 -3.90241981e+00 -1.99110141e+01 8.91636277e-01 1.08762161e+00 8.91636277e-01 -3.45059967e+00
5.84919874e+00 -3.17972024e+00 6.76109831e-01 -3.17972024e+00 9.38725242e+00 6.19183401e-01 6.76109831e-01 6.19183401e-01 4.46860600e+00
5.71218050e+00 -4.61575961e+00 1.09113109e+00 -4.61575961e+00 -1.51308389e+01 -1.09454189e+00 1.09113109e+00 -1.09454189e+00 6.97796583e-01
5.26692665e+00 -1.41163667e+00 -1.70034613e+00 -1.41163667e+00 6.34929136e+00 -3.10501630e-02 -1.70034613e+00 -3.10501630e-02 -7.77535200e-01
2.97476786e+00 -1.85068074e+00 1.15844631e+00 -1.85068074e+00 -4.41938740e+00 -5.49662799e-01 1.15844631e+00 -5.49662799e-01 -3.02875206e+01
1.58919537e+00 -1.43629467e+00 1.21054493e-01 -1.43629467e+00 -5.91856143e+00 -1.08350012e-02 1.21054493e-01 -1.08350012e-02 -3.36992579e+01
5.84521502e+00 -1.45024143e+00 2.81502482e-01 -1.45024143e+00 1.17010167e+00 7.49734868e-01 2.81502482e-01 7.49734868e-01 -2.17278674e+01
3.50384825e+00 -4.06194098e-01 -2.08662104e-01 -4.06194098e-01 -2.57215968e+00 8.40707406e-01 -2.08662104e-01 8.40707406e-01 -2.81945214e+01
6.70350018e+00 -1.49857706e+00 5.33246902e-01 -1.49857706e+00 1.17912346e+00 -3.06563368e+00 5.33246902e-01 -3.06563368e+00 -2.02252266e+01
8.58845878e+00 -2.57101513e+00 -4.60568488e-01 -2.57101513e+00 5.94203997e+00 1.76224305e+00 -4.60568488e-01 1.76224305e+00 -1.28048592e+01
1.37722754e+01 2.73411714e-01 1.20056477e+00 2.73411714e-01 1.54280398e+01 -3.84904812e+00 1.20056477e+00 -3.84904812e+00 4.75162292e+00
5.56085889e+00 -9.79478776e-01 -1.41658877e+00 -9.79478776e-01 4.35555840e+00 4.16093876e+00 -1.41658877e+00 4.16093876e+00 -1.64640062e+01
5.81745714e+00 4.26739889e+00 -2.29384549e-01 4.26739889e+00 9.92819381e+00 -2.71671560e+00 -2.29384549e-01 -2.71671560e+00 3.53313167e+00
8.20390344e+00 2.79495549e+00 1.00257477e+00 2.79495549e+00 2.34537899e-01 2.45485163e+00 1.00257477e+00 2.45485163e+00 8.97424102e-01
-4.32520021e-01 3.75393584e-01 5.71288890e-03 3.75393584e-01 3.14325032e+00 1.70741090e+00 5.71288890e-03 1.70741090e+00 1.25922093e+00
1.85244290e+00 9.35421395e-01 -5.92096413e-01 9.35421395e-01 1.09596335e+00 -7.38843456e-01 -5.92096413e-01 -7.38843456e-01 3.24532628e-02
2.38104478e+00 4.82279003e-01 -1.10160816e+00 4.82279003e-01 -6.67472756e+00 6.13242209e-01 -1.10160816e+00 6.13242209e-01 -9.43564951e-01
1.31760334e+00 -4.05177077e-01 -1.00745896e-01 -4.05177077e-01 -5.87805494e+00 -5.46718985e-02 -1.00745896e-01 -5.46718985e-02 6.86765333e-01
-5.56100884e+00 -2.09117380e+00 -9.39854141e-02 -2.09117380e+00 -1.25088925e+01 -7.98658907e-01 -9.39854141e-02 -7.98658907e-01 -4.86643276e+01
-4.99578857e+00 -4.72235411e-01 1.15496325e+00 -4.72235411e-01 -1.45438957e+01 -1.37056587e-02 1.15496325e+00 -1.37056587e-02 -5.00015106e+01
-2.31118217e+00 -8.62035379e-01 1.31137788e-01 -8.62035379e-01 -7.73830130e+00 -1.06671050e+00 1.31137788e-01 -1.06671050e+00 -4.02608514e+01
-4.45298243e+00 -1.64220923e+00 -2.96893328e-01 -1.64220923e+00 -1.00664721e+01 8.31422329e-01 -2.96893328e-01 8.31422329e-01 -4.52615891e+01
-9.07936549e+00 -3.37999368e+00 4.37135780e+00 -3.37999368e+00 -1.11984694e+01 -5.20136762e+00 4.37135780e+00 -5.20136762e+00 -4.93945274e+01
-6.61176652e+00 -3.19209166e+00 7.16991261e-01 -3.19209166e+00 -4.56012523e+00 1.02954066e+00 7.16991261e-01 1.02954066e+00 -4.15117168e+01
6.35433578e+00 -1.62618041e-01 6.54732233e+00 -1.62618041e-01 1.03981367e+01 -2.02025601e+00 6.54732233e+00 -2.02025601e+00 -1.16904612e+01
-1.68160204e+01 -5.87457228e+00 3.41650701e+00 -5.87457228e+00 -1.12004044e+01 1.06079105e+01 3.41650701e+00 1.06079105e+01 -5.46120803e+01
-1.07029374e+01 -4.51263535e+00 2.61387296e+00 -4.51263535e+00 1.15056632e+01 1.83776855e-01 2.61387296e+00 1.83776855e-01 4.29324788e+00
-1.22510562e+01 -6.54173124e+00 6.18440777e-01 -6.54173124e+00 -3.95479751e+00 3.39092064e+00 6.18440777e-01 3.39092064e+00 -3.26731372e+00
-9.03352106e+00 6.82258844e-01 9.40824777e-01 6.82258844e-01 3.12840819e+00 9.38539475e-01 9.40824777e-01 9.38539475e-01 5.72363377e+00
-3.19019532e+00 2.35090335e-01 7.26206164e-01 2.35090335e-01 8.87842615e-01 -1.38611027e+00 7.26206164e-01 -1.38611027e+00 1.50761562e+00
-2.14218211e+00 2.31139898e+00 -7.35945880e-01 2.31139898e+00 -2.93763924e+00 5.08640468e-01 -7.35945880e-01 5.08640468e-01 -1.41938552e-02
-2.69744360e+00 5.66412032e-01 3.69487494e-01 5.66412032e-01 -1.14625542e+00 7.81311184e-01 3.69487494e-01 7.81311184e-01 7.23300919e-01
-2.45888138e+00 -2.29873857e-03 2.84284092e-02 -2.29873857e-03 1.31971395e+00 -7.85200238e-01 2.84284092e-02 -7.85200238e-01 -3.09994020e+01
-1.51478645e+00 -6.65280400e-02 7.04445630e-01 -6.65280400e-02 1.10071677e+00 -5.21357163e-01 7.04445630e-01 -5.21357163e-01 -3.03066945e+01
2.67890438e-01 -6.58795552e-01 4.05944766e-01 -6.58795552e-01 3.46965761e+00 -8.83952295e-02 4.05944766e-01 -8.83952295e-02 -2.56994739e+01
-2.85810877e+00 -8.74673519e-02 3.99167836e-01 -8.74673519e-02 1.68907161e+00 -1.30886782e-01 3.99167836e-01 -1.30886782e-01 -3.08572612e+01
2.86646628e+00 -8.99984375e-01 5.61673507e-01 -8.99984375e-01 3.14353675e+00 1.60807859e-01 5.61673507e-01 1.60807859e-01 -2.35128085e+01
2.59521851e+00 -8.78170229e-01 -1.90648041e-01 -8.78170229e-01 3.88677490e+00 -1.18092526e+00 -1.90648041e-01 -1.18092526e+00 -2.26871587e+01
4.15048759e+00 3.65780182e-02 5.65743581e-02 3.65780182e-02 3.00715104e+00 -2.93239506e-01 5.65743581e-02 -2.93239506e-01 -2.22493716e+01
4.02550314e+00 -6.04157413e-01 -3.99052471e-01 -6.04157413e-01 3.54525451e+00 -3.30130774e-01 -3.99052471e-01 -3.30130774e-01 -2.16670462e+01
3.58639169e+00 -4.03527014e-01 7.67510161e-01 -4.03527014e-01 8.26305568e-01 -5.43135364e-01 7.67510161e-01 -5.43135364e-01 -2.51332588e+01
1.96327823e+00 -5.39926367e-01 1.40682231e-02 -5.39926367e-01 1.90690927e+00 8.96054471e-01 1.40682231e-02 8.96054471e-01 -2.56891063e+01
6.18854651e+00 -5.51162116e-01 9.45605248e-01 -5.51162116e-01 4.75024319e+00 1.75187107e-01 9.45605248e-01 1.75187107e-01 -1.80959015e+01
3.13505037e+00 -2.38446841e-01 6.45536529e-01 -2.38446841e-01 2.12697783e+00 5.19485569e-01 6.45536529e-01 5.19485569e-01 -2.42690080e+01
7.91814637e+00 7.51892298e-01 6.57108516e-01 7.51892298e-01 8.33399630e+00 8.25068235e-01 6.57108516e-01 8.25068235e-01 -1.24955115e+01
6.38575554e+00 3.79977182e-01 -3.24324764e-01 3.79977182e-01 5.35091734e+00 9.14875194e-02 -3.24324764e-01 9.14875194e-02 -1.72886403e+01
2.57217985e+00 -9.55874609e-01 8.02295399e-01 -9.55874609e-01 5.50974423e+00 -1.20269747e+00 8.02295399e-01 -1.20269747e+00 -2.08982446e+01
-1.50496662e+00 -7.91005671e-01 2.14349028e+00 -7.91005671e-01 2.97824240e+00 -5.57253465e-01 2.14349028e+00 -5.57253465e-01 -2.76584530e+01
-1.13072737e+01 -8.73818670e-01 2.38708893e+00 -8.73818670e-01 -7.48207628e+00 -4.73150969e-01 2.38708893e+00 -4.73150969e-01 -5.06880052e+01
-3.71063398e+01 -4.31822256e+00 1.13002802e+01 -4.31822256e+00 -3.57736017e+01 6.74818219e-01 1.13002802e+01 6.74818219e-01 -1.00862420e+02
-2.61879969e+01 -2.68212274e-01 1.90377873e+00 -2.68212274e-01 -2.19970603e+01 2.74015588e+00 1.90377873e+00 2.74015588e+00 -8.16513557e+01
-2.85478334e+01 -4.02460486e-01 3.72467130e+00 -4.02460486e-01 -2.35974042e+01 5.17422119e+00 3.72467130e+00 5.17422119e+00 -8.46852646e+01
-3.08047018e+01 -2.19366831e+00 1.60836250e+00 -2.19366831e+00 -2.34462347e+01 5.53427619e+00 1.60836250e+00 5.53427619e+00 -8.66697998e+01
8.15060490e+00 5.03193946e-02 2.15339397e+00 5.03193946e-02 1.06938269e+01 -1.02733905e+00 2.15339397e+00 -1.02733905e+00 -9.10361171e+00
5.53066421e+00 -3.69502310e-01 1.72463185e+00 -3.69502310e-01 7.59093916e+00 -3.31741849e-01 1.72463185e+00 -3.31741849e-01 -1.54933361e+01
-2.05994394e+01 -1.41041054e+00 6.39352743e+00 -1.41041054e+00 -1.54655851e+01 9.33323385e+00 6.39352743e+00 9.33323385e+00 -6.25094573e+01
-6.80574644e+00 -3.89477551e+00 9.43391800e-01 -3.89477551e+00 -1.22091579e+00 7.45774150e+00 9.43391800e-01 7.45774150e+00 5.38107777e+00
8.52168563e+00 3.20916437e-02 2.19145856e+00 3.20916437e-02 6.79643127e+00 1.11083800e+00 2.19145856e+00 1.11083800e+00 -1.21052088e+01
8.69490093e+00 7.47527689e-01 1.30105193e+00 7.47527689e-01 8.24605376e+00 1.18822433e+00 1.30105193e+00 1.18822433e+00 -1.15552802e+01
2.01371059e+01 -2.70260330e+00 1.59165879e+00 -2.70260330e+00 1.88816571e+01 5.13861954e-01 1.59165879e+00 5.13861954e-01 1.29416567e+01
2.37831298e+01 -1.46732714e+00 -5.85500900e+00 -1.46732714e+00 2.50354993e+01 -1.11451252e+00 -5.85500900e+00 -1.11451252e+00 1.95633485e+01
7.93960025e+00 -6.63097905e-01 4.00271455e-01 -6.63097905e-01 5.92786267e+00 5.97563372e-01 4.00271455e-01 5.97563372e-01 -1.43792192e+01
9.29903936e+00 -7.80151114e-01 3.35385785e-01 -7.80151114e-01 7.05680707e+00 6.67290583e-01 3.35385785e-01 6.67290583e-01 -1.20055410e+01
-8.84122252e-02 -2.39798927e+00 6.91731956e-01 -2.39798927e+00 -3.89355302e-01 2.39981754e+00 6.91731956e-01 2.39981754e+00 -2.85898310e+01
-8.73077059e+00 -5.72920144e-02 -2.18502870e+00 -5.72920144e-02 -8.88027239e+00 4.48061930e+00 -2.18502870e+00 4.48061930e+00 -4.91364145e+01
1.32990140e+00 -3.36972882e-01 -4.97448934e-01 -3.36972882e-01 2.75102377e+00 -3.21635693e-01 -4.97448934e-01 -3.21635693e-01 -2.57133918e+01
2.95801878e-01 1.11853037e-01 -2.02121139e-01 1.11853037e-01 -2.38180161e-01 8.20131034e-01 -2.02121139e-01 8.20131034e-01 -2.98353395e+01
-4.06186795e+00 4.00539458e-01 1.06828505e+00 4.00539458e-01 6.42750025e-01 -7.31997102e-01 1.06828505e+00 -7.31997102e-01 -3.34270134e+01
-5.26343307e+01 -6.10333279e-01 -1.10477802e+00 -6.10333279e-01 -4.75723267e+01 4.44026542e+00 -1.10477802e+00 4.44026542e+00 -1.39210732e+02
3.97605598e-02 -5.89087605e-01 -8.27639108e-02 -5.89087605e-01 6.91819191e-02 -1.87929273e-02 -8.27639108e-02 -1.87929273e-02 -5.35647064e-01
-2.55538573e-01 -3.14954102e-01 -1.92259490e-01 -3.14954102e-01 3.08745801e-02 -9.07657146e-02 -1.92259490e-01 -9.07657146e-02 -2.02041810e-01
3.86082172e-01 -1.86427787e-01 1.45521700e-01 -1.86427787e-01 1.24194309e-01 3.58820989e-01 1.45521700e-01 3.58820989e-01 -9.36964810e-01
2.32980905e-01 -4.60617781e-01 -8.87652785e-02 -4.60617781e-01 -2.85931632e-01 -3.41612220e-01 -8.87652785e-02 -3.41612220e-01 -3.73835891e-01
-2.69288063e-01 1.07911984e-02 9.16424632e-01 1.07911984e-02 3.32833290e-01 -1.63214847e-01 9.16424632e-01 -1.63214847e-01 -2.99326954e+01
1.92982126e-01 2.51474686e-01 5.57019837e-01 2.51474686e-01 2.67287046e-02 3.74584138e-01 5.57019837e-01 3.74584138e-01 -2.97267423e+01
2.12488097e+00 -9.02262907e-01 9.59616134e-01 -9.02262907e-01 2.67819313e+00 4.81009129e-01 9.59616134e-01 4.81009129e-01 -2.46348588e+01
-4.61260855e-01 1.65830661e-01 1.00900133e+00 1.65830661e-01 1.04225792e+00 -5.50729372e-01 1.00900133e+00 -5.50729372e-01 -2.93125315e+01
3.69701119e+00 -1.15209472e+00 5.53855896e-01 -1.15209472e+00 1.73381877e+00 1.38647290e-01 5.53855896e-01 1.38647290e-01 -2.40181887e+01
4.49786122e+00 -1.24414293e+00 1.25548477e+00 -1.24414293e+00 3.58344500e+00 9.34930446e-01 1.25548477e+00 9.34930446e-01 -2.08159747e+01
6.03256661e+00 1.54719388e-01 1.66720765e-01 1.54719388e-01 2.98844776e+00 7.57537480e-01 1.66720765e-01 7.57537480e-01 -2.00053209e+01
7.69937965e+00 -3.96464707e-01 -2.65642554e-02 -3.96464707e-01 5.07278451e+00 -9.12806764e-02 -2.65642554e-02 -9.12806764e-02 -1.59691634e+01
8.44149977e+00 3.02887052e-01 -3.10918463e-01 3.02887052e-01 4.88587549e+00 1.82596844e-01 -3.10918463e-01 1.82596844e-01 -1.52953759e+01
1.66554746e+00 3.26510438e-01 -9.02611226e-01 3.26510438e-01 -9.13796782e-01 9.56394761e-02 -9.02611226e-01 9.56394761e-02 -2.89125757e+01
1.14179153e+01 1.47190318e-02 2.11827874e-01 1.47190318e-02 8.70092982e+00 -3.31513837e-01 2.11827874e-01 -3.31513837e-01 -8.05587769e+00
5.10911632e+00 1.04046460e-01 -3.02992229e-01 1.04046460e-01 2.68283355e+00 5.76700787e-02 -3.02992229e-01 5.76700787e-02 -2.14352852e+01
1.59610786e+01 -1.00109374e-01 2.06039600e-01 -1.00109374e-01 1.42563419e+01 -5.80883473e-01 2.06039600e-01 -5.80883473e-01 2.91306305e+00
1.33189779e+01 -1.58204395e-01 -4.49923005e-01 -1.58204395e-01 1.14882912e+01 -3.05720046e-01 -4.49923005e-01 -3.05720046e-01 -3.07178974e+00
1.49491572e+00 -1.52347959e+00 2.55409610e+00 -1.52347959e+00 4.74760148e+00 2.18646068e-01 2.55409610e+00 2.18646068e-01 -2.19606731e+01
7.18471289e-01 -1.29963697e+00 1.98948412e+00 -1.29963697e+00 5.30809749e+00 -3.69601257e-01 1.98948412e+00 -3.69601257e-01 -2.27503986e+01
6.29934798e+00 5.52173625e-01 3.00325180e+00 5.52173625e-01 4.84332561e+00 1.49939081e+00 3.00325180e+00 1.49939081e+00 -2.12933494e+01
-4.67648552e+01 -2.75141212e+00 -1.07797412e+01 -2.75141212e+00 -4.70733788e+01 -1.28306939e+00 -1.07797412e+01 -1.28306939e+00 -1.23496599e+02
-3.40543709e+01 -3.64081517e-01 -3.67875028e+00 -3.64081517e-01 -3.05395927e+01 1.98332575e+00 -3.67875028e+00 1.98332575e+00 -9.93723907e+01
-2.06707163e+01 -4.87729914e-01 -1.86988220e-01 -4.87729914e-01 -1.86088433e+01 1.70237013e+00 -1.86988220e-01 1.70237013e+00 -7.24142189e+01
-1.06822782e+01 -2.49643505e-01 -5.04825570e-01 -2.49643505e-01 -6.64924043e+00 3.88764694e-01 -5.04825570e-01 3.88764694e-01 -4.85940971e+01
-3.28424893e+00 -6.67450596e-01 4.50135647e+00 -6.67450596e-01 1.07504647e+00 8.63616228e-01 4.50135647e+00 8.63616228e-01 -3.02250479e+01
8.65384084e+00 4.80038315e-01 2.33832563e+00 4.80038315e-01 1.20178756e+01 -4.17216660e-01 2.33832563e+00 -4.17216660e-01 -6.87479687e+00
-6.78267345e+01 -8.01769674e+00 1.18431874e+01 -8.01769674e+00 -6.16874790e+01 -1.31815242e+01 1.18431874e+01 -1.31815242e+01 -1.54281178e+02
1.25205693e+01 -1.49884743e-01 3.40964113e-02 -1.49884743e-01 1.41410720e+01 1.15206885e+00 3.40964113e-02 1.15206885e+00 -1.19728075e+00
8.98715252e+00 -7.35840157e-01 2.16306328e+00 -7.35840157e-01 1.13182680e+01 2.46939249e-01 2.16306328e+00 2.46939249e-01 -6.97720832e+00
-2.90647259e+01 5.19391172e-01 4.89796205e+00 5.19391172e-01 -2.61513598e+01 1.47603836e+01 4.89796205e+00 1.47603836e+01 -7.75762496e+01
1.59419637e+01 3.08896566e-01 1.44814572e+00 3.08896566e-01 1.73999459e+01 -3.54148748e-01 1.44814572e+00 -3.54148748e-01 6.23139071e+00
1.05384630e+01 3.68186269e-01 -1.81642398e-02 3.68186269e-01 1.17790612e+01 7.03811985e-01 -1.81642398e-02 7.03811985e-01 -5.67249393e+00
1.67158645e+01 -1.16393223e+00 1.42146658e+00 -1.16393223e+00 1.90478445e+01 1.49721481e+00 1.42146658e+00 1.49721481e+00 6.64225497e+00
-2.00931511e+01 9.03829670e+00 -1.08796387e+01 9.03829670e+00 -2.12867680e+01 2.73680916e+01 -1.08796387e+01 2.73680916e+01 -1.57863820e+00
-5.28794047e+01 5.45668022e+00 -2.02723714e+01 5.45668022e+00 -5.42967083e+01 -2.59149548e+00 -2.02723714e+01 -2.59149548e+00 -1.38230395e+02
3.56265509e+00 1.04859748e+00 1.03736771e+00 1.04859748e+00 4.53800869e+00 2.17781396e+00 1.03736771e+00 2.17781396e+00 -2.06786282e+01
-1.94344139e+00 -1.19074922e-01 3.62959146e-01 -1.19074922e-01 1.49071264e+00 1.34332465e+00 3.62959146e-01 1.34332465e+00 -3.02200899e+01
</DataArray>
<DataArray type="Float32" Name="Logarithmic_strain_components" NumberOfComponents="9" format="ascii">
1.47700580e-02 -7.34478817e-07 4.50880179e-07 -7.34478817e-07 3.17000747e-02 -9.78984463e-06 4.50880179e-07 -9.78984463e-06 -3.93919609e-02
1.59125654e-02 1.53152819e-03 8.06695425e-07 1.53152819e-03 3.30988914e-02 2.44840732e-04 8.06695425e-07 2.44840732e-04 -4.16507963e-02
1.66682156e-02 4.61862329e-03 -2.81449675e-03 4.61862329e-03 2.91037369e-02 -1.01846992e-03 -2.81449675e-03 -1.01846992e-03 -3.89207685e-02
1.58924861e-02 1.74584746e-03 -1.54265069e-03 1.74584746e-03 2.79070586e-02 1.29001637e-06 -1.54265069e-03 1.29001637e-06 -3.71738821e-02
1.47195417e-02 2.29053148e-06 2.65035057e-03 2.29053148e-06 2.98672887e-02 -1.87245850e-03 2.65035057e-03 -1.87245850e-03 -3.77678182e-02
1.60347910e-02 2.64273738e-04 2.24991725e-03 2.64273738e-04 3.06072617e-02 -2.73657200e-03 2.24991725e-03 -2.73657200e-03 -3.96217881e-02
1.63902666e-02 2.07384705e-03 5.31093741e-04 2.07384705e-03 2.79058155e-02 -3.48413881e-03 5.31093741e-04 -3.48413881e-03 -3.76266749e-02
1.54595240e-02 4.70320039e-04 1.11106137e-03 4.70320039e-04 2.74698730e-02 -2.29355617e-03 1.11106137e-03 -2.29355617e-03 -3.64888720e-02
1.82150761e-02 6.06622867e-04 1.36639301e-06 6.06622867e-04 3.69157642e-02 -4.00270306e-04 1.36639301e-06 -4.00270306e-04 -4.70322538e-02
1.84826679e-02 6.66699046e-03 -4.39706142e-03 6.66699046e-03 3.20767821e-02 1.45624042e-04 -4.39706142e-03 1.45624042e-04 -4.32333918e-02
1.90848883e-02 1.13578237e-03 3.53622582e-03 1.13578237e-03 3.19984513e-02 -3.21557561e-03 3.53622582e-03 -3.21557561e-03 -4.34407610e-02
1.88696065e-02 3.09771244e-03 -1.77571339e-04 3.09771244e-03 3.01822657e-02 -5.27644204e-03 -1.77571339e-04 -5.27644204e-03 -4.18667588e-02
2.16200314e-02 1.58498820e-03 -3.55334123e-07 1.58498820e-03 4.11609225e-02 3.02464259e-03 -3.55334123e-07 3.02464259e-03 -5.38000818e-02
2.07581748e-02 4.69090440e-03 -7.08324683e-03 4.69090440e-03 3.56940944e-02 -6.92247282e-04 -7.08324683e-03 -6.92247282e-04 -4.85408502e-02
2.31874092e-02 -2.15443101e-03 3.14857630e-03 -2.15443101e-03 3.41180405e-02 -2.25815602e-03 3.14857630e-03 -2.25815602e-03 -4.88800015e-02
2.17412570e-02 -1.02938603e-03 2.11311673e-03 -1.02938603e-03 3.27863295e-02 -3.17326866e-03 2.11311673e-03 -3.17326866e-03 -4.65892674e-02
2.59607313e-02 -5.01074479e-03 7.59850082e-06 -5.01074479e-03 4.44589891e-02 2.63869378e-03 7.59850082e-06 2.63869378e-03 -6.04436342e-02
2.33642142e-02 -2.83500584e-03 -1.03819852e-02 -2.83500584e-03 3.97236962e-02 2.23281566e-03 -1.03819852e-02 2.23281566e-03 -5.44936778e-02
2.75717387e-02 -5.39745798e-03 3.09304427e-03 -5.39745798e-03 3.62315895e-02 -2.27439759e-03 3.09304427e-03 -2.27439759e-03 -5.45629812e-02
2.54440540e-02 -6.01278630e-03 2.27060111e-03 -6.01278630e-03 3.30240126e-02 4.26094222e-04 2.27060111e-03 4.26094222e-04 -4.96265120e-02
3.01813046e-02 -8.87654210e-03 1.64616285e-05 -8.87654210e-03 4.88594994e-02 1.81123591e-03 1.64616285e-05 1.81123591e-03 -6.79224953e-02
2.54195845e-02 -7.91712315e-03 -1.23683379e-02 -7.91712315e-03 4.26311605e-02 4.76931140e-03 -1.23683379e-02 4.76931140e-03 -5.83955357e-02
2.96727885e-02 -5.89293952e-03 6.15998823e-03 -5.89293952e-03 3.91768441e-02 -1.82487635e-03 6.15998823e-03 -1.82487635e-03 -5.86342523e-02
2.87797709e-02 -8.08115222e-03 5.79937984e-03 -8.08115222e-03 3.48993421e-02 9.97186689e-05 5.79937984e-03 9.97186689e-05 -5.39609231e-02
2.80029923e-02 -2.09273305e-02 -2.86654104e-05 -2.09273305e-02 5.92771024e-02 -3.88372387e-03 -2.86654104e-05 -3.88372387e-03 -7.61823952e-02
2.43122717e-02 -1.26996634e-02 -1.57444575e-02 -1.26996634e-02 5.16722128e-02 1.21476650e-02 -1.57444575e-02 1.21476650e-02 -6.63138088e-02
2.68335072e-02 -4.84862272e-03 1.05537922e-03 -4.84862272e-03 4.80799172e-02 -4.96626785e-03 1.05537922e-03 -4.96626785e-03 -6.46617394e-02
2.77810930e-02 -7.97855074e-03 5.56824962e-04 -7.97855074e-03 4.18186421e-02 2.86219502e-03 5.56824962e-04 2.86219502e-03 -5.96157452e-02
1.83177190e-02 5.71493345e-03 -1.74642194e-03 5.71493345e-03 1.92703207e-02 -1.97119516e-03 -1.74642194e-03 -1.97119516e-03 -3.20359501e-02
1.81211559e-02 1.38161716e-03 -2.07146362e-03 1.38161716e-03 1.91388521e-02 1.66524569e-06 -2.07146362e-03 1.66524569e-06 -3.17144310e-02
1.68835066e-02 3.85909472e-03 3.36993267e-03 3.85909472e-03 2.10249014e-02 -3.32280538e-03 3.36993267e-03 -3.32280538e-03 -3.23047654e-02
1.60053484e-02 1.69677823e-03 3.64786544e-03 1.69677823e-03 2.02683765e-02 -6.15849785e-04 3.64786544e-03 -6.15849785e-04 -3.07512479e-02
1.72257263e-02 8.66169576e-03 -4.34570271e-03 8.66169576e-03 1.91037275e-02 -3.23436316e-03 -4.34570271e-03 -3.23436316e-03 -3.09120184e-02
1.71589877e-02 4.72838141e-03 5.50054736e-03 4.72838141e-03 2.16319885e-02 -9.23628540e-04 5.50054736e-03 -9.23628540e-04 -3.30544950e-02
1.37872873e-02 5.03834331e-03 -5.78299968e-03 5.03834331e-03 1.83317205e-02 -2.30286521e-03 -5.78299968e-03 -2.30286521e-03 -2.67622750e-02
1.66818920e-02 2.64035804e-04 1.34340634e-02 2.64035804e-04 2.25339999e-02 1.84308545e-03 1.34340634e-02 1.84308545e-03 -3.31717724e-02
1.24538348e-02 -4.90032201e-03 -1.22179387e-02 -4.90032201e-03 2.02257275e-02 1.73598516e-03 -1.22179387e-02 1.73598516e-03 -2.71290066e-02
1.70486048e-02 -9.19013564e-03 1.69837798e-02 -9.19013564e-03 2.52811878e-02 5.64765707e-03 1.69837798e-02 5.64765707e-03 -3.56196131e-02
1.33254721e-02 -1.01042192e-02 -1.24847700e-02 -1.01042192e-02 1.77641305e-02 7.10622582e-03 -1.24847700e-02 7.10622582e-03 -2.52215369e-02
1.80466675e-02 -1.31826062e-02 2.10056625e-02 -1.31826062e-02 2.43143005e-02 1.50610698e-02 2.10056625e-02 1.50610698e-02 -3.50535388e-02
1.47707812e-02 -1.34795574e-02 -1.25131593e-02 -1.34795574e-02 1.82984092e-02 1.26528749e-02 -1.25131593e-02 1.26528749e-02 -2.71247188e-02
1.94008645e-02 -1.87940213e-02 2.10618693e-02 -1.87940213e-02 2.82344427e-02 2.07855680e-02 2.10618693e-02 2.07855680e-02 -4.00748942e-02
1.86766372e-02 2.65607471e-03 2.87967807e-04 2.65607471e-03 1.00878093e-02 -2.47638277e-03 2.87967807e-04 -2.47638277e-03 -2.45085754e-02
1.93132311e-02 1.48146262e-03 9.81077668e-04 1.48146262e-03 1.10723185e-02 -9.45245120e-07 9.81077668e-04 -9.45245120e-07 -2.58923285e-02
1.72831792e-02 1.95238196e-03 5.27662286e-03 1.95238196e-03 1.20970979e-02 -8.22532033e-04 5.27662286e-03 -8.22532033e-04 -2.50497262e-02
1.64327305e-02 7.78546702e-04 5.15860016e-03 7.78546702e-04 1.24569270e-02 1.07063827e-03 5.15860016e-03 1.07063827e-03 -2.44377656e-02
1.39121453e-02 3.63022744e-03 3.85266998e-04 3.63022744e-03 6.85282488e-03 -3.74517863e-03 3.85266998e-04 -3.74517863e-03 -1.72947678e-02
1.44298951e-02 2.17976791e-03 8.19682359e-03 2.17976791e-03 9.07193226e-03 2.34312531e-03 8.19682359e-03 2.34312531e-03 -1.97792955e-02
5.32886645e-03 1.80957597e-03 -2.06534041e-03 1.80957597e-03 3.79357710e-03 -2.62135855e-03 -2.06534041e-03 -2.62135855e-03 -6.72125129e-03
4.57286485e-03 -1.66364769e-03 7.72896665e-03 -1.66364769e-03 3.01248789e-03 1.86742516e-04 7.72896665e-03 1.86742516e-04 -4.64202745e-03
1.78503133e-03 -8.34173449e-03 -6.39813580e-03 -8.34173449e-03 1.08367989e-03 -2.21188553e-03 -6.39813580e-03 -2.21188553e-03 -4.44917590e-04
4.10058206e-04 -1.32065681e-02 1.31703401e-02 -1.32065681e-02 4.71294407e-03 3.69716573e-03 1.31703401e-02 3.69716573e-03 -2.60539776e-03
1.27396026e-03 -2.96142511e-03 -6.33308617e-03 -2.96142511e-03 -1.35725040e-03 -5.76255819e-05 -6.33308617e-03 -5.76255819e-05 2.41236299e-03
3.96091937e-04 -5.39776080e-03 1.31775395e-02 -5.39776080e-03 2.23057157e-03 -1.00532547e-03 1.31775395e-02 -1.00532547e-03 -7.77991178e-05
2.86085566e-03 -2.65871792e-03 -2.66055996e-03 -2.65871792e-03 -4.18030327e-03 1.56626035e-03 -2.66055996e-03 1.56626035e-03 3.21763102e-03
1.96267286e-03 -5.48627367e-03 1.10493100e-02 -5.48627367e-03 -4.64694807e-04 -1.41767395e-03 1.10493100e-02 -1.41767395e-03 6.67146058e-04
1.80238355e-02 -1.14117576e-03 1.34594989e-03 -1.14117576e-03 6.67081075e-03 -2.78318883e-03 1.34594989e-03 -2.78318883e-03 -2.10461821e-02
1.92463445e-02 -1.17242470e-03 1.51512632e-03 -1.17242470e-03 8.20998615e-03 1.28074498e-06 1.51512632e-03 1.28074498e-06 -2.34493753e-02
1.59728675e-02 -2.12662500e-03 4.81576578e-03 -2.12662500e-03 7.40759459e-03 2.64122878e-04 4.81576578e-03 2.64122878e-04 -1.98295848e-02
1.71515387e-02 -1.34391896e-03 2.20827241e-03 -1.34391896e-03 8.56183690e-03 1.68872077e-03 2.20827241e-03 1.68872077e-03 -2.19138814e-02
1.19866484e-02 -1.25772061e-03 -9.99494485e-04 -1.25772061e-03 3.66946589e-03 -3.83510033e-03 -9.99494485e-04 -3.83510033e-03 -1.31473611e-02
1.16201143e-02 -3.32645748e-03 2.62505587e-03 -3.32645748e-03 3.86810864e-03 2.62585845e-03 2.62505587e-03 2.62585845e-03 -1.28452783e-02
3.25946476e-03 -1.91489766e-03 -1.10157955e-03 -1.91489766e-03 6.22321153e-04 -3.22128664e-03 -1.10157955e-03 -3.22128664e-03 -2.76879768e-03
5.31814719e-03 -1.78721856e-03 -1.41293771e-03 -1.78721856e-03 9.52308386e-04 2.19118914e-03 -1.41293771e-03 2.19118914e-03 -4.77460745e-03
-8.71607990e-05 -8.79537387e-04 -8.27332212e-05 -8.79537387e-04 1.07815176e-05 -2.25333691e-04 -8.27332212e-05 -2.25333691e-04 5.03367264e-04
5.91867761e-04 5.30471465e-04 -4.27422812e-04 5.30471465e-04 7.38454205e-04 1.70150232e-03 -4.27422812e-04 1.70150232e-03 -9.05769601e-04
2.29532120e-03 -5.77282705e-03 1.08228305e-04 -5.77282705e-03 -3.91725988e-03 8.24181043e-05 1.08228305e-04 8.24181043e-05 2.05278990e-03
-1.77745119e-04 -3.49531226e-03 6.28477962e-05 -3.49531226e-03 8.11676403e-04 3.92131248e-05 6.28477962e-05 3.92131248e-05 -2.42031390e-04
1.90500132e-03 -6.49247119e-03 -1.00125223e-03 -6.49247119e-03 -3.06865873e-03 -9.53544331e-05 -1.00125223e-03 -9.53544331e-05 1.61042414e-03
-7.93314316e-04 -3.36953548e-03 -1.54445679e-03 -3.36953548e-03 2.15364242e-03 -4.03278076e-05 -1.54445679e-03 -4.03278076e-05 -9.74576810e-04
1.69443148e-02 -3.53597511e-03 2.04655668e-03 -3.53597511e-03 9.18467354e-03 -1.90402969e-03 2.04655668e-03 -1.90402969e-03 -2.23613139e-02
1.92548623e-02 -2.97714898e-03 2.93716148e-04 -2.97714898e-03 1.02529451e-02 6.29623173e-07 2.93716148e-04 6.29623173e-07 -2.52992138e-02
1.49526707e-02 -3.12604865e-03 3.64976198e-04 -3.12604865e-03 9.03424883e-03 2.44577409e-03 3.64976198e-04 2.44577409e-03 -2.03482036e-02
1.67836298e-02 -1.22252962e-03 -1.05407329e-03 -1.22252962e-03 9.82665771e-03 3.64111649e-03 -1.05407329e-03 3.64111649e-03 -2.27160584e-02
1.08767773e-02 -2.62191036e-03 1.16074109e-03 -2.62191036e-03 5.43411396e-03 -5.41056646e-03 1.16074109e-03 -5.41056646e-03 -1.38077263e-02
1.01430823e-02 -5.55590044e-03 -5.58856300e-05 -5.55590044e-03 8.07171653e-03 3.72989789e-03 -5.58856300e-05 3.72989789e-03 -1.52177004e-02
2.43107032e-03 -1.57139599e-03 1.19475595e-04 -1.57139599e-03 9.87566906e-04 -2.00910168e-03 1.19475595e-04 -2.00910168e-03 -2.47994403e-03
6.40013351e-03 -1.86263380e-03 -6.49421165e-04 -1.86263380e-03 4.03040982e-03 8.42020828e-03 -6.49421165e-04 8.42020828e-03 -8.69940047e-03
1.07982596e-05 1.97580019e-04 -3.26622712e-05 1.97580019e-04 5.21892298e-06 -1.79969287e-04 -3.26622712e-05 -1.79969287e-04 1.54084992e-04
6.87697891e-04 8.08801296e-05 1.16770423e-04 8.08801296e-05 -3.04593565e-04 9.63906212e-04 1.16770423e-04 9.63906212e-04 -2.13020391e-04
-2.97787774e-05 2.02723531e-05 1.41116487e-07 2.02723531e-05 6.12514805e-05 7.93776198e-05 1.41116487e-07 7.93776198e-05 1.67365838e-05
3.32692516e-05 4.51788037e-05 -2.81675197e-05 4.51788037e-05 1.42142520e-05 -3.64485887e-05 -2.81675197e-05 -3.64485887e-05 -1.13163818e-05
7.76297366e-05 2.28440804e-05 -5.28543824e-05 2.28440804e-05 -1.39057931e-04 2.96373782e-05 -5.28543824e-05 2.96373782e-05 -1.28699867e-06
4.74282962e-05 -1.92836693e-05 -4.89340043e-06 -1.92836693e-05 -1.25520264e-04 -2.87541025e-06 -4.89340043e-06 -2.87541025e-06 3.20549667e-05
1.83986593e-02 -3.67467928e-03 -3.86110987e-04 -3.67467928e-03 1.16891898e-02 -2.81681074e-03 -3.86110987e-04 -2.81681074e-03 -2.61971550e-02
2.17691511e-02 -1.94094959e-03 1.78785482e-03 -1.94094959e-03 1.15714362e-02 3.29170871e-06 1.78785482e-03 3.29170871e-06 -2.89786980e-02
1.68514424e-02 -2.67149683e-03 3.83662991e-05 -2.67149683e-03 1.15704951e-02 -1.26216744e-03 3.83662991e-05 -1.26216744e-03 -2.45841746e-02
1.82466013e-02 -4.09361813e-03 -2.11185962e-03 -4.09361813e-03 1.23582347e-02 3.73716967e-03 -2.11185962e-03 3.73716967e-03 -2.65691187e-02
1.12559013e-02 -5.56675671e-03 5.65541605e-03 -5.56675671e-03 9.66172386e-03 -7.74978241e-03 5.65541605e-03 -7.74978241e-03 -1.83583060e-02
1.14046710e-02 -5.60166652e-03 4.09541516e-03 -5.60166652e-03 1.34431820e-02 2.49075599e-03 4.09541516e-03 2.49075599e-03 -2.14901343e-02
1.70237232e-03 -3.38770667e-03 4.34649666e-03 -3.38770667e-03 3.29968915e-03 -1.05734135e-03 4.34649666e-03 -1.05734135e-03 -4.07397409e-03
7.85745888e-03 -6.12727731e-03 6.30047849e-03 -6.12727731e-03 8.53426390e-03 1.33373202e-02 6.30047849e-03 1.33373202e-02 -1.44829742e-02
-8.45406525e-04 -4.32399960e-04 3.37157544e-05 -4.32399960e-04 4.14734342e-04 -3.44218090e-04 3.37157544e-05 -3.44218090e-04 4.86692603e-04
-4.99007409e-04 -2.75202104e-03 8.61190128e-05 -2.75202104e-03 2.68722360e-04 2.54766154e-03 8.61190128e-05 2.54766154e-03 2.82402849e-04
-1.90126702e-04 1.44608784e-05 4.31788831e-05 1.44608784e-05 6.24538570e-05 6.35922806e-05 4.31788831e-05 6.35922806e-05 1.21229898e-04
-7.40264101e-05 1.18737444e-05 3.38270869e-05 1.18737444e-05 2.42489295e-05 -6.21321378e-05 3.38270869e-05 -6.21321378e-05 3.96479151e-05
-3.17695958e-05 1.10748319e-04 -3.53346804e-05 1.10748319e-04 -5.01642971e-05 2.47163098e-05 -3.53346804e-05 2.47163098e-05 1.93910037e-05
-5.24998522e-05 2.73977021e-05 1.83176148e-05 2.73977021e-05 -1.48358918e-05 3.80833762e-05 1.83176148e-05 3.80833762e-05 2.98819086e-05
1.69309331e-02 3.36505036e-06 1.53378549e-03 3.36505036e-06 2.61355825e-02 -4.28692671e-03 1.53378549e-03 -4.28692671e-03 -3.66537347e-02
1.84492273e-02 -8.48667449e-04 4.41479869e-03 -8.48667449e-04 2.49787304e-02 -2.12082400e-03 4.41479869e-03 -2.12082400e-03 -3.69582009e-02
1.65708098e-02 -4.30425652e-03 3.09900857e-03 -4.30425652e-03 2.50513663e-02 -2.35198999e-03 3.09900857e-03 -2.35198999e-03 -3.52427717e-02
1.54957883e-02 -6.92457295e-04 3.15475411e-03 -6.92457295e-04 2.58704885e-02 -1.40275279e-03 3.15475411e-03 -1.40275279e-03 -3.51714464e-02
2.18135249e-02 -4.42062342e-03 9.62840801e-04 -4.42062342e-03 2.25472795e-02 -9.00809770e-04 9.62840801e-04 -9.00809770e-04 -3.75680318e-02
2.07266646e-02 -5.84868144e-03 1.12406479e-03 -5.84868144e-03 2.37042306e-02 -6.19519489e-03 1.12406479e-03 -6.19519489e-03 -3.74728041e-02
2.56396388e-02 2.45681513e-04 4.68439692e-04 2.45681513e-04 2.13445304e-02 -4.82560806e-03 4.68439692e-04 -4.82560806e-03 -3.97155210e-02
2.48538246e-02 -3.28891678e-03 2.02956458e-03 -3.28891678e-03 2.48406956e-02 9.20573465e-04 2.02956458e-03 9.20573465e-04 -4.18282659e-02
2.85971286e-02 -2.42995884e-03 1.00932915e-02 -2.42995884e-03 2.13503684e-02 -4.57892305e-03 1.00932915e-02 -4.57892305e-03 -4.22282340e-02
2.64912308e-02 -2.42468479e-03 2.43508500e-03 -2.42468479e-03 2.82810419e-02 4.05972705e-03 2.43508500e-03 4.05972705e-03 -4.63181161e-02
2.69743688e-02 -2.43976165e-03 1.14747668e-02 -2.43976165e-03 2.39000046e-02 -2.43166421e-03 1.14747668e-02 -2.43166421e-03 -4.28157523e-02
2.83251735e-02 -9.49884641e-04 8.16790140e-03 -9.49884641e-04 2.80908714e-02 1.07238299e-03 8.16790140e-03 1.07238299e-03 -4.76663015e-02
2.49111643e-02 5.99700655e-03 1.00297760e-02 5.99700655e-03 2.59920638e-02 -3.17566778e-03 1.00297760e-02 -3.17566778e-03 -4.27411683e-02
2.81794490e-02 2.67846961e-03 7.30278844e-05 2.67846961e-03 2.78886119e-02 -1.30034034e-03 7.30278844e-05 -1.30034034e-03 -4.72086240e-02
1.49299438e-02 -4.51593974e-03 4.96631749e-03 -4.51593974e-03 2.31406915e-02 -5.02718486e-03 4.96631749e-03 -5.02718486e-03 -3.21212083e-02
1.27780815e-02 -2.55240762e-03 1.02268409e-02 -2.55240762e-03 2.36432445e-02 -4.36483347e-03 1.02268409e-02 -4.36483347e-03 -3.08228941e-02
1.99996773e-02 -2.96800861e-03 1.16808416e-02 -2.96800861e-03 2.57846045e-02 -1.43205754e-03 1.16808416e-02 -1.43205754e-03 -3.94969918e-02
2.71740656e-02 -6.63167195e-03 2.48505497e-02 -6.63167195e-03 3.05260178e-02 -6.23657703e-04 2.48505497e-02 -6.23657703e-04 -5.04991107e-02
2.96551920e-02 -5.71342360e-04 7.87303422e-03 -5.71342360e-04 3.65130259e-02 9.31990676e-03 7.87303422e-03 9.31990676e-03 -5.77094154e-02
3.09011657e-02 -3.76121956e-04 1.39163721e-02 -3.76121956e-04 3.67858065e-02 1.79459819e-02 1.39163721e-02 1.79459819e-02 -5.89175476e-02
3.06540672e-02 -1.17598649e-03 2.49563259e-03 -1.17598649e-03 3.81101575e-02 1.47063901e-02 2.49563259e-03 1.47063901e-02 -5.98176681e-02
1.16378553e-02 -2.22978138e-04 1.29356609e-02 -2.22978138e-04 1.76216937e-02 -5.28850913e-04 1.29356609e-02 -5.28850913e-04 -2.42942837e-02
1.13085317e-02 -5.88349518e-04 8.18978692e-03 -5.88349518e-04 1.74578999e-02 -3.66544031e-03 8.18978692e-03 -3.66544031e-03 -2.41596922e-02
1.28258514e-02 -3.54468677e-03 1.70538211e-02 -3.54468677e-03 2.01375761e-02 1.80130801e-02 1.70538211e-02 1.80130801e-02 -2.84376523e-02
-6.37929281e-03 -1.39778510e-02 2.12227609e-02 -1.39778510e-02 4.50557692e-03 1.89828817e-02 2.12227609e-02 1.89828817e-02 6.64996193e-03
1.22040291e-02 -4.44317964e-04 8.16772820e-03 -4.44317964e-04 1.05126654e-02 4.59592941e-03 8.16772820e-03 4.59592941e-03 -1.88838781e-02
1.15242172e-02 1.47122369e-03 5.68209481e-03 1.47122369e-03 1.10905932e-02 4.45817318e-03 5.68209481e-03 4.45817318e-03 -1.89572307e-02
9.47699530e-03 -8.27588547e-03 8.32090801e-03 -8.27588547e-03 7.93886724e-03 9.66249506e-03 8.32090801e-03 9.66249506e-03 -1.38731225e-02
1.86078421e-03 -7.49658192e-04 -1.00308778e-02 -7.49658192e-04 4.37646398e-03 8.52427430e-03 -1.00308778e-02 8.52427430e-03 -3.12244985e-03
1.20710387e-02 -3.78707654e-03 1.07695630e-03 -3.78707654e-03 1.08248002e-02 3.89081527e-03 1.07695630e-03 3.89081527e-03 -1.91883303e-02
1.24947585e-02 -2.16214906e-03 1.19822264e-03 -2.16214906e-03 9.49739502e-03 3.49450053e-03 1.19822264e-03 3.49450053e-03 -1.84701025e-02
1.35656795e-02 -5.69110169e-03 1.14462864e-03 -5.69110169e-03 1.40948232e-02 6.27450560e-03 1.14462864e-03 6.27450560e-03 -2.34156707e-02
1.82034636e-02 8.88990762e-04 -8.81798001e-03 8.88990762e-04 1.86965852e-02 9.04952432e-03 -8.81798001e-03 9.04952432e-03 -3.24322162e-02
1.18594877e-02 -1.67835147e-04 -1.86848058e-03 -1.67835147e-04 1.49306562e-02 -4.65133766e-04 -1.86848058e-03 -4.65133766e-04 -2.28532362e-02
1.27688157e-02 2.18916265e-03 2.56942818e-04 2.18916265e-03 1.28900888e-02 -3.46044952e-04 2.56942818e-04 -3.46044952e-04 -2.20160270e-02
1.61323580e-02 -2.82045803e-05 3.19802098e-03 -2.82045803e-05 2.03029583e-02 -1.14475205e-03 3.19802098e-03 -1.14475205e-03 -3.12203788e-02
2.63914997e-02 1.32715754e-03 5.57770079e-04 1.32715754e-03 2.94394232e-02 1.38965803e-02 5.57770079e-04 1.38965803e-02 -5.04943449e-02
2.56588351e-06 -2.83537811e-05 -3.62800529e-06 -2.83537811e-05 3.05078049e-06 -9.39147640e-07 -3.62800529e-06 -9.39147640e-07 -1.10813112e-05
-4.59280795e-06 -1.52401094e-05 -9.62710510e-06 -1.52401094e-05 2.54684721e-06 -4.05784340e-06 -9.62710510e-06 -4.05784340e-06 -3.21108132e-06
1.11098632e-05 -8.67355675e-06 7.18479305e-06 -8.67355675e-06 5.02927412e-06 1.70792434e-05 7.18479305e-06 1.70792434e-05 -2.09229665e-05
7.30097167e-06 -2.18474961e-05 -4.48754054e-06 -2.18474961e-05 -5.63081142e-06 -1.64337325e-05 -4.48754054e-06 -1.64337325e-05 -7.05285242e-06
2.17770357e-02 4.93635889e-06 6.79885317e-03 4.93635889e-06 2.26731943e-02 -1.54407992e-03 6.79885317e-03 -1.54407992e-03 -3.78169138e-02
2.23741666e-02 3.52587937e-04 4.90310392e-03 3.52587937e-04 2.16565914e-02 1.04091731e-03 4.90310392e-03 1.04091731e-03 -3.74594741e-02
2.15293705e-02 -5.63025946e-03 7.41243304e-03 -5.63025946e-03 2.18655982e-02 1.80189355e-03 7.41243304e-03 1.80189355e-03 -3.67272520e-02
2.06442531e-02 4.72511296e-04 6.79234043e-03 4.72511296e-04 2.32572951e-02 -3.43241671e-03 6.79234043e-03 -3.43241671e-03 -3.73342223e-02
2.43019671e-02 -5.47407800e-03 7.00918026e-03 -5.47407800e-03 1.80908144e-02 4.57545833e-04 7.00918026e-03 4.57545833e-04 -3.58529901e-02
2.38937323e-02 -8.16391944e-03 5.69275137e-03 -8.16391944e-03 2.02889254e-02 2.18093123e-03 5.69275137e-03 2.18093123e-03 -3.72567317e-02
2.61141644e-02 3.49577967e-04 2.56185111e-03 3.49577967e-04 1.53836287e-02 3.41692969e-03 2.56185111e-03 3.41692969e-03 -3.49598071e-02
2.60286129e-02 -3.82455105e-03 -3.32889424e-03 -3.82455105e-03 2.02762197e-02 -2.96637809e-03 -3.32889424e-03 -2.96637809e-03 -3.88626289e-02
2.60921251e-02 9.63136306e-04 -3.40734224e-03 9.63136306e-04 1.44710282e-02 -8.93160643e-04 -3.40734224e-03 -8.93160643e-04 -3.40338787e-02
2.59159906e-02 1.81589375e-03 -3.46192118e-03 1.81589375e-03 2.37895536e-02 -1.99331378e-04 -3.46192118e-03 -1.99331378e-04 -4.21283892e-02
2.30529816e-02 1.34074196e-03 2.23092712e-03 1.34074196e-03 1.52631267e-02 -3.10985293e-03 2.23092712e-03 -3.10985293e-03 -3.20027145e-02
2.51345842e-02 1.84130793e-03 1.91965803e-04 1.84130793e-03 2.25374347e-02 1.27464757e-03 1.91965803e-04 1.27464757e-03 -4.02497980e-02
2.14956068e-02 1.94112805e-03 2.79803958e-03 1.94112805e-03 1.39421690e-02 -3.35964005e-03 2.79803958e-03 -3.35964005e-03 -2.92757899e-02
2.30714907e-02 1.06141221e-03 -2.14612101e-04 1.06141221e-03 2.08082530e-02 -2.94820871e-03 -2.14612101e-04 -2.94820871e-03 -3.65395900e-02
1.83433049e-02 -9.31875326e-03 1.70235761e-02 -9.31875326e-03 2.39637822e-02 -8.15068042e-04 1.70235761e-02 -8.15068042e-04 -3.53793700e-02
1.53822592e-02 -6.50415279e-03 1.18538945e-02 -6.50415279e-03 2.55964259e-02 -1.92112807e-03 1.18538945e-02 -1.92112807e-03 -3.45413517e-02
2.56148478e-02 -1.95045546e-03 1.09060745e-02 -1.95045546e-03 2.37097953e-02 -3.74978954e-03 1.09060745e-02 -3.74978954e-03 -4.22127577e-02
3.18913817e-02 -6.48525300e-03 -3.20622522e-02 -6.48525300e-03 2.92217543e-02 -6.92619011e-05 -3.20622522e-02 -6.92619011e-05 -5.43898232e-02
3.10628368e-02 1.40196178e-04 -8.66602967e-03 1.40196178e-04 3.50424219e-02 7.54150000e-03 -8.66602967e-03 7.54150000e-03 -5.82463238e-02
3.00097228e-02 -1.78658369e-03 -2.20430869e-03 -1.78658369e-03 3.15845329e-02 5.39849279e-03 -2.20430869e-03 5.39849279e-03 -5.35332728e-02
2.72233477e-02 5.06979035e-04 -3.05685285e-03 5.06979035e-04 2.99394773e-02 2.02845247e-03 -3.05685285e-03 2.02845247e-03 -4.90491409e-02
1.51723291e-02 -5.27640775e-03 1.99030537e-02 -5.27640775e-03 2.32001386e-02 1.07939289e-04 1.99030537e-02 1.07939289e-04 -3.22514847e-02
1.11350724e-02 1.42711986e-03 1.58122729e-02 1.42711986e-03 2.25365353e-02 4.62076499e-03 1.58122729e-02 4.62076499e-03 -2.78316266e-02
2.52428039e-02 -1.27221963e-02 3.01126493e-02 -1.27221963e-02 3.18663470e-02 -3.26653973e-02 3.01126493e-02 -3.26653973e-02 -5.01428414e-02
1.12336221e-02 -1.61643054e-03 8.24514081e-03 -1.61643054e-03 1.60565437e-02 1.04599159e-02 8.24514081e-03 1.04599159e-02 -2.23964490e-02
9.81900340e-03 -3.49030277e-03 1.34251603e-02 -3.49030277e-03 1.63026040e-02 1.28919183e-03 1.34251603e-02 1.28919183e-03 -2.14959900e-02
1.22519047e-02 8.48859512e-04 6.11858862e-03 8.48859512e-04 1.90229639e-02 3.16373277e-02 6.11858862e-03 3.16373277e-02 -2.67886859e-02
1.23029436e-02 2.88277365e-03 7.39696853e-03 2.88277365e-03 1.53977338e-02 3.09041077e-03 7.39696853e-03 3.09041077e-03 -2.25626645e-02
1.15484528e-02 3.39119794e-03 -1.39682321e-04 3.39119794e-03 1.53419485e-02 1.27996933e-04 -1.39682321e-04 1.27996933e-04 -2.23946022e-02
1.57646754e-02 -4.68557967e-03 -6.20142264e-03 -4.68557967e-03 2.29907890e-02 8.00182368e-03 -6.20142264e-03 8.00182368e-03 -3.23083308e-02
-2.05733813e-03 2.74718460e-02 -4.60399613e-02 2.74718460e-02 -5.10039181e-03 4.65572402e-02 -4.60399613e-02 4.65572402e-02 1.32816499e-02
2.87463820e-02 1.32055342e-02 -4.58392923e-02 1.32055342e-02 3.09162391e-02 2.42302086e-03 -4.58392923e-02 2.42302086e-03 -5.30081863e-02
1.56141520e-02 8.02066143e-03 9.41154295e-03 8.02066143e-03 1.91902248e-02 7.39067653e-03 9.41154295e-03 7.39067653e-03 -2.94478158e-02
1.30270696e-02 -6.41939027e-04 6.55881979e-03 -6.41939027e-04 1.98396742e-02 6.78867148e-03 6.55881979e-03 6.78867148e-03 -2.78160414e-02
</DataArray>
<DataArray type="Float32" Name="Plastic_strain_components" NumberOfComponents="9" format="ascii">
1.47341462e-02 -3.58799298e-07 3.59887053e-07 -3.58799298e-07 3.15285511e-02 -1.79257768e-07 3.59887053e-07 -1.79257768e-07 -3.87789533e-02
1.58976959e-02 1.51863293e-03 -1.84109012e-08 1.51863293e-03 3.29372454e-02 2.49482895e-04 -1.84109012e-08 2.49482895e-04 -4.09511402e-02
1.66291327e-02 4.58692387e-03 -2.79009616e-03 4.58692387e-03 2.89602047e-02 -1.00440194e-03 -2.79009616e-03 -1.00440194e-03 -3.82705694e-02
1.58187663e-02 1.73279678e-03 -1.52766268e-03 1.73279678e-03 2.77303159e-02 2.31179001e-07 -1.52766268e-03 2.31179001e-07 -3.65713891e-02
1.46608097e-02 2.47396565e-06 2.63655034e-03 2.47396565e-06 2.96783745e-02 -1.87003886e-03 2.63655034e-03 -1.87003886e-03 -3.71866319e-02
1.60026567e-02 2.59783177e-04 2.22636270e-03 2.59783177e-04 3.04478374e-02 -2.71205615e-03 2.22636270e-03 -2.71205615e-03 -3.89826884e-02
1.63272965e-02 2.05587991e-03 5.33644292e-04 2.05587991e-03 2.77430988e-02 -3.45489565e-03 5.33644292e-04 -3.45489565e-03 -3.70125193e-02
1.54079257e-02 4.65333382e-04 1.11145739e-03 4.65333382e-04 2.73202895e-02 -2.28249864e-03 1.11145739e-03 -2.28249864e-03 -3.58763989e-02
1.82600813e-02 6.05896377e-04 8.51774530e-07 6.05896377e-04 3.67988534e-02 -3.80628335e-04 8.51774530e-07 -3.80628335e-04 -4.61946335e-02
1.85206211e-02 6.61019492e-03 -4.36355243e-03 6.61019492e-03 3.19828289e-02 1.52248507e-04 -4.36355243e-03 1.52248507e-04 -4.23893994e-02
1.90336977e-02 1.12598165e-03 3.51486972e-03 1.12598165e-03 3.18369376e-02 -3.19735197e-03 3.51486972e-03 -3.19735197e-03 -4.27446142e-02
1.88646952e-02 3.07544568e-03 -1.52983332e-04 3.07544568e-03 3.00746488e-02 -5.21743263e-03 -1.52983332e-04 -5.21743263e-03 -4.11243453e-02
2.17196997e-02 1.55375688e-03 5.31357728e-07 1.55375688e-03 4.10738569e-02 3.00893036e-03 5.31357728e-07 3.00893036e-03 -5.27135171e-02
2.08985838e-02 4.65325499e-03 -7.02116603e-03 4.65325499e-03 3.56856696e-02 -6.54304749e-04 -7.02116603e-03 -6.54304749e-04 -4.75221537e-02
2.31430274e-02 -2.12850794e-03 3.15233361e-03 -2.12850794e-03 3.39908097e-02 -2.23216607e-03 3.15233361e-03 -2.23216607e-03 -4.80736187e-02
2.17678228e-02 -1.01270319e-03 2.11538194e-03 -1.01270319e-03 3.27074802e-02 -3.13947259e-03 2.11538194e-03 -3.13947259e-03 -4.57746936e-02
2.60673128e-02 -4.94927843e-03 8.87188071e-06 -4.94927843e-03 4.43798359e-02 2.62132427e-03 8.87188071e-06 2.62132427e-03 -5.91952298e-02
2.38201744e-02 -2.96894091e-03 -1.04267248e-02 -2.96894091e-03 4.03184704e-02 2.27054994e-03 -1.04267248e-02 2.27054994e-03 -5.40132448e-02
2.75906464e-02 -5.33738185e-03 3.06869781e-03 -5.33738185e-03 3.61945294e-02 -2.25943935e-03 3.06869781e-03 -2.25943935e-03 -5.36975218e-02
2.53360916e-02 -5.93088393e-03 2.28547410e-03 -5.93088393e-03 3.28202639e-02 4.03333775e-04 2.28547410e-03 4.03333775e-04 -4.88754553e-02
3.03764148e-02 -8.81627481e-03 1.68109000e-05 -8.81627481e-03 4.88496665e-02 1.77501293e-03 1.68109000e-05 1.77501293e-03 -6.66037388e-02
2.61576022e-02 -8.23307666e-03 -1.26870556e-02 -8.23307666e-03 4.39398093e-02 5.05104312e-03 -1.26870556e-02 5.05104312e-03 -5.91857703e-02
2.97029335e-02 -5.85920783e-03 6.12519879e-03 -5.85920783e-03 3.91647220e-02 -1.86531901e-03 6.12519879e-03 -1.86531901e-03 -5.79597130e-02
2.88597783e-02 -8.07764335e-03 5.92991448e-03 -8.07764335e-03 3.50712475e-02 1.29997283e-04 5.92991448e-03 1.29997283e-04 -5.38208401e-02
2.85724681e-02 -2.06215214e-02 -1.54606241e-05 -2.06215214e-02 5.93169667e-02 -3.88491806e-03 -1.54606241e-05 -3.88491806e-03 -7.36437067e-02
2.54804837e-02 -1.30843655e-02 -1.57808089e-02 -1.30843655e-02 5.32219261e-02 1.24162859e-02 -1.57808089e-02 1.24162859e-02 -6.61361851e-02
2.71209972e-02 -4.81736916e-03 1.05426385e-03 -4.81736916e-03 4.81588766e-02 -5.01970667e-03 1.05426385e-03 -5.01970667e-03 -6.32691383e-02
2.76803314e-02 -7.72278127e-03 5.49786026e-04 -7.72278127e-03 4.13085613e-02 2.63001319e-03 5.49786026e-04 2.63001319e-03 -5.77197401e-02
1.81947867e-02 5.65631839e-03 -1.72432725e-03 5.65631839e-03 1.91685779e-02 -1.94896312e-03 -1.72432725e-03 -1.94896312e-03 -3.14222239e-02
1.79830221e-02 1.37383025e-03 -2.03544658e-03 1.37383025e-03 1.90131729e-02 1.54029340e-06 -2.03544658e-03 1.54029340e-06 -3.11378334e-02
1.67902281e-02 3.82062126e-03 3.34844396e-03 3.82062126e-03 2.09044546e-02 -3.27704691e-03 3.34844396e-03 -3.27704691e-03 -3.16964067e-02
1.58589573e-02 1.67697083e-03 3.60127114e-03 1.67697083e-03 2.00959239e-02 -6.07061578e-04 3.60127114e-03 -6.07061578e-04 -3.02575752e-02
1.70825445e-02 8.55286350e-03 -4.28900844e-03 8.55286350e-03 1.89959623e-02 -3.18071921e-03 -4.28900844e-03 -3.18071921e-03 -3.02639571e-02
1.70569918e-02 4.71776910e-03 5.24057446e-03 4.71776910e-03 2.14822683e-02 -8.72733668e-04 5.24057446e-03 -8.72733668e-04 -3.23444833e-02
1.36363967e-02 5.09275985e-03 -5.67692472e-03 5.09275985e-03 1.81853734e-02 -2.27471278e-03 -5.67692472e-03 -2.27471278e-03 -2.67861476e-02
1.67379039e-02 2.88504421e-05 1.41462062e-02 2.88504421e-05 2.26900752e-02 1.75488863e-03 1.41462062e-02 1.75488863e-03 -3.32853166e-02
1.16374413e-02 -4.81792805e-03 -1.15011085e-02 -4.81792805e-03 1.83005373e-02 1.53611615e-03 -1.15011085e-02 1.53611615e-03 -2.47453805e-02
1.69908695e-02 -8.97703110e-03 1.66455486e-02 -8.97703110e-03 2.53651151e-02 5.64848283e-03 1.66455486e-02 5.64848283e-03 -3.54598599e-02
1.13266779e-02 -9.02891054e-03 -1.07986039e-02 -9.02891054e-03 1.29069905e-02 6.01638097e-03 -1.07986039e-02 6.01638097e-03 -1.89665827e-02
1.68433976e-02 -1.24085865e-02 1.99313024e-02 -1.24085865e-02 2.25879195e-02 1.45817831e-02 1.99313024e-02 1.45817831e-02 -3.21452903e-02
1.29277767e-02 -1.17845470e-02 -1.14674284e-02 -1.17845470e-02 1.35826275e-02 1.09041696e-02 -1.14674284e-02 1.09041696e-02 -2.08326150e-02
2.02321994e-02 -1.91426923e-02 2.08739030e-02 -1.91426923e-02 3.01615431e-02 2.10932763e-02 2.08739030e-02 2.10932763e-02 -4.23357089e-02
1.84705150e-02 2.62006588e-03 2.76300205e-04 2.62006588e-03 1.00505508e-02 -2.44001573e-03 2.76300205e-04 -2.44001573e-03 -2.39354260e-02
1.91121921e-02 1.45975087e-03 9.60026431e-04 1.45975087e-03 1.10135484e-02 -3.46863089e-07 9.60026431e-04 -3.46863089e-07 -2.53104698e-02
1.71065885e-02 1.92844916e-03 5.21082713e-03 1.92844916e-03 1.20382870e-02 -7.98827441e-04 5.21082713e-03 -7.98827441e-04 -2.44851655e-02
1.62210560e-02 7.68965328e-04 5.09186508e-03 7.68965328e-04 1.23116008e-02 1.08121027e-03 5.09186508e-03 1.08121027e-03 -2.39930172e-02
1.37442206e-02 3.61704841e-03 4.00779652e-04 3.61704841e-03 6.80182606e-03 -3.67040420e-03 4.00779652e-04 -3.67040420e-03 -1.72736775e-02
1.42921772e-02 1.98019676e-03 8.84210973e-03 1.98019676e-03 9.20291943e-03 2.20786305e-03 8.84210973e-03 2.20786305e-03 -1.98511836e-02
4.49004403e-03 1.38452981e-03 -2.18331686e-03 1.38452981e-03 3.11973620e-03 -2.57518236e-03 -2.18331686e-03 -2.57518236e-03 -6.28986326e-03
3.26701848e-03 -7.18023444e-04 3.86613745e-03 -7.18023444e-04 1.18924768e-03 4.86922683e-04 3.86613745e-03 4.86922683e-04 -2.64920481e-03
5.05256932e-04 -4.92007596e-03 -5.96285192e-03 -4.92007596e-03 -1.04420640e-03 -1.77591818e-03 -5.96285192e-03 -1.77591818e-03 1.69029956e-03
4.93474043e-04 -1.38490642e-02 1.31334721e-02 -1.38490642e-02 4.89538993e-03 3.42331976e-03 1.31334721e-02 3.42331976e-03 -3.53591614e-03
-5.08822074e-04 2.95795811e-05 -5.76339740e-03 2.95795811e-05 -2.06320940e-03 -9.30884940e-04 -5.76339740e-03 -9.30884940e-04 3.55462458e-03
5.73005818e-04 -6.26633293e-03 1.31264267e-02 -6.26633293e-03 1.96049628e-03 -7.15952832e-04 1.31264267e-02 -7.15952832e-04 -8.96833895e-04
2.17186409e-03 -1.13905710e-03 -2.85345444e-03 -1.13905710e-03 -4.77854151e-03 1.14004605e-03 -2.85345444e-03 1.14004605e-03 3.47720296e-03
1.82069789e-03 -5.89109934e-03 1.08792572e-02 -5.89109934e-03 -3.17910453e-04 -1.22678763e-03 1.08792572e-02 -1.22678763e-03 2.74299877e-04
1.77942542e-02 -1.11020900e-03 1.32933588e-03 -1.11020900e-03 6.67666283e-03 -2.72727857e-03 1.32933588e-03 -2.72727857e-03 -2.04651556e-02
1.90252801e-02 -1.14276807e-03 1.48458983e-03 -1.14276807e-03 8.20187991e-03 1.99454189e-06 1.48458983e-03 1.99454189e-06 -2.28091916e-02
1.57456276e-02 -2.07737568e-03 4.72335125e-03 -2.07737568e-03 7.35270465e-03 2.68681804e-04 4.72335125e-03 2.68681804e-04 -1.93359887e-02
1.69469672e-02 -1.30497370e-03 2.17635238e-03 -1.30497370e-03 8.51514982e-03 1.67641445e-03 2.17635238e-03 1.67641445e-03 -2.13542520e-02
1.17247703e-02 -1.21069613e-03 -9.71028756e-04 -1.21069613e-03 3.60215848e-03 -3.73784039e-03 -9.71028756e-04 -3.73784039e-03 -1.27842999e-02
1.13514672e-02 -3.25778200e-03 2.60520386e-03 -3.25778200e-03 3.76719516e-03 2.53168368e-03 2.60520386e-03 2.53168368e-03 -1.25808401e-02
3.03276831e-03 -1.81611130e-03 -1.03775905e-03 -1.81611130e-03 4.12548936e-04 -2.96997797e-03 -1.03775905e-03 -2.96997797e-03 -2.76604891e-03
5.01108472e-03 -1.76091308e-03 -1.40641028e-03 -1.76091308e-03 7.64026319e-04 2.14683169e-03 -1.40641028e-03 2.14683169e-03 -4.75855614e-03
-2.12059995e-04 -8.93247184e-04 7.53562608e-06 -8.93247184e-04 -1.99463404e-04 -7.29030656e-05 7.53562608e-06 -7.29030656e-05 3.78466982e-04
3.39696774e-04 4.18243492e-04 -4.35123637e-04 4.18243492e-04 6.87850664e-04 1.44126802e-03 -4.35123637e-04 1.44126802e-03 -8.11797557e-04
2.21827463e-03 -5.60903922e-03 5.60778572e-05 -5.60903922e-03 -3.51668661e-03 4.05615647e-05 5.60778572e-05 4.05615647e-05 2.07730662e-03
-2.28207814e-04 -3.33759589e-03 2.91636367e-05 -3.33759589e-03 6.80497663e-04 9.43950314e-06 2.91636367e-05 9.43950314e-06 -2.58937059e-04
1.75613072e-03 -6.28885720e-03 -1.05905219e-03 -6.28885720e-03 -2.72415322e-03 -4.21166624e-05 -1.05905219e-03 -4.21166624e-05 1.58076291e-03
-8.61177026e-04 -3.28800454e-03 -1.46075833e-03 -3.28800454e-03 2.05790887e-03 -3.92848103e-05 -1.46075833e-03 -3.92848103e-05 -8.96996465e-04
1.67459357e-02 -3.44606579e-03 1.99064316e-03 -3.44606579e-03 9.16589110e-03 -1.87847638e-03 1.99064316e-03 -1.87847638e-03 -2.17404976e-02
1.90827632e-02 -2.90818745e-03 2.89151416e-04 -2.90818745e-03 1.02580837e-02 6.68065695e-07 2.89151416e-04 6.68065695e-07 -2.46332362e-02
1.47508304e-02 -3.05918459e-03 3.51028862e-04 -3.05918459e-03 8.94456758e-03 2.41193438e-03 3.51028862e-04 2.41193438e-03 -1.98936095e-02
1.65904630e-02 -1.20247508e-03 -1.04469925e-03 -1.20247508e-03 9.78029473e-03 3.59958410e-03 -1.04469925e-03 3.59958410e-03 -2.21367045e-02
1.06618810e-02 -2.54961825e-03 1.13320057e-03 -2.54961825e-03 5.35381108e-03 -5.26281353e-03 1.13320057e-03 -5.26281353e-03 -1.33769114e-02
9.91633121e-03 -5.43289147e-03 -3.38439168e-05 -5.43289147e-03 7.90602184e-03 3.64393785e-03 -3.38439168e-05 3.64393785e-03 -1.49219040e-02
2.22682298e-03 -1.58328252e-03 6.05710784e-05 -1.58328252e-03 7.43935798e-04 -1.82097376e-03 6.05710784e-05 -1.82097376e-03 -2.46314067e-03
6.24857098e-03 -1.81546991e-03 -5.89618178e-04 -1.81546991e-03 3.90674685e-03 8.22698878e-03 -5.89618178e-04 8.22698878e-03 -8.35199235e-03
-5.21594064e-05 -7.45097185e-06 -2.18103999e-05 -7.45097185e-06 -1.56496124e-04 -4.92791427e-05 -2.18103999e-05 -4.92791427e-05 1.45807081e-04
5.27210428e-04 -5.28955709e-05 6.85157861e-05 -5.28955709e-05 -2.73182647e-04 8.45146913e-04 6.85157861e-05 8.45146913e-04 -1.97559501e-04
-3.65595268e-06 2.28020053e-06 2.11685492e-07 2.28020053e-06 1.91971543e-06 -2.46478258e-06 2.11685492e-07 -2.46478258e-06 2.43421388e-06
7.16743762e-07 3.99538794e-07 2.27963329e-07 3.99538794e-07 -2.66829602e-07 -7.12118955e-07 2.27963329e-07 -7.12118955e-07 -3.02617923e-07
0.00000000e+00 0.00000000e+00 0.00000000e+00 0.00000000e+00 0.00000000e+00 0.00000000e+00 0.00000000e+00 0.00000000e+00 0.00000000e+00
0.00000000e+00 0.00000000e+00 0.00000000e+00 0.00000000e+00 0.00000000e+00 0.00000000e+00 0.00000000e+00 0.00000000e+00 0.00000000e+00
1.82969011e-02 -3.57535938e-03 -3.79664081e-04 -3.57535938e-03 1.17571852e-02 -2.77980312e-03 -3.79664081e-04 -2.77980312e-03 -2.52477648e-02
2.16737669e-02 -1.91920239e-03 1.73339352e-03 -1.91920239e-03 1.16993729e-02 2.91079414e-06 1.73339352e-03 2.91079414e-06 -2.80235093e-02
1.67595553e-02 -2.63525639e-03 3.23260901e-05 -2.63525639e-03 1.16021233e-02 -1.21168252e-03 3.23260901e-05 -1.21168252e-03 -2.38422714e-02
1.81524567e-02 -4.01544501e-03 -2.09703122e-03 -4.01544501e-03 1.23975808e-02 3.69944179e-03 -2.09703122e-03 3.69944179e-03 -2.56843660e-02
1.12286017e-02 -5.41370665e-03 5.45463455e-03 -5.41370665e-03 9.69441771e-03 -7.51103857e-03 5.45463455e-03 -7.51103857e-03 -1.74676557e-02
1.13550615e-02 -5.45592967e-03 4.06226446e-03 -5.45592967e-03 1.33481950e-02 2.44335650e-03 4.06226446e-03 2.44335650e-03 -2.07509291e-02
1.56364930e-03 -3.38523011e-03 4.03613003e-03 -3.38523011e-03 3.06410983e-03 -9.55404103e-04 4.03613003e-03 -9.55404103e-04 -3.78680509e-03
8.00823400e-03 -5.85801030e-03 6.17081105e-03 -5.85801030e-03 8.54947371e-03 1.28784513e-02 6.17081105e-03 1.28784513e-02 -1.35735845e-02
-5.69240612e-04 -2.16400411e-04 -9.17478224e-05 -2.16400411e-04 1.57883187e-04 -3.52576710e-04 -9.17478224e-05 -3.52576710e-04 4.04371807e-04
-2.82282175e-04 -2.43794813e-03 5.69472963e-05 -2.43794813e-03 2.86314633e-04 2.38528626e-03 5.69472963e-05 2.38528626e-03 2.83815005e-04
2.56646472e-05 -1.82369404e-05 -1.93189703e-06 -1.82369404e-05 -1.36122544e-05 1.84147739e-05 -1.93189703e-06 1.84147739e-05 -1.75605892e-05
-4.18247510e-07 5.43491600e-07 -5.42524314e-07 5.43491600e-07 -1.23462996e-07 4.38618645e-06 -5.42524314e-07 4.38618645e-06 3.68012782e-07
0.00000000e+00 0.00000000e+00 0.00000000e+00 0.00000000e+00 0.00000000e+00 0.00000000e+00 0.00000000e+00 0.00000000e+00 0.00000000e+00
0.00000000e+00 0.00000000e+00 0.00000000e+00 0.00000000e+00 0.00000000e+00 0.00000000e+00 0.00000000e+00 0.00000000e+00 0.00000000e+00
1.68785220e-02 3.76610296e-06 1.53409573e-03 3.76610296e-06 2.59968285e-02 -4.25112550e-03 1.53409573e-03 -4.25112550e-03 -3.60490419e-02
1.83668681e-02 -8.44807117e-04 4.38198075e-03 -8.44807117e-04 2.48361640e-02 -2.09565218e-03 4.38198075e-03 -2.09565218e-03 -3.63503071e-02
1.64711250e-02 -4.27298159e-03 3.08156085e-03 -4.27298159e-03 2.48786965e-02 -2.34855004e-03 3.08156085e-03 -2.34855004e-03 -3.47397211e-02
1.54392358e-02 -6.87928710e-04 3.13494424e-03 -6.87928710e-04 2.57034800e-02 -1.39743165e-03 3.13494424e-03 -1.39743165e-03 -3.45540000e-02
2.16746163e-02 -4.38027526e-03 9.37284000e-04 -4.38027526e-03 2.24060533e-02 -9.09889495e-04 9.37284000e-04 -9.09889495e-04 -3.71382907e-02
2.05557018e-02 -5.80532962e-03 1.12337599e-03 -5.80532962e-03 2.35054877e-02 -6.14133575e-03 1.12337599e-03 -6.14133575e-03 -3.70030864e-02
2.54656295e-02 2.42779548e-04 4.66637626e-04 2.42779548e-04 2.12056306e-02 -4.81663462e-03 4.66637626e-04 -4.81663462e-03 -3.93037163e-02
2.46136317e-02 -3.25385008e-03 2.02011794e-03 -3.25385008e-03 2.46061925e-02 9.32814289e-04 2.02011794e-03 9.32814289e-04 -4.13746787e-02
2.84091812e-02 -2.41233164e-03 1.00590668e-02 -2.41233164e-03 2.12356918e-02 -4.55857976e-03 1.00590668e-02 -4.55857976e-03 -4.17448087e-02
2.62991078e-02 -2.39567687e-03 2.42445634e-03 -2.39567687e-03 2.80765612e-02 4.01299178e-03 2.42445634e-03 4.01299178e-03 -4.57735285e-02
2.68074186e-02 -2.41794938e-03 1.14442182e-02 -2.41794938e-03 2.37721973e-02 -2.44251543e-03 1.14442182e-02 -2.44251543e-03 -4.25235312e-02
2.81002200e-02 -9.36087614e-04 8.10496314e-03 -9.36087614e-04 2.78808512e-02 1.04018996e-03 8.10496314e-03 1.04018996e-03 -4.71022036e-02
2.47681784e-02 5.96657442e-03 1.00057009e-02 5.96657442e-03 2.58566467e-02 -3.23116375e-03 1.00057009e-02 -3.23116375e-03 -4.26019225e-02
2.78858137e-02 2.66342444e-03 5.28969686e-05 2.66342444e-03 2.76147146e-02 -1.30193727e-03 5.28969686e-05 -1.30193727e-03 -4.66992427e-02
1.47979490e-02 -4.47095622e-03 4.93123347e-03 -4.47095622e-03 2.29425370e-02 -4.97263504e-03 4.93123347e-03 -4.97263504e-03 -3.16951186e-02
1.27168212e-02 -2.51599762e-03 1.01339319e-02 -2.51599762e-03 2.34799902e-02 -4.34091070e-03 1.01339319e-02 -4.34091070e-03 -3.02923280e-02
2.00683536e-02 -2.94227594e-03 1.16331617e-02 -2.94227594e-03 2.57708598e-02 -1.41773366e-03 1.16331617e-02 -1.41773366e-03 -3.85648608e-02
2.74760824e-02 -6.37798188e-03 2.40599941e-02 -6.37798188e-03 3.07628758e-02 -6.07022938e-04 2.40599941e-02 -6.07022938e-04 -4.85723339e-02
2.99497484e-02 -5.55114995e-04 7.77078315e-03 -5.55114995e-04 3.67036564e-02 9.17959254e-03 7.77078315e-03 9.17959254e-03 -5.60667943e-02
3.12292455e-02 -3.48385925e-04 1.37434292e-02 -3.48385925e-04 3.69943520e-02 1.76752678e-02 1.37434292e-02 1.76752678e-02 -5.72517458e-02
3.09886551e-02 -1.06642969e-03 2.41835613e-03 -1.06642969e-03 3.82680781e-02 1.44432100e-02 2.41835613e-03 1.44432100e-02 -5.81647754e-02
1.14376281e-02 -2.24600706e-04 1.28279409e-02 -2.24600706e-04 1.73574751e-02 -4.93085681e-04 1.28279409e-02 -4.93085681e-04 -2.40477005e-02
1.11679195e-02 -5.70099728e-04 8.11656367e-03 -5.70099728e-04 1.72725392e-02 -3.65079957e-03 8.11656367e-03 -3.65079957e-03 -2.38460083e-02
1.29673696e-02 -3.43746463e-03 1.65585200e-02 -3.43746463e-03 2.01350960e-02 1.76773594e-02 1.65585200e-02 1.76773594e-02 -2.72835908e-02
-5.85371023e-03 -1.43771777e-02 2.40839096e-02 -1.43771777e-02 5.28338939e-03 1.82178942e-02 2.40839096e-02 1.82178942e-02 4.18446865e-03
1.19933810e-02 -4.45960846e-04 8.05259577e-03 -4.45960846e-04 1.03393077e-02 4.54523237e-03 8.05259577e-03 4.54523237e-03 -1.86042155e-02
1.13199167e-02 1.43451249e-03 5.62020624e-03 1.43451249e-03 1.08957621e-02 4.40176204e-03 5.62020624e-03 4.40176204e-03 -1.86716989e-02
9.29450324e-03 -8.07265232e-03 8.31496326e-03 -8.07265232e-03 7.87058792e-03 1.05897749e-02 8.31496326e-03 1.05897749e-02 -1.42996866e-02
4.13300237e-04 -1.28842536e-03 -1.03898800e-02 -1.28842536e-03 2.21036918e-03 2.35861323e-04 -1.03898800e-02 2.35861323e-04 -5.37606577e-04
1.18687183e-02 -3.75528536e-03 1.06514105e-03 -3.75528536e-03 1.06669204e-02 3.86598783e-03 1.06514105e-03 3.86598783e-03 -1.88762308e-02
1.22736196e-02 -2.12546560e-03 1.18008845e-03 -2.12546560e-03 9.33058397e-03 3.46250396e-03 1.18008845e-03 3.46250396e-03 -1.81717435e-02
1.16079503e-02 -5.12869697e-03 1.12814714e-03 -5.12869697e-03 1.17251177e-02 5.61111302e-03 1.12814714e-03 5.61111302e-03 -1.86938743e-02
1.94399180e-02 7.68064056e-04 -8.57048068e-03 7.68064056e-04 2.02913152e-02 1.06846581e-02 -8.57048068e-03 1.06846581e-02 -3.41714821e-02
1.17454189e-02 -1.53959903e-04 -1.85016587e-03 -1.53959903e-04 1.47843489e-02 -4.53246044e-04 -1.85016587e-03 -4.53246044e-04 -2.23428435e-02
1.26872468e-02 2.18501687e-03 2.66417395e-04 2.18501687e-03 1.28205633e-02 -3.82002210e-04 2.66417395e-04 -3.82002210e-04 -2.14795982e-02
1.70281460e-02 -2.94439087e-04 3.13798121e-03 -2.94439087e-04 2.12912764e-02 -9.50723850e-04 3.13798121e-03 -9.50723850e-04 -3.27253006e-02
2.65713176e-02 1.51334656e-03 5.75026323e-04 1.51334656e-03 2.93925880e-02 1.36223887e-02 5.75026323e-04 1.36223887e-02 -4.69707195e-02
0.00000000e+00 0.00000000e+00 0.00000000e+00 0.00000000e+00 0.00000000e+00 0.00000000e+00 0.00000000e+00 0.00000000e+00 0.00000000e+00
0.00000000e+00 0.00000000e+00 0.00000000e+00 0.00000000e+00 0.00000000e+00 0.00000000e+00 0.00000000e+00 0.00000000e+00 0.00000000e+00
0.00000000e+00 0.00000000e+00 0.00000000e+00 0.00000000e+00 0.00000000e+00 0.00000000e+00 0.00000000e+00 0.00000000e+00 0.00000000e+00
0.00000000e+00 0.00000000e+00 0.00000000e+00 0.00000000e+00 0.00000000e+00 0.00000000e+00 0.00000000e+00 0.00000000e+00 0.00000000e+00
2.16863714e-02 4.56716589e-06 6.76147756e-03 4.56716589e-06 2.25666203e-02 -1.53703935e-03 6.76147756e-03 -1.53703935e-03 -3.72540485e-02
2.22395523e-02 3.41889048e-04 4.87411697e-03 3.41889048e-04 2.15258910e-02 1.02554524e-03 4.87411697e-03 1.02554524e-03 -3.68422791e-02
2.14169475e-02 -5.59268169e-03 7.38045399e-03 -5.59268169e-03 2.17375595e-02 1.77908197e-03 7.38045399e-03 1.77908197e-03 -3.62836393e-02
2.05334579e-02 4.67207916e-04 6.73963118e-03 4.67207916e-04 2.31055701e-02 -3.40685959e-03 6.73963118e-03 -3.40685959e-03 -3.67251998e-02
2.41319044e-02 -5.41982066e-03 6.98494189e-03 -5.41982066e-03 1.79643854e-02 4.47616467e-04 6.98494189e-03 4.47616467e-04 -3.53930974e-02
2.37142618e-02 -8.10559728e-03 5.63818614e-03 -8.10559728e-03 2.01347094e-02 2.14849721e-03 5.63818614e-03 2.14849721e-03 -3.68379308e-02
2.59284195e-02 3.41322091e-04 2.55599647e-03 3.41322091e-04 1.52587136e-02 3.38169636e-03 2.55599647e-03 3.38169636e-03 -3.46061755e-02
2.57207791e-02 -3.79631242e-03 -3.30596612e-03 -3.79631242e-03 2.00260489e-02 -2.95607805e-03 -3.30596612e-03 -2.95607805e-03 -3.84541298e-02
2.58206874e-02 9.47043809e-04 -3.38552432e-03 9.47043809e-04 1.42921952e-02 -9.04232715e-04 -3.38552432e-03 -9.04232715e-04 -3.36979656e-02
2.57184580e-02 1.80099547e-03 -3.41826488e-03 1.80099547e-03 2.36331547e-02 -2.01750168e-04 -3.41826488e-03 -2.01750168e-04 -4.15109708e-02
2.27423641e-02 1.33752747e-03 2.22514954e-03 1.33752747e-03 1.50304537e-02 -3.09065139e-03 2.22514954e-03 -3.09065139e-03 -3.17702894e-02
2.49271898e-02 1.83646971e-03 2.11091621e-04 1.83646971e-03 2.23818109e-02 1.27265429e-03 2.11091621e-04 1.27265429e-03 -3.98322199e-02
2.11526118e-02 1.94461714e-03 2.79159623e-03 1.94461714e-03 1.36510902e-02 -3.32226002e-03 2.79159623e-03 -3.32226002e-03 -2.92523429e-02
2.27617584e-02 1.06922303e-03 -1.90496994e-04 1.06922303e-03 2.05349941e-02 -2.93817971e-03 -1.90496994e-04 -2.93817971e-03 -3.64476247e-02
1.81972446e-02 -9.24585562e-03 1.68952929e-02 -9.24585562e-03 2.37326263e-02 -8.09476001e-04 1.68952929e-02 -8.09476001e-04 -3.49344511e-02
1.53083643e-02 -6.44776400e-03 1.17861875e-02 -6.44776400e-03 2.54225037e-02 -1.90556294e-03 1.17861875e-02 -1.90556294e-03 -3.41431154e-02
2.56156964e-02 -1.97755025e-03 1.06565523e-02 -1.97755025e-03 2.37113857e-02 -3.83180140e-03 1.06565523e-02 -3.83180140e-03 -4.17552069e-02
3.23888529e-02 -6.33805072e-03 -3.10021590e-02 -6.33805072e-03 2.98423629e-02 1.42165320e-04 -3.10021590e-02 1.42165320e-04 -5.15578687e-02
3.14732725e-02 1.59859541e-04 -8.46248737e-03 1.59859541e-04 3.53767676e-02 7.45251072e-03 -8.46248737e-03 7.45251072e-03 -5.62683539e-02
3.02984933e-02 -1.76586844e-03 -2.20172241e-03 -1.76586844e-03 3.18339509e-02 5.34211109e-03 -2.20172241e-03 5.34211109e-03 -5.23123499e-02
2.73423353e-02 5.20345609e-04 -3.03883268e-03 5.20345609e-04 2.99738394e-02 2.01058679e-03 -3.03883268e-03 2.01058679e-03 -4.82556336e-02
1.51218218e-02 -5.22729527e-03 1.96672066e-02 -5.22729527e-03 2.30453943e-02 1.09676139e-04 1.96672066e-02 1.09676139e-04 -3.16389514e-02
1.09426964e-02 1.40616728e-03 1.57283924e-02 1.40616728e-03 2.22759345e-02 4.63411445e-03 1.57283924e-02 4.63411445e-03 -2.77010039e-02
2.55814339e-02 -1.23823453e-02 3.04962997e-02 -1.23823453e-02 3.22740823e-02 -3.21726101e-02 3.04962997e-02 -3.21726101e-02 -4.73676557e-02
1.09795550e-02 -1.61128340e-03 8.25850370e-03 -1.61128340e-03 1.57653772e-02 1.03832793e-02 8.25850370e-03 1.03832793e-02 -2.22896585e-02
9.64130589e-03 -3.45723284e-03 1.33209801e-02 -3.45723284e-03 1.60689792e-02 1.28120006e-03 1.33209801e-02 1.28120006e-03 -2.13262769e-02
1.25092470e-02 8.12867242e-04 5.76887641e-03 8.12867242e-04 1.91643571e-02 3.05243493e-02 5.76887641e-03 3.05243493e-02 -2.52217604e-02
8.99986678e-03 2.30957466e-03 7.45832961e-03 2.30957466e-03 1.14254667e-02 1.19047622e-03 7.45832961e-03 1.19047622e-03 -1.59153272e-02
1.13634798e-02 3.38156056e-03 -1.31039647e-04 3.38156056e-03 1.51365334e-02 9.88083320e-05 -1.31039647e-04 9.88083320e-05 -2.22532409e-02
1.57278835e-02 -4.36366872e-03 -5.46397744e-03 -4.36366872e-03 2.26387621e-02 8.86071034e-03 -5.46397744e-03 8.86071034e-03 -3.25104489e-02
-1.55094138e-03 2.73940023e-02 -4.46827076e-02 2.73940023e-02 -3.97301326e-03 5.17206937e-02 -4.46827076e-02 5.17206937e-02 1.03201903e-02
2.99373809e-02 1.29457566e-02 -4.58497256e-02 1.29457566e-02 3.23689173e-02 1.87571642e-03 -4.58497256e-02 1.87571642e-03 -5.18738478e-02
1.72400337e-02 8.31497542e-03 9.34461756e-03 8.31497542e-03 2.11568139e-02 8.38112063e-03 9.34461756e-03 8.38112063e-03 -3.27823339e-02
1.29243331e-02 -6.41156366e-04 6.55764900e-03 -6.41156366e-04 1.96822090e-02 6.71377731e-03 6.55764900e-03 6.71377731e-03 -2.73442362e-02
</DataArray>
<DataArray type="Float32" Name="Spatial_displacement" NumberOfComponents="3" format="ascii">
0.00000000e+00 0.00000000e+00 0.00000000e+00
1.46707818e-02 0.00000000e+00 0.00000000e+00
1.62284784e-02 3.37939039e-02 0.00000000e+00
0.00000000e+00 3.19979191e-02 0.00000000e+00
0.00000000e+00 0.00000000e+00 -3.88359502e-02
1.49194710e-02 0.00000000e+00 -4.06546295e-02
1.51861943e-02 3.08927633e-02 -3.84919196e-02
0.00000000e+00 3.04103512e-02 -3.62819880e-02
3.23605761e-02 0.00000000e+00 0.00000000e+00
3.29802558e-02 3.76596227e-02 0.00000000e+00
3.19555625e-02 0.00000000e+00 -4.58895862e-02
3.31130996e-02 3.31164077e-02 -4.25007418e-02
5.15424199e-02 0.00000000e+00 0.00000000e+00
5.31682596e-02 4.30810936e-02 0.00000000e+00
5.46496436e-02 0.00000000e+00 -5.13168052e-02
5.24413437e-02 3.57361883e-02 -4.83098999e-02
7.81945661e-02 0.00000000e+00 0.00000000e+00
7.30544254e-02 4.75438386e-02 0.00000000e+00
8.09109062e-02 0.00000000e+00 -5.65818176e-02
7.53609538e-02 3.67273465e-02 -5.36471419e-02
1.08274795e-01 0.00000000e+00 0.00000000e+00
9.91190597e-02 5.15806861e-02 0.00000000e+00
1.10164940e-01 0.00000000e+00 -6.41901642e-02
1.04086742e-01 3.86458412e-02 -5.83795719e-02
1.42402917e-01 0.00000000e+00 0.00000000e+00
1.20835602e-01 6.70034438e-02 0.00000000e+00
1.38451070e-01 0.00000000e+00 -6.75494373e-02
1.33433506e-01 5.03345802e-02 -6.65784627e-02
1.84728205e-02 5.84254898e-02 0.00000000e+00
0.00000000e+00 5.70173413e-02 0.00000000e+00
1.64597668e-02 5.66392504e-02 -3.16226706e-02
0.00000000e+00 5.49056567e-02 -3.10294181e-02
3.67933474e-02 6.48077279e-02 0.00000000e+00
3.34815197e-02 6.03655279e-02 -3.13614830e-02
5.13878986e-02 7.07673281e-02 0.00000000e+00
4.90387790e-02 6.48800731e-02 -2.66467333e-02
6.40593171e-02 7.97040612e-02 0.00000000e+00
6.58439249e-02 6.72463775e-02 -2.84153223e-02
7.29470327e-02 8.35960209e-02 0.00000000e+00
8.02030712e-02 7.08707273e-02 -2.68596709e-02
8.64814967e-02 1.00827374e-01 0.00000000e+00
9.93813276e-02 8.80271792e-02 -2.75625139e-02
2.00821497e-02 7.25196302e-02 0.00000000e+00
0.00000000e+00 7.10220337e-02 0.00000000e+00
1.75589323e-02 7.28077069e-02 -2.39304453e-02
0.00000000e+00 7.20151886e-02 -2.49792635e-02
3.82588804e-02 7.43871331e-02 0.00000000e+00
3.44627127e-02 7.47696608e-02 -1.69252381e-02
4.85335328e-02 7.95392394e-02 0.00000000e+00
4.59000655e-02 7.74633661e-02 -5.96126169e-03
5.03974967e-02 8.49472210e-02 0.00000000e+00
4.82018925e-02 7.85601810e-02 1.51762366e-03
5.77290691e-02 8.33100975e-02 0.00000000e+00
5.76564632e-02 7.70006180e-02 4.75159287e-03
5.93352914e-02 1.01937264e-01 0.00000000e+00
6.08750433e-02 9.92998332e-02 2.19947845e-03
2.04853565e-02 7.92634189e-02 0.00000000e+00
0.00000000e+00 8.04455429e-02 0.00000000e+00
1.76498927e-02 8.06185082e-02 -2.04733089e-02
0.00000000e+00 8.19735229e-02 -2.21237689e-02
3.70711610e-02 7.89816752e-02 0.00000000e+00
3.31902206e-02 7.79795796e-02 -1.31450817e-02
4.44211289e-02 7.98040926e-02 0.00000000e+00
4.11915444e-02 7.87057579e-02 -2.85483152e-03
4.33997028e-02 8.35141391e-02 0.00000000e+00
4.31753807e-02 8.34314525e-02 -2.31787562e-05
4.36540693e-02 9.01011676e-02 0.00000000e+00
4.35742214e-02 8.64189863e-02 0.00000000e+00
4.37388569e-02 9.02077258e-02 -1.12093985e-04
4.36159335e-02 8.64808261e-02 7.75754452e-05
1.92429014e-02 8.66053328e-02 0.00000000e+00
0.00000000e+00 8.96119475e-02 0.00000000e+00
1.73007399e-02 8.86751041e-02 -2.16209292e-02
0.00000000e+00 8.99106786e-02 -2.51819566e-02
3.51618528e-02 8.15627873e-02 0.00000000e+00
2.96943821e-02 8.27344581e-02 -1.41889453e-02
4.01438139e-02 8.05933028e-02 0.00000000e+00
3.81333046e-02 8.07123855e-02 -2.27810442e-03
4.04174998e-02 8.34505036e-02 0.00000000e+00
4.02378067e-02 8.34177434e-02 2.18331814e-04
4.02863845e-02 8.65695924e-02 0.00000000e+00
4.03658599e-02 8.65700617e-02 7.71880150e-06
4.03296053e-02 8.98183137e-02 0.00000000e+00
4.03590277e-02 8.97654891e-02 -3.14190984e-05
2.14098804e-02 9.86897051e-02 0.00000000e+00
0.00000000e+00 1.00650758e-01 0.00000000e+00
1.85394287e-02 9.83103216e-02 -2.55133659e-02
0.00000000e+00 1.02460176e-01 -2.91605219e-02
3.78304608e-02 8.89057517e-02 0.00000000e+00
2.99866218e-02 9.46391672e-02 -2.04995275e-02
3.93837616e-02 8.21748227e-02 0.00000000e+00
3.83239351e-02 8.65314156e-02 -5.77644259e-03
3.78181040e-02 8.36445764e-02 0.00000000e+00
3.74743715e-02 8.36769789e-02 2.68019736e-04
3.72475758e-02 8.65137130e-02 0.00000000e+00
3.73110101e-02 8.65569860e-02 7.23451376e-06
3.72014344e-02 8.97527784e-02 0.00000000e+00
3.72258350e-02 8.97174627e-02 9.76026058e-06
0.00000000e+00 0.00000000e+00 -7.39492998e-02
1.65648311e-02 0.00000000e+00 -7.80845582e-02
1.56965666e-02 2.52542887e-02 -7.38256499e-02
0.00000000e+00 2.59659365e-02 -7.24696219e-02
3.71458158e-02 0.00000000e+00 -8.38559940e-02
3.26322690e-02 2.17102021e-02 -8.29260349e-02
5.84164634e-02 0.00000000e+00 -9.33986530e-02
5.86672537e-02 2.08075792e-02 -9.29461718e-02
8.75134319e-02 0.00000000e+00 -1.06617749e-01
8.49926174e-02 2.16837153e-02 -9.69272256e-02
1.16544932e-01 0.00000000e+00 -1.16614349e-01
1.14021599e-01 2.29398757e-02 -1.05611980e-01
1.39603630e-01 0.00000000e+00 -1.23125851e-01
1.45722508e-01 2.42057517e-02 -1.13532014e-01
1.20502785e-02 4.99441512e-02 -6.41846955e-02
0.00000000e+00 5.25768697e-02 -5.99407628e-02
2.96645183e-02 4.90299091e-02 -6.72121868e-02
5.18628769e-02 5.23689389e-02 -6.93549067e-02
8.06395039e-02 5.90543151e-02 -8.19148868e-02
1.12290829e-01 6.02704920e-02 -8.07444230e-02
1.42850593e-01 6.25223666e-02 -9.04563963e-02
1.00068115e-02 7.16124251e-02 -4.98932600e-02
0.00000000e+00 7.22274482e-02 -4.63106893e-02
2.44094096e-02 7.21061379e-02 -3.99665833e-02
2.20074952e-02 6.87854886e-02 3.47863138e-03
1.17088407e-02 8.66105407e-02 -3.82805914e-02
0.00000000e+00 8.51096958e-02 -4.26578782e-02
2.43364647e-02 8.14678073e-02 -2.53998563e-02
3.05809565e-02 7.10370690e-02 -9.50418413e-03
1.28278844e-02 9.25695226e-02 -4.07597572e-02
0.00000000e+00 9.47547555e-02 -4.41896655e-02
2.28541344e-02 8.90293270e-02 -2.98511833e-02
4.08214070e-02 8.29311758e-02 -2.41302326e-02
9.83363390e-03 1.06878474e-01 -5.25640994e-02
0.00000000e+00 1.04663447e-01 -5.22261783e-02
2.24603191e-02 1.10383779e-01 -4.57794853e-02
4.43969183e-02 1.07787088e-01 -4.53154705e-02
4.04052772e-02 8.65703449e-02 1.34259462e-05
4.04101461e-02 8.96940678e-02 -1.89617276e-05
3.72713357e-02 8.97058547e-02 3.68058681e-06
3.72532420e-02 8.65759552e-02 1.36718154e-05
0.00000000e+00 0.00000000e+00 -1.11853674e-01
2.10709013e-02 0.00000000e+00 -1.13339558e-01
2.14353278e-02 2.24729590e-02 -1.08613387e-01
0.00000000e+00 2.19971091e-02 -1.05303727e-01
4.63691205e-02 0.00000000e+00 -1.21892966e-01
4.07648720e-02 1.77068487e-02 -1.15130939e-01
6.90368563e-02 0.00000000e+00 -1.30847201e-01
6.93975389e-02 1.41478926e-02 -1.28372639e-01
9.64200720e-02 0.00000000e+00 -1.39277771e-01
9.74094644e-02 1.51156336e-02 -1.42567426e-01
1.22896977e-01 0.00000000e+00 -1.50698602e-01
1.24268167e-01 1.67583041e-02 -1.48532882e-01
1.45801902e-01 0.00000000e+00 -1.55636609e-01
1.47786915e-01 1.52207687e-02 -1.52915657e-01
1.38972215e-02 4.15452383e-02 -9.53966826e-02
0.00000000e+00 4.82245348e-02 -9.34964865e-02
3.79836150e-02 4.07466218e-02 -1.11522339e-01
6.38027564e-02 4.50110212e-02 -1.36167511e-01
9.76043344e-02 5.06420955e-02 -1.40358746e-01
1.26642525e-01 4.50938046e-02 -1.41918197e-01
1.51086241e-01 4.23823111e-02 -1.44689709e-01
9.87236202e-03 7.21602514e-02 -7.10140541e-02
0.00000000e+00 7.06642270e-02 -7.55049139e-02
3.37434299e-02 6.37535155e-02 -9.13976878e-02
9.13709402e-03 8.77453461e-02 -5.81986494e-02
0.00000000e+00 9.12797749e-02 -5.94441518e-02
2.49757841e-02 8.77669528e-02 -4.05749008e-02
1.03571527e-02 1.05606891e-01 -6.11758977e-02
0.00000000e+00 1.02169305e-01 -6.13122545e-02
2.51407325e-02 1.06265560e-01 -5.99723458e-02
2.95994040e-02 9.92604941e-02 7.59216398e-03
4.46127392e-02 1.00540981e-01 -6.71458989e-02
1.08430013e-02 1.18977115e-01 -7.22038895e-02
0.00000000e+00 1.19617492e-01 -7.87915438e-02
</DataArray>
<DataArray type="Float32" Name="Spatial_acceleration" NumberOfComponents="3" format="ascii">
0.00000000e+00 0.00000000e+00 0.00000000e+00
2.98341121e-07 0.00000000e+00 0.00000000e+00
2.07771862e-07 1.05420746e-07 0.00000000e+00
0.00000000e+00 2.95003247e-07 0.00000000e+00
0.00000000e+00 0.00000000e+00 -5.78562407e-08
1.75237659e-07 0.00000000e+00 -6.29425045e-08
1.86522797e-07 1.10963981e-07 -1.23977657e-07
0.00000000e+00 7.70886714e-08 -1.72297163e-07
2.57015216e-07 0.00000000e+00 0.00000000e+00
3.25739393e-07 9.33408728e-08 0.00000000e+00
3.31600518e-07 0.00000000e+00 -1.11262004e-07
3.25242667e-07 6.08433055e-08 -7.82012961e-08
4.75565599e-07 0.00000000e+00 0.00000000e+00
5.07871277e-07 1.50998432e-08 0.00000000e+00
4.15384761e-07 0.00000000e+00 5.46773258e-08
4.66585163e-07 -1.80999429e-08 -1.79290765e-07
8.05974025e-07 0.00000000e+00 0.00000000e+00
4.78188213e-07 -3.08131177e-07 0.00000000e+00
7.27514418e-07 0.00000000e+00 1.03950498e-07
5.20149854e-07 -1.65184332e-07 9.56853228e-08
4.00841230e-07 0.00000000e+00 0.00000000e+00
7.48952232e-07 -1.38521187e-07 0.00000000e+00
4.49180590e-07 0.00000000e+00 1.14440919e-08
6.21120137e-07 -2.24510832e-09 8.71022507e-08
8.53136157e-07 0.00000000e+00 0.00000000e+00
7.53243739e-07 1.53223667e-07 0.00000000e+00
7.53243739e-07 0.00000000e+00 2.92460118e-08
7.44660667e-07 6.83466581e-08 -2.03450519e-08
1.99000041e-07 2.77558968e-07 0.00000000e+00
0.00000000e+00 1.84973075e-07 0.00000000e+00
1.96615858e-07 2.54233669e-07 -2.11397804e-07
0.00000000e+00 3.02414094e-07 -1.88191734e-07
3.68754058e-07 3.03030021e-07 0.00000000e+00
3.60860810e-07 1.39653679e-07 -1.54018394e-07
3.15268835e-07 3.37521243e-07 0.00000000e+00
4.81372808e-07 1.28518963e-07 -2.71570116e-07
3.88622283e-07 3.69628253e-07 0.00000000e+00
6.88023022e-07 1.66257223e-07 -4.28093813e-07
7.18275714e-07 4.08569974e-07 0.00000000e+00
8.22173206e-07 4.18557065e-08 -2.01755100e-07
8.01086401e-07 6.67572024e-08 0.00000000e+00
7.47468732e-07 3.36964945e-08 -2.40749785e-07
2.80857080e-07 4.64434407e-07 0.00000000e+00
0.00000000e+00 4.31736311e-07 0.00000000e+00
1.72694527e-07 4.07497083e-07 -1.67051951e-07
0.00000000e+00 4.82916846e-07 -6.93003344e-08
4.40279649e-07 3.00665704e-07 0.00000000e+00
2.62101480e-07 4.65353338e-07 -2.09172569e-07
5.20865115e-07 3.34262836e-07 0.00000000e+00
4.72784052e-07 3.94503274e-07 6.46379261e-09
5.30242914e-07 2.77095381e-07 0.00000000e+00
5.26216297e-07 4.89976685e-07 1.30335494e-07
5.49740264e-07 2.40961725e-07 0.00000000e+00
4.25126814e-07 2.17013891e-07 1.01725263e-07
4.11669419e-07 1.65303547e-07 0.00000000e+00
6.56445820e-07 4.48172273e-07 1.71343487e-07
2.42710115e-07 6.42418854e-07 0.00000000e+00
0.00000000e+00 4.99169005e-07 0.00000000e+00
1.78257622e-07 5.42819521e-07 -2.14258833e-07
0.00000000e+00 5.00877718e-07 -4.95910655e-08
3.98556381e-07 3.19262341e-07 0.00000000e+00
3.82989640e-07 3.95099306e-07 -3.57468906e-07
6.23345386e-07 1.75476075e-07 0.00000000e+00
6.68495886e-07 4.35087429e-07 -4.95910655e-08
9.92033279e-07 2.36988072e-07 0.00000000e+00
4.82559187e-07 3.32408490e-07 -9.88642412e-08
1.99198723e-07 3.28381844e-07 0.00000000e+00
2.47319548e-07 1.98788115e-07 0.00000000e+00
7.88897239e-07 1.62442518e-07 -5.79754499e-07
8.92109369e-07 1.23334431e-07 2.56088043e-07
2.48640760e-07 5.38388861e-07 0.00000000e+00
0.00000000e+00 6.71823784e-07 0.00000000e+00
2.10737184e-07 5.88898843e-07 -1.88668565e-07
0.00000000e+00 5.37792857e-07 -2.39054373e-07
3.58184167e-07 5.70461168e-07 0.00000000e+00
4.62293627e-07 4.63167822e-07 -2.26974478e-07
7.10010511e-07 2.18232472e-07 0.00000000e+00
4.02238641e-07 4.57710684e-07 -1.12745496e-07
7.62224204e-07 2.73863463e-07 0.00000000e+00
6.86168676e-07 1.69436134e-07 7.53402674e-08
7.14341809e-07 5.88744875e-08 0.00000000e+00
6.72038425e-07 5.49499191e-07 1.75674757e-07
3.42528011e-07 3.67959331e-07 0.00000000e+00
9.04613103e-07 2.77678168e-07 -2.91956809e-07
1.96456909e-07 7.13864949e-07 0.00000000e+00
0.00000000e+00 7.44809711e-07 0.00000000e+00
2.92460129e-07 7.28567443e-07 -3.79880277e-07
0.00000000e+00 7.68472717e-07 -4.65393072e-07
4.87804414e-07 5.97953772e-07 0.00000000e+00
4.55220544e-07 8.02914315e-07 -2.66393016e-07
6.10192615e-07 5.05606351e-07 0.00000000e+00
5.65846790e-07 4.89552804e-07 -1.07659233e-07
5.69025644e-07 8.51154311e-08 0.00000000e+00
6.82989764e-07 6.10351549e-07 -2.06629437e-07
5.64098343e-07 5.98430631e-07 0.00000000e+00
6.62220884e-07 1.61992176e-07 -1.74899895e-07
6.69886674e-07 2.87101898e-07 0.00000000e+00
4.99268367e-07 5.15093404e-07 -9.56455821e-08
0.00000000e+00 0.00000000e+00 -5.70297232e-07
2.48819589e-07 0.00000000e+00 -4.99725331e-07
1.27991044e-07 4.64667878e-08 -3.52064774e-07
0.00000000e+00 1.75714490e-07 -4.11987287e-07
3.27457968e-07 0.00000000e+00 -4.00861097e-07
3.32355484e-07 -6.11941031e-09 -2.45730092e-07
4.53889356e-07 0.00000000e+00 -2.57492076e-07
4.45008283e-07 6.81082426e-08 -1.95503233e-07
5.78343872e-07 0.00000000e+00 -1.63078312e-07
5.53886082e-07 1.12161040e-07 -1.57992048e-07
5.83370536e-07 0.00000000e+00 -1.35421757e-07
6.48180617e-07 2.11199129e-08 -1.29381817e-07
8.11020527e-07 0.00000000e+00 -7.62939401e-09
7.62184470e-07 2.48312944e-07 -1.27792362e-07
1.29779181e-07 2.68181168e-07 -3.15030405e-07
0.00000000e+00 1.73012410e-07 -4.58399455e-07
4.04494159e-07 3.17005885e-07 -4.26156163e-07
5.23972517e-07 3.44562523e-07 -3.48917638e-07
5.56309999e-07 3.03044914e-07 -1.58309930e-07
4.72466155e-07 3.06765230e-07 -1.38600669e-07
5.29925046e-07 3.34920969e-07 -3.17891420e-08
1.10546743e-07 4.05867894e-07 -4.96546420e-07
0.00000000e+00 4.42822767e-07 -5.07672610e-07
4.13894668e-07 3.57839809e-07 -4.92095978e-07
5.65528865e-07 2.31424963e-07 -2.03450519e-08
5.95251706e-08 6.39339305e-07 -4.83592373e-07
0.00000000e+00 5.51064829e-07 -4.44412223e-07
3.23729154e-07 4.49407651e-07 -3.91460588e-07
4.58187543e-07 3.36964916e-07 -2.88221571e-08
2.88049364e-07 6.41882423e-07 -4.93049640e-07
0.00000000e+00 6.60568446e-07 -5.07672610e-07
3.21547191e-07 6.40074404e-07 -4.62849925e-07
5.76813989e-07 7.08808500e-07 -4.17073551e-07
2.42392218e-07 8.58346596e-07 -4.75247703e-07
0.00000000e+00 8.56479005e-07 -4.76837158e-07
3.74078752e-07 7.82489792e-07 -7.95046503e-07
5.85953387e-07 4.09205740e-07 -6.81559243e-07
7.69382325e-07 4.24537802e-07 -3.74898320e-07
7.07447498e-07 6.08921027e-07 6.25262658e-07
1.06185678e-06 3.36610384e-07 -9.09919549e-07
8.15590226e-07 4.99347834e-07 5.78070683e-07
0.00000000e+00 0.00000000e+00 -3.30607094e-07
1.87536074e-07 0.00000000e+00 -4.94321171e-07
1.45703552e-07 1.19715921e-07 -5.34375488e-07
0.00000000e+00 1.92373989e-07 -4.71750894e-07
2.20676256e-07 0.00000000e+00 -5.25792416e-07
2.90423628e-07 2.08139411e-07 -5.89847559e-07
4.62392961e-07 0.00000000e+00 -4.67936189e-07
4.05152633e-07 2.51690551e-07 -4.22477711e-07
4.07973914e-07 0.00000000e+00 -4.74929806e-07
4.30623686e-07 2.03172362e-07 -3.17255655e-07
7.93635820e-07 0.00000000e+00 -3.74794013e-07
7.07288564e-07 1.67280433e-07 -3.42210143e-07
9.27845633e-07 0.00000000e+00 -2.64485664e-07
8.02040120e-07 2.00480216e-07 -3.98953745e-07
1.50044755e-07 2.54909196e-07 -6.40233338e-07
0.00000000e+00 2.00226907e-07 -5.61396291e-07
3.54221896e-07 2.64394856e-07 -5.53312759e-07
4.26864631e-07 1.83741250e-07 -3.86555996e-07
3.87519606e-07 3.15388036e-07 -3.20434566e-07
5.07126231e-07 3.20156403e-07 -3.35057564e-07
5.69457825e-07 4.73936382e-07 -4.38690194e-07
2.56992507e-07 3.92732176e-07 -6.10896507e-07
0.00000000e+00 4.67022261e-07 -7.06672665e-07
2.66551979e-07 2.79267624e-07 -5.27064003e-07
2.49272290e-07 5.96091866e-07 -6.23793824e-07
0.00000000e+00 5.34335754e-07 -7.31150294e-07
3.84807578e-07 5.81781080e-07 -6.42140719e-07
2.15133028e-07 8.29637031e-07 -8.31047657e-07
0.00000000e+00 9.47897604e-07 -7.89006549e-07
3.99544120e-07 6.94365724e-07 -6.31786520e-07
5.68707776e-07 1.01002058e-06 -1.49408976e-07
4.14212536e-07 7.16315355e-07 -6.30696604e-07
1.51395795e-07 8.99712234e-07 -9.18388366e-07
0.00000000e+00 1.10665951e-06 -8.21431456e-07
</DataArray>
<DataArray type="Float32" Name="Spatial_velocity" NumberOfComponents="3" format="ascii">
0.00000000e+00 0.00000000e+00 0.00000000e+00
8.44967144e-05 0.00000000e+00 0.00000000e+00
8.98229846e-05 1.50044085e-04 0.00000000e+00
0.00000000e+00 1.44374120e-04 0.00000000e+00
0.00000000e+00 0.00000000e+00 -1.80307587e-04
8.25733659e-05 0.00000000e+00 -1.87306097e-04
8.44585447e-05 1.40189484e-04 -1.78213173e-04
0.00000000e+00 1.38174524e-04 -1.74887726e-04
1.78170842e-04 0.00000000e+00 0.00000000e+00
1.78532136e-04 1.59196599e-04 0.00000000e+00
1.72243148e-04 0.00000000e+00 -1.97638088e-04
1.77144655e-04 1.46815757e-04 -1.90215476e-04
2.72088364e-04 0.00000000e+00 0.00000000e+00
2.83419795e-04 1.73939014e-04 0.00000000e+00
2.83104309e-04 0.00000000e+00 -2.08102152e-04
2.71794357e-04 1.52188572e-04 -2.09633959e-04
3.98632488e-04 0.00000000e+00 0.00000000e+00
3.76368494e-04 1.87487240e-04 0.00000000e+00
4.05217608e-04 0.00000000e+00 -2.26026168e-04
3.78468190e-04 1.53644040e-04 -2.16193032e-04
5.16000960e-04 0.00000000e+00 0.00000000e+00
4.87963785e-04 2.01107992e-04 0.00000000e+00
5.28732955e-04 0.00000000e+00 -2.38074572e-04
5.07010147e-04 1.60537384e-04 -2.23103954e-04
6.44139654e-04 0.00000000e+00 0.00000000e+00
5.68223768e-04 2.45497038e-04 0.00000000e+00
6.44604908e-04 0.00000000e+00 -2.37900851e-04
6.23257481e-04 2.05400007e-04 -2.46089359e-04
9.70873225e-05 2.68475735e-04 0.00000000e+00
0.00000000e+00 2.65714159e-04 0.00000000e+00
8.94076293e-05 2.60506204e-04 -1.57745511e-04
0.00000000e+00 2.52749393e-04 -1.54493260e-04
1.95052809e-04 2.94332713e-04 0.00000000e+00
1.78293849e-04 2.71345692e-04 -1.61458607e-04
2.73127371e-04 3.10627016e-04 0.00000000e+00
2.60550267e-04 2.87856674e-04 -1.45269689e-04
3.39206657e-04 3.47299298e-04 0.00000000e+00
3.42398707e-04 2.86638940e-04 -1.48640858e-04
3.81958700e-04 3.50951799e-04 0.00000000e+00
4.13536764e-04 2.94236437e-04 -1.40864198e-04
4.46130987e-04 4.21789126e-04 0.00000000e+00
4.96330205e-04 3.62116029e-04 -1.40797143e-04
1.03879538e-04 3.43010470e-04 0.00000000e+00
0.00000000e+00 3.36625584e-04 0.00000000e+00
9.40967075e-05 3.46051937e-04 -1.29938140e-04
0.00000000e+00 3.42462881e-04 -1.25215549e-04
2.09823949e-04 3.46229324e-04 0.00000000e+00
1.87182653e-04 3.51767114e-04 -9.82413185e-05
2.65681068e-04 3.66547989e-04 0.00000000e+00
2.56209372e-04 3.59141763e-04 -3.48341418e-05
2.80024920e-04 3.81697697e-04 0.00000000e+00
2.63987284e-04 3.53324169e-04 1.01222040e-05
3.06493806e-04 3.60468664e-04 0.00000000e+00
3.13249067e-04 3.24258464e-04 2.78392654e-05
3.15954559e-04 4.41651180e-04 0.00000000e+00
3.28572933e-04 4.30189015e-04 6.69796827e-06
1.10382032e-04 3.83805484e-04 0.00000000e+00
0.00000000e+00 3.91800917e-04 0.00000000e+00
9.60251855e-05 3.88553744e-04 -1.13108174e-04
0.00000000e+00 3.99912125e-04 -1.16333249e-04
2.08510581e-04 3.75267467e-04 0.00000000e+00
1.87561571e-04 3.69637535e-04 -7.82693241e-05
2.57806678e-04 3.67742730e-04 0.00000000e+00
2.40053982e-04 3.63287720e-04 -1.55362814e-05
2.51524005e-04 3.75968084e-04 0.00000000e+00
2.50422454e-04 3.76105600e-04 5.68428106e-07
2.48950179e-04 3.80846264e-04 0.00000000e+00
2.49870063e-04 3.79296311e-04 0.00000000e+00
2.49349949e-04 3.80256504e-04 -1.09595021e-06
2.50381330e-04 3.78829805e-04 -4.14862825e-07
1.05091160e-04 4.22880985e-04 0.00000000e+00
0.00000000e+00 4.42695426e-04 0.00000000e+00
9.89427863e-05 4.38181421e-04 -1.19167045e-04
0.00000000e+00 4.44273406e-04 -1.30560278e-04
2.06054305e-04 3.90356581e-04 0.00000000e+00
1.74151079e-04 3.96643329e-04 -9.07154899e-05
2.44643335e-04 3.68930458e-04 0.00000000e+00
2.30522637e-04 3.73763090e-04 -1.85141016e-05
2.47081189e-04 3.76300770e-04 0.00000000e+00
2.47450196e-04 3.76490236e-04 5.79990228e-07
2.47358461e-04 3.79207515e-04 0.00000000e+00
2.47405464e-04 3.78979661e-04 -1.87967771e-07
2.47970020e-04 3.81148129e-04 0.00000000e+00
2.47521588e-04 3.81017890e-04 4.83004840e-07
1.16738891e-04 4.93502419e-04 0.00000000e+00
0.00000000e+00 4.99011541e-04 0.00000000e+00
1.08209148e-04 4.91517712e-04 -1.43720710e-04
0.00000000e+00 5.13954496e-04 -1.53343688e-04
2.27792698e-04 4.33910958e-04 0.00000000e+00
1.79080176e-04 4.73943655e-04 -1.37228883e-04
2.51564023e-04 3.84288491e-04 0.00000000e+00
2.42242240e-04 4.19111049e-04 -5.14635285e-05
2.46097101e-04 3.78259196e-04 0.00000000e+00
2.45297852e-04 3.77847377e-04 1.82123404e-06
2.45003001e-04 3.78596160e-04 0.00000000e+00
2.45250179e-04 3.78596422e-04 -2.51706865e-07
2.45060219e-04 3.81241000e-04 0.00000000e+00
2.45039177e-04 3.81378719e-04 1.00881493e-07
0.00000000e+00 0.00000000e+00 -3.44581349e-04
8.32709775e-05 0.00000000e+00 -3.58597637e-04
8.23140290e-05 1.17607946e-04 -3.45788401e-04
0.00000000e+00 1.18805998e-04 -3.43860826e-04
1.85003883e-04 0.00000000e+00 -3.78071243e-04
1.66678627e-04 1.06178857e-04 -3.66906344e-04
2.86869239e-04 0.00000000e+00 -3.99948534e-04
2.87136441e-04 1.05772990e-04 -3.99879384e-04
4.19907417e-04 0.00000000e+00 -4.31168242e-04
4.09129978e-04 1.05942454e-04 -4.13330272e-04
5.58800239e-04 0.00000000e+00 -4.53700370e-04
5.43632195e-04 1.11598987e-04 -4.30086075e-04
6.70610054e-04 0.00000000e+00 -4.64980782e-04
6.93191832e-04 1.28304513e-04 -4.49753046e-04
7.08393709e-05 2.31754238e-04 -3.12910153e-04
0.00000000e+00 2.46092037e-04 -3.03539913e-04
1.59608593e-04 2.29254219e-04 -3.27200280e-04
2.57152598e-04 2.37810294e-04 -3.34378652e-04
3.89524910e-04 2.69814860e-04 -3.66204447e-04
5.27616998e-04 2.74110935e-04 -3.51116963e-04
6.42445928e-04 2.97408056e-04 -3.73346731e-04
6.02441396e-05 3.36594181e-04 -2.58737535e-04
0.00000000e+00 3.43851221e-04 -2.50123965e-04
1.36111485e-04 3.38575162e-04 -2.34104955e-04
1.25244042e-04 2.95988139e-04 1.40163966e-05
6.60803635e-05 4.25651262e-04 -2.11574748e-04
0.00000000e+00 4.14036913e-04 -2.30186823e-04
1.44110192e-04 3.88297747e-04 -1.51309694e-04
1.89830520e-04 3.20750842e-04 -6.53931274e-05
8.37889384e-05 4.59184317e-04 -2.29134224e-04
0.00000000e+00 4.72687156e-04 -2.40911555e-04
1.37805531e-04 4.39504802e-04 -1.86986334e-04
2.42982424e-04 4.03166778e-04 -1.52900247e-04
7.36753573e-05 5.43458737e-04 -2.93655437e-04
0.00000000e+00 5.41789748e-04 -3.04801622e-04
1.42274861e-04 5.57542895e-04 -2.72924546e-04
2.61069014e-04 5.38928376e-04 -2.73402198e-04
2.46778858e-04 3.78844445e-04 -1.46002407e-07
2.46702170e-04 3.81140067e-04 6.48611405e-08
2.44458031e-04 3.81036254e-04 8.87438659e-07
2.44320341e-04 3.78976431e-04 -7.45726993e-07
0.00000000e+00 0.00000000e+00 -5.14605315e-04
9.72732887e-05 0.00000000e+00 -5.17550798e-04
1.02665159e-04 1.06584252e-04 -5.07920864e-04
0.00000000e+00 1.02415681e-04 -4.97900823e-04
2.14911095e-04 0.00000000e+00 -5.42480557e-04
1.91491781e-04 9.03823820e-05 -5.30186517e-04
3.19006445e-04 0.00000000e+00 -5.73283061e-04
3.21643776e-04 8.11874052e-05 -5.69011085e-04
4.44812118e-04 0.00000000e+00 -6.00404688e-04
4.52712498e-04 8.57015184e-05 -6.09054754e-04
5.81465720e-04 0.00000000e+00 -6.32092182e-04
5.82590757e-04 9.18348087e-05 -6.27567468e-04
7.10288470e-04 0.00000000e+00 -6.44498679e-04
7.06238323e-04 9.39217716e-05 -6.39401143e-04
7.21158285e-05 2.01316216e-04 -4.68877290e-04
0.00000000e+00 2.28542864e-04 -4.62757307e-04
1.90159190e-04 2.04880605e-04 -5.04138065e-04
3.03245906e-04 2.17289693e-04 -5.86451788e-04
4.42154123e-04 2.40935420e-04 -6.13381562e-04
5.71334793e-04 2.29580750e-04 -6.03122811e-04
6.85591425e-04 2.47843738e-04 -6.14037213e-04
6.34869793e-05 3.48589441e-04 -3.87473439e-04
0.00000000e+00 3.39311751e-04 -3.87571868e-04
1.70122046e-04 3.00408370e-04 -4.44965786e-04
6.38109195e-05 4.28152329e-04 -3.26031615e-04
0.00000000e+00 4.44330857e-04 -3.32578638e-04
1.61660195e-04 4.32160479e-04 -2.60325236e-04
6.83379330e-05 5.36410022e-04 -3.48927249e-04
0.00000000e+00 5.24928269e-04 -3.64891428e-04
1.52786641e-04 5.28702512e-04 -3.35366989e-04
1.98009875e-04 5.26520133e-04 3.47748028e-05
2.34572057e-04 5.17175242e-04 -3.88871384e-04
7.68158643e-05 6.22984546e-04 -4.32223809e-04
0.00000000e+00 6.27844071e-04 -4.53847693e-04
</DataArray>
<DataArray type="Float32" Name="Reaction_force" NumberOfComponents="3" format="ascii">
7.11941123e-01 -5.76908886e-01 7.95808268e+00
0.00000000e+00 -1.16606593e+00 1.61392479e+01
0.00000000e+00 0.00000000e+00 3.13000259e+01
9.98975456e-01 0.00000000e+00 1.56251125e+01
1.29716313e+00 -1.10677791e+00 0.00000000e+00
0.00000000e+00 -1.95762396e+00 0.00000000e+00
0.00000000e+00 0.00000000e+00 0.00000000e+00
1.74655342e+00 0.00000000e+00 0.00000000e+00
0.00000000e+00 -1.19204497e+00 1.65708351e+01
0.00000000e+00 0.00000000e+00 3.21534729e+01
0.00000000e+00 -1.21296203e+00 0.00000000e+00
0.00000000e+00 0.00000000e+00 0.00000000e+00
0.00000000e+00 -8.98072839e-01 1.75587196e+01
0.00000000e+00 0.00000000e+00 3.16956825e+01
0.00000000e+00 -5.30800700e-01 0.00000000e+00
0.00000000e+00 0.00000000e+00 0.00000000e+00
0.00000000e+00 -1.00145721e+00 1.74923553e+01
0.00000000e+00 0.00000000e+00 3.17374954e+01
0.00000000e+00 -8.01416457e-01 0.00000000e+00
0.00000000e+00 0.00000000e+00 0.00000000e+00
0.00000000e+00 -1.74580252e+00 1.58737011e+01
0.00000000e+00 0.00000000e+00 2.99381428e+01
0.00000000e+00 -2.45576334e+00 0.00000000e+00
0.00000000e+00 0.00000000e+00 0.00000000e+00
0.00000000e+00 -2.36114216e+00 9.01188946e+00
0.00000000e+00 0.00000000e+00 1.72627869e+01
0.00000000e+00 -3.09624839e+00 0.00000000e+00
0.00000000e+00 0.00000000e+00 0.00000000e+00
0.00000000e+00 0.00000000e+00 2.90669823e+01
-2.13917315e-01 0.00000000e+00 1.47115288e+01
0.00000000e+00 0.00000000e+00 0.00000000e+00
4.07717347e-01 0.00000000e+00 0.00000000e+00
0.00000000e+00 0.00000000e+00 2.63623867e+01
0.00000000e+00 0.00000000e+00 0.00000000e+00
0.00000000e+00 0.00000000e+00 2.15835495e+01
0.00000000e+00 0.00000000e+00 0.00000000e+00
0.00000000e+00 0.00000000e+00 1.72181435e+01
0.00000000e+00 0.00000000e+00 0.00000000e+00
0.00000000e+00 0.00000000e+00 1.75701809e+01
0.00000000e+00 0.00000000e+00 0.00000000e+00
0.00000000e+00 0.00000000e+00 1.33661957e+01
0.00000000e+00 0.00000000e+00 0.00000000e+00
0.00000000e+00 0.00000000e+00 2.64066696e+01
-1.36287451e+00 0.00000000e+00 1.41325798e+01
0.00000000e+00 0.00000000e+00 0.00000000e+00
-1.55151916e+00 0.00000000e+00 0.00000000e+00
0.00000000e+00 0.00000000e+00 2.10284615e+01
0.00000000e+00 0.00000000e+00 0.00000000e+00
0.00000000e+00 0.00000000e+00 1.29532299e+01
0.00000000e+00 0.00000000e+00 0.00000000e+00
0.00000000e+00 0.00000000e+00 5.56187391e+00
0.00000000e+00 0.00000000e+00 0.00000000e+00
0.00000000e+00 0.00000000e+00 5.21614313e+00
0.00000000e+00 0.00000000e+00 0.00000000e+00
0.00000000e+00 0.00000000e+00 4.28709888e+00
0.00000000e+00 0.00000000e+00 0.00000000e+00
0.00000000e+00 0.00000000e+00 2.57337456e+01
-2.01090193e+00 0.00000000e+00 1.41093216e+01
0.00000000e+00 0.00000000e+00 0.00000000e+00
-3.81977868e+00 0.00000000e+00 0.00000000e+00
0.00000000e+00 0.00000000e+00 2.02248306e+01
0.00000000e+00 0.00000000e+00 0.00000000e+00
0.00000000e+00 0.00000000e+00 1.08248072e+01
0.00000000e+00 0.00000000e+00 0.00000000e+00
0.00000000e+00 0.00000000e+00 -1.35045850e+00
0.00000000e+00 0.00000000e+00 0.00000000e+00
0.00000000e+00 0.00000000e+00 -2.41643691e+00
0.00000000e+00 0.00000000e+00 -3.43288898e+00
0.00000000e+00 0.00000000e+00 0.00000000e+00
0.00000000e+00 0.00000000e+00 0.00000000e+00
0.00000000e+00 0.00000000e+00 2.73762169e+01
-2.43216586e+00 0.00000000e+00 1.38586102e+01
0.00000000e+00 0.00000000e+00 0.00000000e+00
-3.76301956e+00 0.00000000e+00 0.00000000e+00
0.00000000e+00 0.00000000e+00 2.34094429e+01
0.00000000e+00 0.00000000e+00 0.00000000e+00
0.00000000e+00 0.00000000e+00 1.69032516e+01
0.00000000e+00 0.00000000e+00 0.00000000e+00
0.00000000e+00 0.00000000e+00 4.91701794e+00
0.00000000e+00 0.00000000e+00 0.00000000e+00
0.00000000e+00 0.00000000e+00 -3.63644361e+00
0.00000000e+00 0.00000000e+00 0.00000000e+00
0.00000000e+00 0.00000000e+00 1.09565961e+00
0.00000000e+00 0.00000000e+00 0.00000000e+00
0.00000000e+00 0.00000000e+00 1.53759727e+01
-1.55946243e+00 0.00000000e+00 7.40579081e+00
0.00000000e+00 0.00000000e+00 0.00000000e+00
-2.47363138e+00 0.00000000e+00 0.00000000e+00
0.00000000e+00 0.00000000e+00 1.55432835e+01
0.00000000e+00 0.00000000e+00 0.00000000e+00
0.00000000e+00 0.00000000e+00 1.25838242e+01
0.00000000e+00 0.00000000e+00 0.00000000e+00
0.00000000e+00 0.00000000e+00 5.88503408e+00
0.00000000e+00 0.00000000e+00 0.00000000e+00
0.00000000e+00 0.00000000e+00 -2.32682157e+00
0.00000000e+00 0.00000000e+00 0.00000000e+00
0.00000000e+00 0.00000000e+00 3.16669464e-01
0.00000000e+00 0.00000000e+00 0.00000000e+00
4.46941823e-01 -1.10718822e+00 0.00000000e+00
0.00000000e+00 -1.05715036e+00 0.00000000e+00
0.00000000e+00 0.00000000e+00 0.00000000e+00
1.81539059e+00 0.00000000e+00 0.00000000e+00
0.00000000e+00 -8.73958319e-03 0.00000000e+00
0.00000000e+00 0.00000000e+00 0.00000000e+00
0.00000000e+00 1.30366349e+00 0.00000000e+00
0.00000000e+00 0.00000000e+00 0.00000000e+00
0.00000000e+00 2.23393917e+00 0.00000000e+00
0.00000000e+00 0.00000000e+00 0.00000000e+00
0.00000000e+00 2.86355317e-01 0.00000000e+00
0.00000000e+00 0.00000000e+00 0.00000000e+00
0.00000000e+00 -5.12950063e-01 0.00000000e+00
0.00000000e+00 0.00000000e+00 0.00000000e+00
0.00000000e+00 0.00000000e+00 0.00000000e+00
1.02444410e+00 0.00000000e+00 0.00000000e+00
0.00000000e+00 0.00000000e+00 0.00000000e+00
0.00000000e+00 0.00000000e+00 0.00000000e+00
0.00000000e+00 0.00000000e+00 0.00000000e+00
0.00000000e+00 0.00000000e+00 0.00000000e+00
0.00000000e+00 0.00000000e+00 0.00000000e+00
0.00000000e+00 0.00000000e+00 0.00000000e+00
-7.41977811e-01 0.00000000e+00 0.00000000e+00
0.00000000e+00 0.00000000e+00 0.00000000e+00
0.00000000e+00 0.00000000e+00 0.00000000e+00
0.00000000e+00 0.00000000e+00 0.00000000e+00
-1.92910337e+00 0.00000000e+00 0.00000000e+00
0.00000000e+00 0.00000000e+00 0.00000000e+00
0.00000000e+00 0.00000000e+00 0.00000000e+00
0.00000000e+00 0.00000000e+00 0.00000000e+00
-1.73699534e+00 0.00000000e+00 0.00000000e+00
0.00000000e+00 0.00000000e+00 0.00000000e+00
0.00000000e+00 0.00000000e+00 0.00000000e+00
0.00000000e+00 0.00000000e+00 0.00000000e+00
-1.09649086e+00 0.00000000e+00 0.00000000e+00
0.00000000e+00 0.00000000e+00 0.00000000e+00
0.00000000e+00 0.00000000e+00 0.00000000e+00
0.00000000e+00 0.00000000e+00 0.00000000e+00
0.00000000e+00 0.00000000e+00 0.00000000e+00
0.00000000e+00 0.00000000e+00 0.00000000e+00
0.00000000e+00 0.00000000e+00 0.00000000e+00
-1.44525707e-01 -3.82802069e-01 0.00000000e+00
0.00000000e+00 4.97534335e-01 0.00000000e+00
0.00000000e+00 0.00000000e+00 0.00000000e+00
1.23559642e+00 0.00000000e+00 0.00000000e+00
0.00000000e+00 1.29686284e+00 0.00000000e+00
0.00000000e+00 0.00000000e+00 0.00000000e+00
0.00000000e+00 2.27318120e+00 0.00000000e+00
0.00000000e+00 0.00000000e+00 0.00000000e+00
0.00000000e+00 3.69141722e+00 0.00000000e+00
0.00000000e+00 0.00000000e+00 0.00000000e+00
0.00000000e+00 2.73426723e+00 0.00000000e+00
0.00000000e+00 0.00000000e+00 0.00000000e+00
0.00000000e+00 1.15345454e+00 0.00000000e+00
0.00000000e+00 0.00000000e+00 0.00000000e+00
0.00000000e+00 0.00000000e+00 0.00000000e+00
1.46086335e+00 0.00000000e+00 0.00000000e+00
0.00000000e+00 0.00000000e+00 0.00000000e+00
0.00000000e+00 0.00000000e+00 0.00000000e+00
0.00000000e+00 0.00000000e+00 0.00000000e+00
0.00000000e+00 0.00000000e+00 0.00000000e+00
0.00000000e+00 0.00000000e+00 0.00000000e+00
0.00000000e+00 0.00000000e+00 0.00000000e+00
3.82358730e-01 0.00000000e+00 0.00000000e+00
0.00000000e+00 0.00000000e+00 0.00000000e+00
0.00000000e+00 0.00000000e+00 0.00000000e+00
9.45692509e-02 0.00000000e+00 0.00000000e+00
0.00000000e+00 0.00000000e+00 0.00000000e+00
0.00000000e+00 0.00000000e+00 0.00000000e+00
5.94502032e-01 0.00000000e+00 0.00000000e+00
0.00000000e+00 0.00000000e+00 0.00000000e+00
0.00000000e+00 0.00000000e+00 0.00000000e+00
0.00000000e+00 0.00000000e+00 0.00000000e+00
0.00000000e+00 0.00000000e+00 0.00000000e+00
-2.17799842e-02 0.00000000e+00 0.00000000e+00
</DataArray>
<DataArray type="Float32" Name="Equivalent_plastic_strain" format="ascii">
3.99437025e-02
4.20846809e-02
3.90653852e-02
3.72450612e-02
3.81830707e-02
3.98678957e-02
3.76747684e-02
3.65762347e-02
4.73145396e-02
4.33135545e-02
4.33788402e-02
4.17158576e-02
5.37988525e-02
4.83741174e-02
4.83695958e-02
4.64420235e-02
6.00482784e-02
5.46851009e-02
5.38475690e-02
4.94766128e-02
6.73557371e-02
5.99504467e-02
5.82305994e-02
5.44319008e-02
7.60841519e-02
6.85749725e-02
6.40927497e-02
5.95817734e-02
3.17121851e-02
3.12684458e-02
3.20141620e-02
3.04133794e-02
3.09776859e-02
3.28533803e-02
2.70642797e-02
3.38229103e-02
2.62751281e-02
3.69687239e-02
2.29310507e-02
3.63644225e-02
2.50967173e-02
4.58091485e-02
2.44795503e-02
2.57012174e-02
2.48741270e-02
2.42327051e-02
1.76941270e-02
2.02490378e-02
6.35445712e-03
5.14841216e-03
1.39790940e-03
1.11631922e-02
-5.21912550e-04
1.02817688e-02
3.12015030e-03
9.89518128e-03
2.13809568e-02
2.35794988e-02
2.00819022e-02
2.19272822e-02
1.35728184e-02
1.35475091e-02
3.62620116e-03
5.42606658e-03
-1.76470398e-04
1.15172466e-03
4.15788358e-03
1.03205741e-03
3.27064353e-03
1.60000104e-03
2.22639521e-02
2.51304405e-02
2.02937063e-02
2.26002038e-02
1.40854553e-02
1.54820455e-02
2.70965716e-03
9.62609177e-03
-3.35479293e-04
3.01412315e-04
3.72579083e-06
7.86251621e-07
0.00000000e+00
0.00000000e+00
2.56589809e-02
2.85528377e-02
2.41238046e-02
2.59741871e-02
1.84441954e-02
2.10969099e-02
4.48895560e-03
1.59289533e-02
-3.72800423e-05
1.53651807e-03
-2.94026559e-05
-9.27186799e-07
0.00000000e+00
0.00000000e+00
3.64416987e-02
3.65767619e-02
3.52848745e-02
3.51732904e-02
3.70603204e-02
3.76743181e-02
3.93224619e-02
4.18790597e-02
4.21743048e-02
4.59181136e-02
4.30059200e-02
4.73936223e-02
4.28274591e-02
4.69804835e-02
3.22692329e-02
3.15209269e-02
3.88964388e-02
5.12018904e-02
5.65108573e-02
5.85695552e-02
5.92085123e-02
2.53408037e-02
2.45237867e-02
3.07644246e-02
2.30070869e-02
1.99032561e-02
1.89182009e-02
1.62154126e-02
3.12332033e-03
1.95336123e-02
1.83222820e-02
2.10132853e-02
3.31820436e-02
2.23494479e-02
2.15002932e-02
3.17566171e-02
4.69908509e-02
0.00000000e+00
0.00000000e+00
0.00000000e+00
0.00000000e+00
3.73661909e-02
3.69579503e-02
3.66757531e-02
3.69032603e-02
3.57811423e-02
3.74246412e-02
3.51336999e-02
3.89294191e-02
3.42400353e-02
4.18529403e-02
3.20396936e-02
3.99106648e-02
2.96370871e-02
3.65622547e-02
3.73417793e-02
3.51626333e-02
4.05824669e-02
5.61202690e-02
5.64871887e-02
5.24155870e-02
4.83724158e-02
3.48474282e-02
2.94542569e-02
5.49170701e-02
2.37825758e-02
2.34001912e-02
3.40071521e-02
1.80689236e-02
2.26686746e-02
3.17104456e-02
3.20417695e-02
5.60227372e-02
3.31877945e-02
2.80924682e-02
</DataArray>
<DataArray type="Float32" Name="Stress_Mises" format="ascii">
3.08641014e+01
3.28403063e+01
3.18123937e+01
2.98601961e+01
2.95475893e+01
3.15853624e+01
3.04483535e+01
3.08871403e+01
3.66854105e+01
3.70467644e+01
3.22543674e+01
3.47272016e+01
4.15949593e+01
4.24904318e+01
3.44946666e+01
3.79435081e+01
4.34730206e+01
4.75899291e+01
3.75649526e+01
3.29973572e+01
4.52385712e+01
4.23817883e+01
3.41950802e+01
3.45476948e+01
6.68782654e+01
6.76991653e+01
4.80334740e+01
4.90254178e+01
3.03587127e+01
2.90067081e+01
3.03764896e+01
2.64886284e+01
3.05075848e+01
3.11472042e+01
2.83580052e+01
2.85805390e+01
2.78351146e+01
3.93274754e+01
2.82877367e+01
4.00711808e+01
4.45071325e+01
5.93766969e+01
2.91054149e+01
2.90676832e+01
2.92500080e+01
2.45515244e+01
1.93493840e+01
2.64192901e+01
2.09785485e+01
1.84363938e+01
1.87749367e+01
1.75107841e+01
1.32811591e+01
1.90920630e+01
2.94368744e+01
2.98473454e+01
2.96001234e+01
3.06763735e+01
2.69723411e+01
2.87464204e+01
2.33877623e+01
2.04036981e+01
1.55915215e+01
1.50648491e+01
1.98213809e+01
2.32358907e+01
2.81485300e+01
1.60888335e+01
2.96127310e+01
2.13204212e+01
3.06111383e+01
3.22981901e+01
2.59132590e+01
2.92857494e+01
2.58397882e+01
2.28604655e+01
1.62392987e+01
2.62176916e+01
2.31023829e+01
2.44885983e+01
8.28201568e+00
6.30344334e+00
9.54700756e+00
8.28484241e+00
4.04324932e+01
4.11294708e+01
3.59192519e+01
3.84557552e+01
4.20371208e+01
3.71465850e+01
2.47304435e+01
4.83071906e+01
2.72026539e+01
3.45902596e+01
1.73909025e+01
7.76831992e+00
5.02817059e+00
3.52739906e+00
3.06356382e+01
3.02433205e+01
2.77968202e+01
3.06065540e+01
2.65927799e+01
2.62133814e+01
2.59066670e+01
2.92747072e+01
2.75083480e+01
2.78129104e+01
2.36988809e+01
2.70756102e+01
2.07724581e+01
2.34068522e+01
2.53053296e+01
2.89984374e+01
4.18922558e+01
7.17075275e+01
5.80603399e+01
6.00963430e+01
6.11778336e+01
2.36332165e+01
2.24283168e+01
5.25858154e+01
3.66594620e+01
2.11044313e+01
2.03871176e+01
1.88303398e+01
2.36954695e+01
2.20777131e+01
2.05519626e+01
3.06651636e+01
4.27055844e+01
2.79212834e+01
3.01209192e+01
4.29930391e+01
8.96452827e+01
1.27792895e+00
1.78783041e+00
1.56516850e+00
2.30426359e+00
3.00124855e+01
2.99101820e+01
2.72619476e+01
2.97381206e+01
2.68901834e+01
2.52968017e+01
2.47371874e+01
2.65498377e+01
2.22135029e+01
2.95636286e+01
1.82948742e+01
2.68618390e+01
1.24560909e+01
2.05803016e+01
2.62042054e+01
2.64679346e+01
3.45603653e+01
8.32523285e+01
6.76678152e+01
5.29897928e+01
4.01453075e+01
3.11078194e+01
2.31030025e+01
1.04323532e+02
1.79012431e+01
1.80032504e+01
6.13947930e+01
2.00630964e+01
1.87878959e+01
3.74543788e+01
5.66879196e+01
9.67543780e+01
2.55055914e+01
3.03358121e+01
</DataArray>
<DataArray type="Float32" Name="Stress_Max_Principal" format="ascii">
2.01224971e+00
4.75291729e-01
6.52259422e-01
2.07401085e+00
2.96568084e+00
1.25519494e+00
1.65641688e+00
1.28286076e+00
-2.54526281e+00
-3.03648764e+00
3.08026016e-01
-1.78556093e+00
-6.41531628e+00
-7.41537559e+00
-2.10092793e+00
-4.27825773e+00
-8.25667775e+00
-1.02393179e+01
-4.56246316e+00
-5.78744784e-01
-9.09148967e+00
-5.05547917e+00
-1.90332627e+00
1.70844206e+00
-2.30112133e+01
-2.18961692e+01
-1.09675906e+01
-1.10004539e+01
1.54115450e+00
2.30590713e+00
9.65632597e-01
3.77586016e+00
2.82867295e+00
6.81535810e-01
1.79926634e+01
6.97419657e+00
2.04145279e+01
8.02344517e+00
2.72958794e+01
8.95904152e+00
2.54991789e+01
1.40637843e+00
4.26846910e+00
3.63049346e+00
3.43178651e+00
6.10946021e+00
1.29922715e+01
1.55677220e+01
3.97200975e+01
3.64844696e+01
4.28025430e+01
2.40883090e+01
4.51324959e+01
3.08748830e+01
4.07168260e+01
1.71026964e+01
4.96078824e+00
3.40188324e+00
6.24877031e+00
4.35613079e+00
1.01700764e+01
1.23339105e+01
1.90211580e+01
2.01896410e+01
2.42901065e+01
2.01317577e+01
6.09531999e+00
1.66976136e+01
1.17093410e+01
1.73574413e+01
3.45463127e+00
1.85604239e+00
6.67379736e+00
3.55606848e+00
7.55971020e+00
1.15270510e+01
1.98575088e+01
1.15374918e+01
1.93246567e+01
1.76857967e+01
6.03330714e+00
4.67284808e+00
3.10781658e+00
2.10560546e+00
-4.51658162e+00
-4.97237825e+00
-2.08179539e+00
-3.98877537e+00
-4.03416073e+00
-2.04747041e+00
1.38417996e+01
-4.94213919e+00
1.53132110e+01
1.16435723e+01
7.30024076e+00
3.55730164e+00
1.63211808e-01
1.05815527e+00
1.31974649e+00
1.11981717e+00
3.65409546e+00
1.73746276e+00
3.93200219e+00
4.65518282e+00
4.25467671e+00
6.66691121e+00
3.66200626e+00
3.28695217e+00
6.49997903e+00
3.72328183e+00
9.06460094e+00
7.37393212e+00
5.85860831e+00
3.29732323e+00
-6.93825152e+00
-2.93274140e+01
-2.17652469e+01
-2.32577950e+01
-2.28044376e+01
1.33028349e+01
7.84627640e+00
-1.27011161e+01
2.00898013e+01
1.03381208e+01
9.49031973e+00
2.74594152e+01
3.53305518e+01
9.11276267e+00
9.58159924e+00
4.06142876e+00
-5.74141264e+00
3.00757325e+00
3.70810986e-01
6.64507699e+00
-4.74424114e+01
6.49493441e-01
1.00322297e+00
6.13503367e-01
1.32829422e+00
3.60812664e-01
7.35543054e-01
3.70658024e+00
1.17147806e+00
4.25470571e+00
5.82096684e+00
6.08560443e+00
1.01054524e+01
8.48091292e+00
2.31608856e+00
1.14327428e+01
5.99390227e+00
1.60707664e+01
1.58887835e+01
6.09928441e+00
5.82986682e+00
1.04173472e+01
-4.19811314e+01
-2.99288268e+01
-1.81089261e+01
-6.61375630e+00
2.78448629e+00
1.50947461e+01
-5.14944620e+01
1.59754258e+01
1.19483480e+01
-2.06607122e+01
2.26172051e+01
1.29982069e+01
3.26756404e+01
1.84051933e+01
-4.27663021e+01
5.62020743e+00
1.57154417e+00
</DataArray>
<DataArray type="Float32" Name="Stress_Mid_Principal" format="ascii">
-3.75758290e+00
-5.61878121e+00
-3.90350628e+00
-1.95447248e+00
-2.41029000e+00
-4.17253840e+00
-2.53274936e+00
-2.92879653e+00
-9.19460911e+00
-9.22647226e+00
-4.20921066e+00
-6.31784502e+00
-1.36865697e+01
-1.39813077e+01
-5.53183803e+00
-9.26635161e+00
-1.50153062e+01
-1.99483151e+01
-8.33106303e+00
-4.34071464e+00
-1.72669518e+01
-1.62371883e+01
-5.18086624e+00
-4.53925902e+00
-4.10954170e+01
-4.34888439e+01
-2.00162895e+01
-2.12738960e+01
-2.15521610e+00
-5.63082933e-01
-1.48889454e+00
2.38267767e+00
-3.57822585e+00
-2.59640349e+00
1.03580945e+01
2.96386380e+00
9.98936939e+00
-4.91724885e+00
1.36491077e+01
-3.14366631e+00
2.58917427e+00
-1.92936897e+01
-3.02186990e+00
-2.20125699e+00
-1.90846688e+00
3.34076907e+00
7.00227135e+00
5.01071295e+00
2.51297898e+01
2.43252480e+01
3.39541321e+01
1.17641916e+01
3.70004406e+01
1.68384685e+01
2.91628218e+01
1.41381621e+00
-4.82818032e+00
-5.06350255e+00
-8.94152284e-01
-2.32505716e+00
1.84433007e+00
4.78025752e+00
1.32828843e+01
1.39038211e+01
1.17195098e+01
3.01493470e+00
-3.61533380e+00
4.54644632e+00
1.21629842e+00
-7.27689902e-01
-4.84045297e+00
-6.18485549e+00
4.08599794e-01
-2.56165805e+00
6.81196332e-01
4.12226006e+00
1.25283658e+01
-3.93163363e-02
6.78104949e+00
1.59043679e+00
1.45477918e+00
6.68137850e-01
-6.95642740e-01
6.79111878e-01
-1.35377514e+01
-1.45297251e+01
-7.78488866e+00
-1.05059080e+01
-1.51738582e+01
-8.66642779e+00
5.02955437e+00
-1.94343069e+01
4.64778984e+00
-3.74239850e+00
3.90583658e+00
7.86793311e-01
-2.14197695e-01
-1.17135185e+00
-2.43720961e+00
-1.50322837e+00
1.23287994e-01
-2.85938311e+00
2.09596014e+00
1.93184227e+00
2.92475346e+00
2.83914429e+00
7.86660135e-01
6.40357196e-01
4.48277617e+00
1.60478716e+00
7.24826026e+00
4.42404580e+00
2.33051211e+00
-1.64919993e+00
-1.15830002e+01
-3.92737023e+01
-2.61697917e+01
-2.80038264e+01
-3.06098223e+01
8.21248886e+00
5.43707085e+00
-1.81412388e+01
-6.01446629e-01
5.57303506e+00
7.64493790e+00
1.78269325e+01
2.39216703e+01
5.05085704e+00
6.93259183e+00
-3.59863341e+00
-1.04756501e+01
1.15371579e+00
-1.44248962e-01
-4.43918228e+00
-5.24768105e+01
-2.65679423e-01
-4.30268906e-01
1.02965917e-01
-5.07032856e-01
-2.68637657e-01
-4.79148664e-01
1.17114114e+00
-5.34749627e-01
1.19023186e+00
2.42754667e+00
2.97714331e+00
4.69350663e+00
4.86510333e+00
-1.51460868e+00
8.70279181e+00
2.53981256e+00
1.42527952e+01
1.15293309e+01
5.61351955e-01
3.78294945e-01
4.41135185e+00
-4.76005871e+01
-3.43463602e+01
-2.10685501e+01
-1.06761687e+01
-4.12085665e+00
8.63498664e+00
-6.89002562e+01
1.24679943e+01
8.78760731e+00
-2.71963001e+01
1.57544774e+01
1.04436519e+01
1.66265174e+01
-1.43113708e+01
-5.69045986e+01
2.81166053e+00
-1.89772654e+00
</DataArray>
<DataArray type="Float32" Name="Stress_Min_Principal" format="ascii">
-3.13295956e+01
-3.49822350e+01
-3.31710169e+01
-2.95836983e+01
-2.89005203e+01
-3.26901195e+01
-3.06590855e+01
-3.14786315e+01
-4.21003933e+01
-4.27798104e+01
-3.39533124e+01
-3.85450162e+01
-5.11403275e+01
-5.27795515e+01
-3.81792970e+01
-4.44631498e+01
-5.47121315e+01
-6.19283407e+01
-4.38693472e+01
-3.52868068e+01
-5.78560753e+01
-5.18846896e+01
-3.76151104e+01
-3.52490420e+01
-9.70719528e+01
-9.77553444e+01
-6.28816986e+01
-6.43374412e+01
-3.04853911e+01
-2.80276279e+01
-3.05517118e+01
-2.33717031e+01
-3.03542033e+01
-3.19627919e+01
-1.20550017e+01
-2.29110186e+01
-1.01113167e+01
-3.52543936e+01
-4.26882553e+00
-3.46450589e+01
-2.50106144e+01
-6.42854424e+01
-2.77305255e+01
-2.78966780e+01
-2.80234370e+01
-1.96609883e+01
-8.57103610e+00
-1.39114976e+01
1.67461680e+01
1.58238710e+01
2.19446917e+01
4.38456472e+00
3.00863037e+01
9.99316247e+00
8.22373581e+00
-1.59646249e+01
-2.82894425e+01
-3.06168556e+01
-2.35708609e+01
-2.71280508e+01
-1.60664384e+01
-1.06261777e+01
2.11744851e+00
3.54195682e+00
2.21297753e+00
-5.65897044e+00
-2.50523400e+01
-1.53900295e+00
-2.16465015e+01
-5.79106887e+00
-3.03463180e+01
-3.36998119e+01
-2.17949481e+01
-2.82572436e+01
-2.05835102e+01
-1.39236719e+01
1.56606388e+00
-1.80457644e+01
-6.82692365e+00
-9.94036829e+00
-3.51813529e+00
-2.36012630e+00
-7.64942145e+00
-6.65840356e+00
-4.86798954e+01
-5.00390930e+01
-4.04436507e+01
-4.52863617e+01
-5.04643440e+01
-4.19697104e+01
-1.38093424e+01
-5.82520599e+01
-1.48650270e+01
-2.73743410e+01
-1.13875558e+01
-5.13883193e+00
-5.04302931e+00
-3.00720155e+00
-3.10211058e+01
-3.03373528e+01
-2.57393093e+01
-3.09043775e+01
-2.35307674e+01
-2.27921907e+01
-2.22711626e+01
-2.36023444e+01
-2.51692283e+01
-2.57462282e+01
-1.81398671e+01
-2.43350493e+01
-1.25562305e+01
-1.73499444e+01
-2.10054414e+01
-2.78333004e+01
-5.09561039e+01
-1.05141243e+02
-8.19013767e+01
-8.55688810e+01
-8.75064774e+01
-1.17745039e+01
-1.56550802e+01
-6.77321275e+01
-2.21339397e+01
-1.26982472e+01
-1.17495835e+01
6.67407261e+00
9.12975725e+00
-1.46753758e+01
-1.21638857e+01
-2.95303944e+01
-5.05303955e+01
-2.57937565e+01
-3.00042801e+01
-3.90520267e+01
-1.39498169e+02
-8.10518622e-01
-9.99659866e-01
-1.14315763e+00
-1.24804798e+00
-2.99613247e+01
-2.97634256e+01
-2.47095062e+01
-2.93682632e+01
-2.40322959e+01
-2.09831818e+01
-2.00470539e+01
-1.79959584e+01
-1.53140168e+01
-2.89623047e+01
-8.07256734e+00
-2.21770501e+01
2.80692148e+00
-5.68263531e+00
-2.23787924e+01
-2.29319912e+01
-2.49793750e+01
-1.27753113e+02
-9.96911659e+01
-7.25163021e+01
-4.86356907e+01
-3.10978808e+01
-9.93281317e+00
-1.63400675e+02
-2.97905956e+00
-7.40774298e+00
-8.49353213e+01
1.20161760e+00
-6.79682827e+00
-6.89619419e+00
-4.70523796e+01
-1.45735607e+02
-2.10098321e+01
-3.03466349e+01
</DataArray>
<DataArray type="Float32" Name="Stress_Pressure" format="ascii">
1.10249758e+01
1.33752420e+01
1.21407542e+01
9.82138658e+00
9.44837666e+00
1.18691539e+01
1.05118061e+01
1.10415226e+01
1.79467549e+01
1.83475903e+01
1.26181653e+01
1.55494743e+01
2.37474051e+01
2.47254115e+01
1.52706877e+01
1.93359200e+01
2.59947047e+01
3.07053235e+01
1.89209582e+01
1.34020887e+01
2.80715055e+01
2.43924518e+01
1.48997674e+01
1.26932869e+01
5.37261963e+01
5.43801212e+01
3.12885265e+01
3.22039298e+01
1.03664840e+01
8.76160067e+00
1.03583247e+01
5.73772183e+00
1.03679182e+01
1.12925535e+01
-5.43191862e+00
4.32431916e+00
-6.76419353e+00
1.07160662e+01
-1.22253875e+01
9.60989523e+00
-1.02591324e+00
2.73909175e+01
8.82797581e+00
8.82248068e+00
8.83337271e+00
3.40358624e+00
-3.80783612e+00
-2.22231253e+00
-2.71986855e+01
-2.55445288e+01
-3.29004552e+01
-1.34123546e+01
-3.74064147e+01
-1.92355051e+01
-2.60344605e+01
-8.50629151e-01
9.38561118e+00
1.07594919e+01
6.07208099e+00
8.36565912e+00
1.35067749e+00
-2.16266361e+00
-1.14738300e+01
-1.25451395e+01
-1.27408646e+01
-5.82924060e+00
7.52411771e+00
-6.56835254e+00
2.90695399e+00
-3.61289430e+00
1.05773804e+01
1.26762083e+01
4.90418353e+00
9.08761096e+00
4.11420107e+00
-5.75213194e-01
-1.13173132e+01
2.18252945e+00
-6.42626080e+00
-3.11195517e+00
-1.32331702e+00
-9.93619800e-01
1.74574924e+00
1.29122872e+00
2.22447429e+01
2.31803989e+01
1.67701114e+01
1.99270144e+01
2.32241197e+01
1.75612025e+01
-1.68733788e+00
2.75428343e+01
-1.69865787e+00
6.49105597e+00
6.04930520e-02
2.64912347e-01
1.69800508e+00
1.04013267e+00
1.07128567e+01
1.02402548e+01
7.32064177e+00
1.06754329e+01
5.83426839e+00
5.40172189e+00
5.03057758e+00
4.69876271e+00
6.90685363e+00
7.27297306e+00
2.38570392e+00
6.33565974e+00
-1.25221038e+00
1.85065579e+00
4.27210701e+00
8.72839230e+00
2.31591187e+01
5.79141207e+01
4.32788038e+01
4.56101675e+01
4.69735794e+01
-3.24693971e+00
7.90577725e-01
3.28581604e+01
8.81861210e-01
-1.07096925e+00
-1.79522482e+00
-1.73201397e+01
-2.27939929e+01
1.70585498e-01
-1.45010179e+00
9.68919965e+00
2.22491527e+01
7.21082222e+00
9.92590553e+00
1.22820439e+01
7.98057976e+01
1.42234862e-01
1.42235272e-01
1.42229449e-01
1.42262202e-01
9.95638347e+00
9.83567727e+00
6.61059496e+00
9.57717845e+00
6.19578630e+00
4.24488941e+00
3.66143560e+00
1.06566645e+00
6.56000137e-01
9.38694206e+00
-4.02098906e+00
4.54777861e+00
-1.10434949e+01
-7.24516022e+00
5.23938552e+00
5.57460976e+00
3.38355817e+00
7.24449432e+01
5.46554508e+01
3.72312603e+01
2.19752049e+01
1.08114169e+01
-4.59897316e+00
9.45984631e+01
-8.48812040e+00
-4.44273740e+00
4.42641125e+01
-1.31911001e+01
-5.54834328e+00
-1.41353215e+01
1.43195190e+01
8.18021692e+01
4.19265544e+00
1.02242732e+01
</DataArray>
<DataArray type="Float32" Name="Stress_Tresca" format="ascii">
3.33418465e+01
3.54575272e+01
3.38232770e+01
3.16577082e+01
3.18662014e+01
3.39453144e+01
3.23155026e+01
3.27614927e+01
3.95551310e+01
3.97433233e+01
3.42613382e+01
3.67594545e+01
4.47250118e+01
4.53641758e+01
3.60783687e+01
4.01848915e+01
4.64554539e+01
5.16890240e+01
3.93068838e+01
3.47080622e+01
4.87645855e+01
4.68292105e+01
3.57117834e+01
3.69574842e+01
7.40607376e+01
7.58591766e+01
5.19141083e+01
5.33369875e+01
3.20265450e+01
3.03335352e+01
3.15173445e+01
2.71475635e+01
3.31828761e+01
3.26443276e+01
3.00476651e+01
2.98852158e+01
3.05258446e+01
4.32778390e+01
3.15647039e+01
4.36041005e+01
5.05097942e+01
6.56918208e+01
3.19989948e+01
3.15271721e+01
3.14552233e+01
2.57704482e+01
2.15633075e+01
2.94792194e+01
2.29739294e+01
2.06605988e+01
2.08578517e+01
1.97037443e+01
1.50461922e+01
2.08817202e+01
3.24930897e+01
3.30673218e+01
3.32502308e+01
3.40187397e+01
2.98196304e+01
3.14841819e+01
2.62365150e+01
2.29600885e+01
1.69037092e+01
1.66476841e+01
2.20771287e+01
2.57907283e+01
3.11476612e+01
1.82366161e+01
3.33558426e+01
2.31485100e+01
3.38009496e+01
3.55558548e+01
2.84687462e+01
3.18133121e+01
2.81432197e+01
2.54507232e+01
1.82914453e+01
2.95832556e+01
2.61515808e+01
2.76261649e+01
9.55144238e+00
7.03297443e+00
1.07572379e+01
8.76400892e+00
4.41633129e+01
4.50667152e+01
3.83618555e+01
4.12975864e+01
4.64301834e+01
3.99222398e+01
2.76511421e+01
5.33099225e+01
3.01782379e+01
3.90179138e+01
1.86877966e+01
8.69613377e+00
5.20624113e+00
4.06535697e+00
3.23408527e+01
3.14571695e+01
2.93934047e+01
3.26418395e+01
2.74627695e+01
2.74473732e+01
2.65258393e+01
3.02692559e+01
2.88312345e+01
2.90331807e+01
2.46398466e+01
2.80583310e+01
2.16208324e+01
2.47238774e+01
2.68640498e+01
3.11306238e+01
4.40178533e+01
7.58138279e+01
6.01361294e+01
6.23110867e+01
6.47020378e+01
2.50773385e+01
2.35013559e+01
5.50310116e+01
4.22237415e+01
2.30363680e+01
2.12399030e+01
2.07853428e+01
2.62007949e+01
2.37881384e+01
2.17454853e+01
3.35918233e+01
4.47889843e+01
2.88013296e+01
3.03750916e+01
4.56971035e+01
9.20557594e+01
1.46001208e+00
2.00288284e+00
1.75666106e+00
2.57634223e+00
3.03221369e+01
3.04989691e+01
2.84160864e+01
3.05397410e+01
2.82870026e+01
2.68041484e+01
2.61326585e+01
2.81014109e+01
2.37949295e+01
3.12783930e+01
1.95053105e+01
2.81709520e+01
1.32638450e+01
2.15714188e+01
2.84780765e+01
2.87618575e+01
3.53967220e+01
8.57719803e+01
6.97623386e+01
5.44073763e+01
4.20219345e+01
3.38823665e+01
2.50275593e+01
1.11906212e+02
1.89544852e+01
1.93560910e+01
6.42746105e+01
2.14155872e+01
1.97950354e+01
3.95718346e+01
6.54575729e+01
1.02969302e+02
2.66300395e+01
3.19181786e+01
</DataArray>
<DataArray type="Float32" Name="Stress_Third_Invariant" format="ascii">
-2.96140327e+01
-3.15200872e+01
-3.09957824e+01
-2.91998978e+01
-2.84149246e+01
-3.05021868e+01
-2.97554903e+01
-3.01812387e+01
-3.52906237e+01
-3.58266220e+01
-3.14872627e+01
-3.40157273e+01
-4.00393848e+01
-4.12361917e+01
-3.40966001e+01
-3.71759552e+01
-4.22632666e+01
-4.52564039e+01
-3.71350741e+01
-3.24811894e+01
-4.35153370e+01
-3.87602946e+01
-3.38265409e+01
-3.14117252e+01
-6.10033226e+01
-5.91614799e+01
-4.60563698e+01
-4.64703298e+01
-2.98108330e+01
-2.86815977e+01
-3.01152707e+01
-2.63750849e+01
-2.88647428e+01
-3.07165663e+01
-1.73933750e+01
-2.56818980e+01
-1.54129375e+01
-2.84977748e+01
-8.87065482e+00
-2.84392459e+01
-1.55036802e+01
-4.09396954e+01
-2.67085614e+01
-2.76551943e+01
-2.77941303e+01
-2.40460169e+01
-1.66464326e+01
-1.70653642e+01
7.22931981e+00
6.73364329e+00
-8.98722967e-01
5.32153559e+00
3.19590918e+00
9.46246084e+00
-7.06942463e+00
-1.53376770e+00
-2.55357013e+01
-2.78552732e+01
-2.46848874e+01
-2.68604732e+01
-1.77063633e+01
-1.47332021e+01
-7.29437566e+00
-4.52493151e+00
7.20242627e+00
1.02928232e+01
-1.23673148e+01
1.30458714e+01
-2.44229279e+01
1.86755832e+01
-2.74802523e+01
-2.99069595e+01
-2.41089762e+01
-2.76203098e+01
-2.09650836e+01
-1.85207131e+01
-8.08686364e+00
-7.99955686e+00
3.75734043e+00
5.14131427e+00
-1.27355248e+00
-4.53436375e-02
-4.19497490e+00
-6.56338318e+00
-3.80027924e+01
-3.85103149e+01
-3.46530190e+01
-3.71817322e+01
-3.82693901e+01
-3.54830146e+01
-1.63543944e+01
-4.00709089e+01
-4.68476772e+00
-4.47795105e+00
-1.59579120e+01
-6.10225940e+00
-4.99615383e+00
1.88931406e+00
-3.01108227e+01
-2.99479561e+01
-2.72850759e+01
-2.98048167e+01
-2.64482296e+01
-2.58257619e+01
-2.57684493e+01
-2.54606267e+01
-2.71613874e+01
-2.75011338e+01
-2.34948461e+01
-2.68436618e+01
-2.05921831e+01
-2.29224408e+01
-2.46776028e+01
-2.79476829e+01
-4.12969490e+01
-6.89619682e+01
-5.76794481e+01
-5.96185503e+01
-6.00297947e+01
-1.80180206e+01
-2.20251279e+01
-5.17460747e+01
-2.85852242e+00
-1.96752993e+01
-2.01752720e+01
-4.94401080e+00
-6.82807032e+00
-2.10780374e+01
-2.01543941e+01
-2.74310736e+01
-4.17714468e+01
-2.77802131e+01
-3.01108427e+01
-3.11018829e+01
-8.93244438e+01
9.58625317e-01
1.56198508e+00
-1.35780025e+00
1.97339749e+00
-2.99972620e+01
-2.98544464e+01
-2.69161872e+01
-2.95828929e+01
-2.64799581e+01
-2.47193934e+01
-2.42542863e+01
-2.19962813e+01
-2.15207536e+01
-2.89534428e+01
-1.78242593e+01
-2.51011210e+01
-1.21478720e+01
-1.53489980e+01
-2.46477805e+01
-2.51311383e+01
-2.47436650e+01
-8.23655556e+01
-6.73239145e+01
-5.28027325e+01
-3.96785374e+01
-2.89483855e+01
-1.70335590e+01
-1.00893684e+02
-1.49095474e+01
-1.73002203e+01
-6.02039385e+01
-1.03687666e+01
-1.69953955e+01
-1.08546240e+01
-4.90209293e+00
-9.41292966e+01
-2.44916066e+01
-2.98746901e+01
</DataArray>
<DataArray type="Float32" Name="Logarithmic_strain_Max_Principal" format="ascii">
3.17000747e-02
3.31331883e-02
2.96439752e-02
2.79846825e-02
2.98932809e-02
3.06261261e-02
2.80713406e-02
2.74947220e-02
3.69206909e-02
3.31798829e-02
3.20629082e-02
3.04909095e-02
4.11941689e-02
3.62176332e-02
3.42597049e-02
3.32254712e-02
4.47950121e-02
4.03431365e-02
3.70554114e-02
3.47999865e-02
4.98690140e-02
4.58318023e-02
4.01239274e-02
3.91080682e-02
6.24572784e-02
5.51406648e-02
4.83588167e-02
4.67120139e-02
2.27719015e-02
2.14320235e-02
2.23825185e-02
2.06543566e-02
2.44288631e-02
2.37657684e-02
2.16349065e-02
2.45891088e-02
2.44825548e-02
2.96684600e-02
2.62061683e-02
3.14194501e-02
2.82172589e-02
3.64670437e-02
1.90047580e-02
1.93844046e-02
1.78587700e-02
1.66270747e-02
1.49760935e-02
1.61070693e-02
7.50249240e-03
1.05401421e-02
6.89460523e-03
1.35423047e-02
6.72766877e-03
1.38126885e-02
5.60843828e-03
1.24560543e-02
1.81213100e-02
1.92774339e-02
1.62000946e-02
1.72190862e-02
1.21798625e-02
1.21956880e-02
4.36849354e-03
6.03316480e-03
7.88738873e-04
1.91273105e-03
3.55971286e-03
2.26571374e-03
3.68996644e-03
3.27094902e-03
1.74510113e-02
1.94968507e-02
1.57822118e-02
1.69316460e-02
1.21627522e-02
1.27681828e-02
3.61899869e-03
8.68917650e-03
2.77200452e-04
1.10742237e-03
1.29983995e-04
1.00965179e-04
9.52053961e-05
6.63385478e-05
1.95357818e-02
2.18608193e-02
1.73889922e-02
1.89851904e-02
1.56045407e-02
1.56062150e-02
5.62039204e-03
1.28030706e-02
5.68919844e-04
2.08190906e-03
1.58597657e-04
8.68158580e-05
2.36752512e-05
3.82230382e-05
2.61450177e-02
2.50933920e-02
2.57691080e-02
2.60567218e-02
2.44477117e-02
2.64629566e-02
2.57912702e-02
2.86226587e-02
2.89437547e-02
3.14904440e-02
2.78807906e-02
3.21315785e-02
2.86374912e-02
3.24958265e-02
2.39356679e-02
2.43421956e-02
2.69915392e-02
3.57521992e-02
3.68985794e-02
3.74023281e-02
3.82175948e-02
1.89631314e-02
1.80248590e-02
2.37037918e-02
2.88699204e-02
1.49434792e-02
1.28672053e-02
1.38923812e-02
1.27847192e-02
1.47461701e-02
1.29251771e-02
1.86982180e-02
2.27706581e-02
1.50032160e-02
1.40790660e-02
2.14308486e-02
2.96803433e-02
1.70702069e-05
2.60949510e-05
1.64428520e-05
3.33377120e-05
2.28651753e-02
2.31517842e-02
2.50563575e-02
2.35014008e-02
2.53783818e-02
2.72280273e-02
2.61857328e-02
2.86072472e-02
2.61286572e-02
2.99762823e-02
2.32060077e-02
2.71011135e-02
2.17657620e-02
2.50067669e-02
2.87508497e-02
2.71799830e-02
2.69691109e-02
3.85968484e-02
3.67785357e-02
3.27618406e-02
3.01684393e-02
2.80314617e-02
2.38392460e-02
4.32932591e-02
1.75983068e-02
1.83759206e-02
2.49165581e-02
1.68118367e-02
1.66173950e-02
2.45831862e-02
3.41588408e-02
4.24704415e-02
2.30860696e-02
2.05240166e-02
</DataArray>
<DataArray type="Float32" Name="Logarithmic_strain_Min_Principal" format="ascii">
-3.93919609e-02
-4.16510571e-02
-3.89538426e-02
-3.71830538e-02
-3.78105026e-02
-3.96885602e-02
-3.77195422e-02
-3.65347350e-02
-4.70328666e-02
-4.32983609e-02
-4.35502334e-02
-4.20782021e-02
-5.38304914e-02
-4.86917784e-02
-4.89271693e-02
-4.70209792e-02
-6.04638029e-02
-5.47946142e-02
-5.46183893e-02
-5.01143127e-02
-6.79308809e-02
-5.88314449e-02
-5.87659124e-02
-5.46195973e-02
-7.62189031e-02
-6.71937689e-02
-6.47435896e-02
-6.07096916e-02
-3.20684579e-02
-3.17357909e-02
-3.24548045e-02
-3.08209653e-02
-3.10519845e-02
-3.33076965e-02
-2.69795838e-02
-3.41977089e-02
-2.79780980e-02
-3.72225059e-02
-2.64585884e-02
-3.85833603e-02
-2.87619382e-02
-4.43097278e-02
-2.45450269e-02
-2.58988664e-02
-2.53502056e-02
-2.46323114e-02
-1.74127379e-02
-2.06409928e-02
-6.97629713e-03
-9.40405445e-03
-5.25174895e-03
-1.10172586e-02
-5.40635098e-03
-1.11823805e-02
-6.33085612e-03
-1.10525433e-02
-2.11111712e-02
-2.34674970e-02
-2.02208227e-02
-2.20495011e-02
-1.33154187e-02
-1.32766335e-02
-3.49038764e-03
-5.56303825e-03
-8.55098360e-04
-1.44391688e-03
-5.17787845e-03
-1.63392124e-03
-4.87656292e-03
-1.93356235e-03
-2.24149833e-02
-2.52998220e-02
-2.04594266e-02
-2.28458378e-02
-1.41266049e-02
-1.55763240e-02
-2.74368265e-03
-1.00946292e-02
-1.76740252e-04
-6.78132707e-04
-1.03020684e-04
-6.86433254e-05
-1.62585460e-04
-1.44173327e-04
-2.62435870e-02
-2.89984047e-02
-2.47735679e-02
-2.66713984e-02
-1.90997142e-02
-2.20226278e-02
-4.72192583e-03
-1.71989538e-02
-9.63256956e-04
-2.33085679e-03
-2.50570403e-04
-1.19192286e-04
-1.00931153e-04
-6.00375552e-05
-3.67487390e-02
-3.70676154e-02
-3.54542518e-02
-3.53545574e-02
-3.76075525e-02
-3.80007545e-02
-3.98548888e-02
-4.25023921e-02
-4.27119574e-02
-4.65041958e-02
-4.33425987e-02
-4.81070075e-02
-4.31752875e-02
-4.76948293e-02
-3.24377117e-02
-3.14093889e-02
-4.03033750e-02
-5.40409774e-02
-5.82688153e-02
-6.06253864e-02
-6.11439273e-02
-2.56809585e-02
-2.47777007e-02
-3.38446476e-02
-2.57625533e-02
-2.01130197e-02
-1.94428153e-02
-1.66513212e-02
-1.25995272e-02
-1.98105774e-02
-1.86964530e-02
-2.42698612e-02
-3.36426804e-02
-2.31515518e-02
-2.22970853e-02
-3.14312140e-02
-5.12003545e-02
-1.81011583e-05
-2.25190270e-05
-2.58393320e-05
-2.81411412e-05
-3.80172990e-02
-3.76365427e-02
-3.70891807e-02
-3.76033736e-02
-3.60844685e-02
-3.76407271e-02
-3.50592900e-02
-3.92073514e-02
-3.41087105e-02
-4.23367764e-02
-3.21271936e-02
-4.03327849e-02
-2.94853244e-02
-3.66509380e-02
-3.72298826e-02
-3.51784145e-02
-4.34580797e-02
-6.17972620e-02
-5.87246763e-02
-5.38178636e-02
-4.93081547e-02
-3.51408635e-02
-2.91632288e-02
-6.24243226e-02
-2.44505648e-02
-2.30098143e-02
-3.81159796e-02
-2.32225507e-02
-2.28599738e-02
-3.34000276e-02
-3.81817184e-02
-6.07141045e-02
-3.08072451e-02
-2.87606269e-02
</DataArray>
<DataArray type="Float32" Name="Plastic_strain_Max_Principal" format="ascii">
3.15285511e-02
3.29712536e-02
2.94975303e-02
2.78074397e-02
2.97043929e-02
3.04665063e-02
2.79074637e-02
2.73449062e-02
3.68038118e-02
3.30780647e-02
3.19011440e-02
3.03814427e-02
4.11061067e-02
3.62066524e-02
3.41311218e-02
3.31442847e-02
4.47110813e-02
4.09567356e-02
3.70065197e-02
3.45902287e-02
4.98563368e-02
4.71907873e-02
4.01061391e-02
3.92453005e-02
6.24569468e-02
5.67164049e-02
4.84370291e-02
4.61704535e-02
2.26150402e-02
2.12645344e-02
2.22446402e-02
2.04754137e-02
2.42239987e-02
2.36225403e-02
2.15026429e-02
2.45656555e-02
2.25400291e-02
2.96074661e-02
2.14655234e-02
2.93929745e-02
2.31800554e-02
3.81887487e-02
1.87971699e-02
1.91825125e-02
1.76780031e-02
1.64148936e-02
1.48067775e-02
1.60946769e-02
6.61071501e-03
1.12455018e-02
4.64774785e-03
1.35681313e-02
5.33731778e-03
1.34022469e-02
4.42911778e-03
1.20999846e-02
1.78894261e-02
1.90553982e-02
1.59674871e-02
1.70125696e-02
1.19121820e-02
1.19126290e-02
4.05978737e-03
5.69956754e-03
5.09912453e-04
1.50211827e-03
3.36180325e-03
1.95719894e-03
3.40470928e-03
2.91146821e-03
1.72413106e-02
1.93183934e-02
1.55617491e-02
1.67375426e-02
1.19314536e-02
1.24851263e-02
3.29634329e-03
8.39863192e-03
1.74918583e-04
7.27022743e-04
2.75641010e-06
1.08216775e-06
0.00000000e+00
0.00000000e+00
1.94111913e-02
2.17653792e-02
1.72952970e-02
1.88809987e-02
1.54746594e-02
1.54553447e-02
5.30927954e-03
1.26802023e-02
4.38826813e-04
1.73438710e-03
2.94782567e-05
2.20342721e-06
0.00000000e+00
0.00000000e+00
2.60063782e-02
2.49505499e-02
2.55923490e-02
2.58890758e-02
2.42874944e-02
2.62452136e-02
2.56168521e-02
2.83548054e-02
2.87553570e-02
3.12541269e-02
2.77119903e-02
3.18815922e-02
2.84826672e-02
3.21698943e-02
2.37299963e-02
2.41727708e-02
2.69810102e-02
3.57899401e-02
3.70834032e-02
3.76089094e-02
3.83658465e-02
1.86940222e-02
1.78347181e-02
2.36044433e-02
2.93855425e-02
1.46903689e-02
1.26464050e-02
1.37787919e-02
1.36153863e-02
1.45174477e-02
1.26979458e-02
1.62873679e-02
2.43983273e-02
1.48560985e-02
1.40011339e-02
2.24221335e-02
2.97400663e-02
0.00000000e+00
0.00000000e+00
0.00000000e+00
0.00000000e+00
2.27586562e-02
2.30039312e-02
2.49090460e-02
2.33479431e-02
2.51957094e-02
2.70200041e-02
2.59989174e-02
2.82824291e-02
2.58567212e-02
2.97537753e-02
2.28954470e-02
2.68904418e-02
2.14216104e-02
2.46965447e-02
2.84911406e-02
2.69969082e-02
2.69786242e-02
3.90217096e-02
3.71054821e-02
3.30043514e-02
3.02050300e-02
2.78290215e-02
2.35740049e-02
4.37916219e-02
1.72997714e-02
1.81291404e-02
2.48385670e-02
1.82652887e-02
1.64121431e-02
2.42637316e-02
3.38768847e-02
4.39382195e-02
2.50602346e-02
2.03658929e-02
</DataArray>
<DataArray type="Float32" Name="Plastic_strain_Min_Principal" format="ascii">
-3.87789533e-02
-4.09514140e-02
-3.83034116e-02
-3.65804918e-02
-3.72294951e-02
-3.90491439e-02
-3.71050634e-02
-3.59221790e-02
-4.61951960e-02
-4.24542222e-02
-4.28538816e-02
-4.13340847e-02
-5.27439993e-02
-4.76721851e-02
-4.81210360e-02
-4.62037744e-02
-5.92154004e-02
-5.43167172e-02
-5.37527828e-02
-4.93661165e-02
-6.66118860e-02
-5.96392453e-02
-5.80911990e-02
-5.44861485e-02
-7.36809224e-02
-6.70220070e-02
-6.33525997e-02
-5.88164367e-02
-3.14544220e-02
-3.11587425e-02
-3.18453910e-02
-3.03264051e-02
-3.04022455e-02
-3.25896461e-02
-2.69955792e-02
-3.43695078e-02
-2.55505568e-02
-3.70246004e-02
-2.01890793e-02
-3.56036841e-02
-2.23788032e-02
-4.63579086e-02
-2.39714277e-02
-2.53168410e-02
-2.47818213e-02
-2.41856924e-02
-1.73877340e-02
-2.08098800e-02
-6.57035946e-03
-9.74408964e-03
-4.55079041e-03
-1.13222290e-02
-5.01471354e-03
-1.16393076e-02
-6.07854407e-03
-1.09630795e-02
-2.05291361e-02
-2.28269547e-02
-1.97194417e-02
-2.14888747e-02
-1.29479608e-02
-1.30018906e-02
-3.41745385e-03
-5.51817566e-03
-7.68323009e-04
-1.23741916e-03
-4.66033071e-03
-1.50505940e-03
-4.38352302e-03
-1.73667728e-03
-2.17929492e-02
-2.46338360e-02
-2.00035165e-02
-2.22653002e-02
-1.36871606e-02
-1.52697859e-02
-2.69529645e-03
-9.71002132e-03
-1.67119245e-04
-4.14216951e-04
-4.18688018e-06
-7.35279650e-07
0.00000000e+00
0.00000000e+00
-2.52940822e-02
-2.80424207e-02
-2.40277261e-02
-2.57869707e-02
-1.81845939e-02
-2.12736321e-02
-4.38806321e-03
-1.62114852e-02
-6.42097970e-04
-1.75956490e-03
-1.96215369e-05
-2.31978477e-06
0.00000000e+00
0.00000000e+00
-3.61437779e-02
-3.64591507e-02
-3.49508291e-02
-3.47365430e-02
-3.71777043e-02
-3.75296539e-02
-3.94429546e-02
-4.20463788e-02
-4.22296710e-02
-4.59586675e-02
-4.30514235e-02
-4.75410214e-02
-4.30373438e-02
-4.71853176e-02
-3.20099429e-02
-3.08762034e-02
-3.93753850e-02
-5.19640364e-02
-5.66195920e-02
-5.89363975e-02
-5.94720542e-02
-2.54261957e-02
-2.44613271e-02
-3.26043156e-02
-2.68523195e-02
-1.98189004e-02
-1.91531898e-02
-1.73199189e-02
-1.24480836e-02
-1.94926294e-02
-1.83948716e-02
-1.97933991e-02
-3.55081293e-02
-2.26411703e-02
-2.17582295e-02
-3.29184583e-02
-4.76842299e-02
0.00000000e+00
0.00000000e+00
0.00000000e+00
0.00000000e+00
-3.74544654e-02
-3.70189762e-02
-3.66450101e-02
-3.69935185e-02
-3.56253767e-02
-3.72190913e-02
-3.47049190e-02
-3.87976086e-02
-3.37726595e-02
-4.17189454e-02
-3.18946424e-02
-3.99147053e-02
-2.94596823e-02
-3.65584567e-02
-3.67770758e-02
-3.47783389e-02
-4.29605991e-02
-5.87647095e-02
-5.67384828e-02
-5.25958948e-02
-4.85147629e-02
-3.45100380e-02
-2.90306499e-02
-5.97783467e-02
-2.43380440e-02
-2.28312705e-02
-3.62524297e-02
-2.21906847e-02
-2.27184310e-02
-3.37350603e-02
-3.96920070e-02
-5.96029063e-02
-3.41010457e-02
-2.82869525e-02
</DataArray>
</PointData>
<Cells>
<DataArray type="Int32" Name="connectivity" format="ascii">
0 1 2 3 4 5 6 7
1 8 9 2 5 10 11 6
8 12 13 9 10 14 15 11
12 16 17 13 14 18 19 15
16 20 21 17 18 22 23 19
20 24 25 21 22 26 27 23
3 2 28 29 7 6 30 31
2 9 32 28 6 11 33 30
9 13 34 32 11 15 35 33
13 17 36 34 15 19 37 35
17 21 38 36 19 23 39 37
21 25 40 38 23 27 41 39
29 28 42 43 31 30 44 45
28 32 46 42 30 33 47 44
32 34 48 46 33 35 49 47
34 36 50 48 35 37 51 49
36 38 52 50 37 39 53 51
38 40 54 52 39 41 55 53
43 42 56 57 45 44 58 59
42 46 60 56 44 47 61 58
46 48 62 60 47 49 63 61
48 50 64 62 49 51 65 63
52 54 66 67 53 55 68 69
57 56 70 71 59 58 72 73
56 60 74 70 58 61 75 72
60 62 76 74 61 63 77 75
62 64 78 76 63 65 79 77
64 67 80 78 65 69 81 79
67 66 82 80 69 68 83 81
71 70 84 85 73 72 86 87
70 74 88 84 72 75 89 86
74 76 90 88 75 77 91 89
76 78 92 90 77 79 93 91
78 80 94 92 79 81 95 93
80 82 96 94 81 83 97 95
4 5 6 7 98 99 100 101
5 10 11 6 99 102 103 100
10 14 15 11 102 104 105 103
14 18 19 15 104 106 107 105
18 22 23 19 106 108 109 107
22 26 27 23 108 110 111 109
7 6 30 31 101 100 112 113
6 11 33 30 100 103 114 112
11 15 35 33 103 105 115 114
15 19 37 35 105 107 116 115
19 23 39 37 107 109 117 116
23 27 41 39 109 111 118 117
31 30 44 45 113 112 119 120
30 33 47 44 112 114 121 119
33 35 49 47 114 115 122 121
45 44 58 59 120 119 123 124
44 47 61 58 119 121 125 123
47 49 63 61 121 122 126 125
59 58 72 73 124 123 127 128
58 61 75 72 123 125 129 127
61 63 77 75 125 126 130 129
73 72 86 87 128 127 131 132
72 75 89 86 127 129 133 131
75 77 91 89 129 130 134 133
81 83 97 95 135 136 137 138
98 99 100 101 139 140 141 142
99 102 103 100 140 143 144 141
102 104 105 103 143 145 146 144
104 106 107 105 145 147 148 146
106 108 109 107 147 149 150 148
108 110 111 109 149 151 152 150
101 100 112 113 142 141 153 154
100 103 114 112 141 144 155 153
103 105 115 114 144 146 156 155
105 107 116 115 146 148 157 156
107 109 117 116 148 150 158 157
109 111 118 117 150 152 159 158
113 112 119 120 154 153 160 161
112 114 121 119 153 155 162 160
120 119 123 124 161 160 163 164
119 121 125 123 160 162 165 163
124 123 127 128 164 163 166 167
123 125 129 127 163 165 168 166
125 126 130 129 165 169 170 168
128 127 131 132 167 166 171 172
</DataArray>
<DataArray type="Int32" Name="offsets" format="ascii">
8
16
24
32
40
48
56
64
72
80
88
96
104
112
120
128
136
144
152
160
168
176
184
192
200
208
216
224
232
240
248
256
264
272
280
288
296
304
312
320
328
336
344
352
360
368
376
384
392
400
408
416
424
432
440
448
456
464
472
480
488
496
504
512
520
528
536
544
552
560
568
576
584
592
600
608
616
624
632
640
</DataArray>
<DataArray type="UInt8" Name="types" format="ascii">
12
12
12
12
12
12
12
12
12
12
12
12
12
12
12
12
12
12
12
12
12
12
12
12
12
12
12
12
12
12
12
12
12
12
12
12
12
12
12
12
12
12
12
12
12
12
12
12
12
12
12
12
12
12
12
12
12
12
12
12
12
12
12
12
12
12
12
12
12
12
12
12
12
12
12
12
12
12
12
12
</DataArray>
</Cells>
</Piece>
</UnstructuredGrid>
</VTKFile>
