<VTKFile type="UnstructuredGrid" version="0.1" byte_order="LittleEndian">
<UnstructuredGrid>
<Piece NumberOfPoints="173" NumberOfCells="80">
<Points>
<DataArray type="Float64" NumberOfComponents="3" format="ascii">
 0.00000000e+00  0.00000000e+00  0.00000000e+00
 1.00469232e+00  0.00000000e+00  0.00000000e+00
 1.00545120e+00  1.01382470e+00  0.00000000e+00
 0.00000000e+00  1.01294827e+00  0.00000000e+00
 0.00000000e+00  0.00000000e+00  9.84690726e-01
 1.00499558e+00  0.00000000e+00  9.83835518e-01
 1.00504220e+00  1.01242471e+00  9.84780312e-01
 0.00000000e+00  1.01223242e+00  9.86059248e-01
 2.01084590e+00  0.00000000e+00  0.00000000e+00
 2.01131725e+00  1.01596773e+00  0.00000000e+00
 2.01099753e+00  0.00000000e+00  9.80809093e-01
 2.01142883e+00  1.01346707e+00  9.82868910e-01
 3.01809096e+00  0.00000000e+00  0.00000000e+00
 3.01837087e+00  1.01870322e+00  0.00000000e+00
 3.01943994e+00  0.00000000e+00  9.77785945e-01
 3.01872683e+00  1.01487494e+00  9.80146408e-01
 4.02826071e+00  0.00000000e+00  0.00000000e+00
 4.02607059e+00  1.02073014e+00  0.00000000e+00
 4.02975655e+00  0.00000000e+00  9.75494862e-01
 4.02760506e+00  1.01542997e+00  9.76790488e-01
 5.04147434e+00  0.00000000e+00  0.00000000e+00
 5.03692627e+00  1.02276921e+00  0.00000000e+00
 5.04200983e+00  0.00000000e+00  9.70978320e-01
 5.03921795e+00  1.01628101e+00  9.73689139e-01
 6.05718994e+00  0.00000000e+00  0.00000000e+00
 6.04718637e+00  1.03068376e+00  0.00000000e+00
 6.05403328e+00  0.00000000e+00  9.68500555e-01
 6.05229378e+00  1.02116382e+00  9.69227076e-01
 1.00649929e+00  2.02328157e+00  0.00000000e+00
 0.00000000e+00  2.02247024e+00  0.00000000e+00
 1.00561297e+00  2.02248526e+00  9.88381386e-01
 0.00000000e+00  2.02181506e+00  9.88457501e-01
 2.01276708e+00  2.02587533e+00  0.00000000e+00
 2.01157284e+00  2.02437663e+00  9.88868296e-01
 3.01780772e+00  2.02882791e+00  0.00000000e+00
 3.01700020e+00  2.02637219e+00  9.91041243e-01
 4.02231359e+00  2.03294516e+00  0.00000000e+00
 4.02349663e+00  2.02797103e+00  9.89715993e-01
 5.02601910e+00  2.03520918e+00  0.00000000e+00
 5.02884579e+00  2.03009033e+00  9.90472734e-01
 6.03099823e+00  2.04269719e+00  0.00000000e+00
 6.03686094e+00  2.03771973e+00  9.90026891e-01
 1.00702024e+00  3.02813125e+00  0.00000000e+00
 0.00000000e+00  3.02754760e+00  0.00000000e+00
 1.00598300e+00  3.02811909e+00  9.91932333e-01
 0.00000000e+00  3.02784562e+00  9.90908504e-01
 2.01279140e+00  3.02918553e+00  0.00000000e+00
 2.01165128e+00  3.02910709e+00  9.94473398e-01
 3.01625609e+00  3.03128815e+00  0.00000000e+00
 3.01505685e+00  3.03052354e+00  9.98186350e-01
 4.01686668e+00  3.03381157e+00  0.00000000e+00
 4.01613188e+00  3.03174925e+00  1.00060117e+00
 5.02028370e+00  3.03451848e+00  0.00000000e+00
 5.01972866e+00  3.03261232e+00  1.00150752e+00
 6.02053165e+00  3.04217196e+00  0.00000000e+00
 6.02092171e+00  3.04116631e+00  1.00102830e+00
 1.00684988e+00  4.03020763e+00  0.00000000e+00
 0.00000000e+00  4.03046989e+00  0.00000000e+00
 1.00586605e+00  4.03077173e+00  9.93220687e-01
 0.00000000e+00  4.03094864e+00  9.92300987e-01
 2.01195097e+00  4.03053093e+00  0.00000000e+00
 2.01066089e+00  4.03018332e+00  9.95820105e-01
 3.01401997e+00  4.03142405e+00  0.00000000e+00
 3.01286864e+00  4.03101015e+00  9.99040306e-01
 4.01374435e+00  4.03344870e+00  0.00000000e+00
 4.01362324e+00  4.03341579e+00  9.99951422e-01
 6.01426601e+00  4.03805733e+00  0.00000000e+00
 5.01409101e+00  4.03532600e+00  0.00000000e+00
 6.01431608e+00  4.03824091e+00  1.00000441e+00
 5.01410723e+00  4.03546476e+00  1.00012290e+00
 1.00633836e+00  5.03263474e+00  0.00000000e+00
 0.00000000e+00  5.03342009e+00  0.00000000e+00
 1.00547338e+00  5.03308439e+00  9.92910147e-01
 0.00000000e+00  5.03356838e+00  9.91227567e-01
 2.01080489e+00  5.03141689e+00  0.00000000e+00
 2.00919080e+00  5.03170919e+00  9.95903671e-01
 3.01192236e+00  5.03190804e+00  0.00000000e+00
 3.01135039e+00  5.03180313e+00  9.99358118e-01
 4.01200056e+00  5.03341293e+00  0.00000000e+00
 4.01182842e+00  5.03339863e+00  1.00008392e+00
 5.01186657e+00  5.03547955e+00  0.00000000e+00
 5.01191187e+00  5.03549576e+00  9.99999821e-01
 6.01186037e+00  5.03775930e+00  0.00000000e+00
 6.01189756e+00  5.03771067e+00  9.99949694e-01
 1.00712383e+00  6.03631973e+00  0.00000000e+00
 0.00000000e+00  6.03728819e+00  0.00000000e+00
 1.00567603e+00  6.03630304e+00  9.91805315e-01
 0.00000000e+00  6.03755808e+00  9.89903271e-01
 2.01115131e+00  6.03348827e+00  0.00000000e+00
 2.00914383e+00  6.03482771e+00  9.94652927e-01
 3.01104379e+00  6.03222752e+00  0.00000000e+00
 3.01071358e+00  6.03307772e+00  9.98796821e-01
 4.01030350e+00  6.03349924e+00  0.00000000e+00
 4.01011276e+00  6.03349590e+00  1.00009489e+00
 5.00986958e+00  6.03550386e+00  0.00000000e+00
 5.00986719e+00  6.03551817e+00  1.00003612e+00
 6.00979090e+00  6.03766251e+00  0.00000000e+00
 6.00980902e+00  6.03763103e+00  1.00002217e+00
 0.00000000e+00  0.00000000e+00  1.97073138e+00
 1.00605214e+00  0.00000000e+00  1.96889508e+00
 1.00550580e+00  1.00992572e+00  1.97113919e+00
 0.00000000e+00  1.01038408e+00  1.97202373e+00
 2.01371837e+00  0.00000000e+00  1.96626663e+00
 2.01178360e+00  1.00816309e+00  1.96612883e+00
 3.02188802e+00  0.00000000e+00  1.96109891e+00
 3.02201438e+00  1.00759685e+00  1.96144438e+00
 4.03340578e+00  0.00000000e+00  1.95390248e+00
 4.03238630e+00  1.00826728e+00  1.95968568e+00
 5.04451513e+00  0.00000000e+00  1.94841874e+00
 5.04385090e+00  1.00865483e+00  1.95457458e+00
 6.05318356e+00  0.00000000e+00  1.94482613e+00
 6.05585814e+00  1.00844288e+00  1.95029306e+00
 1.00375032e+00  2.01965809e+00  1.97578108e+00
 0.00000000e+00  2.02043962e+00  1.97810638e+00
 2.01023197e+00  2.01918721e+00  1.97473550e+00
 3.01934505e+00  2.02094102e+00  1.97355449e+00
 4.03063822e+00  2.02335501e+00  1.96664810e+00
 5.04362297e+00  2.02396345e+00  1.96616399e+00
 6.05752420e+00  2.02372360e+00  1.96070194e+00
 1.00316048e+00  3.02791977e+00  1.98227811e+00
 0.00000000e+00  3.02773809e+00  1.98411655e+00
 2.00800133e+00  3.02817249e+00  1.98756671e+00
 3.00710320e+00  3.02820826e+00  2.00144887e+00
 1.00383258e+00  4.03243494e+00  1.98721921e+00
 0.00000000e+00  4.03214979e+00  1.98567164e+00
 2.00756550e+00  4.03122997e+00  1.99213517e+00
 3.00918913e+00  4.02853584e+00  1.99703145e+00
 1.00346172e+00  5.03440428e+00  1.98667693e+00
 0.00000000e+00  5.03506231e+00  1.98513508e+00
 2.00689912e+00  5.03321791e+00  1.99121106e+00
 3.01193476e+00  5.03151560e+00  1.99330711e+00
 1.00217259e+00  6.03864956e+00  1.98309672e+00
 0.00000000e+00  6.03733921e+00  1.98389518e+00
 2.00627375e+00  6.03989840e+00  1.98616624e+00
 3.01308608e+00  6.03891420e+00  1.98727405e+00
 5.01196957e+00  5.03548527e+00  2.00001264e+00
 6.01197815e+00  5.03758287e+00  1.99995351e+00
 6.00985527e+00  6.03760147e+00  2.00001287e+00
 5.00983953e+00  6.03548717e+00  2.00004530e+00
 0.00000000e+00  0.00000000e+00  2.95578432e+00
 1.00825942e+00  0.00000000e+00  2.95475340e+00
 1.00817358e+00  1.00857627e+00  2.95749760e+00
 0.00000000e+00  1.00852191e+00  2.95901203e+00
 2.01813531e+00  0.00000000e+00  2.95037150e+00
 2.01582956e+00  1.00642169e+00  2.95451689e+00
 3.02714396e+00  0.00000000e+00  2.94625688e+00
 3.02724433e+00  1.00466835e+00  2.94776654e+00
 4.03802967e+00  0.00000000e+00  2.94216800e+00
 4.03814888e+00  1.00506055e+00  2.94044423e+00
 5.04752254e+00  0.00000000e+00  2.93644571e+00
 5.04836512e+00  1.00577855e+00  2.93747377e+00
 6.05511189e+00  0.00000000e+00  2.93393040e+00
 6.05666399e+00  1.00460947e+00  2.93534327e+00
 1.00495970e+00  2.01576090e+00  2.96426678e+00
 0.00000000e+00  2.01867890e+00  2.96528363e+00
 2.01406193e+00  2.01500535e+00  2.95495582e+00
 3.02445793e+00  2.01714015e+00  2.94345427e+00
 4.03899431e+00  2.01950765e+00  2.94260955e+00
 5.05060816e+00  2.01634932e+00  2.94035602e+00
 6.05989790e+00  2.01342320e+00  2.93925714e+00
 1.00282133e+00  3.02722192e+00  2.97601533e+00
 0.00000000e+00  3.02694392e+00  2.97261620e+00
 2.01253319e+00  3.02483296e+00  2.96560216e+00
 1.00235891e+00  4.03302622e+00  2.98117089e+00
 0.00000000e+00  4.03441000e+00  2.98002386e+00
 2.00659108e+00  4.03297329e+00  2.98860574e+00
 1.00278401e+00  5.03817987e+00  2.98048496e+00
 0.00000000e+00  5.03662539e+00  2.98137283e+00
 2.00709510e+00  5.03896523e+00  2.98067069e+00
 3.00646853e+00  4.03501511e+00  3.00246549e+00
 3.01472235e+00  5.03546953e+00  2.98025441e+00
 1.00237894e+00  6.04136467e+00  2.97854137e+00
 0.00000000e+00  6.04161406e+00  2.97556686e+00
</DataArray>
</Points>
<PointData Tensors="Stress_Components,Plastic_strain_components" Vevtors="Spatial_displacement,Reaction_force" Scalars="Equivalent_plastic_strain,Stress_Mises,Stress_Max_Principal,Stress_Mid_Principal,Stress_Min_Principal,Stress_Pressure,Stress_Tresca,Stress_Third_Invariant,Plastic_strain_Max_Principal,Plastic_strain_Min_Principal">
<DataArray type="Float32" Name="Stress_Components" NumberOfComponents="9" format="ascii">
-4.13860321e+00 4.34322283e-05 -1.47265336e-03 4.34322283e-05 4.08874655e+00 -2.81441584e-03 -1.47265336e-03 -2.81441584e-03 -2.88648853e+01
-4.86805004e+00 3.66524935e-01 -1.09554362e-03 3.66524935e-01 3.33142400e+00 8.65621641e-02 -1.09554362e-03 8.65621641e-02 -3.05109854e+01
-3.67119677e+00 1.22046010e+00 -7.21948937e-01 1.22046010e+00 2.45322618e+00 -2.45972440e-01 -7.21948937e-01 -2.45972440e-01 -3.05050697e+01
-2.11134616e+00 4.53608900e-01 -3.86406839e-01 4.53608900e-01 3.86897457e+00 1.72466226e-03 -3.86406839e-01 1.72466226e-03 -2.74068089e+01
-3.45456815e+00 9.77481715e-04 7.29519635e-01 9.77481715e-04 4.14642012e+00 -4.09717828e-01 7.29519635e-01 -4.09717828e-01 -2.81901131e+01
-3.88803422e+00 5.85815161e-02 4.58068892e-01 5.85815161e-02 3.28840470e+00 -5.59240198e-01 4.58068892e-01 -5.59240198e-01 -2.97366982e+01
-2.60476681e+00 5.55493718e-01 1.16497617e-01 5.55493718e-01 3.22474271e+00 -8.91334448e-01 1.16497617e-01 -8.91334448e-01 -2.86267898e+01
-2.77745858e+00 1.31475464e-01 2.93532625e-01 1.31475464e-01 3.45147741e+00 -6.86482370e-01 2.93532625e-01 -6.86482370e-01 -2.85264854e+01
-8.18237722e+00 1.57293610e-01 -9.90410848e-03 1.57293610e-01 5.31410813e-01 -9.93612334e-02 -9.90410848e-03 -9.93612334e-02 -3.71711769e+01
-5.57296839e+00 1.81079510e+00 -1.09376627e+00 1.81079510e+00 7.90952578e-01 5.61167598e-02 -1.09376627e+00 5.61167598e-02 -3.42457204e+01
-3.43222150e+00 2.66161542e-01 7.34133348e-01 2.66161542e-01 2.51862767e+00 -6.84038803e-01 7.34133348e-01 -6.84038803e-01 -3.03774018e+01
-5.06441526e+00 8.76648694e-01 -1.02180546e-01 8.76648694e-01 5.69173984e-01 -1.25149701e+00 -1.02180546e-01 -1.25149701e+00 -3.42349752e+01
-1.11138704e+01 3.90359148e-01 -2.54231803e-02 3.90359148e-01 -2.17610028e+00 6.91078007e-01 -2.54231803e-02 6.91078007e-01 -4.32998848e+01
-7.49804572e+00 1.27445069e+00 -1.73639208e+00 1.27445069e+00 -8.85053381e-01 -1.82343852e-01 -1.73639208e+00 -1.82343852e-01 -3.83215752e+01
-4.50997761e+00 -4.39106151e-01 6.82063572e-01 -4.39106151e-01 3.04924369e-01 -5.38630180e-01 6.82063572e-01 -5.38630180e-01 -3.42991562e+01
-5.98108826e+00 -1.38412694e-01 5.56882061e-01 -1.38412694e-01 -8.30445252e-01 -6.46797034e-01 5.56882061e-01 -6.46797034e-01 -3.66797358e+01
-9.72283602e+00 -9.41198647e-01 -1.31987613e-02 -9.41198647e-01 -2.39712006e+00 5.03501624e-01 -1.31987613e-02 5.03501624e-01 -4.23963814e+01
-1.09831584e+01 -6.54749767e-01 -2.65931097e+00 -6.54749767e-01 -3.79936063e+00 5.61980583e-01 -2.65931097e+00 5.61980583e-01 -4.51604495e+01
-5.72904515e+00 -1.06285359e+00 5.94093934e-01 -1.06285359e+00 -2.06776142e+00 -3.37381616e-01 5.94093934e-01 -3.37381616e-01 -3.83168163e+01
-2.79560040e+00 -1.24111456e+00 6.85003474e-01 -1.24111456e+00 3.71793300e-01 1.13937192e-01 6.85003474e-01 1.13937192e-01 -3.21261532e+01
-9.95085472e+00 -1.43457329e+00 -2.23763026e-02 -1.43457329e+00 -3.43942666e+00 3.03842947e-01 -2.23763026e-02 3.03842947e-01 -4.39363279e+01
-9.93085897e+00 -2.51325031e+00 -2.81852376e+00 -2.51325031e+00 -3.67235523e+00 1.05377446e+00 -2.81852376e+00 1.05377446e+00 -4.35051373e+01
-3.57467484e+00 -1.01072427e+00 1.16668774e+00 -1.01072427e+00 -4.12392735e-01 -3.31507325e-01 1.16668774e+00 -3.31507325e-01 -3.41411758e+01
-3.13203438e+00 -2.01999247e+00 1.55841515e+00 -2.01999247e+00 -1.00772951e+00 1.14878294e-01 1.55841515e+00 1.14878294e-01 -3.38457788e+01
-2.31968517e+01 -3.91225171e+00 -1.26870684e-02 -3.91225171e+00 -1.08058872e+01 -7.27621198e-01 -1.26870684e-02 -7.27621198e-01 -6.48221970e+01
-2.34635315e+01 -3.22329623e+00 -4.09990406e+00 -3.22329623e+00 -1.17877023e+01 3.05170858e+00 -4.09990406e+00 3.05170858e+00 -6.53947716e+01
-1.02616804e+01 -8.05504620e-01 3.91475782e-01 -8.05504620e-01 -2.73293877e+00 -8.92291635e-01 3.91475782e-01 -8.92291635e-01 -4.35639544e+01
-1.08447016e+01 -2.02390987e+00 5.90331316e-01 -2.02390987e+00 -5.77444440e+00 6.07520290e-01 5.90331316e-01 6.07520290e-01 -4.66790619e+01
1.09427589e+00 1.79273793e+00 -4.73709822e-01 1.79273793e+00 1.13444650e+00 -6.11600049e-01 -4.73709822e-01 -6.11600049e-01 -2.72196000e+01
9.03918609e-01 4.60165799e-01 -5.49689263e-01 4.60165799e-01 1.12817657e+00 -9.63348430e-04 -5.49689263e-01 -9.63348430e-04 -2.76578465e+01
-4.69385091e-01 1.20416312e+00 1.02139235e+00 1.20416312e+00 1.58335533e+00 -1.01201912e+00 1.02139235e+00 -1.01201912e+00 -2.84261590e+01
1.34895697e+00 5.09126343e-01 9.98723507e-01 5.09126343e-01 3.59953669e+00 -2.07974244e-01 9.98723507e-01 -2.07974244e-01 -2.44956477e+01
2.77097368e+00 2.50987002e+00 -1.28014126e+00 2.50987002e+00 2.33722556e+00 -9.75329742e-01 -1.28014126e+00 -9.75329742e-01 -2.36537435e+01
4.06814545e-01 1.47872435e+00 1.67644196e+00 1.47872435e+00 2.09097043e+00 -2.09642995e-01 1.67644196e+00 -2.09642995e-01 -2.67910049e+01
9.16628578e+00 1.44750053e+00 -1.76452751e+00 1.44750053e+00 8.67024425e+00 -6.59604177e-01 -1.76452751e+00 -6.59604177e-01 -1.04605377e+01
1.68244922e+00 2.75640995e-01 3.42099331e+00 2.75640995e-01 3.39634837e+00 5.90614747e-01 3.42099331e+00 5.90614747e-01 -2.39978261e+01
9.32664207e+00 -1.53174177e+00 -3.30565530e+00 -1.53174177e+00 9.12883356e+00 5.24971889e-01 -3.30565530e+00 5.24971889e-01 -9.24412012e+00
-3.65552862e-01 -2.84614429e+00 4.42097058e+00 -2.84614429e+00 2.10621923e+00 1.44358230e+00 4.42097058e+00 1.44358230e+00 -2.66034132e+01
1.42814499e+01 -1.01327355e+00 -3.40065522e+00 -1.01327355e+00 9.46554101e+00 2.04402727e+00 -3.40065522e+00 2.04402727e+00 -1.77539206e+00
4.06766266e-01 -3.46934455e+00 4.93694505e+00 -3.46934455e+00 4.72826838e-01 4.07202196e+00 4.93694505e+00 4.07202196e+00 -2.59327558e+01
1.16019819e+01 -2.26289604e+00 -4.08354735e+00 -2.26289604e+00 4.71231365e+00 3.78118980e+00 -4.08354735e+00 3.78118980e+00 -9.37226868e+00
-1.03224783e+01 -6.36636106e+00 5.31012177e+00 -6.36636106e+00 -8.71954664e+00 6.58369426e+00 5.31012177e+00 6.58369426e+00 -4.57444778e+01
5.39619339e+00 1.01267470e+00 4.78616599e-02 1.01267470e+00 -9.38766181e-01 -9.94423330e-01 4.78616599e-02 -9.94423330e-01 -2.42254381e+01
3.51461935e+00 5.98264217e-01 3.47412989e-01 5.98264217e-01 -2.68390149e+00 -9.30464547e-03 3.47412989e-01 -9.30464547e-03 -2.84207468e+01
3.39024443e+00 7.72434209e-01 1.82874896e+00 7.72434209e-01 -8.06227520e-01 -3.10762905e-01 1.82874896e+00 -3.10762905e-01 -2.65826795e+01
4.85474002e+00 2.91597527e-01 1.71351561e+00 2.91597527e-01 1.72431096e+00 5.61423205e-01 1.71351561e+00 5.61423205e-01 -2.25217834e+01
8.87091756e+00 1.66390271e+00 8.31656866e-02 1.66390271e+00 3.05417943e+00 -1.54075220e+00 8.31656866e-02 -1.54075220e+00 -1.62358214e+01
8.74198711e+00 8.39020368e-01 2.71292845e+00 8.39020368e-01 3.87607682e+00 1.13562677e+00 2.71292845e+00 1.13562677e+00 -1.57444053e+01
1.62504702e+01 1.07757905e+00 -1.54560620e+00 1.07757905e+00 1.25865887e+01 -1.94788508e+00 -1.54560620e+00 -1.94788508e+00 8.95750165e-01
1.83479224e+01 -8.50563630e-01 9.26945736e-01 -8.50563630e-01 1.36532321e+01 1.76534096e-01 9.26945736e-01 1.76534096e-01 7.80176465e+00
2.03672692e+01 -2.90030201e+00 -4.92647874e+00 -2.90030201e+00 1.81830014e+01 -1.59617585e+00 -4.92647874e+00 -1.59617585e+00 1.97191394e+01
3.72644456e+00 -6.36098305e+00 3.36226559e+00 -6.36098305e+00 9.23587402e+00 2.91074321e+00 3.36226559e+00 2.91074321e+00 1.29756570e+00
2.05141188e+01 3.19864170e+00 -6.41551514e+00 3.19864170e+00 1.61628326e+01 -1.08353736e+00 -6.41551514e+00 -1.08353736e+00 2.30761490e+01
1.17492490e+00 3.96586299e-01 3.95872307e+00 3.96586299e-01 6.73043760e+00 -1.64435486e+00 3.95872307e+00 -1.64435486e+00 1.66243752e+00
1.37101493e+01 -3.11457241e+00 -1.12914148e+00 -3.11457241e+00 -1.56185913e+00 1.76058358e+00 -1.12914148e+00 1.76058358e+00 1.29454939e+01
-9.64272499e-01 -2.77172518e+00 5.47871208e+00 -2.77172518e+00 -1.16212370e+01 -5.19784376e-01 5.47871208e+00 -5.19784376e-01 -2.39823961e+00
5.83092290e+00 -3.78276873e-01 6.57983467e-01 -3.78276873e-01 -3.25154275e+00 -1.20769295e+00 6.57983467e-01 -1.20769295e+00 -2.56670957e+01
4.53034902e+00 -4.49366301e-01 5.79934835e-01 -4.49366301e-01 -4.17509818e+00 -4.74392809e-03 5.79934835e-01 -4.74392809e-03 -2.82993078e+01
5.74694327e+00 -8.78415875e-01 2.05257816e+00 -8.78415875e-01 -1.48666170e+00 1.82054859e-01 2.05257816e+00 1.82054859e-01 -2.40413926e+01
4.76615959e+00 -4.31616358e-01 8.62234537e-01 -4.31616358e-01 -2.26102047e+00 8.24171826e-01 8.62234537e-01 8.24171826e-01 -2.62748346e+01
8.41724885e+00 -4.04734902e-01 -6.55071154e-01 -4.04734902e-01 2.30143011e-01 -2.25944620e+00 -6.55071154e-01 -2.25944620e+00 -1.92058001e+01
8.70132697e+00 -1.62104642e+00 1.64418072e+00 -1.62104642e+00 1.31873803e+00 1.38033555e+00 1.64418072e+00 1.38033555e+00 -1.73679875e+01
1.08017825e+01 -2.21455428e+00 -1.99083456e+00 -2.21455428e+00 8.19343850e+00 -5.24364197e+00 -1.99083456e+00 -5.24364197e+00 -4.92945611e+00
1.28379707e+01 -8.33871024e-01 -8.99666340e-01 -8.33871024e-01 6.10244737e+00 1.44654766e+00 -8.99666340e-01 1.44654766e+00 -8.06289332e+00
1.20690401e+01 5.78248262e-01 -2.04519246e+00 5.78248262e-01 1.00194299e+01 -3.02791758e+00 -2.04519246e+00 -3.02791758e+00 5.39683454e+00
1.49184125e+01 4.12064843e+00 -2.21705178e-01 4.12064843e+00 6.29644072e+00 5.13078574e+00 -2.21705178e-01 5.13078574e+00 -4.77684309e-01
5.53424394e+00 -1.68606496e+00 1.85343005e+00 -1.68606496e+00 -1.60817699e+01 4.78734389e-01 1.85343005e+00 4.78734389e-01 1.80341893e+00
5.52308670e+00 -4.85628955e+00 2.33012414e+00 -4.85628955e+00 4.58442676e+00 3.13586414e-01 2.33012414e+00 3.13586414e-01 1.06342117e+00
9.06090879e+00 -2.87221503e+00 4.91931438e-02 -2.87221503e+00 -1.61702003e+01 -7.40851091e-01 4.91931438e-02 -7.40851091e-01 4.43909240e+00
6.49866668e+00 -1.08000143e+00 -1.59437872e+00 -1.08000143e+00 4.09758412e+00 5.63074748e-01 -1.59437872e+00 5.63074748e-01 -1.28234744e-01
3.45185515e+00 -1.45113346e+00 7.34035581e-01 -1.45113346e+00 -2.49277523e+00 -9.67240214e-01 7.34035581e-01 -9.67240214e-01 -2.81623626e+01
2.61375791e+00 -1.01350096e+00 1.28656566e-01 -1.01350096e+00 -4.11833405e+00 -4.26922948e-03 1.28656566e-01 -4.26922948e-03 -3.08544550e+01
3.99297968e+00 -1.48475192e+00 2.01790377e-01 -1.48475192e+00 -8.95742532e-01 1.20530986e+00 2.01790377e-01 1.20530986e+00 -2.58807988e+01
3.01642513e+00 -5.48571348e-01 -3.59998293e-01 -5.48571348e-01 -2.59592981e+00 1.77161944e+00 -3.59998293e-01 1.77161944e+00 -2.86998925e+01
4.15068924e+00 -9.51712906e-01 8.34620327e-01 -9.51712906e-01 4.71076261e-01 -3.52029616e+00 8.34620327e-01 -3.52029616e+00 -2.34548364e+01
4.30747879e+00 -2.79229636e+00 2.49774352e-01 -2.79229636e+00 2.39116889e+00 2.19426893e+00 2.49774352e-01 2.19426893e+00 -2.17575954e+01
7.50637519e+00 -8.71896327e-01 -8.42554502e-01 -8.71896327e-01 8.05806661e+00 -4.04711947e+00 -8.42554502e-01 -4.04711947e+00 -1.33664650e+01
3.18079817e+00 9.02278721e-02 -8.49308282e-01 9.02278721e-02 2.80044747e+00 5.96216982e+00 -8.49308282e-01 5.96216982e+00 -1.89668341e+01
-2.02250957e-01 9.93368149e-01 -3.48062627e-01 9.93368149e-01 2.44097292e+00 -4.50620991e+00 -3.48062627e-01 -4.50620991e+00 2.68534717e+00
7.76680118e+00 2.50955921e+00 7.54059054e-01 2.50955921e+00 1.37966122e+00 4.07116127e+00 7.54059054e-01 4.07116127e+00 -3.03090149e+00
-2.48853990e+00 1.29951203e+00 3.43960464e-01 1.29951203e+00 4.12604059e+00 9.49636653e-01 3.43960464e-01 9.49636653e-01 3.16608250e-01
7.47414672e-01 1.29507006e+00 -3.49468601e-01 1.29507006e+00 8.34971464e-01 -3.26386860e-01 -3.49468601e-01 -3.26386860e-01 -2.39289469e-01
1.77084580e+00 8.93043995e-01 -1.02047241e+00 8.93043995e-01 -6.19665110e+00 7.73479730e-01 -1.02047241e+00 7.73479730e-01 -1.79039657e-01
2.13239659e+00 3.44349305e-01 -9.42791541e-01 3.44349305e-01 -6.83777110e+00 3.05316945e-02 -9.42791541e-01 3.05316945e-02 1.28954738e+00
2.53410816e-01 -1.66572475e+00 -1.19399007e-01 -1.66572475e+00 -4.43409050e+00 -1.44627517e+00 -1.19399007e-01 -1.44627517e+00 -3.38524055e+01
1.35580242e-01 -8.78789186e-01 4.91244704e-01 -8.78789186e-01 -7.12637615e+00 -8.08825344e-03 4.91244704e-01 -8.08825344e-03 -3.67844200e+01
2.08990373e-01 -1.22884697e+00 1.60863519e-01 -1.22884697e+00 -3.55476797e+00 -4.26486731e-01 1.60863519e-01 -4.26486731e-01 -3.31929188e+01
9.81979504e-01 -1.58744627e+00 -1.05043870e+00 -1.58744627e+00 -3.24971974e+00 1.68431026e+00 -1.05043870e+00 1.68431026e+00 -3.20291414e+01
-3.03703165e+00 -2.68270016e+00 3.12485826e+00 -2.68270016e+00 -9.31525022e-01 -4.60130405e+00 3.12485826e+00 -4.60130405e+00 -3.21734543e+01
-3.22795480e+00 -3.02420670e+00 2.35558903e+00 -3.02420670e+00 -7.23713152e-01 1.76839874e+00 2.35558903e+00 1.76839874e+00 -3.37334929e+01
-2.95367861e+00 -3.22052550e+00 7.38107300e+00 -3.22052550e+00 8.41225171e+00 -1.19302973e+00 7.38107300e+00 -1.19302973e+00 -1.90604644e+01
-8.19755185e+00 -4.45613194e+00 3.60435863e+00 -4.45613194e+00 -1.53771607e+00 9.80617317e+00 3.60435863e+00 9.80617317e+00 -3.16405824e+01
-2.26652737e+01 -1.71198726e+00 8.52227487e-01 -1.71198726e+00 9.38409090e+00 -2.86833638e+00 8.52227487e-01 -2.86833638e+00 4.97671318e+00
-1.38858008e+01 -4.29838347e+00 3.29992659e-01 -4.29838347e+00 8.94781888e-01 4.00449157e+00 3.29992659e-01 4.00449157e+00 3.50055575e-01
-9.77615833e+00 1.75621668e+00 3.00767139e-01 1.75621668e+00 1.92667395e+00 -5.06351069e-02 3.00767139e-01 -5.06351069e-02 2.32358788e+00
-5.35612059e+00 7.82639633e-01 7.40061611e-01 7.82639633e-01 6.08422836e-01 -8.28305523e-01 7.40061611e-01 -8.28305523e-01 7.17833966e-01
-2.94021225e+00 1.85794687e+00 -6.55510962e-01 1.85794687e+00 -3.68267441e+00 3.79985899e-01 -6.55510962e-01 3.79985899e-01 1.18005967e+00
-1.65388322e+00 5.08273154e-01 8.74603361e-01 5.08273154e-01 -2.53345984e+00 3.77563402e-01 8.74603361e-01 3.77563402e-01 9.47033435e-01
-2.14370939e+00 -1.62691227e-03 2.41296820e-01 -1.62691227e-03 2.62931854e+00 -1.20113450e+00 2.41296820e-01 -1.20113450e+00 -2.90674992e+01
-1.57249614e+00 -2.49177232e-01 1.14014086e+00 -2.49177232e-01 1.85652301e+00 -5.12084860e-01 1.14014086e+00 -5.12084860e-01 -2.94528975e+01
-1.03971142e+00 -1.16874130e+00 8.32876550e-01 -1.16874130e+00 3.40953575e+00 -4.96852299e-01 8.32876550e-01 -4.96852299e-01 -2.68585653e+01
-2.61839989e+00 -1.87384114e-01 9.67254832e-01 -1.87384114e-01 3.06868241e+00 -3.24519455e-01 9.67254832e-01 -3.24519455e-01 -2.87838516e+01
1.60812491e+00 -1.11832875e+00 1.80641133e-01 -1.11832875e+00 1.94522923e+00 7.62200914e-03 1.80641133e-01 7.62200914e-03 -2.62523041e+01
5.21961664e-01 -1.53716620e+00 1.40864633e-01 -1.53716620e+00 2.12297439e+00 -1.56785396e+00 1.40864633e-01 -1.56785396e+00 -2.64556296e+01
3.28842086e+00 8.89090840e-02 1.09591611e-01 8.89090840e-02 1.15288755e+00 -9.48141493e-01 1.09591611e-01 -9.48141493e-01 -2.51982319e+01
5.34659028e-01 -7.68365651e-01 8.93771797e-02 -7.68365651e-01 3.88774678e-01 1.73539962e-01 8.93771797e-02 1.73539962e-01 -2.85413299e+01
2.14838415e+00 -5.53670265e-01 2.27042636e+00 -5.53670265e-01 -1.35957988e+00 -1.03526967e+00 2.27042636e+00 -1.03526967e+00 -2.87831335e+01
5.56136928e-02 -4.65937493e-01 4.89501692e-01 -4.65937493e-01 4.65717316e-01 9.78151675e-01 4.89501692e-01 9.78151675e-01 -2.93045278e+01
2.99552542e+00 -4.79640722e-01 2.39954814e+00 -4.79640722e-01 1.59018183e+00 -6.10377744e-01 2.39954814e+00 -6.10377744e-01 -2.46650343e+01
1.68291865e+00 -1.53552298e-01 1.50165531e+00 -1.53552298e-01 1.22056502e+00 1.15469043e-01 1.50165531e+00 1.15469043e-01 -2.66863737e+01
4.68354630e+00 1.28805685e+00 2.04415947e+00 1.28805685e+00 4.66405129e+00 -7.53871277e-01 2.04415947e+00 -7.53871277e-01 -1.97403355e+01
5.17115241e+00 6.66337732e-01 1.35712542e-01 6.66337732e-01 4.29338419e+00 -7.67217845e-01 1.35712542e-01 -7.67217845e-01 -1.96532934e+01
-2.51371473e-01 -1.25549120e+00 1.26673956e+00 -1.25549120e+00 4.40371856e+00 -1.51617693e+00 1.26673956e+00 -1.51617693e+00 -2.48206341e+01
-1.71085826e+00 -7.29830891e-01 2.92121595e+00 -7.29830891e-01 4.49473572e+00 -1.32656112e+00 2.92121595e+00 -1.32656112e+00 -2.55310330e+01
-9.16882937e+00 -9.40895629e-01 3.69711142e+00 -9.40895629e-01 -5.44432204e+00 -2.91838288e-01 3.69711142e+00 -2.91838288e-01 -4.52970025e+01
-2.00447515e+01 -2.47862996e+00 8.12950616e+00 -2.47862996e+00 -1.76619422e+01 5.33480375e-01 8.12950616e+00 5.33480375e-01 -6.71404182e+01
-1.35302267e+01 -1.45166479e-01 1.75618061e+00 -1.45166479e-01 -9.87749910e+00 2.42886730e+00 1.75618061e+00 2.42886730e+00 -5.48421631e+01
-1.68236127e+01 7.60937855e-03 3.35916835e+00 7.60937855e-03 -1.37701085e+01 4.65774983e+00 3.35916835e+00 4.65774983e+00 -6.16388454e+01
-1.71883302e+01 -7.35042421e-02 2.15891078e-01 -7.35042421e-02 -1.33810086e+01 4.06018707e+00 2.15891078e-01 4.06018707e+00 -6.19390087e+01
3.33650457e+00 1.41975041e-01 3.89762072e+00 1.41975041e-01 6.64489716e+00 -6.19321309e-01 3.89762072e+00 -6.19321309e-01 -1.75755989e+01
1.23519564e+00 -2.32023127e-01 2.45182864e+00 -2.32023127e-01 5.34733653e+00 -1.42723766e+00 2.45182864e+00 -1.42723766e+00 -2.20875301e+01
-9.50839113e+00 -8.85580942e-01 6.12474950e+00 -8.85580942e-01 -4.64578613e+00 7.22863647e+00 6.12474950e+00 7.22863647e+00 -4.09447502e+01
-1.83521905e+01 -3.08201671e+00 4.69480944e+00 -3.08201671e+00 -7.23136315e+00 1.08277640e+01 4.69480944e+00 1.08277640e+01 -6.19120026e+00
4.76441720e+00 -1.77177995e-01 3.17898773e+00 -1.77177995e-01 3.02583461e+00 1.59161496e+00 3.17898773e+00 1.59161496e+00 -1.95295194e+01
4.29354614e+00 5.66419870e-01 2.41852161e+00 5.66419870e-01 3.63708684e+00 2.09136128e+00 2.41852161e+00 2.09136128e+00 -2.09494023e+01
9.40414617e+00 -3.65813104e+00 3.28496192e+00 -3.65813104e+00 8.70743438e+00 3.44912970e+00 3.28496192e+00 3.44912970e+00 -7.64375976e+00
1.47133742e+01 -5.70944647e-01 -8.07074134e+00 -5.70944647e-01 1.58231874e+01 2.89228952e+00 -8.07074134e+00 2.89228952e+00 7.77456999e+00
2.65453564e+00 -1.90642948e+00 4.96303856e-01 -1.90642948e+00 1.67217802e+00 1.74933400e+00 4.96303856e-01 1.74933400e+00 -2.40878024e+01
6.27478921e+00 -9.48694512e-01 7.36428641e-01 -9.48694512e-01 3.80449367e+00 1.70656925e+00 7.36428641e-01 1.70656925e+00 -1.89181912e+01
9.35345665e-01 -2.33337331e+00 6.14381968e-01 -2.33337331e+00 3.21166936e-01 2.36349880e+00 6.14381968e-01 2.36349880e+00 -2.66346087e+01
-4.46559548e-01 7.80056849e-01 -3.47364474e+00 7.80056849e-01 -1.62283194e+00 3.63108310e+00 -3.47364474e+00 3.63108310e+00 -3.19528277e+01
2.47294158e-02 3.53633575e-02 -8.34495105e-01 3.53633575e-02 2.98554647e+00 -5.45369044e-01 -8.34495105e-01 -5.45369044e-01 -2.66482015e+01
1.20656776e+00 1.40437734e+00 9.31803823e-01 1.40437734e+00 1.73174620e+00 -6.62581414e-01 9.31803823e-01 -6.62581414e-01 -2.67140388e+01
-2.85865307e+00 2.86918499e-01 1.15080377e+00 2.86918499e-01 5.41122451e-01 -2.42421377e-01 1.15080377e+00 -2.42421377e-01 -3.28064356e+01
-2.30183220e+01 5.90302527e-01 7.88026023e-01 5.90302527e-01 -2.05200438e+01 4.94292295e+00 7.88026023e-01 4.94292295e+00 -7.79502335e+01
1.18961573e-01 -6.69521570e-01 7.68140256e-02 -6.69521570e-01 -1.45613045e-01 -1.28340926e-01 7.68140256e-02 -1.28340926e-01 -3.59740272e-01
-2.29592070e-01 -5.29535562e-01 -3.26275736e-01 -5.29535562e-01 1.95996916e-01 -8.73643756e-02 -3.26275736e-01 -8.73643756e-02 -3.52800019e-01
2.25187590e-01 -1.84421882e-01 3.54916889e-01 -1.84421882e-01 3.70609969e-01 1.93440650e-01 3.54916889e-01 1.93440650e-01 -9.82195586e-01
1.59207715e-01 -3.24498400e-01 -2.44730402e-01 -3.24498400e-01 -3.85429867e-01 -2.73834914e-01 -2.44730402e-01 -2.73834914e-01 -1.60209451e-01
1.51561439e-01 8.14457890e-04 1.89630353e+00 8.14457890e-04 6.67027414e-01 -2.82490969e-01 1.89630353e+00 -2.82490969e-01 -2.89774227e+01
6.04215221e-01 6.02950659e-02 1.26509818e+00 6.02950659e-02 2.38300309e-01 2.86815908e-01 1.26509818e+00 2.86815908e-01 -2.89783511e+01
5.51233944e-01 -1.49236095e+00 1.83697023e+00 -1.49236095e+00 7.16453023e-01 4.89523161e-01 1.83697023e+00 4.89523161e-01 -2.82251129e+01
-6.65144980e-01 1.01727108e-01 1.78597780e+00 1.01727108e-01 7.40801618e-01 -9.84972164e-01 1.78597780e+00 -9.84972164e-01 -2.97611027e+01
2.69358222e+00 -1.45499486e+00 1.81457910e+00 -1.45499486e+00 -5.15280604e-01 1.54832097e-01 1.81457910e+00 1.54832097e-01 -2.72602558e+01
2.24240807e+00 -2.20075282e+00 1.57934807e+00 -2.20075282e+00 2.32176051e-01 8.34047787e-01 1.57934807e+00 8.34047787e-01 -2.66407245e+01
4.71088529e+00 8.68737958e-02 6.55770242e-01 8.68737958e-02 -1.02689446e+00 1.08305394e+00 6.55770242e-01 1.08305394e+00 -2.54010100e+01
3.25087278e+00 -9.57104791e-01 -4.03213549e-01 -9.57104791e-01 -1.15119699e-01 -6.27593406e-01 -4.03213549e-01 -6.27593406e-01 -2.60422559e+01
6.38074745e+00 2.24894665e-01 -8.82067472e-01 2.24894665e-01 4.57685769e-01 -2.24266093e-01 -8.82067472e-01 -2.24266093e-01 -2.19993978e+01
-4.07603756e-01 4.95593449e-01 -1.00691056e+00 4.95593449e-01 -2.65261096e+00 1.13648921e-03 -1.00691056e+00 1.13648921e-03 -3.28239131e+01
7.45001280e+00 4.10570860e-01 7.41126746e-01 4.10570860e-01 3.72756222e+00 -8.83625224e-01 7.41126746e-01 -8.83625224e-01 -1.76235402e+01
2.13866657e+00 5.26490147e-01 -3.26604117e-02 5.26490147e-01 5.42511940e-02 1.63946226e-01 -3.26604117e-02 1.63946226e-01 -2.75076033e+01
1.00079036e+01 6.41098171e-01 8.85445148e-01 6.41098171e-01 6.29037511e+00 -1.12188421e+00 8.85445148e-01 -1.12188421e+00 -1.19042635e+01
7.22721079e+00 3.52967031e-01 -1.16797213e-01 3.52967031e-01 4.94801694e+00 -8.29845823e-01 -1.16797213e-01 -8.29845823e-01 -1.66681567e+01
-6.59482390e-01 -2.45483644e+00 4.11304741e+00 -2.45483644e+00 2.55970896e+00 -1.54227596e-01 4.11304741e+00 -1.54227596e-01 -2.54461466e+01
-7.78253257e-01 -1.65532035e+00 2.87230343e+00 -1.65532035e+00 4.47427343e+00 -3.86555575e-01 2.87230343e+00 -3.86555575e-01 -2.49596004e+01
1.18418741e+00 -4.94316442e-01 2.38284535e+00 -4.94316442e-01 -1.23394898e-02 -5.42172883e-01 2.38284535e+00 -5.42172883e-01 -3.03254933e+01
-2.34110941e+01 -1.56188476e+00 -8.62645245e+00 -1.56188476e+00 -2.38328243e+01 -2.86339951e-01 -8.62645245e+00 -2.86339951e-01 -7.66472458e+01
-1.81848145e+01 1.43409848e-01 -2.63905284e+00 1.43409848e-01 -1.58531377e+01 1.90222247e+00 -2.63905284e+00 1.90222247e+00 -6.65682468e+01
-9.42977107e+00 -3.05032760e-01 -5.71791410e-01 -3.05032760e-01 -8.81002712e+00 1.26453808e+00 -5.71791410e-01 1.26453808e+00 -4.96347418e+01
-2.30127949e+00 2.49649458e-01 -5.03075302e-01 2.49649458e-01 -1.79295802e+00 3.46861415e-01 -5.03075302e-01 3.46861415e-01 -3.43439064e+01
-5.55530768e+00 -1.42317500e+00 5.68369368e+00 -1.42317500e+00 -6.05632561e-01 4.30160778e-01 5.68369368e+00 4.30160778e-01 -3.26845049e+01
4.06072056e+00 5.25057428e-01 3.74296394e+00 5.25057428e-01 9.91430318e+00 1.07932044e+00 3.74296394e+00 1.07932044e+00 -1.31096230e+01
-3.65165677e+01 -5.15879500e+00 1.11768314e+01 -5.15879500e+00 -3.31393237e+01 -1.10494481e+01 1.11768314e+01 -1.10494481e+01 -9.50651302e+01
3.28656269e+00 -5.87864831e-01 2.37586878e+00 -5.87864831e-01 6.88804357e+00 2.96515203e+00 2.37586878e+00 2.96515203e+00 -1.73413671e+01
3.46085048e+00 -1.26183254e+00 4.56036749e+00 -1.26183254e+00 7.60478002e+00 2.46502720e-02 4.56036749e+00 2.46502720e-02 -1.51556952e+01
-1.59267457e+01 -2.25058123e-02 2.34804648e+00 -2.25058123e-02 -1.03001344e+01 1.22045748e+01 2.34804648e+00 1.22045748e+01 -4.46468158e+01
1.19004181e+01 9.26115999e-01 2.33097319e+00 9.26115999e-01 1.35953608e+01 -4.80675265e-01 2.33097319e+00 -4.80675265e-01 -2.36108881e+00
5.60146862e+00 1.35913163e+00 -6.52645230e-02 1.35913163e+00 7.90416253e+00 -4.11473148e-01 -6.52645230e-02 -4.11473148e-01 -1.45953218e+01
8.53863403e+00 -7.28193275e-01 -4.79913024e-01 -7.28193275e-01 1.10308699e+01 1.68634693e+00 -4.79913024e-01 1.68634693e+00 -1.01934267e+01
-2.42852612e+01 1.01997061e+01 -1.91046028e+01 1.01997061e+01 -2.37758274e+01 1.74178925e+01 -1.91046028e+01 1.74178925e+01 -1.34182425e+01
-3.00478853e+01 3.75968075e+00 -1.54249010e+01 3.75968075e+00 -2.92359947e+01 1.79135848e+00 -1.54249010e+01 1.79135848e+00 -8.90609589e+01
-2.04826468e+00 2.36815582e+00 3.45575188e+00 2.36815582e+00 1.64485931e-01 2.84513345e+00 3.45575188e+00 2.84513345e+00 -2.96142070e+01
-3.06052828e+00 -1.27822984e-01 1.37196314e+00 -1.27822984e-01 2.23950112e+00 2.61496484e+00 1.37196314e+00 2.61496484e+00 -2.98499436e+01
</DataArray>
<DataArray type="Float32" Name="Logarithmic_strain_components" NumberOfComponents="9" format="ascii">
4.81852703e-03 -1.64034645e-07 1.47143510e-07 -1.64034645e-07 1.30016124e-02 -1.31913112e-08 1.47143510e-07 -1.31913112e-08 -1.52876303e-02
5.35424752e-03 7.54478242e-04 -2.00124305e-07 7.54478242e-04 1.36768422e-02 3.01373148e-04 -2.00124305e-07 3.01373148e-04 -1.63505143e-02
5.82234317e-03 2.39015621e-03 -1.38332468e-03 2.39015621e-03 1.17522650e-02 -4.05100865e-04 -1.38332468e-03 -4.05100865e-04 -1.51531301e-02
5.34964632e-03 8.66668037e-04 -7.07911851e-04 8.66668037e-04 1.10868663e-02 -6.57119017e-08 -7.07911851e-04 -6.57119017e-08 -1.41272405e-02
4.99200542e-03 4.60517754e-07 1.38860039e-03 4.60517754e-07 1.21663348e-02 -8.66807997e-04 1.38860039e-03 -8.66807997e-04 -1.47326202e-02
5.60454838e-03 4.65678022e-05 9.59614437e-04 4.65678022e-05 1.24688707e-02 -1.29724471e-03 9.59614437e-04 -1.29724471e-03 -1.55483452e-02
5.69735712e-03 9.17519745e-04 3.76776115e-04 9.17519745e-04 1.11812563e-02 -1.59010803e-03 3.76776115e-04 -1.59010803e-03 -1.45321608e-02
5.17807773e-03 1.90726067e-04 6.41116923e-04 1.90726067e-04 1.09974006e-02 -1.29703071e-03 6.41116923e-04 -1.29703071e-03 -1.39326358e-02
6.64668554e-03 4.67717720e-04 4.70914529e-07 4.67717720e-04 1.58113083e-02 1.49818261e-04 4.70914529e-07 1.49818261e-04 -1.94086842e-02
6.65800530e-03 3.36059259e-03 -2.46869575e-03 3.36059259e-03 1.30747284e-02 1.14910052e-04 -2.46869575e-03 1.14910052e-04 -1.70541639e-02
6.94638921e-03 4.28738429e-04 2.09474610e-03 4.28738429e-04 1.31277768e-02 -1.65043554e-03 2.09474610e-03 -1.65043554e-03 -1.72624511e-02
7.06060388e-03 1.49476691e-03 2.39314457e-04 1.49476691e-03 1.23632605e-02 -2.12248928e-03 2.39314457e-04 -2.12248928e-03 -1.68220343e-02
8.26153019e-03 2.76306615e-04 2.91858669e-07 2.76306615e-04 1.81268640e-02 1.33845943e-03 2.91858669e-07 1.33845943e-03 -2.28853952e-02
7.81529304e-03 2.20334821e-03 -3.77313048e-03 2.20334821e-03 1.47773975e-02 3.57503537e-04 -3.77313048e-03 3.57503537e-04 -1.95780550e-02
8.91573436e-03 -7.05690458e-04 2.40687269e-03 -7.05690458e-04 1.43438545e-02 -8.30740599e-04 2.40687269e-03 -8.30740599e-04 -2.00711745e-02
8.46510590e-03 -2.51368359e-04 1.26853641e-03 -2.51368359e-04 1.35162573e-02 -1.29784143e-03 1.26853641e-03 -1.29784143e-03 -1.90182193e-02
1.05462112e-02 -2.16756377e-03 1.70667408e-06 -2.16756377e-03 1.94465145e-02 1.47750956e-03 1.70667408e-06 1.47750956e-03 -2.59287832e-02
9.68083309e-03 -9.51017453e-04 -5.21154562e-03 -9.51017453e-04 1.67838826e-02 1.51654924e-03 -5.21154562e-03 1.51654924e-03 -2.30342895e-02
1.13565733e-02 -2.12732569e-03 1.32637552e-03 -2.12732569e-03 1.54410731e-02 -9.42667786e-04 1.32637552e-03 -9.42667786e-04 -2.31749658e-02
1.00709611e-02 -2.42518041e-03 1.10548953e-03 -2.42518041e-03 1.37679768e-02 -1.90182385e-04 1.10548953e-03 -1.90182385e-04 -2.04613430e-02
1.34954643e-02 -4.48618853e-03 2.93707399e-06 -4.48618853e-03 2.16448708e-02 5.22595918e-04 2.93707399e-06 5.22595918e-04 -3.03581124e-02
1.14134604e-02 -2.75847671e-03 -6.36910670e-03 -2.75847671e-03 1.83438330e-02 2.25235434e-03 -6.36910670e-03 2.25235434e-03 -2.57609426e-02
1.27485935e-02 -2.75332713e-03 2.78011436e-03 -2.75332713e-03 1.68242822e-02 -2.09133465e-03 2.78011436e-03 -2.09133465e-03 -2.54119672e-02
1.21315545e-02 -3.70036758e-03 3.00389389e-03 -3.70036758e-03 1.47810692e-02 -5.19308765e-04 3.00389389e-03 -5.19308765e-04 -2.30759166e-02
1.27218366e-02 -9.86653380e-03 -1.23301725e-05 -9.86653380e-03 2.73475107e-02 -3.12944432e-03 -1.23301725e-05 -3.12944432e-03 -3.50348316e-02
1.16228755e-02 -5.21681970e-03 -9.30146640e-03 -5.21681970e-03 2.24727588e-02 5.01307123e-03 -9.30146640e-03 5.01307123e-03 -2.98968861e-02
1.17640938e-02 -1.71016809e-03 7.50321225e-04 -1.71016809e-03 2.07628645e-02 -4.53280751e-03 7.50321225e-04 -4.53280751e-03 -2.81593427e-02
1.21709881e-02 -3.72129498e-03 8.74083489e-05 -3.72129498e-03 1.78584177e-02 -4.23401267e-04 8.74083489e-05 -4.23401267e-04 -2.59695943e-02
6.36532495e-03 2.47074489e-03 -7.89651938e-04 2.47074489e-03 7.13064114e-03 -8.79520187e-04 -7.89651938e-04 -8.79520187e-04 -1.16835937e-02
6.36353507e-03 8.05344025e-04 -6.50653412e-04 8.05344025e-04 7.15850620e-03 2.59731678e-07 -6.50653412e-04 2.59731678e-07 -1.17257084e-02
5.91593253e-03 1.74194053e-03 1.82278859e-03 1.74194053e-03 7.96280144e-03 -1.15774277e-03 1.82278859e-03 -1.15774277e-03 -1.20299025e-02
5.40605804e-03 6.64765670e-04 1.44381844e-03 6.64765670e-04 7.58522539e-03 -7.76580073e-05 1.44381844e-03 -7.76580073e-05 -1.11992096e-02
5.88917767e-03 3.48905742e-03 -1.48683277e-03 3.48905742e-03 6.83968479e-03 -1.18462823e-03 -1.48683277e-03 -1.18462823e-03 -1.09380193e-02
6.06828311e-03 2.04276622e-03 2.55926895e-03 2.04276622e-03 8.18444759e-03 8.71276716e-05 2.55926895e-03 8.71276716e-05 -1.22994648e-02
4.68321820e-03 2.46249035e-03 -2.44181429e-03 2.46249035e-03 6.19990454e-03 -8.00071939e-04 -2.44181429e-03 -8.00071939e-04 -9.08023026e-03
6.06233430e-03 -4.57685175e-06 5.70815818e-03 -4.57685175e-06 8.50830966e-03 1.21253387e-03 5.70815818e-03 1.21253387e-03 -1.24642898e-02
4.67718515e-03 -1.41382753e-03 -4.94131632e-03 -1.41382753e-03 7.09551183e-03 1.17478683e-03 -4.94131632e-03 1.17478683e-03 -9.76635749e-03
6.43163756e-03 -3.34419077e-03 7.61548585e-03 -3.34419077e-03 1.00736547e-02 2.81021770e-03 7.61548585e-03 2.81021770e-03 -1.40826350e-02
4.86139918e-03 -3.44594079e-03 -5.08648797e-03 -3.44594079e-03 6.36437666e-03 2.80666805e-03 -5.08648797e-03 2.80666805e-03 -9.07990092e-03
6.87028844e-03 -5.12850401e-03 9.70565132e-03 -5.12850401e-03 1.01379500e-02 6.79303620e-03 9.70565132e-03 6.79303620e-03 -1.43419852e-02
5.50697325e-03 -5.83214010e-03 -4.93950886e-03 -5.83214010e-03 6.20119920e-03 5.82085387e-03 -4.93950886e-03 5.82085387e-03 -9.58007481e-03
7.78389132e-03 -8.08751428e-03 1.00086322e-02 -8.08751428e-03 1.17866429e-02 1.00212454e-02 1.00086322e-02 1.00212454e-02 -1.68201942e-02
6.21715817e-03 9.90797926e-04 -1.17311351e-05 9.90797926e-04 3.29820946e-03 -1.03080430e-03 -1.17311351e-05 -1.03080430e-03 -8.26107094e-03
6.82147848e-03 5.81529050e-04 2.96758706e-04 5.81529050e-04 3.81711288e-03 -3.12356008e-07 2.96758706e-04 -3.12356008e-07 -9.30995168e-03
5.89065131e-03 7.54638151e-04 2.33760788e-03 7.54638151e-04 4.21278152e-03 -1.20520630e-04 2.33760788e-03 -1.20520630e-04 -8.81614757e-03
5.55617840e-03 2.71170604e-04 2.03312159e-03 2.71170604e-04 4.14624019e-03 1.03185308e-03 2.03312159e-03 1.03185308e-03 -8.38680705e-03
4.46975464e-03 1.16984457e-03 -7.76087873e-05 1.16984457e-03 2.18852088e-03 -1.13523350e-03 -7.76087873e-05 -1.13523350e-03 -5.68149926e-03
4.50133477e-03 7.47929827e-04 2.99760347e-03 7.47929827e-04 2.86716441e-03 7.61423549e-04 2.99760347e-03 7.61423549e-04 -6.25623844e-03
1.77415112e-03 4.21936737e-04 -7.63826349e-04 4.21936737e-04 1.03609865e-03 -1.19738985e-03 -7.63826349e-04 -1.19738985e-03 -2.08062999e-03
1.31582199e-03 -7.01130863e-04 2.73018565e-03 -7.01130863e-04 9.96412678e-04 -1.62050943e-04 2.73018565e-03 -1.62050943e-04 -1.43479586e-03
9.71048648e-04 -2.74672631e-03 -2.06549497e-03 -2.74672631e-03 -1.23399523e-04 -7.35569668e-04 -2.06549497e-03 -7.35569668e-04 1.56517005e-05
3.49155004e-04 -4.63879834e-03 4.99294993e-03 -4.63879834e-03 1.47972310e-03 1.14858044e-03 4.99294993e-03 1.14858044e-03 -9.51011190e-04
6.72652929e-04 -5.41911616e-04 -1.91026779e-03 -5.41911616e-04 -8.16097549e-04 -5.51294380e-04 -1.91026779e-03 -5.51294380e-04 8.61821832e-04
2.04519184e-04 -1.96252016e-03 4.98835168e-03 -1.96252016e-03 8.23671124e-04 -6.17122103e-04 4.98835168e-03 -6.17122103e-04 -2.82414151e-04
7.70369312e-04 -6.92966045e-04 -1.00960460e-03 -6.92966045e-04 -1.80407678e-03 3.95218158e-04 -1.00960460e-03 3.95218158e-04 1.51550770e-03
5.72619378e-04 -2.71290098e-03 3.98022647e-03 -2.71290098e-03 -4.09740023e-04 -1.47428713e-04 3.98022647e-03 -1.47428713e-04 3.59341386e-04
5.81678795e-03 -3.08600876e-04 5.62942485e-04 -3.08600876e-04 2.10779038e-03 -9.77769290e-04 5.62942485e-04 -9.77769290e-04 -6.94495568e-03
6.52185851e-03 -2.61598849e-04 4.77949419e-04 -2.61598849e-04 2.62602442e-03 3.00471044e-08 4.77949419e-04 3.00471044e-08 -8.03806772e-03
5.16937487e-03 -6.37240861e-04 1.60283974e-03 -6.37240861e-04 2.33146182e-03 2.70214975e-04 1.60283974e-03 2.70214975e-04 -6.55926246e-03
5.68850606e-03 -1.77014423e-04 9.98593709e-04 -1.77014423e-04 2.69635534e-03 9.26529901e-04 9.98593709e-04 9.26529901e-04 -7.35187309e-03
3.61586985e-03 -3.81762788e-04 -3.47273497e-04 -3.81762788e-04 1.15165490e-03 -1.28551541e-03 -3.47273497e-04 -1.28551541e-03 -4.15224890e-03
3.42582772e-03 -1.10873633e-03 1.06837917e-03 -1.10873633e-03 1.22730635e-03 7.35399373e-04 1.06837917e-03 7.35399373e-04 -4.00841437e-03
9.33718513e-04 -7.06239365e-04 -4.14057329e-04 -7.06239365e-04 3.46138997e-04 -1.15053807e-03 -4.14057329e-04 -1.15053807e-03 -9.25316766e-04
1.50559364e-03 -4.95526438e-04 -5.09890067e-04 -4.95526438e-04 4.21627864e-04 4.63727920e-04 -5.09890067e-04 4.63727920e-04 -1.52706938e-03
1.22654077e-04 -2.27600181e-04 -3.28622882e-05 -2.27600181e-04 4.52479204e-05 -1.21066381e-04 -3.28622882e-05 -1.21066381e-04 1.39905556e-04
3.80778079e-04 2.54076539e-04 -1.59819475e-04 2.54076539e-04 2.60384380e-04 5.44254937e-04 -1.59819475e-04 5.44254937e-04 -3.33797036e-04
8.97643687e-04 -1.59511271e-03 1.84142125e-04 -1.59511271e-03 -1.49298429e-03 4.98087666e-05 1.84142125e-04 4.98087666e-05 7.17428787e-04
5.23258113e-05 -1.10149450e-03 1.39002334e-04 -1.10149450e-03 1.86132461e-04 1.61186896e-05 1.39002334e-04 1.61186896e-05 -6.38782764e-05
7.62225143e-04 -1.72890883e-03 -3.55216041e-04 -1.72890883e-03 -1.18408001e-03 -6.64943836e-05 -3.55216041e-04 -6.64943836e-05 5.48225475e-04
-1.03395789e-04 -8.06594471e-04 -4.05072815e-04 -8.06594471e-04 5.63071774e-04 -3.71771603e-06 -4.05072815e-04 -3.71771603e-06 -2.86897463e-04
5.26252424e-03 -8.62997225e-04 4.47880018e-04 -8.62997225e-04 2.92590953e-03 -8.60143715e-04 4.47880018e-04 -8.60143715e-04 -7.24204606e-03
6.39758725e-03 -7.82983116e-04 1.46944629e-04 -7.82983116e-04 3.48329358e-03 2.46340051e-07 1.46944629e-04 2.46340051e-07 -8.72982899e-03
4.65951409e-03 -1.02260858e-03 1.68107050e-04 -1.02260858e-03 2.83707693e-03 9.21751016e-04 1.68107050e-04 9.21751016e-04 -6.60554052e-03
5.35696326e-03 -4.81951764e-04 -3.89575209e-04 -4.81951764e-04 3.19881854e-03 1.69530697e-03 -3.89575209e-04 1.69530697e-03 -7.56110903e-03
2.89123441e-03 -7.62035808e-04 2.91558281e-04 -7.62035808e-04 1.58060243e-03 -1.60969715e-03 2.91558281e-04 -1.60969715e-03 -4.00178798e-03
2.85167225e-03 -1.39724408e-03 3.11770971e-04 -1.39724408e-03 2.23562402e-03 1.29142626e-03 3.11770971e-04 1.29142626e-03 -4.48343682e-03
5.13460887e-04 -4.89602869e-04 -1.04428040e-04 -4.89602869e-04 3.16800379e-04 -5.72106655e-04 -1.04428040e-04 -5.72106655e-04 -7.27482417e-04
1.62727742e-03 -4.81255804e-04 -2.84781331e-04 -4.81255804e-04 1.06508209e-03 2.36609606e-03 -2.84781331e-04 2.36609606e-03 -2.41439409e-03
-3.68904198e-05 6.51761402e-05 -1.40794039e-05 6.51761402e-05 1.64951721e-05 -1.72115124e-04 -1.40794039e-05 -1.72115124e-04 7.41648355e-05
1.64151636e-04 9.15072014e-05 5.84278076e-05 9.15072014e-05 -7.63254830e-05 1.48873296e-04 5.84278076e-05 1.48873296e-04 -3.41752611e-05
-6.74623689e-05 6.25917792e-05 1.66076511e-05 6.25917792e-05 9.14844135e-05 4.56312400e-05 1.66076511e-05 4.56312400e-05 -1.40639713e-08
1.30507484e-05 6.24781966e-05 -1.67663577e-05 6.24781966e-05 1.43705278e-05 -1.58252702e-05 -1.67663577e-05 -1.58252702e-05 -1.12082904e-05
6.12646245e-05 4.31914959e-05 -4.86888657e-05 4.31914959e-05 -1.30220073e-04 3.66792865e-05 -4.86888657e-05 3.66792865e-05 1.38935202e-05
6.43753031e-05 1.66983276e-05 -4.49512245e-05 1.66983276e-05 -1.50562881e-04 1.23373987e-06 -4.49512245e-05 1.23373987e-06 4.43892598e-05
5.54935611e-03 -1.11165733e-03 -1.82377926e-05 -1.11165733e-03 3.66912060e-03 -1.43945112e-03 -1.82377926e-05 -1.43945112e-03 -8.24010302e-03
7.23406579e-03 -9.64626204e-04 2.68380478e-04 -9.64626204e-04 3.99676431e-03 4.91490937e-07 2.68380478e-04 4.91490937e-07 -1.00099090e-02
5.10729791e-03 -1.16090471e-03 4.33670939e-05 -1.16090471e-03 3.75879492e-03 -7.05305210e-05 4.33670939e-05 -7.05305210e-05 -7.93434901e-03
5.48414956e-03 -1.24918961e-03 -1.31125958e-03 -1.24918961e-03 3.80678545e-03 1.91613892e-03 -1.31125958e-03 1.91613892e-03 -8.26110062e-03
2.53141386e-03 -1.69743379e-03 1.33398169e-03 -1.69743379e-03 2.64577754e-03 -2.00187194e-03 1.33398169e-03 -2.00187194e-03 -4.78386809e-03
3.15952272e-03 -1.66198373e-03 1.92944909e-03 -1.66198373e-03 3.76089872e-03 1.08823585e-03 1.92944909e-03 1.08823585e-03 -6.28752832e-03
-5.91803109e-06 -8.73635945e-04 8.49996199e-04 -8.73635945e-04 7.38099741e-04 -3.30298266e-04 8.49996199e-04 -3.30298266e-04 -7.86025892e-04
1.75822037e-03 -1.66148368e-03 1.94136925e-03 -1.66148368e-03 2.19507304e-03 3.78026487e-03 1.94136925e-03 3.78026487e-03 -3.73488261e-03
-4.90424689e-04 -6.01061038e-05 -3.18534649e-06 -6.01061038e-05 1.83289740e-04 -1.90515457e-04 -3.18534649e-06 -1.90515457e-04 1.90269442e-04
-3.84965053e-04 -4.95968139e-04 8.72586224e-06 -4.95968139e-04 1.35547263e-04 4.28824584e-04 8.72586224e-06 4.28824584e-04 1.32482459e-04
-2.12375471e-04 8.47599117e-05 1.46210650e-05 8.47599117e-05 6.84364345e-05 -2.30506191e-06 1.46210650e-05 -2.30506191e-06 7.73645161e-05
-1.12371223e-04 3.76823870e-05 3.56980915e-05 3.76823870e-05 3.06655777e-05 -3.96557674e-05 3.56980915e-05 -3.96557674e-05 3.30646841e-05
-4.92030449e-05 8.87291026e-05 -3.12634038e-05 8.87291026e-05 -6.65042753e-05 1.81889463e-05 -3.12634038e-05 1.81889463e-05 5.11674152e-05
-2.64243163e-05 2.49457453e-05 4.20604774e-05 2.49457453e-05 -4.77340163e-05 1.83205975e-05 4.20604774e-05 1.83205975e-05 3.57634453e-05
6.18941244e-03 1.31267473e-06 1.31077267e-03 1.31267473e-06 1.04860836e-02 -1.86292949e-03 1.31077267e-03 -1.86292949e-03 -1.43974521e-02
6.90894458e-03 -5.42113907e-04 2.27630860e-03 -5.42113907e-04 9.94749903e-03 -6.44391861e-04 2.27630860e-03 -6.44391861e-04 -1.45709219e-02
5.97011542e-03 -2.24555578e-03 1.58672641e-03 -2.24555578e-03 9.87724459e-03 -1.43416245e-03 1.58672641e-03 -1.43416245e-03 -1.36269112e-02
5.52510505e-03 -4.52903965e-04 1.90133721e-03 -4.52903965e-04 1.02021450e-02 -8.96237296e-04 1.90133721e-03 -8.96237296e-04 -1.35728649e-02
8.45522038e-03 -1.91916435e-03 -1.40613538e-04 -1.91916435e-03 8.69075651e-03 -4.17425668e-04 -1.40613538e-04 -4.17425668e-04 -1.47526301e-02
7.86742033e-03 -2.88737364e-03 8.09827805e-04 -2.88737364e-03 9.19635210e-03 -2.74039230e-03 8.09827805e-04 -2.74039230e-03 -1.46178489e-02
1.01600122e-02 1.25217484e-04 3.49544040e-04 1.25217484e-04 7.92730052e-03 -2.46461533e-03 3.49544040e-04 -2.46461533e-03 -1.55046303e-02
9.73612175e-03 -1.22757658e-03 1.28695299e-03 -1.22757658e-03 9.89882898e-03 9.31366718e-04 1.28695299e-03 9.31366718e-04 -1.68289401e-02
1.12770277e-02 -1.00270950e-03 5.87861799e-03 -1.00270950e-03 8.24535685e-03 -2.36004090e-03 5.87861799e-03 -2.36004090e-03 -1.67598107e-02
1.05095610e-02 -8.73855141e-04 1.36580421e-03 -8.73855141e-04 1.12594601e-02 1.70913826e-03 1.36580421e-03 1.70913826e-03 -1.86899446e-02
1.04474782e-02 -6.50739006e-04 6.25926373e-03 -6.50739006e-04 9.21442884e-03 -1.88871243e-03 6.25926373e-03 -1.88871243e-03 -1.67772218e-02
1.09634514e-02 -3.77737335e-04 3.85156706e-03 -3.77737335e-04 1.12068879e-02 -2.62606341e-04 3.85156706e-03 -2.62606341e-04 -1.89560778e-02
9.72300791e-03 2.65985006e-03 5.56333736e-03 2.65985006e-03 9.49224317e-03 -3.10782576e-03 5.56333736e-03 -3.10782576e-03 -1.63027607e-02
1.07921618e-02 1.91953089e-03 -9.60967445e-05 1.91953089e-03 1.06888618e-02 -2.17416653e-03 -9.60967445e-05 -2.17416653e-03 -1.82153010e-02
5.11676518e-03 -1.78470193e-03 2.30168453e-03 -1.78470193e-03 8.97427858e-03 -2.03255321e-03 2.30168453e-03 -2.03255321e-03 -1.21031216e-02
4.11571289e-03 -7.69967606e-04 4.56152181e-03 -7.69967606e-04 9.00766009e-03 -2.35043332e-03 4.56152181e-03 -2.35043332e-03 -1.12604708e-02
7.96386327e-03 -1.34914738e-03 5.87170870e-03 -1.34914738e-03 1.04806177e-02 -2.64448347e-04 5.87170870e-03 -2.64448347e-04 -1.62628000e-02
1.10580226e-02 -2.55927443e-03 1.08532920e-02 -2.55927443e-03 1.31373070e-02 -1.87390577e-04 1.08532920e-02 -1.87390577e-04 -2.15523697e-02
1.20880823e-02 -2.74763457e-04 2.95650848e-03 -2.74763457e-04 1.49804244e-02 3.86260853e-03 2.95650848e-03 3.86260853e-03 -2.38097860e-02
1.34246298e-02 -1.28369662e-04 5.11511229e-03 -1.28369662e-04 1.52389316e-02 7.69034374e-03 5.11511229e-03 7.69034374e-03 -2.52913153e-02
1.38701727e-02 1.27771631e-03 -1.29128766e-03 1.27771631e-03 1.52398548e-02 5.78230701e-03 -1.29128766e-03 5.78230701e-03 -2.56613223e-02
3.70953669e-03 2.56376188e-04 5.31848380e-03 2.56376188e-04 6.07676280e-03 1.68693980e-04 5.31848380e-03 1.68693980e-04 -8.26633966e-03
3.68810521e-03 1.83932345e-04 3.36823132e-03 1.83932345e-04 6.36545336e-03 -1.85416816e-03 3.36823132e-03 -1.85416816e-03 -8.64390633e-03
4.39743228e-03 -1.17597964e-03 7.07630128e-03 -1.17597964e-03 7.46805807e-03 7.29686910e-03 7.07630128e-03 7.29686910e-03 -1.04570447e-02
-2.53952784e-03 -5.05862117e-03 9.44164908e-03 -5.05862117e-03 2.02552960e-03 5.84669667e-03 9.44164908e-03 5.84669667e-03 1.76291881e-03
3.79198714e-03 -3.12725164e-04 3.33556448e-03 -3.12725164e-04 3.24897774e-03 1.50517462e-03 3.33556448e-03 1.50517462e-03 -6.01922732e-03
3.70422489e-03 2.82107678e-04 2.23718215e-03 2.82107678e-04 3.53537133e-03 1.55718869e-03 2.23718215e-03 1.55718869e-03 -6.27998298e-03
2.57610743e-03 -2.41178121e-03 2.77037793e-03 -2.41178121e-03 2.19496860e-03 2.74959844e-03 2.77037793e-03 2.74959844e-03 -3.86434458e-03
4.49536717e-04 -1.71840279e-04 -3.46244685e-03 -1.71840279e-04 9.24389130e-04 1.54407594e-03 -3.46244685e-03 1.54407594e-03 -7.03001434e-04
3.61988507e-03 -1.74972568e-03 4.64472587e-04 -1.74972568e-03 3.28144993e-03 1.71895335e-03 4.64472587e-04 1.71895335e-03 -6.04708021e-03
3.34304362e-03 -6.56660704e-04 6.32890667e-04 -6.56660704e-04 2.47992619e-03 1.54975944e-03 6.32890667e-04 1.54975944e-03 -5.05209062e-03
4.28077171e-03 -2.08377789e-03 6.00813524e-04 -2.08377789e-03 4.38540998e-03 2.29887873e-03 6.00813524e-04 2.29887873e-03 -7.58144667e-03
5.22269029e-03 2.55617546e-04 -3.10355327e-03 2.55617546e-04 5.38549310e-03 3.79713572e-03 -3.10355327e-03 3.79713572e-03 -9.38419846e-03
3.17902424e-03 -1.40476145e-05 -1.07925650e-03 -1.40476145e-05 4.28280781e-03 -4.94763022e-04 -1.07925650e-03 -4.94763022e-04 -6.60334004e-03
3.32815468e-03 1.30649656e-03 7.74041982e-04 1.30649656e-03 3.43582581e-03 -8.04024690e-04 7.74041982e-04 -8.04024690e-04 -6.02543331e-03
5.26858773e-03 -5.04294861e-04 1.41228284e-03 -5.04294861e-04 6.49901258e-03 -7.34890855e-05 1.41228284e-03 -7.34890855e-05 -1.03903217e-02
9.74295801e-03 2.37370594e-04 3.15303623e-03 2.37370594e-04 1.03579527e-02 7.59082974e-03 3.15303623e-03 7.59082974e-03 -1.84792941e-02
4.71839894e-06 -3.22370724e-05 3.91430740e-06 -3.22370724e-05 -1.90795618e-06 -6.31138471e-06 3.91430740e-06 -6.31138471e-06 -7.14160512e-06
-3.90508478e-06 -2.49938048e-05 -1.59166193e-05 -2.49938048e-05 6.20753099e-06 -3.99052351e-06 -1.59166193e-05 -3.99052351e-06 -6.81129563e-06
6.97810970e-06 -8.98654753e-06 1.71067511e-05 -8.98654753e-06 1.04160495e-05 9.26488133e-06 1.71067511e-05 9.26488133e-06 -2.20646389e-05
5.25541168e-06 -1.61661292e-05 -1.19473009e-05 -1.61661292e-05 -7.57843327e-06 -1.30318167e-05 -1.19473009e-05 -1.30318167e-05 -2.34089180e-06
8.48456845e-03 1.51285781e-06 3.27571435e-03 1.51285781e-06 8.74236645e-03 -1.04685593e-03 3.27571435e-03 -1.04685593e-03 -1.48745067e-02
8.71362048e-03 -8.56762217e-05 2.78441649e-03 -8.56762217e-05 8.22156668e-03 1.47142680e-04 2.78441649e-03 1.47142680e-04 -1.46259037e-02
8.49140057e-03 -2.68307239e-03 3.70905263e-03 -2.68307239e-03 8.44761397e-03 9.38627953e-04 3.70905263e-03 9.38627953e-04 -1.45934202e-02
7.97290425e-03 5.56853065e-05 3.38959275e-03 5.56853065e-05 9.12760687e-03 -1.53651272e-03 3.38959275e-03 -1.53651272e-03 -1.47814318e-02
9.59446072e-03 -2.28472432e-03 4.20373143e-03 -2.28472432e-03 6.58278004e-03 2.25971771e-04 4.20373143e-03 2.25971771e-04 -1.39171719e-02
9.54855199e-03 -3.95638228e-03 2.26000916e-03 -3.95638228e-03 7.51687709e-03 8.58848965e-04 2.26000916e-03 8.58848965e-04 -1.46487323e-02
1.04376827e-02 9.85532006e-05 1.52983837e-03 9.85532006e-05 5.18361432e-03 1.62585068e-03 1.52983837e-03 1.62585068e-03 -1.33973646e-02
1.02353180e-02 -2.00608061e-03 -1.61702614e-03 -2.00608061e-03 7.65189138e-03 -1.67972938e-03 -1.61702614e-03 -1.67972938e-03 -1.53056037e-02
9.89976805e-03 1.17814876e-04 -1.74700329e-03 1.17814876e-04 4.79897996e-03 -5.36296848e-04 -1.74700329e-03 -5.36296848e-04 -1.25419837e-02
1.00865693e-02 1.02003199e-03 -1.05985325e-03 1.02003199e-03 9.27357329e-03 -3.03708453e-04 -1.05985325e-03 -3.03708453e-04 -1.67343442e-02
7.88507494e-03 8.35343511e-04 1.03861062e-03 8.35343511e-04 5.13862725e-03 -1.56891114e-03 1.03861062e-03 -1.56891114e-03 -1.10509051e-02
9.41726798e-03 1.29731106e-03 2.20005477e-05 1.29731106e-03 8.34013952e-03 4.57546084e-04 2.20005477e-05 4.57546084e-04 -1.52782387e-02
7.11818296e-03 1.54132239e-03 1.42574275e-03 1.54132239e-03 4.15456528e-03 -1.59646160e-03 1.42574275e-03 -1.59646160e-03 -9.43421759e-03
8.49558390e-03 1.20950536e-03 2.44750714e-04 1.20950536e-03 6.92055700e-03 -1.47957916e-03 2.44750714e-04 -1.47957916e-03 -1.30403405e-02
6.80739072e-03 -4.47512299e-03 8.07046800e-03 -4.47512299e-03 9.05961392e-03 -1.21757026e-03 8.07046800e-03 -1.21757026e-03 -1.34534086e-02
5.61283843e-03 -2.88732094e-03 5.30332141e-03 -2.88732094e-03 9.82979848e-03 -1.02018422e-03 5.30332141e-03 -1.02018422e-03 -1.32247491e-02
1.00639381e-02 -1.16342507e-03 4.44601679e-03 -1.16342507e-03 9.49495206e-03 -2.50511275e-03 4.44601679e-03 -2.50511275e-03 -1.69675692e-02
1.34948075e-02 -2.69048388e-03 -1.45729474e-02 -2.69048388e-03 1.20363747e-02 5.40983630e-04 -1.45729474e-02 5.40983630e-04 -2.29092225e-02
1.28941375e-02 4.22088255e-04 -3.07211690e-03 4.22088255e-04 1.42497527e-02 3.52076381e-03 -3.07211690e-03 3.52076381e-03 -2.41871411e-02
1.19631956e-02 -8.10406651e-04 -1.64182083e-03 -8.10406651e-04 1.20873060e-02 1.82645624e-03 -1.64182083e-03 1.82645624e-03 -2.11331523e-02
1.08225802e-02 2.90698881e-04 -1.63452909e-03 2.90698881e-04 1.03706201e-02 4.73584951e-04 -1.63452909e-03 4.73584951e-04 -1.83318574e-02
5.48849107e-03 -2.27105962e-03 8.62741889e-03 -2.27105962e-03 8.70827113e-03 -1.50716731e-04 8.62741889e-03 -1.50716731e-04 -1.22059645e-02
3.02226195e-03 2.63457041e-04 6.23140240e-03 2.63457041e-04 8.02972098e-03 3.43506190e-03 6.23140240e-03 3.43506190e-03 -9.19346127e-03
1.09120127e-02 -5.28808648e-03 1.43233433e-02 -5.28808648e-03 1.34524126e-02 -1.49412546e-02 1.43233433e-02 -1.49412546e-02 -2.19787788e-02
3.10675328e-03 -7.70386500e-04 3.19967354e-03 -7.70386500e-04 5.36970668e-03 4.04283016e-03 3.19967354e-03 4.04283016e-03 -7.16693686e-03
2.50267680e-03 -1.38061919e-03 5.77421804e-03 -1.38061919e-03 4.96527564e-03 1.15755561e-03 5.77421804e-03 1.15755561e-03 -6.20587042e-03
3.14631344e-03 -6.31271279e-04 2.27435096e-03 -6.31271279e-04 6.50039106e-03 1.06325217e-02 2.27435096e-03 1.06325217e-02 -8.42087634e-03
3.35968417e-03 1.17779017e-03 2.93550035e-03 1.17779017e-03 3.98789273e-03 6.96079893e-04 2.93550035e-03 6.96079893e-04 -5.97687997e-03
3.25074635e-03 1.54914116e-03 2.95104051e-04 1.54914116e-03 4.06612281e-03 -8.96511294e-04 2.95104051e-04 -8.96511294e-04 -6.18852209e-03
5.44637106e-03 -2.14532528e-03 -2.46497388e-03 -2.14532528e-03 7.38359256e-03 4.16565235e-03 -2.46497388e-03 4.16565235e-03 -1.07761480e-02
-1.72722014e-03 1.03674410e-02 -1.57016385e-02 1.03674410e-02 -1.18550379e-03 1.10383732e-02 -1.57016385e-02 1.10383732e-02 4.05902648e-03
1.08221429e-02 5.28471793e-03 -2.08604528e-02 5.28471793e-03 1.40631085e-02 6.49679080e-03 -2.08604528e-02 6.49679080e-03 -2.25506121e-02
5.31652820e-03 2.76116429e-03 6.02017166e-03 2.76116429e-03 6.16962538e-03 2.93831405e-03 6.02017166e-03 2.93831405e-03 -9.96821269e-03
3.72503581e-03 -2.50396144e-04 3.28185182e-03 -2.50396144e-04 6.36625383e-03 3.00490612e-03 3.28185182e-03 3.00490612e-03 -8.80950573e-03
</DataArray>
<DataArray type="Float32" Name="Plastic_strain_components" NumberOfComponents="9" format="ascii">
4.80333809e-03 -8.91432137e-08 9.62600097e-08 -8.91432137e-08 1.27897616e-02 8.67512426e-08 9.62600097e-08 8.67512426e-08 -1.47123290e-02
5.34476480e-03 7.36991205e-04 -3.19864739e-08 7.36991205e-04 1.34696029e-02 2.97316816e-04 -3.19864739e-08 2.97316816e-04 -1.57444468e-02
5.78703277e-03 2.33217070e-03 -1.34885049e-03 2.33217070e-03 1.15700176e-02 -3.93492512e-04 -1.34885049e-03 -3.93492512e-04 -1.45475604e-02
5.29690180e-03 8.44781694e-04 -6.89409324e-04 8.44781694e-04 1.08882398e-02 3.49837137e-08 -6.89409324e-04 3.49837137e-08 -1.35710179e-02
4.96525457e-03 5.26367785e-07 1.35369960e-03 5.26367785e-07 1.19575351e-02 -8.48271069e-04 1.35369960e-03 -8.48271069e-04 -1.41660478e-02
5.57840872e-03 4.38812003e-05 9.37606645e-04 4.38812003e-05 1.22711828e-02 -1.26825456e-03 9.37606645e-04 -1.26825456e-03 -1.49573921e-02
5.64831897e-03 8.90860905e-04 3.71638558e-04 8.90860905e-04 1.09918002e-02 -1.54750977e-03 3.71638558e-04 -1.54750977e-03 -1.39567590e-02
5.13492071e-03 1.84362361e-04 6.27475623e-04 1.84362361e-04 1.08047912e-02 -1.26393756e-03 6.27475623e-04 -1.26393756e-03 -1.33609646e-02
6.67355023e-03 4.60287934e-04 4.26542101e-07 4.60287934e-04 1.56287993e-02 1.54899441e-04 4.26542101e-07 1.54899441e-04 -1.86852999e-02
6.64488925e-03 3.27497162e-03 -2.41651386e-03 3.27497162e-03 1.29079432e-02 1.12163169e-04 -2.41651386e-03 1.12163169e-04 -1.63839066e-02
6.90234290e-03 4.16243907e-04 2.05972086e-03 4.16243907e-04 1.29402152e-02 -1.61783470e-03 2.05972086e-03 -1.61783470e-03 -1.66548414e-02
7.03331723e-03 1.45325097e-03 2.45622618e-04 1.45325097e-03 1.22021033e-02 -2.06263151e-03 2.45622618e-04 -2.06263151e-03 -1.61544064e-02
8.31952621e-03 2.57772466e-04 1.04670198e-06 2.57772466e-04 1.79666206e-02 1.30364898e-03 1.04670198e-06 1.30364898e-03 -2.20412929e-02
7.82654621e-03 2.14326460e-03 -3.69114167e-03 2.14326460e-03 1.46292946e-02 3.66417429e-04 -3.69114167e-03 3.66417429e-04 -1.88363101e-02
8.87215452e-03 -6.84233644e-04 2.37411837e-03 -6.84233644e-04 1.41844812e-02 -8.04133488e-04 2.37411837e-03 -8.04133488e-04 -1.93896443e-02
8.43879470e-03 -2.44927578e-04 1.24554955e-03 -2.44927578e-04 1.33686624e-02 -1.26747106e-03 1.24554955e-03 -1.26747106e-03 -1.83174608e-02
1.05721215e-02 -2.12012499e-03 2.31375816e-06 -2.12012499e-03 1.92891527e-02 1.45335199e-03 2.31375816e-06 1.45335199e-03 -2.50776988e-02
9.73702339e-03 -9.20039172e-04 -5.08560368e-03 -9.20039172e-04 1.66676778e-02 1.49047349e-03 -5.08560368e-03 1.49047349e-03 -2.21684356e-02
1.13231689e-02 -2.07640108e-03 1.29618260e-03 -2.07640108e-03 1.53221625e-02 -9.25775530e-04 1.29618260e-03 -9.25775530e-04 -2.24318779e-02
9.99219960e-03 -2.36546760e-03 1.07428242e-03 -2.36546760e-03 1.36137034e-02 -1.97561661e-04 1.07428242e-03 -1.97561661e-04 -1.98320646e-02
1.35305584e-02 -4.41493234e-03 3.36165704e-06 -4.41493234e-03 2.15189904e-02 5.08744095e-04 3.36165704e-06 5.08744095e-04 -2.94699613e-02
1.14606295e-02 -2.64397747e-03 -6.23811991e-03 -2.64397747e-03 1.82430679e-02 2.20385363e-03 -6.23811991e-03 2.20385363e-03 -2.49346872e-02
1.27041023e-02 -2.70694704e-03 2.72301520e-03 -2.70694704e-03 1.67095279e-02 -2.07711303e-03 2.72301520e-03 -2.07711303e-03 -2.47551589e-02
1.20470495e-02 -3.60311088e-03 2.92975432e-03 -3.60311088e-03 1.46465527e-02 -5.27363896e-04 2.92975432e-03 -5.27363896e-04 -2.24182827e-02
1.29500888e-02 -9.65904072e-03 -9.70628753e-06 -9.65904072e-03 2.72418074e-02 -3.08609102e-03 -9.70628753e-06 -3.08609102e-03 -3.36717926e-02
1.18681588e-02 -5.07914228e-03 -9.11057601e-03 -5.07914228e-03 2.24325489e-02 4.87246085e-03 -9.11057601e-03 4.87246085e-03 -2.86902860e-02
1.18261515e-02 -1.67488767e-03 7.26553932e-04 -1.67488767e-03 2.06486527e-02 -4.48970299e-03 7.26553932e-04 -4.48970299e-03 -2.72999341e-02
1.21746690e-02 -3.62485572e-03 6.81953970e-05 -3.62485572e-03 1.77380354e-02 -4.53211942e-04 6.81953970e-05 -4.53211942e-04 -2.50784121e-02
6.23954122e-03 2.38421731e-03 -7.66826444e-04 2.38421731e-03 7.00236659e-03 -8.50343014e-04 -7.66826444e-04 -8.50343014e-04 -1.11294147e-02
6.23895437e-03 7.83269032e-04 -6.24224893e-04 7.83269032e-04 7.02678179e-03 2.56446128e-07 -6.24224893e-04 2.56446128e-07 -1.11630722e-02
5.82003867e-03 1.68431665e-03 1.77403105e-03 1.68431665e-03 7.81662029e-03 -1.10924819e-03 1.77403105e-03 -1.10924819e-03 -1.14570548e-02
5.29266428e-03 6.40028564e-04 1.39551872e-03 6.40028564e-04 7.41626462e-03 -6.72219139e-05 1.39551872e-03 -6.72219139e-05 -1.06892099e-02
5.74813900e-03 3.36877885e-03 -1.42516597e-03 3.36877885e-03 6.70714618e-03 -1.13809528e-03 -1.42516597e-03 -1.13809528e-03 -1.04468311e-02
5.96486684e-03 1.97212286e-03 2.47977208e-03 1.97212286e-03 8.03912932e-03 9.73397764e-05 2.47977208e-03 9.73397764e-05 -1.17570439e-02
4.48114920e-03 2.39205846e-03 -2.35497957e-03 2.39205846e-03 6.00674539e-03 -7.68783939e-04 -2.35497957e-03 -7.68783939e-04 -8.80624284e-03
5.94232813e-03 -1.84812543e-05 5.54440377e-03 -1.84812543e-05 8.34605477e-03 1.18596631e-03 5.54440377e-03 1.18596631e-03 -1.19721277e-02
4.48218273e-03 -1.34294025e-03 -4.78260603e-03 -1.34294025e-03 6.89950358e-03 1.14965611e-03 -4.78260603e-03 1.14965611e-03 -9.51765757e-03
6.33377916e-03 -3.20947492e-03 7.40794395e-03 -3.20947492e-03 9.91794948e-03 2.74555103e-03 7.40794395e-03 2.74555103e-03 -1.35665531e-02
4.59367112e-03 -3.39588831e-03 -4.92137007e-03 -3.39588831e-03 6.20393560e-03 2.70928431e-03 -4.92137007e-03 2.70928431e-03 -8.95959430e-03
6.74182821e-03 -4.96351294e-03 9.47102470e-03 -4.96351294e-03 1.00078786e-02 6.60567358e-03 9.47102470e-03 6.60567358e-03 -1.38482121e-02
5.23091108e-03 -5.72214241e-03 -4.73678648e-03 -5.72214241e-03 6.08481257e-03 5.64062549e-03 -4.73678648e-03 5.64062549e-03 -9.34666116e-03
7.73965319e-03 -7.77909625e-03 9.74643463e-03 -7.77909625e-03 1.17030603e-02 9.71213526e-03 9.74643463e-03 9.71213526e-03 -1.60187362e-02
6.00696693e-03 9.42030900e-04 -1.39868150e-05 9.42030900e-04 3.24003829e-03 -9.82950907e-04 -1.39868150e-05 -9.82950907e-04 -7.75777083e-03
6.62713428e-03 5.52654063e-04 2.80089764e-04 5.52654063e-04 3.77153687e-03 2.91129339e-07 2.80089764e-04 2.91129339e-07 -8.73511424e-03
5.71434054e-03 7.17383156e-04 2.24976515e-03 7.17383156e-04 4.13666308e-03 -1.05577830e-04 2.24976515e-03 -1.05577830e-04 -8.27378710e-03
5.37211110e-03 2.56868545e-04 1.94971825e-03 2.56868545e-04 4.03664197e-03 1.00487730e-03 1.94971825e-03 1.00487730e-03 -7.90848257e-03
4.23560472e-03 1.08965108e-03 -8.13838269e-05 1.08965108e-03 2.09439555e-03 -1.06102845e-03 -8.13838269e-05 -1.06102845e-03 -5.31018048e-03
4.27577368e-03 7.06851487e-04 2.86679682e-03 7.06851487e-04 2.75813304e-03 7.06463357e-04 2.86679682e-03 7.06463357e-04 -5.89117652e-03
1.49761552e-03 3.69625326e-04 -6.88978573e-04 3.69625326e-04 8.48660115e-04 -1.10333515e-03 -6.88978573e-04 -1.10333515e-03 -1.98544248e-03
1.02282456e-03 -6.60227747e-04 2.68193856e-03 -6.60227747e-04 8.16621562e-04 -1.70140809e-04 2.68193856e-03 -1.70140809e-04 -1.46613694e-03
7.09484642e-04 -2.60620764e-03 -1.82568639e-03 -2.60620764e-03 -3.30457799e-04 -6.58912293e-04 -1.82568639e-03 -6.58912293e-04 -2.24516135e-04
3.06782972e-04 -4.32583131e-03 4.82297790e-03 -4.32583131e-03 1.30465972e-03 1.00747743e-03 4.82297790e-03 1.00747743e-03 -9.28819752e-04
4.18167969e-04 -6.94578708e-04 -1.59879157e-03 -6.94578708e-04 -9.63376657e-04 -5.00322766e-04 -1.59879157e-03 -5.00322766e-04 5.49268724e-04
2.04396502e-04 -1.97741587e-03 4.79110121e-03 -1.97741587e-03 6.91352034e-04 -5.38426985e-04 4.79110121e-03 -5.38426985e-04 -2.89466707e-04
5.37536544e-04 -5.42849768e-04 -9.53802315e-04 -5.42849768e-04 -1.67073167e-03 3.09931420e-04 -9.53802315e-04 3.09931420e-04 1.30385323e-03
5.18270186e-04 -2.57297908e-03 3.71003844e-03 -2.57297908e-03 -2.08461366e-04 -1.23051112e-04 3.71003844e-03 -1.23051112e-04 3.41779058e-04
5.58408839e-03 -2.90376618e-04 5.31310448e-04 -2.90376618e-04 2.09359542e-03 -9.19930695e-04 5.31310448e-04 -9.19930695e-04 -6.42020907e-03
6.30057370e-03 -2.39925619e-04 4.49800486e-04 -2.39925619e-04 2.61504366e-03 2.89008568e-07 4.49800486e-04 2.89008568e-07 -7.46681239e-03
4.95138334e-03 -5.95050955e-04 1.50411455e-03 -5.95050955e-04 2.28725284e-03 2.61751662e-04 1.50411455e-03 2.61751662e-04 -6.06039341e-03
5.47847035e-03 -1.56388960e-04 9.56944936e-04 -1.56388960e-04 2.65532942e-03 8.86766138e-04 9.56944936e-04 8.86766138e-04 -6.81493874e-03
3.37073451e-03 -3.62384304e-04 -3.15960169e-04 -3.62384304e-04 1.10378950e-03 -1.17707491e-03 -3.15960169e-04 -1.17707491e-03 -3.73376993e-03
3.18575685e-03 -1.03071879e-03 9.89431819e-04 -1.03071879e-03 1.16512988e-03 6.69401554e-04 9.89431819e-04 6.69401554e-04 -3.62170176e-03
7.29893822e-04 -5.99851378e-04 -3.18408420e-04 -5.99851378e-04 2.05121860e-04 -8.98754675e-04 -3.18408420e-04 -8.98754675e-04 -7.51073632e-04
1.23956377e-03 -4.55319384e-04 -4.66861208e-04 -4.55319384e-04 3.17571421e-04 3.93648501e-04 -4.66861208e-04 3.93648501e-04 -1.29009873e-03
-5.72184023e-05 -2.55334382e-04 6.51128548e-05 -2.55334382e-04 -8.55393440e-05 2.43996497e-05 6.51128548e-05 2.43996497e-05 1.19966121e-04
1.05493210e-04 5.62119252e-05 -1.49098555e-04 5.62119252e-05 1.92405838e-04 2.97977763e-04 -1.49098555e-04 2.97977763e-04 -2.39708560e-04
7.33990513e-04 -1.51650258e-03 9.53470953e-05 -1.51650258e-03 -1.13987888e-03 2.69905286e-05 9.53470953e-05 2.69905286e-05 6.42998901e-04
-3.43030492e-05 -8.68020652e-04 2.69047769e-05 -8.68020652e-04 1.22612454e-04 7.84599480e-07 2.69047769e-05 7.84599480e-07 -4.37487553e-05
5.36886218e-04 -1.59225415e-03 -3.57769022e-04 -1.59225415e-03 -8.05018237e-04 -3.05880531e-05 -3.57769022e-04 -3.05880531e-05 4.32358793e-04
-2.15285803e-04 -7.53457975e-04 -3.28423258e-04 -7.53457975e-04 5.08409630e-04 -3.10439695e-05 -3.28423258e-04 -3.10439695e-05 -2.40129166e-04
5.07099438e-03 -7.93057817e-04 4.12425470e-04 -7.93057817e-04 2.87737814e-03 -8.13738719e-04 4.12425470e-04 -8.13738719e-04 -6.67315442e-03
6.20872248e-03 -7.34349858e-04 1.41118420e-04 -7.34349858e-04 3.45542829e-03 2.41658427e-07 1.41118420e-04 2.41658427e-07 -8.11749743e-03
4.47228982e-03 -9.51722468e-04 1.58458784e-04 -9.51722468e-04 2.76701248e-03 8.64098576e-04 1.58458784e-04 8.64098576e-04 -6.07664051e-03
5.17252495e-03 -4.55887537e-04 -3.72486193e-04 -4.55887537e-04 3.14885285e-03 1.61003447e-03 -3.72486193e-04 1.61003447e-03 -6.98384747e-03
2.71530973e-03 -7.16342707e-04 2.51216446e-04 -7.16342707e-04 1.49332371e-03 -1.44074109e-03 2.51216446e-04 -1.44074109e-03 -3.51486163e-03
2.68503612e-03 -1.26320448e-03 2.99434767e-04 -1.26320448e-03 2.11502724e-03 1.18591692e-03 2.99434767e-04 1.18591692e-03 -4.02360791e-03
3.41342615e-04 -4.47711998e-04 -6.40567414e-05 -4.47711998e-04 1.31407913e-04 -3.77507527e-04 -6.40567414e-05 -3.77507527e-04 -3.98451284e-04
1.49903463e-03 -4.85468032e-04 -2.44981460e-04 -4.85468032e-04 9.46011569e-04 2.08024415e-03 -2.44981460e-04 2.08024415e-03 -2.01353978e-03
-1.22350880e-05 1.75828227e-05 2.62478912e-06 1.75828227e-05 -2.23427192e-05 4.41707420e-05 2.62478912e-06 4.41707420e-05 2.89122692e-05
2.12097257e-06 -2.89547304e-05 2.20591063e-05 -2.89547304e-05 -8.50824358e-05 -4.67867049e-05 2.20591063e-05 -4.67867049e-05 6.29997037e-05
-2.17717414e-07 -1.62409364e-07 -4.71444892e-08 -1.62409364e-07 9.61916555e-08 2.28675856e-09 -4.71444892e-08 2.28675856e-09 8.15441155e-08
6.50026004e-07 4.84896009e-07 1.40756515e-07 4.84896009e-07 -2.87193734e-07 -6.82743959e-09 1.40756515e-07 -6.82743959e-09 -2.43461432e-07
0.00000000e+00 0.00000000e+00 0.00000000e+00 0.00000000e+00 0.00000000e+00 0.00000000e+00 0.00000000e+00 0.00000000e+00 0.00000000e+00
0.00000000e+00 0.00000000e+00 0.00000000e+00 0.00000000e+00 0.00000000e+00 0.00000000e+00 0.00000000e+00 0.00000000e+00 0.00000000e+00
5.39370836e-03 -1.03194094e-03 -1.22592487e-05 -1.03194094e-03 3.62664449e-03 -1.37042755e-03 -1.22592487e-05 -1.37042755e-03 -7.57599552e-03
7.06425030e-03 -9.22671752e-04 2.45238130e-04 -9.22671752e-04 4.00060834e-03 5.26120857e-07 2.45238130e-04 5.26120857e-07 -9.29618813e-03
4.96052054e-03 -1.10273808e-03 3.57386307e-05 -1.10273808e-03 3.70177010e-03 -4.95640343e-05 3.57386307e-05 -4.95640343e-05 -7.28585140e-03
5.32612950e-03 -1.17287249e-03 -1.26028853e-03 -1.17287249e-03 3.75014672e-03 1.83580886e-03 -1.26028853e-03 1.83580886e-03 -7.62603199e-03
2.46097357e-03 -1.56903896e-03 1.18465425e-03 -1.56903896e-03 2.52515939e-03 -1.78171491e-03 1.18465425e-03 -1.78171491e-03 -4.15874773e-03
3.08707490e-03 -1.51769607e-03 1.81770453e-03 -1.51769607e-03 3.62915470e-03 1.00347756e-03 1.81770453e-03 1.00347756e-03 -5.63454302e-03
9.72251291e-06 -7.19332405e-04 4.95773886e-04 -7.19332405e-04 4.80776245e-04 -2.72731268e-04 4.95773886e-04 -2.72731268e-04 -3.83475985e-04
1.79639916e-03 -1.44893314e-03 1.77170060e-03 -1.44893314e-03 2.07329768e-03 3.31443247e-03 1.77170060e-03 3.31443247e-03 -3.14764151e-03
2.02025531e-05 2.20773891e-05 -4.41410739e-05 2.20773891e-05 -7.53090790e-05 -5.27565498e-05 -4.41410739e-05 -5.27565498e-05 3.76158605e-05
-1.02217426e-04 -2.89652700e-04 -7.27166434e-06 -2.89652700e-04 6.32969095e-05 2.36952168e-04 -7.27166434e-06 2.36952168e-04 7.34709538e-05
0.00000000e+00 0.00000000e+00 0.00000000e+00 0.00000000e+00 0.00000000e+00 0.00000000e+00 0.00000000e+00 0.00000000e+00 0.00000000e+00
0.00000000e+00 0.00000000e+00 0.00000000e+00 0.00000000e+00 0.00000000e+00 0.00000000e+00 0.00000000e+00 0.00000000e+00 0.00000000e+00
0.00000000e+00 0.00000000e+00 0.00000000e+00 0.00000000e+00 0.00000000e+00 0.00000000e+00 0.00000000e+00 0.00000000e+00 0.00000000e+00
0.00000000e+00 0.00000000e+00 0.00000000e+00 0.00000000e+00 0.00000000e+00 0.00000000e+00 0.00000000e+00 0.00000000e+00 0.00000000e+00
6.13017986e-03 1.33848357e-06 1.29961240e-03 1.33848357e-06 1.03126597e-02 -1.80515123e-03 1.29961240e-03 -1.80515123e-03 -1.38143934e-02
6.83206692e-03 -5.30008954e-04 2.22193974e-03 -5.30008954e-04 9.78865661e-03 -6.20465900e-04 2.22193974e-03 -6.20465900e-04 -1.39799090e-02
5.89567283e-03 -2.18937069e-03 1.54691331e-03 -2.18937069e-03 9.69646184e-03 -1.41003565e-03 1.54691331e-03 -1.41003565e-03 -1.30836865e-02
5.47532702e-03 -4.43991928e-04 1.85497431e-03 -4.43991928e-04 1.00157156e-02 -8.80829553e-04 1.85497431e-03 -8.80829553e-04 -1.29954647e-02
8.32606712e-03 -1.86647952e-03 -1.48909960e-04 -1.86647952e-03 8.55448865e-03 -4.17715781e-04 -1.48909960e-04 -4.17715781e-04 -1.42259661e-02
7.74967851e-03 -2.81296720e-03 7.99995934e-04 -2.81296720e-03 9.04030737e-03 -2.66592750e-03 7.99995934e-04 -2.66592750e-03 -1.40802368e-02
9.99278296e-03 1.20828368e-04 3.45179316e-04 1.20828368e-04 7.81285169e-03 -2.42068708e-03 3.45179316e-04 -2.42068708e-03 -1.49968581e-02
9.59553820e-03 -1.18949850e-03 1.27507962e-03 -1.18949850e-03 9.75985033e-03 9.22153336e-04 1.27507962e-03 9.22153336e-04 -1.62558813e-02
1.11110802e-02 -9.76593466e-04 5.76983544e-03 -9.76593466e-04 8.16495111e-03 -2.31094936e-03 5.76983544e-03 -2.31094936e-03 -1.61907929e-02
1.03811091e-02 -8.50989185e-04 1.34097381e-03 -8.50989185e-04 1.11188440e-02 1.66159112e-03 1.34097381e-03 1.66159112e-03 -1.81011325e-02
1.02999081e-02 -6.28729322e-04 6.14705402e-03 -6.28729322e-04 9.10163415e-03 -1.86033198e-03 6.14705402e-03 -1.86033198e-03 -1.62882139e-02
1.08113484e-02 -3.70250493e-04 3.77309464e-03 -3.70250493e-04 1.10635258e-02 -2.69247824e-04 3.77309464e-03 -2.69247824e-04 -1.84049772e-02
9.57839377e-03 2.59952655e-03 5.46771497e-03 2.59952655e-03 9.35138273e-03 -3.07722605e-03 5.46771497e-03 -3.07722605e-03 -1.59074324e-02
1.06026703e-02 1.88567894e-03 -1.09501096e-04 1.88567894e-03 1.05196958e-02 -2.13553767e-03 -1.09501096e-04 -2.13553767e-03 -1.77762001e-02
5.03615604e-03 -1.72440491e-03 2.24113811e-03 -1.72440491e-03 8.78255279e-03 -1.96047135e-03 2.24113811e-03 -1.96047135e-03 -1.15930198e-02
4.06626484e-03 -7.35125868e-04 4.42290457e-03 -7.35125868e-04 8.81020376e-03 -2.28728697e-03 4.42290457e-03 -2.28728697e-03 -1.07442911e-02
7.95632375e-03 -1.30505513e-03 5.69701198e-03 -1.30505513e-03 1.03848622e-02 -2.49488046e-04 5.69701198e-03 -2.49488046e-04 -1.54126143e-02
1.11588523e-02 -2.44404302e-03 1.04770308e-02 -2.44404302e-03 1.31840140e-02 -2.10535154e-04 1.04770308e-02 -2.10535154e-04 -2.03590073e-02
1.21326961e-02 -2.67238865e-04 2.86953023e-03 -2.67238865e-04 1.49371682e-02 3.74434326e-03 2.86953023e-03 3.74434326e-03 -2.27732453e-02
1.35007489e-02 -1.27249907e-04 4.95511142e-03 -1.27249907e-04 1.52420520e-02 7.46321009e-03 4.95511142e-03 7.46321009e-03 -2.41393982e-02
1.39470254e-02 1.28282461e-03 -1.30223965e-03 1.28282461e-03 1.52262775e-02 5.59294899e-03 -1.30223965e-03 5.59294899e-03 -2.45127892e-02
3.59047831e-03 2.49873261e-04 5.13026764e-03 2.49873261e-04 5.87684737e-03 1.95047411e-04 5.13026764e-03 1.95047411e-04 -7.87687046e-03
3.59814608e-03 1.95309953e-04 3.25173586e-03 1.95309953e-04 6.17757801e-03 -1.78616744e-03 3.25173586e-03 -1.78616744e-03 -8.18142842e-03
4.42312760e-03 -1.13595571e-03 6.79027916e-03 -1.13595571e-03 7.37757158e-03 6.96148281e-03 6.79027916e-03 6.96148281e-03 -9.70666956e-03
-2.26893474e-03 -4.89729526e-03 9.18655610e-03 -4.89729526e-03 2.02059942e-03 5.31682465e-03 9.18655610e-03 5.31682465e-03 1.74717419e-03
3.62812568e-03 -3.04560874e-04 3.18193194e-03 -3.04560874e-04 3.12661935e-03 1.42944860e-03 3.18193194e-03 1.42944860e-03 -5.60051459e-03
3.54747032e-03 2.54842889e-04 2.12086023e-03 2.54842889e-04 3.39400704e-03 1.45699360e-03 2.12086023e-03 1.45699360e-03 -5.82952995e-03
2.38532334e-03 -2.23565368e-03 2.61216317e-03 -2.23565368e-03 2.02181320e-03 2.58276402e-03 2.61216317e-03 2.58276402e-03 -3.64043680e-03
2.42689353e-04 -1.44270873e-04 -3.07476559e-03 -1.44270873e-04 6.90672954e-04 1.40179030e-03 -3.07476559e-03 1.40179030e-03 -7.39002911e-04
3.47629163e-03 -1.65824901e-03 4.41109569e-04 -1.65824901e-03 3.16098251e-03 1.63528674e-03 4.41109569e-04 1.63528674e-03 -5.55021520e-03
3.15474690e-03 -6.10912277e-04 5.96941296e-04 -6.10912277e-04 2.35106456e-03 1.46801941e-03 5.96941296e-04 1.46801941e-03 -4.63515357e-03
4.15955533e-03 -1.97225508e-03 5.74089419e-04 -1.97225508e-03 4.27777805e-03 2.18708781e-03 5.74089419e-04 2.18708781e-03 -7.04471633e-03
5.10250987e-03 2.19140027e-04 -2.93929070e-03 2.19140027e-04 5.29486249e-03 3.62328574e-03 -2.93929070e-03 3.62328574e-03 -8.74817150e-03
3.08279681e-03 -1.59581873e-05 -1.04004951e-03 -1.59581873e-05 4.11577965e-03 -4.69663762e-04 -1.04004951e-03 -4.69663762e-04 -6.06037374e-03
3.20870162e-03 1.23940100e-03 7.30192289e-04 1.23940100e-03 3.30339873e-03 -7.71843828e-04 7.30192289e-04 -7.71843828e-04 -5.48623409e-03
5.19069145e-03 -5.17650798e-04 1.35632743e-03 -5.17650798e-04 6.33799285e-03 -6.76205054e-05 1.35632743e-03 -6.76205054e-05 -9.74453520e-03
9.89078823e-03 2.15540000e-04 3.11851234e-03 2.15540000e-04 1.04469128e-02 7.36982410e-03 3.11851234e-03 7.36982410e-03 -1.71230980e-02
0.00000000e+00 0.00000000e+00 0.00000000e+00 0.00000000e+00 0.00000000e+00 0.00000000e+00 0.00000000e+00 0.00000000e+00 0.00000000e+00
0.00000000e+00 0.00000000e+00 0.00000000e+00 0.00000000e+00 0.00000000e+00 0.00000000e+00 0.00000000e+00 0.00000000e+00 0.00000000e+00
0.00000000e+00 0.00000000e+00 0.00000000e+00 0.00000000e+00 0.00000000e+00 0.00000000e+00 0.00000000e+00 0.00000000e+00 0.00000000e+00
0.00000000e+00 0.00000000e+00 0.00000000e+00 0.00000000e+00 0.00000000e+00 0.00000000e+00 0.00000000e+00 0.00000000e+00 0.00000000e+00
8.37045442e-03 1.62591584e-06 3.18553392e-03 1.62591584e-06 8.61584116e-03 -1.03319541e-03 3.18553392e-03 -1.03319541e-03 -1.42953484e-02
8.58324859e-03 -8.81761371e-05 2.72288162e-03 -8.81761371e-05 8.09956831e-03 1.33901223e-04 2.72288162e-03 1.33901223e-04 -1.40391476e-02
8.37542949e-03 -2.61258889e-03 3.62373645e-03 -2.61258889e-03 8.32708279e-03 9.15226796e-04 3.62373645e-03 9.15226796e-04 -1.40342785e-02
7.87071558e-03 5.14411377e-05 3.30290350e-03 5.14411377e-05 8.99032899e-03 -1.48930826e-03 3.30290350e-03 -1.48930826e-03 -1.41831799e-02
9.42798587e-03 -2.21510121e-03 4.11677756e-03 -2.21510121e-03 6.49259589e-03 2.17738190e-04 4.11677756e-03 2.17738190e-04 -1.33694690e-02
9.39484983e-03 -3.85088084e-03 2.18603747e-03 -3.85088084e-03 7.41228281e-03 8.22107220e-04 2.18603747e-03 8.22107220e-04 -1.41111647e-02
1.02385157e-02 9.42181923e-05 1.49877934e-03 9.42181923e-05 5.11965505e-03 1.57740680e-03 1.49877934e-03 1.57740680e-03 -1.28868059e-02
1.00435634e-02 -1.95782802e-03 -1.59190457e-03 -1.95782802e-03 7.53951533e-03 -1.64868290e-03 -1.59190457e-03 -1.64868290e-03 -1.47675503e-02
9.67344525e-03 1.06745672e-04 -1.70258162e-03 1.06745672e-04 4.71664150e-03 -5.27481065e-04 -1.70258162e-03 -5.27481065e-04 -1.20793926e-02
9.94719443e-03 9.95841896e-04 -1.01303308e-03 9.95841896e-04 9.18340695e-03 -3.02727742e-04 -1.01303308e-03 -3.02727742e-04 -1.60855595e-02
7.66377337e-03 8.15262945e-04 1.00415494e-03 8.15262945e-04 5.00879972e-03 -1.52565909e-03 1.00415494e-03 -1.52565909e-03 -1.06582909e-02
9.26058239e-03 1.27188112e-03 2.46844038e-05 1.27188112e-03 8.23254639e-03 4.49858278e-04 2.46844038e-05 4.49858278e-04 -1.47277761e-02
6.87937811e-03 1.50984962e-03 1.38434645e-03 1.50984962e-03 4.00617940e-03 -1.54137728e-03 1.38434645e-03 -1.54137728e-03 -9.14096320e-03
8.29112076e-03 1.19251639e-03 2.51226131e-04 1.19251639e-03 6.77053025e-03 -1.44118472e-03 2.51226131e-04 -1.44118472e-03 -1.26762791e-02
6.71772641e-03 -4.35695107e-03 7.87233136e-03 -4.35695107e-03 8.89117870e-03 -1.20622683e-03 7.87233136e-03 -1.20622683e-03 -1.29442817e-02
5.54891804e-03 -2.80897738e-03 5.17048046e-03 -2.80897738e-03 9.64145595e-03 -1.00197102e-03 5.17048046e-03 -1.00197102e-03 -1.27229046e-02
9.94513171e-03 -1.13959622e-03 4.32091828e-03 -1.13959622e-03 9.39926252e-03 -2.47774864e-03 4.32091828e-03 -2.47774864e-03 -1.63549508e-02
1.36353448e-02 -2.61653183e-03 -1.41134385e-02 -2.61653183e-03 1.22054936e-02 5.61353657e-04 -1.41134385e-02 5.61353657e-04 -2.14628123e-02
1.29731176e-02 4.15549031e-04 -2.93874234e-03 4.15549031e-04 1.42748482e-02 3.42975861e-03 -2.93874234e-03 3.42975861e-03 -2.29404545e-02
1.19585337e-02 -7.96055916e-04 -1.61719881e-03 -7.96055916e-04 1.20691482e-02 1.77173101e-03 -1.61719881e-03 1.77173101e-03 -2.02268870e-02
1.07411123e-02 2.79951899e-04 -1.61349564e-03 2.79951899e-04 1.02769583e-02 4.55878020e-04 -1.61349564e-03 4.55878020e-04 -1.76914902e-02
5.47032956e-03 -2.20019172e-03 8.35056057e-03 -2.20019172e-03 8.57280674e-03 -1.60572352e-04 8.35056057e-03 -1.60572352e-04 -1.15719799e-02
2.91628571e-03 2.38745924e-04 6.05389045e-03 2.38745924e-04 7.78400281e-03 3.37982812e-03 6.05389045e-03 3.37982812e-03 -8.88671610e-03
1.11374018e-02 -5.05470840e-03 1.39005305e-02 -5.05470840e-03 1.36312284e-02 -1.44643197e-02 1.39005305e-02 -1.44643197e-02 -2.03632927e-02
2.99343151e-03 -7.42208570e-04 3.08808341e-03 -7.42208570e-04 5.16998675e-03 3.89739602e-03 3.08808341e-03 3.89739602e-03 -6.78400017e-03
2.39990727e-03 -1.32027350e-03 5.55337998e-03 -1.32027350e-03 4.76187991e-03 1.15627155e-03 5.55337998e-03 1.15627155e-03 -5.86337782e-03
3.26225521e-03 -6.25805907e-04 2.14877084e-03 -6.25805907e-04 6.48075878e-03 1.00586514e-02 2.14877084e-03 1.00586514e-02 -7.63124670e-03
3.15680797e-03 1.13331572e-03 2.81855113e-03 1.13331572e-03 3.74422132e-03 7.17613824e-04 2.81855113e-03 7.17613824e-04 -5.83337498e-03
3.11199977e-03 1.48513334e-03 2.99112929e-04 1.48513334e-03 3.87365438e-03 -8.75904676e-04 2.99112929e-04 -8.75904676e-04 -5.85050642e-03
5.26370088e-03 -2.11105411e-03 -2.43786147e-03 -2.11105411e-03 7.13880460e-03 4.07530402e-03 -2.43786147e-03 4.07530402e-03 -1.04957578e-02
-1.44589960e-03 9.86436848e-03 -1.47568174e-02 9.86436848e-03 -9.14156437e-04 1.01888385e-02 -1.47568174e-02 1.01888385e-02 4.08561248e-03
1.10955325e-02 5.12127237e-03 -2.01875468e-02 5.12127237e-03 1.43243897e-02 6.44868379e-03 -2.01875468e-02 6.44868379e-03 -2.10192818e-02
5.27314708e-03 2.65610145e-03 5.87559699e-03 2.65610145e-03 6.07615570e-03 2.81648780e-03 5.87559699e-03 2.81648780e-03 -9.41638858e-03
3.67253122e-03 -2.44596667e-04 3.22074606e-03 -2.44596667e-04 6.19243830e-03 2.87666498e-03 3.22074606e-03 2.87666498e-03 -8.23787041e-03
</DataArray>
<DataArray type="Float32" Name="Spatial_displacement" NumberOfComponents="3" format="ascii">
0.00000000e+00 0.00000000e+00 0.00000000e+00
4.69230488e-03 0.00000000e+00 0.00000000e+00
5.45123778e-03 1.38247032e-02 0.00000000e+00
0.00000000e+00 1.29482187e-02 0.00000000e+00
0.00000000e+00 0.00000000e+00 -1.53092574e-02
4.99555189e-03 0.00000000e+00 -1.61644779e-02
5.04218414e-03 1.24247102e-02 -1.52196679e-02
0.00000000e+00 1.22324005e-02 -1.39407441e-02
1.08458437e-02 0.00000000e+00 0.00000000e+00
1.13173630e-02 1.59677304e-02 0.00000000e+00
1.09974742e-02 0.00000000e+00 -1.91909019e-02
1.14289261e-02 1.34671172e-02 -1.71310939e-02
1.80910174e-02 0.00000000e+00 0.00000000e+00
1.83709189e-02 1.87032688e-02 0.00000000e+00
1.94400232e-02 0.00000000e+00 -2.22140718e-02
1.87268574e-02 1.48749622e-02 -1.98535621e-02
2.82607339e-02 0.00000000e+00 0.00000000e+00
2.60704383e-02 2.07301341e-02 0.00000000e+00
2.97566913e-02 0.00000000e+00 -2.45051533e-02
2.76052095e-02 1.54300164e-02 -2.32094862e-02
4.14743572e-02 0.00000000e+00 0.00000000e+00
3.69262397e-02 2.27692556e-02 0.00000000e+00
4.20097113e-02 0.00000000e+00 -2.90216841e-02
3.92177813e-02 1.62810367e-02 -2.63108723e-02
5.71899302e-02 0.00000000e+00 0.00000000e+00
4.71863747e-02 3.06837857e-02 0.00000000e+00
5.40332235e-02 0.00000000e+00 -3.14994603e-02
5.22936024e-02 2.11638212e-02 -3.07729188e-02
6.49925694e-03 2.32816283e-02 0.00000000e+00
0.00000000e+00 2.24703513e-02 0.00000000e+00
5.61301038e-03 2.24852599e-02 -1.16186440e-02
0.00000000e+00 2.18150020e-02 -1.15424842e-02
1.27671845e-02 2.58752741e-02 0.00000000e+00
1.15728993e-02 2.43766215e-02 -1.11316890e-02
1.78076290e-02 2.88279094e-02 0.00000000e+00
1.70002468e-02 2.63722241e-02 -8.95877182e-03
2.23136973e-02 3.29451859e-02 0.00000000e+00
2.34965347e-02 2.79711299e-02 -1.02839787e-02
2.60189064e-02 3.52091007e-02 0.00000000e+00
2.88459808e-02 3.00903283e-02 -9.52723809e-03
3.09982151e-02 4.26972061e-02 0.00000000e+00
3.68607715e-02 3.77197564e-02 -9.97310132e-03
7.02022761e-03 2.81312391e-02 0.00000000e+00
0.00000000e+00 2.75476575e-02 0.00000000e+00
5.98299317e-03 2.81189680e-02 -8.06769356e-03
0.00000000e+00 2.78455988e-02 -9.09146667e-03
1.27914380e-02 2.91855130e-02 0.00000000e+00
1.16512794e-02 2.91070957e-02 -5.52660413e-03
1.62562020e-02 3.12882215e-02 0.00000000e+00
1.50568485e-02 3.05234641e-02 -1.81363150e-03
1.68668218e-02 3.38115767e-02 0.00000000e+00
1.61318723e-02 3.17491554e-02 6.01168722e-04
2.02838592e-02 3.45183723e-02 0.00000000e+00
1.97285395e-02 3.26123908e-02 1.50752440e-03
2.05314290e-02 4.21719179e-02 0.00000000e+00
2.09217407e-02 4.11663912e-02 1.02830678e-03
6.84989057e-03 3.02075036e-02 0.00000000e+00
0.00000000e+00 3.04697901e-02 0.00000000e+00
5.86606748e-03 3.07716243e-02 -6.77932613e-03
0.00000000e+00 3.09488103e-02 -7.69898295e-03
1.19510088e-02 3.05311233e-02 0.00000000e+00
1.06609035e-02 3.01834308e-02 -4.17990610e-03
1.40198702e-02 3.14238518e-02 0.00000000e+00
1.28685795e-02 3.10101546e-02 -9.59716737e-04
1.37441671e-02 3.34488787e-02 0.00000000e+00
1.36232991e-02 3.34159173e-02 -4.86001372e-05
1.42659498e-02 3.80572081e-02 0.00000000e+00
1.40912142e-02 3.53259854e-02 0.00000000e+00
1.43160485e-02 3.82410102e-02 4.36604023e-06
1.41072441e-02 3.54648866e-02 1.22945756e-04
6.33838680e-03 3.26347463e-02 0.00000000e+00
0.00000000e+00 3.34202684e-02 0.00000000e+00
5.47337439e-03 3.30841616e-02 -7.08982535e-03
0.00000000e+00 3.35681513e-02 -8.77244771e-03
1.08049810e-02 3.14168595e-02 0.00000000e+00
9.19069164e-03 3.17091458e-02 -4.09634784e-03
1.19224368e-02 3.19078416e-02 0.00000000e+00
1.13504138e-02 3.18033509e-02 -6.41878694e-04
1.20004369e-02 3.34127396e-02 0.00000000e+00
1.18283127e-02 3.33986804e-02 8.39419663e-05
1.18664186e-02 3.54794338e-02 0.00000000e+00
1.19120032e-02 3.54958996e-02 -1.78813934e-07
1.18603958e-02 3.77594456e-02 0.00000000e+00
1.18975267e-02 3.77104878e-02 -5.03063202e-05
7.12386426e-03 3.63198072e-02 0.00000000e+00
0.00000000e+00 3.72881666e-02 0.00000000e+00
5.67608885e-03 3.63029838e-02 -8.19469430e-03
0.00000000e+00 3.75580825e-02 -1.00967064e-02
1.11513687e-02 3.34884711e-02 0.00000000e+00
9.14389733e-03 3.48279402e-02 -5.34705631e-03
1.10438205e-02 3.22274379e-02 0.00000000e+00
1.07136089e-02 3.30777466e-02 -1.20315328e-03
1.03032924e-02 3.34992483e-02 0.00000000e+00
1.01129180e-02 3.34959850e-02 9.49464738e-05
9.86961741e-03 3.55038047e-02 0.00000000e+00
9.86717921e-03 3.55182663e-02 3.60868871e-05
9.79075488e-03 3.76626030e-02 0.00000000e+00
9.80898738e-03 3.76311354e-02 2.21505761e-05
0.00000000e+00 0.00000000e+00 -2.92686652e-02
6.05218858e-03 0.00000000e+00 -3.11049540e-02
5.50581701e-03 9.92577244e-03 -2.88608130e-02
0.00000000e+00 1.03841033e-02 -2.79762857e-02
1.37182530e-02 0.00000000e+00 -3.37334089e-02
1.17835272e-02 8.16308614e-03 -3.38712297e-02
2.18879208e-02 0.00000000e+00 -3.89010906e-02
2.20143478e-02 7.59686809e-03 -3.85556333e-02
3.34057473e-02 0.00000000e+00 -4.60975654e-02
3.23862135e-02 8.26725364e-03 -4.03143018e-02
4.45151553e-02 0.00000000e+00 -5.15812524e-02
4.38509844e-02 8.65483750e-03 -4.54254672e-02
5.31834327e-02 0.00000000e+00 -5.51738776e-02
5.58581017e-02 8.44287220e-03 -4.97069061e-02
3.75027955e-03 1.96580198e-02 -2.42189337e-02
0.00000000e+00 2.04397254e-02 -2.18936522e-02
1.02319438e-02 1.91871412e-02 -2.52645146e-02
1.93449594e-02 2.09409632e-02 -2.64454801e-02
3.06381769e-02 2.33549271e-02 -3.33518945e-02
4.36231457e-02 2.39634626e-02 -3.38360071e-02
5.75240217e-02 2.37234924e-02 -3.92980650e-02
3.16052511e-03 2.79196873e-02 -1.77218616e-02
0.00000000e+00 2.77381781e-02 -1.58834532e-02
8.00132751e-03 2.81724185e-02 -1.24332551e-02
7.10312556e-03 2.82083079e-02 1.44881755e-03
3.83255538e-03 3.24349701e-02 -1.27807613e-02
0.00000000e+00 3.21499780e-02 -1.43283885e-02
7.56543875e-03 3.12301740e-02 -7.86479563e-03
9.18906648e-03 2.85356790e-02 -2.96860561e-03
3.46175767e-03 3.44044231e-02 -1.33230481e-02
0.00000000e+00 3.50625329e-02 -1.48649774e-02
6.89907465e-03 3.32180709e-02 -8.78897496e-03
1.19347330e-02 3.15155387e-02 -6.69287518e-03
2.17257068e-03 3.86495143e-02 -1.69032905e-02
0.00000000e+00 3.73391174e-02 -1.61048565e-02
6.27377909e-03 3.98986265e-02 -1.38338190e-02
1.30860452e-02 3.89143787e-02 -1.27258934e-02
1.19695775e-02 3.54850329e-02 1.26436353e-05
1.19782481e-02 3.75827774e-02 -4.65288758e-05
9.85511206e-03 3.76017019e-02 1.28149986e-05
9.83968750e-03 3.54874060e-02 4.53107059e-05
0.00000000e+00 0.00000000e+00 -4.42156941e-02
8.25940724e-03 0.00000000e+00 -4.52467203e-02
8.17353465e-03 8.57630838e-03 -4.25023362e-02
0.00000000e+00 8.52195360e-03 -4.09879237e-02
1.81354005e-02 0.00000000e+00 -4.96283807e-02
1.58295184e-02 6.42166380e-03 -4.54831757e-02
2.71438770e-02 0.00000000e+00 -5.37431166e-02
2.72442214e-02 4.66837827e-03 -5.22334315e-02
3.80294360e-02 0.00000000e+00 -5.78320622e-02
3.81490663e-02 5.06058708e-03 -5.95558062e-02
4.75225821e-02 0.00000000e+00 -6.35542944e-02
4.83649299e-02 5.77850267e-03 -6.25261962e-02
5.51118366e-02 0.00000000e+00 -6.60696775e-02
5.66637926e-02 4.60951682e-03 -6.46568090e-02
4.95966803e-03 1.57609396e-02 -3.57331224e-02
0.00000000e+00 1.86788123e-02 -3.47164348e-02
1.40619650e-02 1.50053129e-02 -4.50441167e-02
2.44578309e-02 1.71401892e-02 -5.65457195e-02
3.89941707e-02 1.95075590e-02 -5.73903918e-02
5.06082736e-02 1.63493752e-02 -5.96439615e-02
5.98976910e-02 1.34231662e-02 -6.07427545e-02
2.82132812e-03 2.72219852e-02 -2.39846390e-02
0.00000000e+00 2.69438997e-02 -2.73837242e-02
1.25331972e-02 2.48329416e-02 -3.43977809e-02
2.35894322e-03 3.30264159e-02 -1.88290216e-02
0.00000000e+00 3.44101414e-02 -1.99761949e-02
6.59117848e-03 3.29731628e-02 -1.13943387e-02
2.78397277e-03 3.81798372e-02 -1.95149872e-02
0.00000000e+00 3.66255157e-02 -1.86272264e-02
7.09520001e-03 3.89654040e-02 -1.93293281e-02
6.46863040e-03 3.50152105e-02 2.46555731e-03
1.47222411e-02 3.54693495e-02 -1.97455976e-02
2.37895921e-03 4.13645059e-02 -2.14585066e-02
0.00000000e+00 4.16142382e-02 -2.44330540e-02
</DataArray>
<DataArray type="Float32" Name="Spatial_acceleration" NumberOfComponents="3" format="ascii">
0.00000000e+00 0.00000000e+00 0.00000000e+00
1.62919363e-07 0.00000000e+00 0.00000000e+00
3.02910792e-07 4.14689367e-07 0.00000000e+00
0.00000000e+00 4.83512849e-07 0.00000000e+00
0.00000000e+00 0.00000000e+00 -6.07808431e-07
2.38855677e-07 0.00000000e+00 -5.05765286e-07
2.31464696e-07 4.28636866e-07 -5.07354741e-07
0.00000000e+00 3.68356694e-07 -4.65710940e-07
5.00043200e-07 0.00000000e+00 0.00000000e+00
5.07930906e-07 4.32332342e-07 0.00000000e+00
4.53233724e-07 0.00000000e+00 -5.25156679e-07
5.30203181e-07 4.78188213e-07 -5.69502504e-07
8.67843596e-07 0.00000000e+00 0.00000000e+00
8.49346293e-07 4.44253288e-07 0.00000000e+00
7.95801498e-07 0.00000000e+00 -6.23067194e-07
7.72436465e-07 4.19490021e-07 -6.17027297e-07
1.30915646e-06 0.00000000e+00 0.00000000e+00
1.17280081e-06 4.62790325e-07 0.00000000e+00
1.21273104e-06 0.00000000e+00 -6.21477739e-07
1.13769374e-06 3.88483215e-07 -5.07036816e-07
1.51741506e-06 0.00000000e+00 0.00000000e+00
1.53060751e-06 4.42018120e-07 0.00000000e+00
1.59444414e-06 0.00000000e+00 -4.72704556e-07
1.50557355e-06 3.65316851e-07 -4.62849925e-07
1.73616775e-06 0.00000000e+00 0.00000000e+00
1.46293644e-06 5.60124704e-07 0.00000000e+00
1.98984139e-06 0.00000000e+00 -2.77837103e-07
1.67544681e-06 6.74764294e-07 -3.21706125e-07
3.89337544e-07 7.25666666e-07 0.00000000e+00
0.00000000e+00 8.06093226e-07 0.00000000e+00
2.52927350e-07 7.72794067e-07 -5.71886687e-07
0.00000000e+00 7.68423092e-07 -5.07672610e-07
7.04129548e-07 7.47680645e-07 0.00000000e+00
5.24078814e-07 7.42038083e-07 -4.36782841e-07
8.71340433e-07 9.71237796e-07 0.00000000e+00
8.56399538e-07 7.40232906e-07 -4.59943493e-07
1.21760365e-06 8.24292499e-07 0.00000000e+00
1.03881621e-06 7.95682297e-07 -5.37024619e-07
1.13097826e-06 9.01222222e-07 0.00000000e+00
1.19437118e-06 5.84655368e-07 -2.57280135e-07
1.36534368e-06 9.02533543e-07 0.00000000e+00
1.35527716e-06 8.28637042e-07 -5.34905325e-07
1.72297163e-07 1.07774633e-06 0.00000000e+00
0.00000000e+00 1.16769468e-06 0.00000000e+00
3.27706346e-07 1.03718037e-06 -4.37577569e-07
0.00000000e+00 1.04379649e-06 -3.89417011e-07
7.26222993e-07 1.01751084e-06 0.00000000e+00
5.36362336e-07 1.04584296e-06 -3.23772440e-07
7.53084805e-07 1.01470948e-06 0.00000000e+00
8.91738466e-07 1.02429919e-06 -5.13924512e-08
9.48164200e-07 1.16941669e-06 0.00000000e+00
8.10835104e-07 9.01116266e-07 -1.01089476e-07
1.25047893e-06 8.34994864e-07 0.00000000e+00
9.69515895e-07 3.75535762e-07 5.04175830e-07
8.77062462e-07 1.44894921e-06 0.00000000e+00
1.47215519e-06 5.10692587e-07 1.69436134e-07
4.38610698e-07 1.21319295e-06 0.00000000e+00
0.00000000e+00 1.07431413e-06 0.00000000e+00
3.57906032e-07 1.18503965e-06 -3.53495267e-07
0.00000000e+00 1.18976834e-06 -3.54448957e-07
5.76019261e-07 1.18195021e-06 0.00000000e+00
6.16510704e-07 1.11913675e-06 -2.60670987e-07
7.87615761e-07 1.20115283e-06 0.00000000e+00
6.66618348e-07 9.29647058e-07 -1.39448375e-07
3.15348302e-07 9.76986371e-07 0.00000000e+00
1.02912054e-06 1.09439429e-06 -1.59528526e-07
6.61919501e-07 -8.83738167e-08 0.00000000e+00
1.06059179e-06 9.19395006e-07 0.00000000e+00
7.33137142e-07 1.22515360e-06 1.47471823e-07
4.89976685e-07 6.79386972e-07 -2.32021023e-07
3.52144241e-07 1.24478333e-06 0.00000000e+00
0.00000000e+00 1.37257575e-06 0.00000000e+00
3.63240645e-07 1.26786028e-06 -3.83694953e-07
0.00000000e+00 1.34340917e-06 -4.13576771e-07
6.05901050e-07 1.11822283e-06 0.00000000e+00
5.84721533e-07 1.24156475e-06 -3.08672583e-07
8.51472237e-07 1.21720632e-06 0.00000000e+00
7.39945335e-07 9.63687853e-07 1.14440919e-08
6.69479391e-07 1.03108084e-06 0.00000000e+00
1.04131300e-06 9.79264541e-07 2.05874443e-07
7.32799379e-07 7.94092784e-07 0.00000000e+00
8.08636344e-07 8.05441573e-07 -1.00729665e-06
2.04579032e-06 1.03457762e-06 0.00000000e+00
-6.76022637e-07 7.61879804e-08 8.59704301e-07
3.85920202e-07 1.56823796e-06 0.00000000e+00
0.00000000e+00 1.47073968e-06 0.00000000e+00
3.91244896e-07 1.49035452e-06 -4.96228552e-07
0.00000000e+00 1.75567470e-06 -4.62849925e-07
8.27372048e-07 1.44561125e-06 0.00000000e+00
5.53449013e-07 1.48495042e-06 -4.97818007e-07
1.02583567e-06 9.82125584e-07 0.00000000e+00
7.99602958e-07 1.46230059e-06 -2.49226900e-07
5.21341974e-07 8.90612569e-07 0.00000000e+00
1.06239315e-06 1.20894117e-06 -1.46706896e-07
1.47056573e-06 1.42812723e-06 0.00000000e+00
7.02381158e-07 2.86367214e-08 7.33160334e-07
2.75017698e-07 8.31385449e-08 0.00000000e+00
2.40631402e-06 7.33576712e-07 7.30653582e-08
0.00000000e+00 0.00000000e+00 -8.90096032e-07
1.60018601e-07 0.00000000e+00 -1.10530857e-06
2.08338093e-07 3.80795143e-07 -1.05873744e-06
0.00000000e+00 4.66108304e-07 -1.17111210e-06
5.47707089e-07 0.00000000e+00 -1.13995873e-06
4.10874691e-07 2.90552777e-07 -1.00898740e-06
7.76226329e-07 0.00000000e+00 -1.12533564e-06
7.69456221e-07 3.11851494e-07 -1.12501777e-06
1.16360184e-06 0.00000000e+00 -1.17492675e-06
1.06265145e-06 2.80145542e-07 -1.15235650e-06
1.54906513e-06 0.00000000e+00 -1.09672544e-06
1.49704022e-06 3.38455038e-07 -1.10069914e-06
1.93938354e-06 0.00000000e+00 -1.09672544e-06
2.06748632e-06 4.23749270e-07 -9.32057674e-07
2.04245254e-07 7.13626548e-07 -8.17616751e-07
0.00000000e+00 7.79628749e-07 -1.03028617e-06
4.88826174e-07 7.50042148e-07 -1.03432785e-06
6.98502845e-07 7.00950636e-07 -1.07676192e-06
9.64174660e-07 8.00738746e-07 -1.04649860e-06
1.46522120e-06 8.15073633e-07 -9.78469870e-07
1.65910524e-06 1.01347769e-06 -5.20070387e-07
1.69237452e-07 9.74506179e-07 -8.42253371e-07
0.00000000e+00 1.13010401e-06 -9.28878762e-07
3.66979179e-07 9.42495149e-07 -7.68873463e-07
2.20934552e-07 8.29537726e-07 1.08877813e-07
2.45412195e-07 1.24063092e-06 -6.44683837e-07
0.00000000e+00 1.16769468e-06 -7.75972978e-07
3.76224506e-07 1.17524462e-06 -5.15256602e-07
6.63969274e-07 8.43895805e-07 -2.28034125e-07
3.44574460e-07 1.34327013e-06 -7.49905894e-07
0.00000000e+00 1.42891201e-06 -7.67389906e-07
5.23050630e-07 1.30665296e-06 -6.72976171e-07
9.14573661e-07 1.24724704e-06 -7.57853172e-07
2.57809944e-07 1.66885059e-06 -9.12348412e-07
0.00000000e+00 1.71764691e-06 -1.07892356e-06
5.21004210e-07 1.60356365e-06 -9.56217491e-07
8.63273954e-07 1.68927511e-06 -9.88006605e-07
-9.72560315e-07 3.09760367e-07 6.73537443e-07
5.80290930e-07 -2.02204774e-06 -2.59982039e-06
-1.08357017e-06 -2.40505983e-06 4.52854238e-06
3.09248776e-07 2.87185117e-07 -1.91011532e-06
0.00000000e+00 0.00000000e+00 -1.66956579e-06
3.25858593e-07 0.00000000e+00 -1.54749546e-06
2.05705561e-07 2.98380854e-07 -1.49075186e-06
0.00000000e+00 2.64326729e-07 -1.38727819e-06
4.93312882e-07 0.00000000e+00 -1.56052909e-06
4.92016454e-07 2.36868857e-07 -1.60853062e-06
8.10503934e-07 0.00000000e+00 -1.61266325e-06
8.14676298e-07 2.15609873e-07 -1.67051951e-06
1.15414457e-06 0.00000000e+00 -1.49154664e-06
1.21343135e-06 3.45448655e-07 -1.82596841e-06
1.59209969e-06 0.00000000e+00 -1.76080061e-06
1.51391828e-06 3.32477185e-07 -1.71534214e-06
1.95789335e-06 0.00000000e+00 -1.46611535e-06
1.89208981e-06 2.71916377e-07 -1.70230862e-06
1.82469691e-07 5.60124704e-07 -1.51316328e-06
0.00000000e+00 6.67810411e-07 -1.40666964e-06
5.66300912e-07 6.06446008e-07 -1.41071132e-06
8.19333422e-07 5.59616069e-07 -1.50451660e-06
1.17060540e-06 6.95546476e-07 -1.76111860e-06
1.37334405e-06 7.80483106e-07 -1.68482461e-06
1.84003511e-06 9.26415112e-07 -1.61107380e-06
1.77156352e-07 1.05285642e-06 -1.17819650e-06
0.00000000e+00 9.62813715e-07 -1.20067591e-06
5.03381102e-07 8.84850806e-07 -1.30144758e-06
2.09513161e-07 1.28936767e-06 -1.15240186e-06
0.00000000e+00 1.29063926e-06 -1.08305608e-06
6.97930659e-07 1.20568279e-06 -9.47316494e-07
2.11616353e-07 1.54105817e-06 -1.22459733e-06
0.00000000e+00 1.65732695e-06 -1.31257377e-06
6.10169877e-07 1.55203679e-06 -9.52221114e-07
9.61522233e-07 1.89487139e-06 3.21070353e-08
7.27971383e-07 1.68948702e-06 -1.48095023e-06
3.30011034e-07 1.96256246e-06 -1.54495240e-06
0.00000000e+00 1.94215772e-06 -1.51697793e-06
</DataArray>
<DataArray type="Float32" Name="Spatial_velocity" NumberOfComponents="3" format="ascii">
0.00000000e+00 0.00000000e+00 0.00000000e+00
4.58748727e-05 0.00000000e+00 0.00000000e+00
5.11081962e-05 1.10249552e-04 0.00000000e+00
0.00000000e+00 1.04090999e-04 0.00000000e+00
0.00000000e+00 0.00000000e+00 -1.25552280e-04
4.71476014e-05 0.00000000e+00 -1.30883345e-04
4.79770424e-05 1.00656565e-04 -1.24488070e-04
0.00000000e+00 9.89715336e-05 -1.15886542e-04
1.02557249e-04 0.00000000e+00 0.00000000e+00
1.04486418e-04 1.23625636e-04 0.00000000e+00
1.01410391e-04 0.00000000e+00 -1.49212850e-04
1.05612053e-04 1.08771950e-04 -1.38811432e-04
1.64258949e-04 0.00000000e+00 0.00000000e+00
1.70045401e-04 1.43236088e-04 0.00000000e+00
1.75427645e-04 0.00000000e+00 -1.69109888e-04
1.67980470e-04 1.18776814e-04 -1.59028379e-04
2.52169091e-04 0.00000000e+00 0.00000000e+00
2.34517560e-04 1.59899297e-04 0.00000000e+00
2.61273031e-04 0.00000000e+00 -1.88495833e-04
2.43010742e-04 1.22391401e-04 -1.77697730e-04
3.52828356e-04 0.00000000e+00 0.00000000e+00
3.21509899e-04 1.71746506e-04 0.00000000e+00
3.58232181e-04 0.00000000e+00 -2.15670239e-04
3.37701815e-04 1.28999847e-04 -1.93449479e-04
4.65793622e-04 0.00000000e+00 0.00000000e+00
3.92834103e-04 2.24277697e-04 0.00000000e+00
4.53124958e-04 0.00000000e+00 -2.26809701e-04
4.34799469e-04 1.69446983e-04 -2.20538990e-04
5.90749987e-05 1.90130653e-04 0.00000000e+00
0.00000000e+00 1.85073266e-04 0.00000000e+00
5.22814444e-05 1.84721066e-04 -1.01947044e-04
0.00000000e+00 1.78851027e-04 -9.92554706e-05
1.17998818e-04 2.12450497e-04 0.00000000e+00
1.07119668e-04 1.97746296e-04 -1.01174795e-04
1.64437661e-04 2.34328254e-04 0.00000000e+00
1.56900118e-04 2.13422434e-04 -8.45661561e-05
2.04021839e-04 2.63533962e-04 0.00000000e+00
2.10909493e-04 2.23813899e-04 -8.92996395e-05
2.30481033e-04 2.77856248e-04 0.00000000e+00
2.57145672e-04 2.35099651e-04 -8.63328532e-05
2.76650535e-04 3.33661359e-04 0.00000000e+00
3.20552819e-04 2.91215663e-04 -8.98564176e-05
6.52952222e-05 2.36142179e-04 0.00000000e+00
0.00000000e+00 2.30638063e-04 0.00000000e+00
5.63620888e-05 2.36616368e-04 -7.60420007e-05
0.00000000e+00 2.33780156e-04 -8.06394819e-05
1.21961231e-04 2.43164046e-04 0.00000000e+00
1.10303772e-04 2.43785835e-04 -5.22421105e-05
1.55057758e-04 2.61371664e-04 0.00000000e+00
1.46149629e-04 2.54126353e-04 -1.85603021e-05
1.59892981e-04 2.80418521e-04 0.00000000e+00
1.52891938e-04 2.60286586e-04 4.28835483e-06
1.83772208e-04 2.73699727e-04 0.00000000e+00
1.80978619e-04 2.55029328e-04 1.59283172e-05
1.88833568e-04 3.36412282e-04 0.00000000e+00
1.92882173e-04 3.27325164e-04 9.53984181e-06
6.61087470e-05 2.56732514e-04 0.00000000e+00
0.00000000e+00 2.60587549e-04 0.00000000e+00
5.67768111e-05 2.61720474e-04 -6.43080130e-05
0.00000000e+00 2.65407492e-04 -7.05581406e-05
1.17728603e-04 2.57535023e-04 0.00000000e+00
1.05555308e-04 2.54046608e-04 -3.98462180e-05
1.39829397e-04 2.62146001e-04 0.00000000e+00
1.29777924e-04 2.58143089e-04 -9.66472453e-06
1.36240109e-04 2.75677769e-04 0.00000000e+00
1.35705239e-04 2.75068247e-04 -2.58688630e-07
1.36195842e-04 2.96031998e-04 0.00000000e+00
1.35718408e-04 2.85220653e-04 0.00000000e+00
1.35826951e-04 2.96342390e-04 -2.43501841e-08
1.35691967e-04 2.85109971e-04 -1.51026669e-07
6.19896018e-05 2.80969485e-04 0.00000000e+00
0.00000000e+00 2.89881864e-04 0.00000000e+00
5.47792515e-05 2.86743481e-04 -6.79956574e-05
0.00000000e+00 2.90929514e-04 -8.12994112e-05
1.10438392e-04 2.64955044e-04 0.00000000e+00
9.33773335e-05 2.68861535e-04 -4.14802817e-05
1.24246435e-04 2.64955248e-04 0.00000000e+00
1.18941389e-04 2.64256145e-04 -5.34585934e-06
1.25126651e-04 2.75058555e-04 0.00000000e+00
1.24475599e-04 2.75187107e-04 5.45331318e-07
1.25012186e-04 2.85675109e-04 0.00000000e+00
1.25144114e-04 2.85369577e-04 7.61464491e-09
1.24910104e-04 2.95990525e-04 0.00000000e+00
1.24950748e-04 2.95820239e-04 -3.65685139e-07
6.92774483e-05 3.18848353e-04 0.00000000e+00
0.00000000e+00 3.26536829e-04 0.00000000e+00
5.82840694e-05 3.17699421e-04 -8.01449423e-05
0.00000000e+00 3.31142539e-04 -9.35187709e-05
1.17628464e-04 2.88319163e-04 0.00000000e+00
9.35676726e-05 3.05642170e-04 -5.92687757e-05
1.19783348e-04 2.68941949e-04 0.00000000e+00
1.17821823e-04 2.80179753e-04 -1.32501827e-05
1.15369046e-04 2.75554310e-04 0.00000000e+00
1.14142516e-04 2.75280676e-04 7.62651666e-07
1.14335722e-04 2.85261223e-04 0.00000000e+00
1.14677074e-04 2.85399612e-04 1.88653758e-07
1.14664443e-04 2.96214072e-04 0.00000000e+00
1.14664668e-04 2.95549980e-04 5.56089162e-07
0.00000000e+00 0.00000000e+00 -2.37237211e-04
5.34973151e-05 0.00000000e+00 -2.52623227e-04
5.04399140e-05 8.25045645e-05 -2.38172739e-04
0.00000000e+00 8.47281990e-05 -2.34380408e-04
1.20155455e-04 0.00000000e+00 -2.72580277e-04
1.04891456e-04 7.05791244e-05 -2.69980548e-04
1.88871243e-04 0.00000000e+00 -3.06375208e-04
1.90029823e-04 6.69458168e-05 -3.05066904e-04
2.84379406e-04 0.00000000e+00 -3.52931558e-04
2.75993720e-04 6.98976801e-05 -3.19505809e-04
3.78727796e-04 0.00000000e+00 -3.87735083e-04
3.70497932e-04 7.47431986e-05 -3.49942624e-04
4.53931483e-04 0.00000000e+00 -4.11965710e-04
4.75220615e-04 7.78951871e-05 -3.77396442e-04
3.79785342e-05 1.62928423e-04 -2.06394951e-04
0.00000000e+00 1.71690292e-04 -1.91306593e-04
9.42201950e-05 1.59986288e-04 -2.17290406e-04
1.67338323e-04 1.71832988e-04 -2.23984069e-04
2.61731126e-04 1.94539185e-04 -2.65622773e-04
3.66533670e-04 1.98073729e-04 -2.61411478e-04
4.67723934e-04 2.05563032e-04 -2.94587429e-04
3.06180227e-05 2.32686099e-04 -1.59465737e-04
0.00000000e+00 2.35118481e-04 -1.46083432e-04
7.84155927e-05 2.34666237e-04 -1.25348626e-04
7.01748577e-05 2.28220393e-04 1.17484624e-05
3.69269619e-05 2.80199194e-04 -1.20327139e-04
0.00000000e+00 2.75755650e-04 -1.35699607e-04
7.67888414e-05 2.65051145e-04 -7.77502501e-05
9.47886292e-05 2.32890525e-04 -2.69694538e-05
3.88841072e-05 2.99114850e-04 -1.27242063e-04
0.00000000e+00 3.05991416e-04 -1.39247204e-04
7.14866328e-05 2.87633535e-04 -8.94485056e-05
1.30273940e-04 2.67901545e-04 -7.20603421e-05
2.75321418e-05 3.44999309e-04 -1.66026861e-04
0.00000000e+00 3.35271150e-04 -1.61527656e-04
6.97476062e-05 3.58395686e-04 -1.41507233e-04
1.44139442e-04 3.52175179e-04 -1.44099336e-04
1.25210645e-04 2.83799774e-04 -8.72022838e-07
1.25297214e-04 2.94612808e-04 -5.95672077e-07
1.14385766e-04 2.94617348e-04 8.79438971e-07
1.14461480e-04 2.83799454e-04 1.12276462e-06
0.00000000e+00 0.00000000e+00 -3.63660074e-04
6.90012021e-05 0.00000000e+00 -3.67316563e-04
6.99516022e-05 7.39777170e-05 -3.51168943e-04
0.00000000e+00 7.23932826e-05 -3.38607526e-04
1.51989356e-04 0.00000000e+00 -3.96772171e-04
1.32904504e-04 5.72919453e-05 -3.73317220e-04
2.25603348e-04 0.00000000e+00 -4.27452353e-04
2.26582823e-04 4.40903023e-05 -4.18755750e-04
3.14859732e-04 0.00000000e+00 -4.56021924e-04
3.18011182e-04 4.70425184e-05 -4.67950478e-04
3.99817800e-04 0.00000000e+00 -4.97270725e-04
4.05031838e-04 5.28274977e-05 -4.87929501e-04
4.71841427e-04 0.00000000e+00 -5.15153515e-04
4.80242888e-04 4.67559585e-05 -5.03764080e-04
4.46947997e-05 1.34736329e-04 -3.05981986e-04
0.00000000e+00 1.56744063e-04 -3.00808984e-04
1.22484285e-04 1.31583991e-04 -3.60034319e-04
2.08427198e-04 1.46632388e-04 -4.45712241e-04
3.19815124e-04 1.64849625e-04 -4.61120333e-04
4.16169583e-04 1.45413200e-04 -4.65029618e-04
4.96909255e-04 1.31991692e-04 -4.74539411e-04
2.99278981e-05 2.34919396e-04 -2.23852330e-04
0.00000000e+00 2.29142825e-04 -2.39636094e-04
1.07757791e-04 2.07253732e-04 -2.94186000e-04
2.68519780e-05 2.83926085e-04 -1.84038450e-04
0.00000000e+00 2.95678765e-04 -1.84399149e-04
7.69886828e-05 2.82146182e-04 -1.22310026e-04
3.13825622e-05 3.39940103e-04 -1.91420229e-04
0.00000000e+00 3.27546004e-04 -1.88262857e-04
8.05465315e-05 3.44728527e-04 -1.90302831e-04
9.09866139e-05 3.12400574e-04 3.09826137e-05
1.49714484e-04 3.24019085e-04 -2.18492743e-04
3.36834710e-05 3.83825361e-04 -2.23635390e-04
0.00000000e+00 3.85232066e-04 -2.48150580e-04
</DataArray>
<DataArray type="Float32" Name="Reaction_force" NumberOfComponents="3" format="ascii">
9.06320810e-01 -1.09123945e+00 7.26024771e+00
0.00000000e+00 -1.96394491e+00 1.49178953e+01
0.00000000e+00 0.00000000e+00 2.88782578e+01
1.36693597e+00 0.00000000e+00 1.44722977e+01
1.56756556e+00 -2.00650740e+00 0.00000000e+00
0.00000000e+00 -3.53211617e+00 0.00000000e+00
0.00000000e+00 0.00000000e+00 0.00000000e+00
2.41240883e+00 0.00000000e+00 0.00000000e+00
0.00000000e+00 -1.69745064e+00 1.56501522e+01
0.00000000e+00 0.00000000e+00 2.93230495e+01
0.00000000e+00 -2.12676668e+00 0.00000000e+00
0.00000000e+00 0.00000000e+00 0.00000000e+00
0.00000000e+00 -1.21392965e+00 1.66474228e+01
0.00000000e+00 0.00000000e+00 2.92587376e+01
0.00000000e+00 -1.00375545e+00 0.00000000e+00
0.00000000e+00 0.00000000e+00 0.00000000e+00
0.00000000e+00 -8.64877641e-01 1.69608955e+01
0.00000000e+00 0.00000000e+00 2.97450333e+01
0.00000000e+00 -1.13476217e+00 0.00000000e+00
0.00000000e+00 0.00000000e+00 0.00000000e+00
0.00000000e+00 -1.65367389e+00 1.54193993e+01
0.00000000e+00 0.00000000e+00 2.87210083e+01
0.00000000e+00 -2.81648231e+00 0.00000000e+00
0.00000000e+00 0.00000000e+00 0.00000000e+00
0.00000000e+00 -1.96737742e+00 7.75664091e+00
0.00000000e+00 0.00000000e+00 1.53942595e+01
0.00000000e+00 -2.68629718e+00 0.00000000e+00
0.00000000e+00 0.00000000e+00 0.00000000e+00
0.00000000e+00 0.00000000e+00 2.69776421e+01
-8.22119117e-02 0.00000000e+00 1.40492382e+01
0.00000000e+00 0.00000000e+00 0.00000000e+00
9.15840924e-01 0.00000000e+00 0.00000000e+00
0.00000000e+00 0.00000000e+00 2.42790565e+01
0.00000000e+00 0.00000000e+00 0.00000000e+00
0.00000000e+00 0.00000000e+00 2.10915985e+01
0.00000000e+00 0.00000000e+00 0.00000000e+00
0.00000000e+00 0.00000000e+00 1.69162693e+01
0.00000000e+00 0.00000000e+00 0.00000000e+00
0.00000000e+00 0.00000000e+00 1.74956322e+01
0.00000000e+00 0.00000000e+00 0.00000000e+00
0.00000000e+00 0.00000000e+00 1.28518724e+01
0.00000000e+00 0.00000000e+00 0.00000000e+00
0.00000000e+00 0.00000000e+00 2.50940609e+01
-1.69769084e+00 0.00000000e+00 1.36132412e+01
0.00000000e+00 0.00000000e+00 0.00000000e+00
-1.70464325e+00 0.00000000e+00 0.00000000e+00
0.00000000e+00 0.00000000e+00 2.12409496e+01
0.00000000e+00 0.00000000e+00 0.00000000e+00
0.00000000e+00 0.00000000e+00 1.38268614e+01
0.00000000e+00 0.00000000e+00 0.00000000e+00
0.00000000e+00 0.00000000e+00 4.49922276e+00
0.00000000e+00 0.00000000e+00 0.00000000e+00
0.00000000e+00 0.00000000e+00 5.84497070e+00
0.00000000e+00 0.00000000e+00 0.00000000e+00
0.00000000e+00 0.00000000e+00 4.62045717e+00
0.00000000e+00 0.00000000e+00 0.00000000e+00
0.00000000e+00 0.00000000e+00 2.52462196e+01
-2.40195799e+00 0.00000000e+00 1.37374477e+01
0.00000000e+00 0.00000000e+00 0.00000000e+00
-4.31183720e+00 0.00000000e+00 0.00000000e+00
0.00000000e+00 0.00000000e+00 2.05098667e+01
0.00000000e+00 0.00000000e+00 0.00000000e+00
0.00000000e+00 0.00000000e+00 9.90565014e+00
0.00000000e+00 0.00000000e+00 0.00000000e+00
0.00000000e+00 0.00000000e+00 -2.95622349e+00
0.00000000e+00 0.00000000e+00 0.00000000e+00
0.00000000e+00 0.00000000e+00 -2.78818607e+00
0.00000000e+00 0.00000000e+00 -3.29131627e+00
0.00000000e+00 0.00000000e+00 0.00000000e+00
0.00000000e+00 0.00000000e+00 0.00000000e+00
0.00000000e+00 0.00000000e+00 2.74403877e+01
-2.46912980e+00 0.00000000e+00 1.37042980e+01
0.00000000e+00 0.00000000e+00 0.00000000e+00
-3.89691234e+00 0.00000000e+00 0.00000000e+00
0.00000000e+00 0.00000000e+00 2.44250240e+01
0.00000000e+00 0.00000000e+00 0.00000000e+00
0.00000000e+00 0.00000000e+00 1.70994797e+01
0.00000000e+00 0.00000000e+00 0.00000000e+00
0.00000000e+00 0.00000000e+00 2.58087683e+00
0.00000000e+00 0.00000000e+00 0.00000000e+00
0.00000000e+00 0.00000000e+00 -1.91203833e+00
0.00000000e+00 0.00000000e+00 0.00000000e+00
0.00000000e+00 0.00000000e+00 4.24777746e-01
0.00000000e+00 0.00000000e+00 0.00000000e+00
0.00000000e+00 0.00000000e+00 1.44591103e+01
-1.39884090e+00 0.00000000e+00 6.92483282e+00
0.00000000e+00 0.00000000e+00 0.00000000e+00
-1.80196834e+00 0.00000000e+00 0.00000000e+00
0.00000000e+00 0.00000000e+00 1.49894466e+01
0.00000000e+00 0.00000000e+00 0.00000000e+00
0.00000000e+00 0.00000000e+00 1.18042088e+01
0.00000000e+00 0.00000000e+00 0.00000000e+00
0.00000000e+00 0.00000000e+00 3.02626371e+00
0.00000000e+00 0.00000000e+00 0.00000000e+00
0.00000000e+00 0.00000000e+00 -8.13132048e-01
0.00000000e+00 0.00000000e+00 0.00000000e+00
0.00000000e+00 0.00000000e+00 1.21080913e-01
0.00000000e+00 0.00000000e+00 0.00000000e+00
5.79847038e-01 -1.69513440e+00 0.00000000e+00
0.00000000e+00 -2.29133630e+00 0.00000000e+00
0.00000000e+00 0.00000000e+00 0.00000000e+00
2.01416659e+00 0.00000000e+00 0.00000000e+00
0.00000000e+00 -9.89126682e-01 0.00000000e+00
0.00000000e+00 0.00000000e+00 0.00000000e+00
0.00000000e+00 1.09661198e+00 0.00000000e+00
0.00000000e+00 0.00000000e+00 0.00000000e+00
0.00000000e+00 2.15995741e+00 0.00000000e+00
0.00000000e+00 0.00000000e+00 0.00000000e+00
0.00000000e+00 1.50878072e-01 0.00000000e+00
0.00000000e+00 0.00000000e+00 0.00000000e+00
0.00000000e+00 -2.27817103e-01 0.00000000e+00
0.00000000e+00 0.00000000e+00 0.00000000e+00
0.00000000e+00 0.00000000e+00 0.00000000e+00
1.40575862e+00 0.00000000e+00 0.00000000e+00
0.00000000e+00 0.00000000e+00 0.00000000e+00
0.00000000e+00 0.00000000e+00 0.00000000e+00
0.00000000e+00 0.00000000e+00 0.00000000e+00
0.00000000e+00 0.00000000e+00 0.00000000e+00
0.00000000e+00 0.00000000e+00 0.00000000e+00
0.00000000e+00 0.00000000e+00 0.00000000e+00
-6.78099811e-01 0.00000000e+00 0.00000000e+00
0.00000000e+00 0.00000000e+00 0.00000000e+00
0.00000000e+00 0.00000000e+00 0.00000000e+00
0.00000000e+00 0.00000000e+00 0.00000000e+00
-2.13111544e+00 0.00000000e+00 0.00000000e+00
0.00000000e+00 0.00000000e+00 0.00000000e+00
0.00000000e+00 0.00000000e+00 0.00000000e+00
0.00000000e+00 0.00000000e+00 0.00000000e+00
-1.65992105e+00 0.00000000e+00 0.00000000e+00
0.00000000e+00 0.00000000e+00 0.00000000e+00
0.00000000e+00 0.00000000e+00 0.00000000e+00
0.00000000e+00 0.00000000e+00 0.00000000e+00
-3.84401768e-01 0.00000000e+00 0.00000000e+00
0.00000000e+00 0.00000000e+00 0.00000000e+00
0.00000000e+00 0.00000000e+00 0.00000000e+00
0.00000000e+00 0.00000000e+00 0.00000000e+00
0.00000000e+00 0.00000000e+00 0.00000000e+00
0.00000000e+00 0.00000000e+00 0.00000000e+00
0.00000000e+00 0.00000000e+00 0.00000000e+00
-1.99580789e-01 -3.82690996e-01 0.00000000e+00
0.00000000e+00 5.62451899e-01 0.00000000e+00
0.00000000e+00 0.00000000e+00 0.00000000e+00
8.61633062e-01 0.00000000e+00 0.00000000e+00
0.00000000e+00 1.42808270e+00 0.00000000e+00
0.00000000e+00 0.00000000e+00 0.00000000e+00
0.00000000e+00 2.68074179e+00 0.00000000e+00
0.00000000e+00 0.00000000e+00 0.00000000e+00
0.00000000e+00 4.30765772e+00 0.00000000e+00
0.00000000e+00 0.00000000e+00 0.00000000e+00
0.00000000e+00 3.83496690e+00 0.00000000e+00
0.00000000e+00 0.00000000e+00 0.00000000e+00
0.00000000e+00 2.18602562e+00 0.00000000e+00
0.00000000e+00 0.00000000e+00 0.00000000e+00
0.00000000e+00 0.00000000e+00 0.00000000e+00
1.32947397e+00 0.00000000e+00 0.00000000e+00
0.00000000e+00 0.00000000e+00 0.00000000e+00
0.00000000e+00 0.00000000e+00 0.00000000e+00
0.00000000e+00 0.00000000e+00 0.00000000e+00
0.00000000e+00 0.00000000e+00 0.00000000e+00
0.00000000e+00 0.00000000e+00 0.00000000e+00
0.00000000e+00 0.00000000e+00 0.00000000e+00
1.51952410e+00 0.00000000e+00 0.00000000e+00
0.00000000e+00 0.00000000e+00 0.00000000e+00
0.00000000e+00 0.00000000e+00 0.00000000e+00
-2.60277092e-01 0.00000000e+00 0.00000000e+00
0.00000000e+00 0.00000000e+00 0.00000000e+00
0.00000000e+00 0.00000000e+00 0.00000000e+00
2.64363587e-01 0.00000000e+00 0.00000000e+00
0.00000000e+00 0.00000000e+00 0.00000000e+00
0.00000000e+00 0.00000000e+00 0.00000000e+00
0.00000000e+00 0.00000000e+00 0.00000000e+00
0.00000000e+00 0.00000000e+00 0.00000000e+00
1.17294192e+00 0.00000000e+00 0.00000000e+00
</DataArray>
<DataArray type="Float32" Name="Equivalent_plastic_strain" format="ascii">
1.53763657e-02
1.63869262e-02
1.49970124e-02
1.39541379e-02
1.47155831e-02
1.54395099e-02
1.43237701e-02
1.37650981e-02
1.93079542e-02
1.69151495e-02
1.70152637e-02
1.64457966e-02
2.26575313e-02
1.93215259e-02
1.95727209e-02
1.86300161e-02
2.55309287e-02
2.26123286e-02
2.24926807e-02
2.01446339e-02
2.97806188e-02
2.54572392e-02
2.48676334e-02
2.28213808e-02
3.48056965e-02
2.99480036e-02
2.76251994e-02
2.58050384e-02
1.12755448e-02
1.12252138e-02
1.16341065e-02
1.07812965e-02
1.07206786e-02
1.19937598e-02
8.97633098e-03
1.23641962e-02
9.94972815e-03
1.43330133e-02
9.81125759e-03
1.54879458e-02
1.05108484e-02
1.82771614e-02
7.94954237e-03
8.87986319e-03
8.41898791e-03
8.00846179e-03
5.44368150e-03
6.10002334e-03
1.92616112e-03
1.99271001e-03
8.24714681e-04
3.64377326e-03
2.16839156e-05
3.23631448e-03
9.10955656e-04
3.47815413e-03
6.71220070e-03
7.73310917e-03
6.28937891e-03
7.04018748e-03
3.95398191e-03
3.89229498e-03
9.81901394e-04
1.42543787e-03
-1.21659276e-04
3.10610450e-04
1.26569974e-03
2.37857769e-04
8.76635895e-04
2.82882920e-04
6.80649129e-03
8.25628778e-03
6.20624761e-03
7.13949581e-03
3.70320608e-03
4.14472981e-03
3.96577278e-04
2.30333697e-03
-3.02397357e-05
-1.06559547e-04
-2.13417621e-07
6.37188350e-07
0.00000000e+00
0.00000000e+00
7.71040842e-03
9.44080576e-03
7.34717585e-03
7.74150155e-03
4.41654155e-03
5.77405689e-03
5.71283133e-04
3.85424332e-03
-9.33641641e-05
1.84427190e-04
0.00000000e+00
0.00000000e+00
0.00000000e+00
0.00000000e+00
1.40320109e-02
1.40972009e-02
1.33899146e-02
1.33197019e-02
1.41698380e-02
1.44642903e-02
1.49933191e-02
1.65446015e-02
1.64688323e-02
1.81432606e-02
1.66190357e-02
1.85221303e-02
1.61320670e-02
1.78616222e-02
1.18808983e-02
1.13814166e-02
1.56327592e-02
2.12653503e-02
2.29357332e-02
2.45726132e-02
2.48772372e-02
8.48974392e-03
8.51009798e-03
1.11776332e-02
8.00076383e-03
6.16126094e-03
5.93561505e-03
4.09265651e-03
1.03750336e-03
5.80261217e-03
4.64757404e-03
7.43369391e-03
8.80330533e-03
6.07568526e-03
5.47598093e-03
9.52369673e-03
1.71595034e-02
0.00000000e+00
0.00000000e+00
0.00000000e+00
0.00000000e+00
1.43640856e-02
1.41117428e-02
1.42427069e-02
1.42941847e-02
1.36180914e-02
1.43911873e-02
1.31929265e-02
1.50293424e-02
1.23333891e-02
1.62544479e-02
1.07526523e-02
1.47614729e-02
9.31311119e-03
1.27326676e-02
1.42237126e-02
1.31712588e-02
1.59721295e-02
2.32928935e-02
2.29938054e-02
2.02877438e-02
1.77572817e-02
1.31910826e-02
9.68088512e-03
2.34187879e-02
7.36350480e-03
6.93040411e-03
1.12723815e-02
5.69902698e-03
6.05887495e-03
1.01784670e-02
9.21097025e-03
2.34896767e-02
1.03179140e-02
8.68499000e-03
</DataArray>
<DataArray type="Float32" Name="Stress_Mises" format="ascii">
2.97070713e+01
3.05943079e+01
3.05184836e+01
2.88033447e+01
2.93222103e+01
3.01292715e+01
2.94879115e+01
2.94236784e+01
3.41925421e+01
3.26112800e+01
3.04619226e+01
3.25765059e+01
3.75201569e+01
3.48951540e+01
3.25175991e+01
3.39658368e+01
3.69390259e+01
3.86877017e+01
3.46494312e+01
3.14998543e+01
3.77576838e+01
3.79919100e+01
3.23982122e+01
3.26015582e+01
4.94923172e+01
5.03168545e+01
3.77057352e+01
3.98909187e+01
2.86700921e+01
2.88234539e+01
2.93556798e+01
2.71693358e+01
2.70233412e+01
2.86085303e+01
2.01907009e+01
2.76519924e+01
2.04339772e+01
2.97738212e+01
2.02562898e+01
3.04490610e+01
2.47615755e+01
4.17723595e+01
2.72602568e+01
2.94000673e+01
2.85894430e+01
2.62470617e+01
2.33435740e+01
2.38086077e+01
1.58953338e+01
2.05902575e+01
1.19524506e+01
2.19115232e+01
1.80233180e+01
2.82566013e+01
2.24382329e+01
3.40163937e+01
2.82337756e+01
2.94854584e+01
2.74190125e+01
2.83828893e+01
2.52568045e+01
2.43956740e+01
2.04605184e+01
2.12722327e+01
1.94502888e+01
2.22782548e+01
2.56623650e+01
2.23057626e+01
3.06065416e+01
2.43545545e+01
2.94066815e+01
3.07236633e+01
2.81742966e+01
2.95915465e+01
2.78164763e+01
2.65991235e+01
2.61764627e+01
2.84866289e+01
1.51280189e+01
2.36511347e+01
9.07599342e+00
5.56061029e+00
1.04703393e+01
1.11678274e+01
3.24149914e+01
3.39227333e+01
3.21027651e+01
3.14285526e+01
3.29788704e+01
3.31918368e+01
3.16562061e+01
3.71461118e+01
3.39397202e+01
2.88846817e+01
1.33536456e+01
6.93611336e+00
5.71534681e+00
3.71766484e+00
2.96768360e+01
2.98472171e+01
2.85602460e+01
2.96154165e+01
2.81230249e+01
2.84380317e+01
2.76169505e+01
2.96147469e+01
2.96917586e+01
2.98656356e+01
2.73714824e+01
2.85079010e+01
2.48281202e+01
2.48319750e+01
2.76202972e+01
2.80988216e+01
3.90107792e+01
5.23306969e+01
4.36703157e+01
4.77273703e+01
4.78098850e+01
2.43513653e+01
2.63525763e+01
4.02542378e+01
4.29481010e+01
2.52096441e+01
2.56603303e+01
2.12114455e+01
2.48286330e+01
2.75262284e+01
2.44281025e+01
2.93447238e+01
3.32117348e+01
2.88516116e+01
2.88491173e+01
3.22662064e+01
5.69617195e+01
1.52823526e+00
2.40373343e+00
1.57104892e+00
1.99151653e+00
2.95771666e+01
2.95638957e+01
2.93304780e+01
3.00563445e+01
2.87777753e+01
2.85930507e+01
2.78121629e+01
2.83459350e+01
2.60038400e+01
3.18745558e+01
2.35985041e+01
2.88475562e+01
2.05713997e+01
2.30321069e+01
2.85283732e+01
2.78504348e+01
3.25564706e+01
5.79271782e+01
5.00869112e+01
4.07830667e+01
3.25264235e+01
3.33800850e+01
2.18595631e+01
7.22445183e+01
2.47654106e+01
2.31292572e+01
4.53923345e+01
2.07687845e+01
2.25005684e+01
2.86728398e+01
4.92952766e+01
6.78213399e+01
3.13601694e+01
3.07882595e+01
</DataArray>
<DataArray type="Float32" Name="Stress_Max_Principal" format="ascii">
4.08874655e+00
3.34801203e+00
2.76079364e+00
3.91065294e+00
4.16289139e+00
3.29512748e+00
3.31994395e+00
3.46353209e+00
5.34259081e-01
1.44985989e+00
2.54678056e+00
7.64664270e-01
-2.15797731e+00
-5.55165350e-01
3.61077845e-01
-6.05803858e-01
-2.27696341e+00
-3.47965854e+00
-1.76037976e+00
1.10327874e+00
-3.13709235e+00
-1.85780525e+00
-7.27862716e-02
8.74466330e-01
-9.67338753e+00
-9.81839204e+00
-2.64191926e+00
-3.52003950e+00
3.46341612e+00
2.59980544e+00
2.52479184e+00
3.83670291e+00
6.03060168e+00
3.60885425e+00
1.14156423e+01
4.69374318e+00
1.26328330e+01
5.42462944e+00
1.80699445e+01
5.84411240e+00
1.53357412e+01
-1.70307509e+00
5.68829989e+00
3.57710516e+00
3.81751690e+00
4.99022490e+00
9.80767334e+00
9.80823880e+00
1.83968723e+01
2.50309653e+01
2.54654109e+01
1.80819778e+01
3.02158591e+01
2.05900345e+01
1.88756402e+01
1.21000328e+01
5.91197300e+00
4.55352509e+00
5.93756330e+00
4.81197172e+00
8.64812469e+00
9.33345717e+00
1.54188972e+01
1.48231645e+01
2.11158079e+01
2.07855174e+01
8.73704863e+00
1.75375792e+01
1.33649659e+01
1.88752009e+01
3.92991731e+00
2.76519680e+00
4.78495830e+00
3.17831945e+00
6.84271877e+00
7.15940189e+00
1.54419701e+01
1.05199099e+01
9.63016012e+00
1.53010793e+01
5.87099338e+00
3.63182913e+00
3.65021384e+00
3.47544018e+00
1.38954985e+00
2.40530148e-01
8.44539821e-01
1.62370494e+00
3.80074206e+00
1.53912520e+00
1.48144045e+01
4.70670700e+00
1.18973503e+01
9.25610614e+00
3.14982092e+00
1.75057892e+00
1.27190733e+00
1.29285660e+00
2.63118047e+00
1.92115744e+00
3.80243377e+00
3.18791627e+00
2.92043716e+00
3.52517073e+00
3.35800412e+00
2.28565521e+00
2.30258912e+00
2.04631154e+00
3.34544316e+00
3.04667220e+00
6.03264117e+00
6.47523272e+00
4.83976313e+00
4.90941137e+00
-4.71741130e+00
-1.40855639e+01
-9.70452070e+00
-1.34527528e+01
-1.33718495e+01
7.61848348e+00
5.70143023e+00
-1.84872239e+00
1.42864397e+01
6.75400329e+00
5.31152636e+00
1.38017956e+01
2.56550471e+01
5.17920712e+00
6.67860341e+00
4.85569141e+00
2.74427041e+00
3.08772334e+00
3.10419512e+00
1.30706950e+00
-2.02847018e+01
7.55240411e-01
1.40778250e+00
5.66232964e-01
1.13972574e+00
7.88317174e-01
1.01370931e+00
2.40625795e+00
8.59168947e-01
3.27819752e+00
3.96146426e+00
4.76287287e+00
4.48320887e+00
6.40423369e+00
1.28639057e+00
7.55900550e+00
2.94690263e+00
1.02028751e+01
7.72891819e+00
4.93613964e+00
5.25500596e+00
2.59773827e+00
-1.99465115e+01
-1.49566605e+01
-8.27232504e+00
-1.59855813e+00
2.32659836e+00
1.05935201e+01
-2.46856709e+01
7.90174600e+00
9.21843505e+00
-6.00404334e+00
1.70282301e+01
9.17184877e+00
1.57218078e+01
4.09012175e+00
-2.17510202e+01
2.76885653e+00
2.65934741e+00
</DataArray>
<DataArray type="Float32" Name="Stress_Mid_Principal" format="ascii">
-4.13860273e+00
-4.88434488e+00
-3.96108602e+00
-2.14822948e+00
-3.44778597e+00
-3.86662260e+00
-2.64981064e+00
-2.76174936e+00
-8.18486571e+00
-6.19704914e+00
-3.41043185e+00
-5.14974972e+00
-1.11171093e+01
-7.74601550e+00
-4.54297689e+00
-5.97532509e+00
-9.83521640e+00
-1.11226375e+01
-6.01672161e+00
-3.30144434e+00
-1.02504038e+01
-1.15214863e+01
-3.85911012e+00
-4.73754349e+00
-2.43165131e+01
-2.49298944e+01
-1.03229588e+01
-1.26161899e+01
-1.21471205e+00
-5.57122707e-01
-1.31139474e+00
1.15009252e+00
-8.30574870e-01
-9.34504151e-01
6.59851569e+00
9.29629803e-01
6.41709793e+00
-2.78408440e+00
8.54477835e+00
-3.03374314e+00
4.39652061e+00
-1.48309212e+01
-1.19719315e+00
-2.74167728e+00
-1.01965508e+00
1.72315379e+00
2.21481317e+00
3.45448250e+00
1.08878767e+01
1.30532253e+01
2.08309565e+01
3.12329965e+00
1.96814377e+01
2.99755223e-02
1.15723441e+01
-1.96925497e+00
-3.26772851e+00
-4.18433976e+00
-1.34279449e+00
-2.18045268e+00
2.12226301e-01
1.17857224e+00
6.11434509e+00
5.34891355e+00
6.54991659e+00
3.47616831e+00
1.92981794e+00
1.56266391e+00
4.60766721e+00
-2.89574226e-01
-2.92260754e+00
-4.26915288e+00
-1.56759299e+00
-2.62640978e+00
-1.72934404e+00
-6.85004666e-02
1.23653454e+00
-2.01178569e+00
2.79810897e+00
2.46890947e+00
4.96852756e-01
4.36034334e-01
-1.51487589e-01
1.50568767e+00
-5.50707102e+00
-7.22319031e+00
-4.02162158e+00
-3.77114010e+00
-6.78181899e+00
-4.89808589e+00
-7.07807684e+00
-9.58777682e+00
4.73769021e+00
9.04237568e-01
2.02569848e+00
7.59574374e-02
-1.42216647e+00
-1.64730296e+00
-2.09013712e+00
-1.58127296e+00
-1.31978213e+00
-2.62128422e+00
6.49664760e-01
-6.14819780e-01
1.14296913e+00
-1.05729298e+00
-1.28134313e+00
-1.43240403e+00
1.47888914e+00
1.92936361e-02
3.52642620e+00
3.16870302e+00
-4.96029858e-01
-1.76762888e+00
-9.37822441e+00
-2.12896562e+01
-1.34326878e+01
-1.62601659e+01
-1.64818254e+01
3.31619821e+00
1.28578514e+00
-8.40220368e+00
-1.07665236e+01
1.97533847e+00
3.06579968e+00
6.56506035e+00
1.47781456e+01
-2.85900854e-01
3.61643887e+00
-2.81496246e+00
-3.59658480e+00
2.81256065e-01
2.02815771e-01
-3.42009401e+00
-2.27623177e+01
-1.39661014e-01
-5.34192502e-01
2.01748375e-01
-4.36359718e-01
1.53820813e-01
-7.22474493e-02
-9.55260942e-01
-6.38414241e-01
-9.74718153e-01
-1.26619700e+00
-1.01193013e+00
-1.17017823e+00
4.82913435e-01
-4.21564996e+00
3.70927728e+00
-7.18142837e-01
6.24672782e+00
4.50943041e+00
-2.09739394e+00
-1.25108451e+00
-4.40688474e-01
-2.41670261e+01
-1.87989397e+01
-9.80354428e+00
-2.34690833e+00
-6.71541980e+00
4.03321677e+00
-3.75880742e+01
3.56749449e+00
2.93353820e+00
-1.13350937e+01
1.14469187e+01
4.83802545e+00
8.32667048e+00
-1.38967257e+01
-3.23992068e+01
-3.41347522e+00
-2.82738233e+00
</DataArray>
<DataArray type="Float32" Name="Stress_Min_Principal" format="ascii">
-2.88648853e+01
-3.05112782e+01
-3.05227480e+01
-2.74116039e+01
-2.82133665e+01
-2.97648325e+01
-2.86769471e+01
-2.85542493e+01
-3.71715374e+01
-3.42805471e+01
-3.04273438e+01
-3.43451306e+01
-4.33147678e+01
-3.84034925e+01
-3.43223109e+01
-3.69101402e+01
-4.24041576e+01
-4.53406725e+01
-3.83365209e+01
-3.23517950e+01
-4.39391127e+01
-4.37290605e+01
-3.41963477e+01
-3.41224648e+01
-6.48350372e+01
-6.58977165e+01
-4.35936947e+01
-4.71619792e+01
-2.72395821e+01
-2.76684341e+01
-2.85255857e+01
-2.45339494e+01
-2.37455720e+01
-2.69675697e+01
-1.06381655e+01
-2.45424016e+01
-9.83857489e+00
-2.75032921e+01
-4.64312506e+00
-2.78635317e+01
-1.27902355e+01
-4.82525073e+01
-2.42591171e+01
-2.84254560e+01
-2.67965240e+01
-2.26561110e+01
-1.63332109e+01
-1.63890630e+01
4.48060155e-01
1.71872775e+00
1.19730428e+01
-6.94539316e+00
9.85580301e+00
-1.10522102e+01
-5.35419989e+00
-2.51145267e+01
-2.57319598e+01
-2.83132420e+01
-2.43758802e+01
-2.64012141e+01
-1.94187596e+01
-1.78599517e+01
-7.46747750e+00
-9.29455322e+00
-1.80419405e-01
-3.52451686e+00
-1.94109735e+01
-7.92930877e+00
-2.06428328e+01
-8.11761055e+00
-2.82105932e+01
-3.08550749e+01
-2.60009270e+01
-2.88313069e+01
-2.39464459e+01
-2.21498495e+01
-1.44805281e+01
-2.14937127e+01
-7.50419980e+00
-1.16544275e+01
-4.41373715e+00
-2.72476683e+00
-8.10357141e+00
-8.39695470e+00
-3.39155636e+01
-3.67925568e+01
-3.33616152e+01
-3.21494455e+01
-3.31609354e+01
-3.43262000e+01
-2.13382196e+01
-3.64947802e+01
-2.49395094e+01
-2.28013067e+01
-1.07014160e+01
-5.85640017e+00
-5.29256773e+00
-2.88586324e+00
-2.91229324e+01
-2.95087557e+01
-2.69713924e+01
-2.89002013e+01
-2.62690520e+01
-2.67210444e+01
-2.52578967e+01
-2.88462587e+01
-2.90155745e+01
-2.93971041e+01
-2.49036593e+01
-2.68488560e+01
-1.99518051e+01
-1.98326924e+01
-2.50120200e+01
-2.58889384e+01
-4.58145182e+01
-6.94718941e+01
-5.51126804e+01
-6.25196486e+01
-6.26546707e+01
-1.85288784e+01
-2.24922135e+01
-4.48480021e+01
-3.52946701e+01
-2.04686093e+01
-2.13960958e+01
-9.89903497e+00
-2.12206141e+00
-2.46543949e+01
-1.91339507e+01
-2.74188254e+01
-3.31699052e+01
-2.70069051e+01
-2.70827351e+01
-3.30109408e+01
-7.84415779e+01
-1.00197119e+00
-1.25998515e+00
-1.15437937e+00
-1.08979765e+00
-2.91009722e+01
-2.90772972e+01
-2.84084232e+01
-2.99062004e+01
-2.73854325e+01
-2.68614078e+01
-2.54679623e+01
-2.62195329e+01
-2.20481119e+01
-3.29548683e+01
-1.77142482e+01
-2.75434458e+01
-1.20555871e+01
-1.67312779e+01
-2.63846655e+01
-2.52675023e+01
-3.13106951e+01
-7.97776268e+01
-6.68505993e+01
-4.97986698e+01
-3.44926767e+01
-3.44566233e+01
-1.37613358e+01
-1.02447277e+02
-1.86360015e+01
-1.62420380e+01
-5.35345578e+01
-5.34045887e+00
-1.50995650e+01
-1.46724012e+01
-5.16727257e+01
-9.41946131e+01
-3.08533671e+01
-3.05029354e+01
</DataArray>
<DataArray type="Float32" Name="Stress_Pressure" format="ascii">
9.63824749e+00
1.06825373e+01
1.05743468e+01
8.54972696e+00
9.16608715e+00
1.01121091e+01
9.33560462e+00
9.28415561e+00
1.49407144e+01
1.30092456e+01
1.04303319e+01
1.29100722e+01
1.88632855e+01
1.55682249e+01
1.28347366e+01
1.44970897e+01
1.81721129e+01
1.99809896e+01
1.53712073e+01
1.15166533e+01
1.91088696e+01
1.90361170e+01
1.27094146e+01
1.26618477e+01
3.29416466e+01
3.35486679e+01
1.88528581e+01
2.10994025e+01
8.33029250e+00
8.54191732e+00
9.10406299e+00
6.51571798e+00
6.18184829e+00
8.09773988e+00
-2.45866394e+00
6.30634287e+00
-3.07045197e+00
8.28758240e+00
-7.32386607e+00
8.35105435e+00
-2.31400967e+00
2.15955009e+01
6.58933717e+00
9.19667649e+00
7.99955415e+00
5.31424418e+00
1.43690819e+00
1.04211378e+00
-9.91093624e+00
-1.32676399e+01
-1.94231364e+01
-4.75329479e+00
-1.99176998e+01
-3.18926664e+00
-8.36459470e+00
4.99458298e+00
7.69590509e+00
9.31468582e+00
6.59370375e+00
7.92323184e+00
3.51946929e+00
2.44930747e+00
-4.68858814e+00
-3.62584156e+00
-9.16176828e+00
-6.91238968e+00
2.91470248e+00
-3.72364489e+00
8.90066415e-01
-3.48933856e+00
9.06776094e+00
1.07863441e+01
7.59452060e+00
9.42646575e+00
6.27769017e+00
5.01964918e+00
-7.32658962e-01
4.32852947e+00
-1.64135638e+00
-2.03852019e+00
-6.51369601e-01
-4.47698897e-01
1.53494829e+00
1.13860905e+00
1.26776953e+01
1.45917387e+01
1.21795657e+01
1.14322939e+01
1.20473373e+01
1.25617204e+01
4.53396380e+00
1.37919505e+01
2.76815653e+00
4.21365446e+00
1.84196550e+00
1.34328793e+00
1.81427562e+00
1.08010320e+00
9.52729654e+00
9.72295690e+00
8.16291362e+00
9.44452298e+00
7.56631678e+00
7.93689771e+00
6.91897440e+00
9.20596552e+00
9.33144283e+00
9.59439895e+00
6.69310908e+00
7.92762997e+00
3.46424603e+00
3.39625221e+00
6.88942910e+00
7.58238503e+00
1.99700511e+01
3.49490362e+01
2.60832963e+01
3.07441883e+01
3.08361158e+01
2.53139909e+00
5.16833264e+00
1.83663089e+01
1.05915845e+01
3.91308920e+00
4.33958980e+00
-3.48927367e+00
-1.27703772e+01
6.58702958e+00
2.94630277e+00
8.45936543e+00
1.13407400e+01
7.87930861e+00
7.92524177e+00
1.17079887e+01
4.04961987e+01
1.28797248e-01
1.28798399e-01
1.28799338e-01
1.28810540e-01
9.38627791e+00
9.37861192e+00
8.98580870e+00
9.89514875e+00
8.36065139e+00
8.05538004e+00
7.23900640e+00
7.63550091e+00
5.05365473e+00
1.19613758e+01
2.14865509e+00
8.43822858e+00
-1.46467173e+00
1.49764287e+00
7.84863992e+00
7.08785996e+00
9.71788211e+00
4.12970547e+01
3.35354004e+01
2.26248469e+01
1.28127151e+01
1.29484816e+01
-2.88466692e-01
5.49070072e+01
2.38892031e+00
1.36335492e+00
2.36245654e+01
-7.71156320e+00
3.63230348e-01
-3.12535926e+00
2.04931107e+01
4.94482791e+01
1.04993283e+01
1.02236571e+01
</DataArray>
<DataArray type="Float32" Name="Stress_Tresca" format="ascii">
3.29536324e+01
3.38592892e+01
3.32835412e+01
3.13222561e+01
3.23762589e+01
3.30599608e+01
3.19968908e+01
3.20177822e+01
3.77057972e+01
3.57304068e+01
3.29741244e+01
3.51097949e+01
4.11567898e+01
3.78483267e+01
3.46833892e+01
3.63043361e+01
4.01271954e+01
4.18610134e+01
3.65761409e+01
3.34550736e+01
4.08020201e+01
4.18712559e+01
3.41235619e+01
3.49969316e+01
5.51616516e+01
5.60793247e+01
4.09517746e+01
4.36419387e+01
3.07029991e+01
3.02682400e+01
3.10503771e+01
2.83706522e+01
2.97761736e+01
3.05764241e+01
2.20538077e+01
2.92361442e+01
2.24714074e+01
3.29279210e+01
2.27130690e+01
3.37076445e+01
2.81259766e+01
4.65494324e+01
2.99474173e+01
3.20025616e+01
3.06140411e+01
2.76463361e+01
2.61408839e+01
2.61973019e+01
1.79488120e+01
2.33122381e+01
1.34923681e+01
2.50273711e+01
2.03600566e+01
3.16422456e+01
2.42298403e+01
3.72145596e+01
3.16439328e+01
3.28667679e+01
3.03134437e+01
3.12131858e+01
2.80668836e+01
2.71934090e+01
2.28863745e+01
2.41177177e+01
2.12962271e+01
2.43100344e+01
2.81480217e+01
2.54668878e+01
3.40077991e+01
2.69928118e+01
3.21405106e+01
3.36202726e+01
3.07858858e+01
3.20096254e+01
3.07891655e+01
2.93092513e+01
2.99224977e+01
3.20136223e+01
1.71343601e+01
2.69555063e+01
1.02847304e+01
6.35659599e+00
1.17537851e+01
1.18723952e+01
3.53051138e+01
3.70330887e+01
3.42061548e+01
3.37731495e+01
3.69616776e+01
3.58653245e+01
3.61526241e+01
4.12014872e+01
3.68368597e+01
3.20574121e+01
1.38512373e+01
7.60697905e+00
6.56447506e+00
4.17871976e+00
3.17541142e+01
3.14299130e+01
3.07738259e+01
3.20881186e+01
2.91894894e+01
3.02462149e+01
2.86159010e+01
3.11319141e+01
3.13181634e+01
3.14434156e+01
2.82491021e+01
2.98955281e+01
2.59844465e+01
2.63079257e+01
2.98517830e+01
3.07983499e+01
4.10971075e+01
5.53863312e+01
4.54081593e+01
4.90668964e+01
4.92828197e+01
2.61473620e+01
2.81936431e+01
4.29992797e+01
4.95811100e+01
2.72226126e+01
2.67076221e+01
2.37008299e+01
2.77771072e+01
2.98336015e+01
2.58125539e+01
3.22745168e+01
3.59141760e+01
3.00946288e+01
3.01869297e+01
3.43180106e+01
5.81568756e+01
1.75721157e+00
2.66776776e+00
1.72061229e+00
2.22952342e+00
2.98892889e+01
3.00910068e+01
3.08146811e+01
3.07653685e+01
3.06636295e+01
3.08228717e+01
3.02308354e+01
3.07027421e+01
2.84523458e+01
3.42412584e+01
2.52732539e+01
3.04903483e+01
2.22584620e+01
2.44601958e+01
3.13208053e+01
3.05225081e+01
3.39084342e+01
5.98311150e+01
5.18939400e+01
4.15263443e+01
3.28941183e+01
3.67832217e+01
2.43548555e+01
7.77616043e+01
2.65377475e+01
2.54604731e+01
4.75305147e+01
2.23686888e+01
2.42714140e+01
3.03942086e+01
5.57628479e+01
7.24435921e+01
3.36222239e+01
3.31622829e+01
</DataArray>
<DataArray type="Float32" Name="Stress_Third_Invariant" format="ascii">
-2.69597416e+01
-2.78981533e+01
-2.86495395e+01
-2.72100401e+01
-2.69587355e+01
-2.80981956e+01
-2.80110335e+01
-2.78094883e+01
-3.15341740e+01
-3.03984885e+01
-2.90152264e+01
-3.12697105e+01
-3.48683205e+01
-3.28668804e+01
-3.16443048e+01
-3.29023962e+01
-3.51128101e+01
-3.66489062e+01
-3.40384645e+01
-3.07457750e+01
-3.61817894e+01
-3.49874249e+01
-3.18901772e+01
-3.13274662e+01
-4.42100792e+01
-4.44803104e+01
-3.58707037e+01
-3.74061675e+01
-2.77302985e+01
-2.84188824e+01
-2.86717651e+01
-2.67356548e+01
-2.48810887e+01
-2.76714315e+01
-1.73696840e+01
-2.67107018e+01
-1.64683144e+01
-2.63785543e+01
-1.06522170e+01
-2.56128740e+01
-1.58408567e+01
-3.56513799e+01
-2.48085237e+01
-2.76536074e+01
-2.73597791e+01
-2.55239329e+01
-1.99616611e+01
-2.11211432e+01
-1.73181856e+00
4.32123550e+00
-7.16337729e+00
1.39305538e+01
2.58935515e+00
1.38653415e+01
-8.62186480e+00
-2.77545166e+00
-2.43325305e+01
-2.63271713e+01
-2.50573752e+01
-2.62899327e+01
-1.92914686e+01
-1.95137866e+01
-2.36422849e+00
-8.38122423e+00
8.15646458e+00
1.10309690e+01
-2.24380903e+01
1.66239980e+01
-2.74694872e+01
1.55673321e+01
-2.71898003e+01
-2.87876062e+01
-2.64068911e+01
-2.80746155e+01
-1.86091577e+01
-2.34146926e+01
-1.46429539e+00
-9.27578958e+00
-6.00080299e+00
-2.92651963e+00
2.75632572e+00
-5.28436089e-01
-8.00743389e+00
-8.72281520e+00
-3.06869278e+01
-3.19961262e+01
-3.10854707e+01
-3.03482933e+01
-2.87222214e+01
-3.14789433e+01
2.09065990e+01
-1.40708542e+01
-3.17784767e+01
-2.56002436e+01
-1.31550872e+01
-6.40251430e+00
-3.84452629e+00
3.20089352e+00
-2.88124800e+01
-2.93351960e+01
-2.74950323e+01
-2.82855034e+01
-2.79154005e+01
-2.76328661e+01
-2.72869849e+01
-2.91462232e+01
-2.91899848e+01
-2.93753760e+01
-2.72036572e+01
-2.81263717e+01
-2.45357180e+01
-2.42919006e+01
-2.62572801e+01
-2.60776429e+01
-3.82669411e+01
-5.06128807e+01
-4.32893715e+01
-4.75343370e+01
-4.75628109e+01
-2.32281213e+01
-2.51971111e+01
-3.85466671e+01
2.61226130e+00
-2.40388031e+01
-2.54323921e+01
-1.69976580e+01
-1.30826810e+01
-2.62091930e+01
-2.39833837e+01
-2.62867460e+01
-3.17692997e+01
-2.83604851e+01
-2.85079603e+01
-3.13075854e+01
-5.68305550e+01
7.82735348e-02
2.06571501e+00
-1.46890509e+00
1.69098300e+00
-2.95617847e+01
-2.95162396e+01
-2.87268391e+01
-2.99365740e+01
-2.80447388e+01
-2.74055912e+01
-2.63571067e+01
-2.68801442e+01
-2.44112401e+01
-3.06901178e+01
-2.28309240e+01
-2.82696198e+01
-1.96751804e+01
-2.24780326e+01
-2.62011936e+01
-2.60378346e+01
-3.20288884e+01
-5.72951088e+01
-4.97430992e+01
-4.07160072e+01
-3.25069838e+01
-2.95210201e+01
-1.91941640e+01
-6.93595591e+01
-2.35214637e+01
-2.03528047e+01
-4.36959839e+01
-1.50910244e+01
-2.12354550e+01
-1.88806766e+01
-4.08679771e+01
-6.56542880e+01
-2.80183454e+01
-2.96566849e+01
</DataArray>
<DataArray type="Float32" Name="Logarithmic_strain_Max_Principal" format="ascii">
1.30016124e-02
1.36940354e-02
1.20584564e-02
1.11274011e-02
1.21842711e-02
1.24771222e-02
1.12615053e-02
1.10090950e-02
1.58172930e-02
1.36700675e-02
1.31699827e-02
1.25208949e-02
1.81288430e-02
1.50831302e-02
1.44111931e-02
1.37431382e-02
1.95802618e-02
1.71058266e-02
1.57291209e-02
1.45404338e-02
2.22310210e-02
1.97720504e-02
1.73095837e-02
1.67255139e-02
2.88591366e-02
2.46526822e-02
2.08504852e-02
2.04087016e-02
8.48593609e-03
7.94722908e-03
8.55020771e-03
7.71598390e-03
8.81359121e-03
9.16743046e-03
7.80442858e-03
9.58918195e-03
9.12601920e-03
1.19444368e-02
9.86927492e-03
1.31022348e-02
1.08151301e-02
1.57469055e-02
6.39459875e-03
6.85321121e-03
6.17812952e-03
5.71347494e-03
4.81667230e-03
5.21235418e-03
2.39207593e-03
3.45820497e-03
2.25903323e-03
4.78644110e-03
2.38541091e-03
4.84626065e-03
1.88417279e-03
4.45741980e-03
5.84837236e-03
6.52624946e-03
5.23416413e-03
5.70674066e-03
3.68669356e-03
3.62378181e-03
1.38218536e-03
1.78346590e-03
4.06868353e-04
8.06633713e-04
1.24241381e-03
8.60778954e-04
1.24313757e-03
1.09546631e-03
5.39876975e-03
6.45045331e-03
4.90949349e-03
5.44448022e-03
3.39774281e-03
3.52255872e-03
9.40474187e-04
2.31765973e-03
1.81855130e-04
3.35224278e-04
1.33457508e-04
8.18353343e-05
1.06180119e-04
9.67717375e-05
6.01079012e-03
7.30441697e-03
5.46310539e-03
5.78309363e-03
4.08649736e-03
4.52808646e-03
1.27931585e-03
3.27758918e-03
2.43708731e-04
4.62920842e-04
9.78359258e-05
5.80076448e-05
5.33334642e-05
4.41494958e-05
1.05034728e-02
1.00288049e-02
1.02889872e-02
1.03145898e-02
9.55955125e-03
1.06335869e-02
1.02461942e-02
1.17269036e-02
1.14666813e-02
1.26800977e-02
1.08362734e-02
1.29364367e-02
1.09849800e-02
1.28184026e-02
9.28827014e-03
9.31997388e-03
1.10877160e-02
1.51209440e-02
1.51032796e-02
1.54920784e-02
1.55389486e-02
6.79807918e-03
6.62310328e-03
9.12812740e-03
1.06991669e-02
4.72349458e-03
4.20954789e-03
3.92979417e-03
3.42811737e-03
4.61777597e-03
3.50901601e-03
6.02105336e-03
6.79909589e-03
4.35872760e-03
4.10898123e-03
7.00466451e-03
1.08106155e-02
1.99132273e-05
3.51529998e-05
1.51479157e-05
2.90929947e-05
8.85884557e-03
8.92975950e-03
9.96045000e-03
9.26905265e-03
9.99753363e-03
1.09962611e-02
1.04711147e-02
1.15913652e-02
9.91219957e-03
1.21186997e-02
8.01697455e-03
1.04731201e-02
7.34682055e-03
9.17540700e-03
1.14971298e-02
1.05958499e-02
1.12658872e-02
1.63436923e-02
1.53525576e-02
1.28727797e-02
1.08701033e-02
1.10833715e-02
8.61194474e-03
1.85726264e-02
5.92849949e-03
6.04643888e-03
9.21721663e-03
4.77629856e-03
4.92976658e-03
8.69455954e-03
9.96366516e-03
1.87376440e-02
8.20765563e-03
6.86892960e-03
</DataArray>
<DataArray type="Float32" Name="Logarithmic_strain_Min_Principal" format="ascii">
-1.52876303e-02
-1.63515620e-02
-1.51724291e-02
-1.41322338e-02
-1.47600537e-02
-1.55912377e-02
-1.45887594e-02
-1.39650500e-02
-1.94088994e-02
-1.71058844e-02
-1.73402543e-02
-1.69220902e-02
-2.28997990e-02
-1.96850924e-02
-2.01223637e-02
-1.92329613e-02
-2.59437785e-02
-2.32220413e-02
-2.32090796e-02
-2.07562051e-02
-3.03596752e-02
-2.60210820e-02
-2.54955790e-02
-2.34995217e-02
-3.50864977e-02
-3.04405838e-02
-2.82927668e-02
-2.65906667e-02
-1.17015287e-02
-1.17313950e-02
-1.21101319e-02
-1.12287097e-02
-1.09863339e-02
-1.24389757e-02
-9.19011584e-03
-1.30071612e-02
-1.01762877e-02
-1.48733221e-02
-9.66130919e-03
-1.60850049e-02
-1.04122283e-02
-1.91771186e-02
-8.27944651e-03
-9.31164110e-03
-8.95768497e-03
-8.48865218e-03
-5.71361848e-03
-6.61726249e-03
-2.22633168e-03
-3.05136485e-03
-1.77403885e-03
-4.02329303e-03
-1.93662231e-03
-3.90099210e-03
-2.43320875e-03
-4.34155040e-03
-6.97213330e-03
-8.04342097e-03
-6.68041740e-03
-7.43360142e-03
-4.21368208e-03
-4.15736157e-03
-1.19446802e-03
-1.76543443e-03
-2.37295402e-04
-4.82001691e-04
-1.84167396e-03
-6.34466111e-04
-1.67842508e-03
-6.49537190e-04
-7.26119010e-03
-8.73027183e-03
-6.65324996e-03
-7.62968895e-03
-4.10263182e-03
-4.59004415e-03
-8.15886568e-04
-2.80912212e-03
-1.83081616e-04
-2.49809342e-04
-1.13778064e-04
-7.08357320e-05
-1.75843204e-04
-1.88211532e-04
-8.27825628e-03
-1.00111961e-02
-7.98606209e-03
-8.36357218e-03
-4.96984366e-03
-6.50057883e-03
-9.41662554e-04
-4.64407137e-03
-5.49196135e-04
-7.17812611e-04
-2.34716012e-04
-1.24407733e-04
-1.05093401e-04
-5.63216472e-05
-1.44567285e-02
-1.46334239e-02
-1.37645049e-02
-1.36827601e-02
-1.47803617e-02
-1.49726288e-02
-1.55890612e-02
-1.72509124e-02
-1.71634869e-02
-1.87911973e-02
-1.71997161e-02
-1.91755905e-02
-1.67283113e-02
-1.84977092e-02
-1.22734426e-02
-1.15982918e-02
-1.66959264e-02
-2.28872042e-02
-2.40434422e-02
-2.59682178e-02
-2.63364566e-02
-9.02136700e-03
-8.97037284e-03
-1.26042685e-02
-9.40754754e-03
-6.56968536e-03
-6.49017259e-03
-4.71411423e-03
-3.44900410e-03
-6.30517793e-03
-5.14417503e-03
-7.93057808e-03
-9.92293539e-03
-6.81060168e-03
-6.18024706e-03
-1.04672171e-02
-1.91334775e-02
-2.24350897e-05
-2.86582535e-05
-2.62333697e-05
-2.48385668e-05
-1.49991680e-02
-1.47469058e-02
-1.48139223e-02
-1.49481688e-02
-1.41351281e-02
-1.48559692e-02
-1.34609295e-02
-1.55304770e-02
-1.25971322e-02
-1.68731364e-02
-1.11359714e-02
-1.53204370e-02
-9.53537365e-03
-1.31113045e-02
-1.45457742e-02
-1.35377620e-02
-1.76957474e-02
-2.61447430e-02
-2.44149673e-02
-2.13128040e-02
-1.85344070e-02
-1.38810683e-02
-9.96188424e-03
-2.72694100e-02
-8.05728543e-03
-7.03597965e-03
-1.32229266e-02
-6.28870836e-03
-6.56689238e-03
-1.14499802e-02
-1.21756736e-02
-2.63124456e-02
-1.11029657e-02
-9.47051402e-03
</DataArray>
<DataArray type="Float32" Name="Plastic_strain_Max_Principal" format="ascii">
1.27897616e-02
1.34864054e-02
1.18689891e-02
1.09277833e-02
1.19750877e-02
1.22792858e-02
1.10698577e-02
1.08162235e-02
1.56347300e-02
1.34880145e-02
1.29819277e-02
1.23552403e-02
1.79683818e-02
1.49276981e-02
1.42507441e-02
1.35906088e-02
1.94198722e-02
1.69827056e-02
1.56027579e-02
1.43691918e-02
2.20979834e-02
1.96304987e-02
1.71867632e-02
1.65469028e-02
2.87239831e-02
2.45765969e-02
2.07343353e-02
2.02343506e-02
8.30227020e-03
7.78087741e-03
8.38189351e-03
7.54147652e-03
8.59346939e-03
8.98678129e-03
7.54627679e-03
9.39794357e-03
8.85220105e-03
1.17105516e-02
9.55078483e-03
1.28448453e-02
1.04861716e-02
1.54950290e-02
6.17757207e-03
6.65735011e-03
5.99207543e-03
5.52670856e-03
4.56024072e-03
4.96161383e-03
2.06607135e-03
3.05134240e-03
1.87992404e-03
4.39527161e-03
1.94145359e-03
4.37571947e-03
1.56483980e-03
4.08961927e-03
5.61376254e-03
6.30447827e-03
5.01165277e-03
5.49588434e-03
3.43626336e-03
3.36883936e-03
1.07437613e-03
1.47169494e-03
1.61524581e-04
3.91155464e-04
1.00240216e-03
4.86804896e-04
9.15161101e-04
6.91877461e-04
5.19597298e-03
6.25798944e-03
4.70356696e-03
5.25628519e-03
3.15834134e-03
3.28949851e-03
5.87140647e-04
2.01409669e-03
4.27191741e-05
8.06376707e-05
1.27622840e-07
7.09217147e-07
0.00000000e+00
0.00000000e+00
5.82917035e-03
7.13223126e-03
5.30187751e-03
5.61021641e-03
3.85310163e-03
4.34524927e-03
8.70681164e-04
3.00831022e-03
6.10452407e-05
1.90718711e-04
0.00000000e+00
0.00000000e+00
0.00000000e+00
0.00000000e+00
1.03302877e-02
9.86849749e-03
1.00989058e-02
1.01255474e-02
9.40011814e-03
1.04439165e-02
1.00775100e-02
1.15425561e-02
1.12975088e-02
1.25016508e-02
1.06822310e-02
1.27489916e-02
1.08106793e-02
1.25969113e-02
9.08652635e-03
9.11306334e-03
1.09759604e-02
1.50846384e-02
1.50559216e-02
1.54898115e-02
1.55475982e-02
6.57639722e-03
6.42798736e-03
8.97471063e-03
1.01700844e-02
4.51426074e-03
4.02952649e-03
3.63749219e-03
2.96334915e-03
4.41531406e-03
3.31176771e-03
5.80631438e-03
6.60620315e-03
4.19333403e-03
3.94424982e-03
6.82807073e-03
1.09083904e-02
0.00000000e+00
0.00000000e+00
0.00000000e+00
0.00000000e+00
8.72953376e-03
8.78953165e-03
9.80090350e-03
9.12936451e-03
9.81735415e-03
1.08020232e-02
1.02707972e-02
1.13686416e-02
9.68549470e-03
1.19368499e-02
7.79332558e-03
1.02973023e-02
7.10384105e-03
8.95973155e-03
1.12730516e-02
1.03899785e-02
1.11182496e-02
1.64118618e-02
1.53585309e-02
1.28429779e-02
1.07839378e-02
1.08771789e-02
8.35098559e-03
1.85855471e-02
5.70866838e-03
5.80576621e-03
9.09670838e-03
4.50801433e-03
4.70924639e-03
8.42737932e-03
9.57801938e-03
1.88402263e-02
8.06120451e-03
6.68624137e-03
</DataArray>
<DataArray type="Float32" Name="Plastic_strain_Min_Principal" format="ascii">
-1.47123290e-02
-1.57454964e-02
-1.45664525e-02
-1.35758999e-02
-1.41929784e-02
-1.49996816e-02
-1.40122522e-02
-1.33927611e-02
-1.86855365e-02
-1.64348937e-02
-1.67316380e-02
-1.62519546e-02
-2.20553130e-02
-1.89416427e-02
-1.94405676e-02
-1.85269986e-02
-2.50925450e-02
-2.23519909e-02
-2.24655555e-02
-2.01218089e-02
-2.94714719e-02
-2.51896600e-02
-2.48375838e-02
-2.28359899e-02
-3.37232538e-02
-2.92227417e-02
-2.74331858e-02
-2.56891404e-02
-1.11468947e-02
-1.11685060e-02
-1.15350517e-02
-1.07178586e-02
-1.04929567e-02
-1.18928640e-02
-8.91190884e-03
-1.25029033e-02
-9.91394464e-03
-1.43367370e-02
-9.51686420e-03
-1.55480470e-02
-1.01458631e-02
-1.83166576e-02
-7.77534430e-03
-8.73669423e-03
-8.41045694e-03
-8.00728553e-03
-5.34002739e-03
-6.23728591e-03
-2.12139002e-03
-2.96921857e-03
-1.83465355e-03
-3.80258813e-03
-1.95008559e-03
-3.60126984e-03
-2.21749058e-03
-3.81636247e-03
-6.44583860e-03
-7.47182732e-03
-6.17360714e-03
-6.89379103e-03
-3.79013008e-03
-3.75897944e-03
-9.61734011e-04
-1.49983885e-03
-2.06222202e-04
-3.16279148e-04
-1.40945334e-03
-3.98585510e-04
-1.19273947e-03
-4.16817247e-04
-6.69118296e-03
-8.11792864e-03
-6.12152286e-03
-7.04935263e-03
-3.60396149e-03
-4.12107317e-03
-4.65690762e-04
-2.34933285e-03
-4.96576502e-05
-1.00661838e-04
-2.37542679e-07
-3.81035943e-07
0.00000000e+00
0.00000000e+00
-7.61276740e-03
-9.29731969e-03
-7.33369519e-03
-7.72636174e-03
-4.32123127e-03
-5.83456818e-03
-5.01279166e-04
-3.94211147e-03
-7.98489709e-05
-2.21844239e-04
0.00000000e+00
0.00000000e+00
0.00000000e+00
0.00000000e+00
-1.38726076e-02
-1.40411924e-02
-1.32187931e-02
-1.31028297e-02
-1.42534336e-02
-1.44292553e-02
-1.50800140e-02
-1.66706002e-02
-1.65898143e-02
-1.82004876e-02
-1.67059123e-02
-1.86207260e-02
-1.63289485e-02
-1.80549156e-02
-1.17590900e-02
-1.10740827e-02
-1.58341366e-02
-2.16406714e-02
-2.30003316e-02
-2.47949464e-02
-2.51723174e-02
-8.60967929e-03
-8.49851570e-03
-1.17650827e-02
-8.71691317e-03
-6.12902653e-03
-6.02919539e-03
-4.43731944e-03
-3.25148087e-03
-5.79522835e-03
-4.72321903e-03
-7.37537746e-03
-9.25846817e-03
-6.26042637e-03
-5.63264941e-03
-9.81706055e-03
-1.77693455e-02
0.00000000e+00
0.00000000e+00
0.00000000e+00
0.00000000e+00
-1.44172064e-02
-1.41580384e-02
-1.42507594e-02
-1.43466794e-02
-1.35851388e-02
-1.43138177e-02
-1.29489799e-02
-1.49882977e-02
-1.21334398e-02
-1.62215668e-02
-1.07412536e-02
-1.47691100e-02
-9.23864916e-03
-1.27458437e-02
-1.40152654e-02
-1.30293570e-02
-1.70640804e-02
-2.46155731e-02
-2.31618122e-02
-2.04031733e-02
-1.78907644e-02
-1.32065488e-02
-9.64170671e-03
-2.55219294e-02
-7.64454429e-03
-6.67132926e-03
-1.22223594e-02
-6.13403780e-03
-6.22005761e-03
-1.11547602e-02
-1.12231635e-02
-2.46808144e-02
-1.05269847e-02
-8.88443086e-03
</DataArray>
</PointData>
<Cells>
<DataArray type="Int32" Name="connectivity" format="ascii">
0 1 2 3 4 5 6 7
1 8 9 2 5 10 11 6
8 12 13 9 10 14 15 11
12 16 17 13 14 18 19 15
16 20 21 17 18 22 23 19
20 24 25 21 22 26 27 23
3 2 28 29 7 6 30 31
2 9 32 28 6 11 33 30
9 13 34 32 11 15 35 33
13 17 36 34 15 19 37 35
17 21 38 36 19 23 39 37
21 25 40 38 23 27 41 39
29 28 42 43 31 30 44 45
28 32 46 42 30 33 47 44
32 34 48 46 33 35 49 47
34 36 50 48 35 37 51 49
36 38 52 50 37 39 53 51
38 40 54 52 39 41 55 53
43 42 56 57 45 44 58 59
42 46 60 56 44 47 61 58
46 48 62 60 47 49 63 61
48 50 64 62 49 51 65 63
52 54 66 67 53 55 68 69
57 56 70 71 59 58 72 73
56 60 74 70 58 61 75 72
60 62 76 74 61 63 77 75
62 64 78 76 63 65 79 77
64 67 80 78 65 69 81 79
67 66 82 80 69 68 83 81
71 70 84 85 73 72 86 87
70 74 88 84 72 75 89 86
74 76 90 88 75 77 91 89
76 78 92 90 77 79 93 91
78 80 94 92 79 81 95 93
80 82 96 94 81 83 97 95
4 5 6 7 98 99 100 101
5 10 11 6 99 102 103 100
10 14 15 11 102 104 105 103
14 18 19 15 104 106 107 105
18 22 23 19 106 108 109 107
22 26 27 23 108 110 111 109
7 6 30 31 101 100 112 113
6 11 33 30 100 103 114 112
11 15 35 33 103 105 115 114
15 19 37 35 105 107 116 115
19 23 39 37 107 109 117 116
23 27 41 39 109 111 118 117
31 30 44 45 113 112 119 120
30 33 47 44 112 114 121 119
33 35 49 47 114 115 122 121
45 44 58 59 120 119 123 124
44 47 61 58 119 121 125 123
47 49 63 61 121 122 126 125
59 58 72 73 124 123 127 128
58 61 75 72 123 125 129 127
61 63 77 75 125 126 130 129
73 72 86 87 128 127 131 132
72 75 89 86 127 129 133 131
75 77 91 89 129 130 134 133
81 83 97 95 135 136 137 138
98 99 100 101 139 140 141 142
99 102 103 100 140 143 144 141
102 104 105 103 143 145 146 144
104 106 107 105 145 147 148 146
106 108 109 107 147 149 150 148
108 110 111 109 149 151 152 150
101 100 112 113 142 141 153 154
100 103 114 112 141 144 155 153
103 105 115 114 144 146 156 155
105 107 116 115 146 148 157 156
107 109 117 116 148 150 158 157
109 111 118 117 150 152 159 158
113 112 119 120 154 153 160 161
112 114 121 119 153 155 162 160
120 119 123 124 161 160 163 164
119 121 125 123 160 162 165 163
124 123 127 128 164 163 166 167
123 125 129 127 163 165 168 166
125 126 130 129 165 169 170 168
128 127 131 132 167 166 171 172
</DataArray>
<DataArray type="Int32" Name="offsets" format="ascii">
8
16
24
32
40
48
56
64
72
80
88
96
104
112
120
128
136
144
152
160
168
176
184
192
200
208
216
224
232
240
248
256
264
272
280
288
296
304
312
320
328
336
344
352
360
368
376
384
392
400
408
416
424
432
440
448
456
464
472
480
488
496
504
512
520
528
536
544
552
560
568
576
584
592
600
608
616
624
632
640
</DataArray>
<DataArray type="UInt8" Name="types" format="ascii">
12
12
12
12
12
12
12
12
12
12
12
12
12
12
12
12
12
12
12
12
12
12
12
12
12
12
12
12
12
12
12
12
12
12
12
12
12
12
12
12
12
12
12
12
12
12
12
12
12
12
12
12
12
12
12
12
12
12
12
12
12
12
12
12
12
12
12
12
12
12
12
12
12
12
12
12
12
12
12
12
</DataArray>
</Cells>
</Piece>
</UnstructuredGrid>
</VTKFile>
