<VTKFile type="UnstructuredGrid" version="0.1" byte_order="LittleEndian">
<UnstructuredGrid>
<Piece NumberOfPoints="191" NumberOfCells="79">
<Points>
<DataArray type="Float64" NumberOfComponents="3" format="ascii">
 1.02209032e+00  5.14058161e+00  1.93481970e+00
 2.03794909e+00  5.13476515e+00  1.94960892e+00
 2.03809810e+00  6.16864347e+00  1.92478979e+00
 1.01817966e+00  6.16386175e+00  1.91648638e+00
 1.01793444e+00  5.16166639e+00  2.90134811e+00
 2.04156327e+00  5.16119719e+00  2.90454364e+00
 2.03425002e+00  6.20556641e+00  2.87327337e+00
 1.01936948e+00  6.18418455e+00  2.88165140e+00
 3.06676722e+00  5.12499142e+00  1.95962369e+00
 3.07237244e+00  6.16354179e+00  1.92561996e+00
 3.06892037e+00  5.15439653e+00  2.89196157e+00
 3.10003233e+00  6.19764376e+00  2.83178949e+00
 5.06755495e+00  5.12491846e+00  2.00002265e+00
 6.06755590e+00  5.12799072e+00  2.00001049e+00
 6.06447649e+00  6.12799883e+00  1.99998951e+00
 5.06445312e+00  6.12492704e+00  1.99998116e+00
 5.06755733e+00  5.12495375e+00  3.00001001e+00
 6.06754494e+00  5.12803793e+00  3.00001884e+00
 6.06446362e+00  6.12802362e+00  2.99997902e+00
 5.06448269e+00  6.12493896e+00  2.99999189e+00
 0.00000000e+00  0.00000000e+00  2.83558011e+00
 1.03100705e+00  0.00000000e+00  2.83381629e+00
 1.03206229e+00  1.03345418e+00  2.83927631e+00
 0.00000000e+00  1.03248763e+00  2.84342051e+00
 0.00000000e+00  0.00000000e+00  3.77926755e+00
 1.04257238e+00  0.00000000e+00  3.77908182e+00
 1.04347456e+00  1.03265989e+00  3.78131223e+00
 0.00000000e+00  1.03081560e+00  3.78689218e+00
 2.06840301e+00  0.00000000e+00  2.82304001e+00
 2.06051254e+00  1.02728629e+00  2.83080006e+00
 2.08240199e+00  0.00000000e+00  3.77221870e+00
 2.08433533e+00  1.03415251e+00  3.77165127e+00
 3.10180593e+00  0.00000000e+00  2.81135774e+00
 3.10243750e+00  1.02303457e+00  2.81410122e+00
 3.12234330e+00  0.00000000e+00  3.76001191e+00
 3.11882424e+00  1.03001142e+00  3.76014185e+00
 4.14212227e+00  0.00000000e+00  2.80048084e+00
 4.14390564e+00  1.02441680e+00  2.79649568e+00
 4.15652084e+00  0.00000000e+00  3.75027394e+00
 4.15520287e+00  1.02443910e+00  3.74473906e+00
 5.18288231e+00  0.00000000e+00  2.78644252e+00
 5.18419695e+00  1.02659786e+00  2.78890753e+00
 5.18848991e+00  0.00000000e+00  3.74401665e+00
 5.18847322e+00  1.02263784e+00  3.73407364e+00
 6.21947718e+00  0.00000000e+00  2.78066826e+00
 6.22072697e+00  1.02554119e+00  2.78359365e+00
 6.21341991e+00  0.00000000e+00  3.74178386e+00
 6.22219944e+00  1.02113509e+00  3.73399067e+00
 1.02153277e+00  2.06245852e+00  2.85594821e+00
 0.00000000e+00  2.07186151e+00  2.85843849e+00
 1.04312289e+00  2.06719613e+00  3.80046797e+00
 0.00000000e+00  2.06751084e+00  3.80229688e+00
 2.05800295e+00  2.06226563e+00  2.83696294e+00
 2.09012961e+00  2.07049584e+00  3.77701855e+00
 3.09510517e+00  2.06760216e+00  2.80494118e+00
 3.12447429e+00  2.06567621e+00  3.73389864e+00
 4.14272499e+00  2.07552028e+00  2.79811263e+00
 4.14962816e+00  2.05649281e+00  3.72115779e+00
 5.18475246e+00  2.06912112e+00  2.79772067e+00
 5.18764973e+00  2.06377649e+00  3.72359920e+00
 6.22063828e+00  2.06903648e+00  2.79389834e+00
 6.22300720e+00  2.06225348e+00  3.72316980e+00
 1.01697040e+00  3.10809970e+00  2.88789797e+00
 0.00000000e+00  3.10576272e+00  2.88358426e+00
 1.03902304e+00  3.10627007e+00  3.82454920e+00
 0.00000000e+00  3.10429597e+00  3.83628511e+00
 2.05170774e+00  3.09486961e+00  2.86267996e+00
 2.10101104e+00  3.11051893e+00  3.76784039e+00
 3.04341030e+00  3.08286905e+00  2.65930748e+00
 3.14556336e+00  3.09555936e+00  3.69308448e+00
 1.01641893e+00  4.13225317e+00  2.90714788e+00
 0.00000000e+00  4.13739634e+00  2.90464520e+00
 1.02882004e+00  4.14603901e+00  3.86966252e+00
 0.00000000e+00  4.14898777e+00  3.85943842e+00
 0.00000000e+00  5.15717697e+00  2.89960408e+00
 1.02783024e+00  5.18765068e+00  3.86048174e+00
 0.00000000e+00  5.17622232e+00  3.85216880e+00
 2.04241109e+00  4.13265944e+00  2.93094206e+00
 2.07109952e+00  4.15401459e+00  3.84750295e+00
 2.06987572e+00  5.17809343e+00  3.85616136e+00
 0.00000000e+00  6.18559074e+00  2.87307835e+00
 1.04002631e+00  6.22550726e+00  3.81134605e+00
 0.00000000e+00  6.23454285e+00  3.82371044e+00
 2.07137156e+00  6.23879194e+00  3.80723977e+00
 3.09811449e+00  5.16256952e+00  3.76133800e+00
 3.15068364e+00  6.19084978e+00  3.76761913e+00
 0.00000000e+00  0.00000000e+00  4.71635056e+00
 1.05350816e+00  0.00000000e+00  4.71384525e+00
 1.05633330e+00  1.03383756e+00  4.71711016e+00
 0.00000000e+00  1.03138971e+00  4.71887970e+00
 2.09801221e+00  0.00000000e+00  4.71047831e+00
 2.10471964e+00  1.03979540e+00  4.70996761e+00
 3.13453221e+00  0.00000000e+00  4.70512104e+00
 3.13891745e+00  1.04196382e+00  4.70269823e+00
 4.16613197e+00  0.00000000e+00  4.69822979e+00
 4.16340446e+00  1.03784311e+00  4.69675636e+00
 5.19180441e+00  0.00000000e+00  4.69572687e+00
 5.18797445e+00  1.03304279e+00  4.69186115e+00
 6.21271515e+00  0.00000000e+00  4.69514036e+00
 6.21372843e+00  1.03522921e+00  4.69354963e+00
 1.06589103e+00  2.07380390e+00  4.72221613e+00
 0.00000000e+00  2.06635880e+00  4.72966337e+00
 2.11801839e+00  2.08145666e+00  4.70771360e+00
 3.15072060e+00  2.08014870e+00  4.68794298e+00
 4.16875887e+00  2.07120943e+00  4.67259645e+00
 5.18141842e+00  2.06085873e+00  4.66336727e+00
 6.19672251e+00  2.06258774e+00  4.66410828e+00
 1.06792462e+00  3.10095978e+00  4.75341749e+00
 0.00000000e+00  3.11412096e+00  4.76818800e+00
 2.13338995e+00  3.10483885e+00  4.70136309e+00
 3.17383552e+00  3.09871459e+00  4.65732336e+00
 4.16135406e+00  3.04388738e+00  3.61563087e+00
 4.18433237e+00  3.08696938e+00  4.64504051e+00
 1.07112312e+00  4.14070654e+00  4.81015110e+00
 0.00000000e+00  4.12993860e+00  4.78315973e+00
 2.14550447e+00  4.13507271e+00  4.72303295e+00
 1.05966401e+00  5.21340418e+00  4.76078129e+00
 0.00000000e+00  5.21770525e+00  4.76164818e+00
 1.07077026e+00  6.28457403e+00  4.73628044e+00
 0.00000000e+00  6.28166008e+00  4.74600410e+00
 2.10749888e+00  5.19341040e+00  4.75632811e+00
 2.16168213e+00  6.24617338e+00  4.73710442e+00
 3.16280270e+00  5.13864565e+00  4.67460775e+00
 3.22816229e+00  6.15745211e+00  4.69473076e+00
 4.05643559e+00  5.11858082e+00  3.56743646e+00
 4.14145470e+00  6.12021732e+00  3.62136769e+00
 4.20802402e+00  5.08725166e+00  4.64381266e+00
 4.22139215e+00  6.08866358e+00  4.64419889e+00
 5.20846224e+00  5.07540226e+00  3.64393306e+00
 6.20837688e+00  5.06334591e+00  3.64392781e+00
 6.22043324e+00  6.06328058e+00  3.64396405e+00
 5.22047043e+00  6.07536793e+00  3.64401889e+00
 5.20841837e+00  5.07538414e+00  4.64392853e+00
 6.20841360e+00  5.06332064e+00  4.64395094e+00
 6.22042561e+00  6.06325579e+00  4.64395380e+00
 5.22058296e+00  6.07522106e+00  4.64401722e+00
 0.00000000e+00  0.00000000e+00  5.64396906e+00
 1.05714524e+00  0.00000000e+00  5.64396906e+00
 1.06254768e+00  1.03727961e+00  5.64396906e+00
 0.00000000e+00  1.03286445e+00  5.64396906e+00
 2.10580730e+00  0.00000000e+00  5.64396906e+00
 2.11042786e+00  1.04383373e+00  5.64396906e+00
 3.13979125e+00  0.00000000e+00  5.64396906e+00
 3.14655566e+00  1.04720700e+00  5.64396906e+00
 4.16766024e+00  0.00000000e+00  5.64396906e+00
 4.16951704e+00  1.04702747e+00  5.64396906e+00
 5.19232607e+00  0.00000000e+00  5.64396906e+00
 5.18888378e+00  1.04302478e+00  5.64396906e+00
 6.21781397e+00  0.00000000e+00  5.64396906e+00
 6.20415783e+00  1.04882598e+00  5.64396906e+00
 1.07668018e+00  2.06658721e+00  5.64396906e+00
 0.00000000e+00  2.06254482e+00  5.64396906e+00
 2.13278151e+00  2.08167648e+00  5.64396906e+00
 3.16022754e+00  2.08711600e+00  5.64396906e+00
 4.17671824e+00  2.08013487e+00  5.64396906e+00
 5.18036270e+00  2.07075214e+00  5.64396906e+00
 6.18839836e+00  2.06874800e+00  5.64396906e+00
 1.08652020e+00  3.13229203e+00  5.64396906e+00
 0.00000000e+00  3.13813782e+00  5.64396906e+00
 2.15537643e+00  3.11411309e+00  5.64396906e+00
 3.18401027e+00  3.10398555e+00  5.64396906e+00
 4.18478441e+00  3.08785892e+00  5.64396906e+00
 5.18477249e+00  3.07463884e+00  4.64336014e+00
 5.18526983e+00  3.07526946e+00  5.64396906e+00
 6.18640900e+00  3.06507945e+00  4.64284849e+00
 6.18666697e+00  3.06665587e+00  5.64396906e+00
 3.19672036e+00  4.10029745e+00  4.63509560e+00
 3.20129156e+00  4.10603619e+00  5.64396906e+00
 2.19624519e+00  4.12893724e+00  5.64396906e+00
 4.19662666e+00  4.08688068e+00  4.64420795e+00
 4.19680166e+00  4.08714437e+00  5.64396906e+00
 5.19645691e+00  4.07549858e+00  4.64391375e+00
 5.19654179e+00  4.07539606e+00  5.64396906e+00
 6.19629908e+00  4.06368160e+00  4.64397717e+00
 6.19620705e+00  4.06351662e+00  5.64396906e+00
 0.00000000e+00  4.10839605e+00  5.64396906e+00
 1.10031009e+00  4.12661076e+00  5.64396906e+00
 1.08292222e+00  5.23458719e+00  5.64396906e+00
 0.00000000e+00  5.24462748e+00  5.64396906e+00
 5.20837021e+00  5.07537794e+00  5.64396906e+00
 4.20846367e+00  5.08730888e+00  5.64396906e+00
 6.20844221e+00  5.06334114e+00  5.64396906e+00
 1.08857012e+00  6.29903841e+00  5.64396906e+00
 0.00000000e+00  6.29791737e+00  5.64396906e+00
 2.13412690e+00  5.19860411e+00  5.64396906e+00
 2.19662738e+00  6.24313307e+00  5.64396906e+00
 3.17647648e+00  5.12454319e+00  5.64396906e+00
 3.24113703e+00  6.14730930e+00  5.64396906e+00
 4.22181606e+00  6.08783340e+00  5.64396906e+00
 5.22060299e+00  6.07515907e+00  5.64396906e+00
 6.22041798e+00  6.06325531e+00  5.64396906e+00
</DataArray>
</Points>
<PointData Tensors="Stress_Components,Plastic_strain_components" Vevtors="Spatial_displacement,Reaction_force" Scalars="Equivalent_plastic_strain,Stress_Mises,Stress_Max_Principal,Stress_Mid_Principal,Stress_Min_Principal,Stress_Pressure,Stress_Tresca,Stress_Third_Invariant,Plastic_strain_Max_Principal,Plastic_strain_Min_Principal">
<DataArray type="Float32" Name="Stress_Components" NumberOfComponents="9" format="ascii">
1.17968196e+01 -3.63189459e-01 3.44839491e-01 -3.63189459e-01 9.31715117e+00 2.80731321e-01 3.44839491e-01 2.80731321e-01 -6.76210392e+00
1.61237359e-01 -2.57293062e+00 6.42722298e-01 -2.57293062e+00 -4.46459055e-02 2.34391325e+00 6.42722298e-01 2.34391325e+00 -2.79121098e+01
-3.66837740e+00 2.52520919e-01 1.13670392e+00 2.52520919e-01 1.84556246e+00 -1.49588794e+00 1.13670392e+00 -1.49588794e+00 -3.15605812e+01
3.14481974e-01 -5.22714529e-01 -4.23053537e-01 -5.22714529e-01 1.08006793e+00 -2.08792642e-01 -4.23053537e-01 -2.08792642e-01 -2.86246014e+01
1.63782113e+01 1.72943944e-01 1.24057436e+00 1.72943944e-01 1.75575036e+01 -3.32918676e-01 1.24057436e+00 -3.32918676e-01 6.76391721e+00
1.89262451e+01 -1.57559788e+00 2.21035694e+00 -1.57559788e+00 2.14365549e+01 1.31638040e+00 2.21035694e+00 1.31638040e+00 1.10777320e+01
-1.59909687e+01 -1.10116810e-01 5.14020450e-01 -1.10116810e-01 -5.08434367e+00 -2.53266603e-01 5.14020450e-01 -2.53266603e-01 -5.08941751e+01
7.33796608e+00 4.26381159e-01 5.89508813e-01 4.26381159e-01 7.21516320e+00 1.56592602e+00 5.89508813e-01 1.56592602e+00 -1.41707492e+01
-1.34121039e+01 -7.01990768e-01 -1.20145370e+00 -7.01990768e-01 -1.26160703e+01 5.31797725e+00 -1.20145370e+00 5.31797725e+00 -5.89294114e+01
-6.95292130e+01 -1.91157311e+00 -3.17213559e+00 -1.91157311e+00 -6.47472496e+01 4.75235212e+00 -3.17213559e+00 4.75235212e+00 -1.75770615e+02
-6.18980796e+01 6.50052087e+00 -2.30975393e+01 6.50052087e+00 -6.41145584e+01 -3.18839304e+00 -2.30975393e+01 -3.18839304e+00 -1.54764421e+02
-4.44746271e+01 1.43338951e+00 -6.43347883e+00 1.43338951e+00 -6.41137495e+01 -1.42260325e+00 -6.43347883e+00 -1.42260325e+00 -1.45223307e+02
-1.22327089e-01 -6.16719395e-01 -1.93151932e-01 -6.16719395e-01 2.10348010e-01 1.52187854e-01 -1.93151932e-01 1.52187854e-01 -5.16227603e-01
-3.62985287e-01 -1.51051514e-01 -1.42451137e-01 -1.51051514e-01 -5.84762990e-02 -1.73436962e-01 -1.42451137e-01 -1.73436962e-01 -6.76823407e-03
6.01712063e-01 -1.65085651e-01 -1.68943740e-02 -1.65085651e-01 -2.51436830e-02 5.15740398e-01 -1.68943740e-02 5.15740398e-01 -1.00476295e+00
3.49173591e-01 -6.30870223e-01 -2.61111856e-02 -6.30870223e-01 -2.49549000e-01 -4.81129736e-01 -2.61111856e-02 -4.81129736e-01 -5.27944386e-01
2.07154468e-01 2.04640821e-01 3.66043955e-01 2.04640821e-01 1.03115179e-01 2.29596764e-01 3.66043955e-01 2.29596764e-01 -1.56431831e-02
-8.78855288e-02 5.65947853e-02 1.62632644e-01 5.65947853e-02 -1.81628466e-01 -4.05319408e-02 1.62632644e-01 -4.05319408e-02 5.64203739e-01
-2.17709467e-02 6.17126934e-02 -3.10123563e-01 6.17126934e-02 1.80594757e-01 -5.38437068e-01 -3.10123563e-01 -5.38437068e-01 1.35845333e-01
-3.13541591e-01 2.09785625e-01 -1.27768740e-01 2.09785625e-01 -1.21538691e-01 3.45377743e-01 -1.27768740e-01 3.45377743e-01 7.29629576e-01
-2.12645531e-02 2.20424198e-02 5.04796281e-01 2.20424198e-02 6.46289825e-01 -1.36514693e-01 5.04796281e-01 -1.36514693e-01 -2.93514719e+01
4.57698770e-01 3.69879782e-01 3.15548617e-01 3.69879782e-01 3.87978196e-01 3.57314661e-01 3.15548617e-01 3.57314661e-01 -2.90551341e+01
3.65663146e+00 -5.59536865e-01 5.49796842e-01 -5.59536865e-01 4.29823033e+00 5.08064921e-01 5.49796842e-01 5.08064921e-01 -2.13036540e+01
1.68615311e-01 2.00804573e-01 6.23091258e-01 2.00804573e-01 1.70941183e+00 -3.58723231e-01 6.23091258e-01 -3.58723231e-01 -2.79292746e+01
5.03073740e+00 -2.35505663e-02 9.05144513e-01 -2.35505663e-02 3.29603863e+00 1.56728402e-01 9.05144513e-01 1.56728402e-01 -2.09256943e+01
5.64684957e-01 2.03384969e-01 1.20345961e-01 2.03384969e-01 -4.54318196e-01 1.15718426e+00 1.20345961e-01 1.15718426e+00 -2.97753077e+01
2.80824995e+00 3.57008413e-01 7.61308732e-01 3.57008413e-01 1.60697737e+00 5.31866740e-01 7.61308732e-01 5.31866740e-01 -2.51519341e+01
4.33320582e-01 4.11784742e-01 1.03746678e+00 4.11784742e-01 -1.58581167e+00 -7.25962237e-01 1.03746678e+00 -7.25962237e-01 -3.11145139e+01
4.78300995e+00 -9.78640288e-01 3.15608731e-01 -9.78640288e-01 3.42597842e+00 1.26596497e-01 3.15608731e-01 1.26596497e-01 -2.10649747e+01
5.47974801e+00 -8.38807348e-01 1.04872748e+00 -8.38807348e-01 5.02593219e+00 9.12818317e-01 1.04872748e+00 9.12818317e-01 -1.83046543e+01
1.01978065e+00 1.50822267e-01 6.35655466e-02 1.50822267e-01 5.09295881e-01 5.64556833e-01 6.35655466e-02 5.64556833e-01 -2.83734040e+01
-1.27992928e+00 1.15176255e-01 1.24019418e+00 1.15176255e-01 -6.23611331e-01 1.92766686e+00 1.24019418e+00 1.92766686e+00 -3.17816088e+01
6.73704134e+00 1.36506002e-01 4.81827231e-02 1.36506002e-01 4.75110197e+00 6.46330281e-01 4.81827231e-02 6.46330281e-01 -1.74319229e+01
1.00073285e+01 -2.07771647e-01 1.77939702e-02 -2.07771647e-01 7.86674616e+00 -1.77203324e-02 1.77939702e-02 -1.77203324e-02 -1.05658566e+01
3.39517444e+00 -6.62153915e-01 2.63648205e-01 -6.62153915e-01 2.01145539e+00 9.43914559e-01 2.63648205e-01 9.43914559e-01 -2.40636963e+01
1.74901390e+00 -7.57510014e-01 2.60046013e-01 -7.57510014e-01 1.48641098e+00 8.33736084e-01 2.60046013e-01 8.33736084e-01 -2.63547468e+01
9.04951864e+00 2.44905233e-01 -1.49433717e-01 2.44905233e-01 6.36509055e+00 2.72068504e-01 -1.49433717e-01 2.72068504e-01 -1.31356218e+01
2.93935865e+00 2.09072881e-01 -7.09367152e-01 2.09072881e-01 4.78363574e-01 8.93444456e-02 -7.09367152e-01 8.93444456e-02 -2.61267828e+01
5.10598648e+00 -3.45656924e-01 -3.98350731e-01 -3.45656924e-01 2.77393132e+00 6.46631643e-01 -3.98350731e-01 6.46631643e-01 -2.14043143e+01
1.14850609e+01 -6.46914488e-01 7.56705031e-02 -6.46914488e-01 9.91420121e+00 -3.73272301e-01 7.56705031e-02 -3.73272301e-01 -6.84878981e+00
1.23042402e+01 -9.49899135e-02 1.06601937e-01 -9.49899135e-02 1.00382936e+01 -1.82354320e-01 1.06601937e-01 -1.82354320e-01 -5.69446200e+00
6.88624412e+00 1.81719894e-02 -3.39714807e-01 1.81719894e-02 4.39603746e+00 3.62207517e-02 -3.39714807e-01 3.62207517e-02 -1.76667857e+01
1.23990163e+01 -4.71032951e-02 -4.37598608e-01 -4.71032951e-02 1.18377323e+01 -3.03543642e-01 -4.37598608e-01 -3.03543642e-01 -3.81815147e+00
6.68499304e+00 -2.55550354e-01 -5.33426815e-01 -2.55550354e-01 5.19488317e+00 -4.98731826e-01 -5.33426815e-01 -4.98731826e-01 -1.69999350e+01
1.65380754e+01 -1.69520922e-01 8.36544745e-02 -1.69520922e-01 1.53165460e+01 -4.87495899e-01 8.36544745e-02 -4.87495899e-01 4.63971257e+00
1.57019659e+01 -1.10064790e-01 -4.76078907e-01 -1.10064790e-01 1.38467852e+01 -1.23805068e-01 -4.76078907e-01 -1.23805068e-01 2.00658512e+00
1.77662971e+01 7.00911444e-01 -1.26938879e-01 7.00911444e-01 1.80958338e+01 -8.01038578e-01 -1.26938879e-01 -8.01038578e-01 8.83778477e+00
1.21166304e+01 5.06069879e-01 8.42727348e-02 5.06069879e-01 1.06770179e+01 -8.45085925e-01 8.42727348e-02 -8.45085925e-01 -5.12233973e+00
2.28502357e+00 -1.15332008e+00 1.97333122e+00 -1.15332008e+00 5.22943205e+00 1.69225886e-01 1.97333122e+00 1.69225886e-01 -2.09718018e+01
1.67195392e+00 -1.20154499e+00 1.56493247e+00 -1.20154499e+00 5.82086256e+00 -3.35987726e-01 1.56493247e+00 -3.35987726e-01 -2.13278170e+01
-4.90240018e+00 3.55858730e-01 3.23774113e+00 3.55858730e-01 -6.62898019e+00 2.10357679e+00 3.23774113e+00 2.10357679e+00 -4.16687329e+01
7.36643672e-01 -9.53630591e-02 1.29630451e+00 -9.53630591e-02 6.61578059e-01 -1.23937802e-01 1.29630451e+00 -1.23937802e-01 -2.84546038e+01
1.00271741e+01 1.42469750e+00 3.42126513e+00 1.42469750e+00 8.46835502e+00 2.43554774e+00 3.42126513e+00 2.43554774e+00 -1.45637174e+01
-4.15037227e+00 1.04165194e+00 5.51435731e-01 1.04165194e+00 -4.10165942e+00 -1.27797611e-01 5.51435731e-01 -1.27797611e-01 -3.79134109e+01
-6.12303238e+01 -4.03155004e+00 -1.28559263e+01 -4.03155004e+00 -6.14902058e+01 -1.74268503e+00 -1.28559263e+01 -1.74268503e+00 -1.50830731e+02
7.54040643e+00 1.16436572e+00 -1.20102289e+00 1.16436572e+00 1.05270715e+01 1.22835368e+00 -1.20102289e+00 1.22835368e+00 -1.31428988e+01
-4.21600761e+01 -8.60758333e-01 -3.98187572e+00 -8.60758333e-01 -3.82037125e+01 1.72756830e+00 -3.98187572e+00 1.72756830e+00 -1.16405546e+02
-2.69098475e+01 -1.27515158e+00 -1.42865048e+01 -1.27515158e+00 -3.27681661e+01 3.30774283e-01 -1.42865048e+01 3.30774283e-01 -8.04998833e+01
-2.68982968e+01 -9.08256657e-01 -9.80139971e-02 -9.08256657e-01 -2.38093047e+01 1.69053447e+00 -9.80139971e-02 1.69053447e+00 -8.47313843e+01
-3.58864574e+01 7.40430173e-02 -4.50444287e+00 7.40430173e-02 -3.12749486e+01 -1.13125500e+00 -4.50444287e+00 -1.13125500e+00 -1.02127131e+02
-1.73681264e+01 -1.05017489e+00 -6.22492403e-01 -1.05017489e+00 -1.12292089e+01 3.46363008e-01 -6.22492403e-01 3.46363008e-01 -6.05555382e+01
-3.48863144e+01 -2.42511779e+00 -4.86827636e+00 -2.42511779e+00 -2.66410561e+01 -3.87848211e+00 -4.86827636e+00 -3.87848211e+00 -9.44899216e+01
-1.34689550e+00 -2.54156811e-01 3.88080912e+00 -2.54156811e-01 2.42820887e+00 8.24959921e-01 3.88080912e+00 8.24959921e-01 -2.73160646e+01
1.07259836e+01 3.25543558e-01 1.66159233e+00 3.25543558e-01 1.30023088e+01 -5.12495402e-01 1.66159233e+00 -5.12495402e-01 -3.94998384e+00
-6.07849101e+00 -4.68237353e-01 4.09583109e+00 -4.68237353e-01 -6.77601440e+00 1.31574659e+00 4.09583109e+00 1.31574659e+00 -4.25438867e+01
7.31254196e+00 1.13348988e-01 1.92835298e+00 1.13348988e-01 8.91890466e+00 -1.35412604e-01 1.92835298e+00 -1.35412604e-01 -1.22524705e+01
-8.57710247e+01 -9.59577918e+00 1.13521261e+01 -9.59577918e+00 -7.78634701e+01 -1.39331549e+01 1.13521261e+01 -1.39331549e+01 -1.87150379e+02
-1.99243635e+01 2.23409398e+00 1.59198241e+00 2.23409398e+00 -2.61934372e+01 -3.42692142e+00 1.59198241e+00 -3.42692142e+00 -8.01052740e+01
4.52203102e+01 -8.63956392e-01 -6.59457254e+00 -8.63956392e-01 4.48580933e+01 3.87869430e+00 -6.59457254e+00 3.87869430e+00 8.90183334e+01
7.67915662e+00 -3.04868746e+00 -6.50478148e+00 -3.04868746e+00 7.46929773e+00 -5.39671095e+00 -6.50478148e+00 -5.39671095e+00 -8.51413989e+00
1.79550287e+01 -9.04150935e-02 -1.24825384e+00 -9.04150935e-02 1.88831696e+01 6.99076920e-01 -1.24825384e+00 6.99076920e-01 9.32828658e+00
1.10437765e+01 -5.20367144e-01 1.72857951e+00 -5.20367144e-01 1.24336600e+01 6.41148388e-01 1.72857951e+00 6.41148388e-01 -3.91882038e+00
2.07128758e+01 -5.27111943e-01 2.30606755e-01 -5.27111943e-01 2.30994426e+01 1.29530892e+00 2.30606755e-01 1.29530892e+00 1.84069049e+01
1.13146094e+01 -7.20037365e-01 2.13483188e+00 -7.20037365e-01 1.24001836e+01 1.18088089e+00 2.13483188e+00 1.18088089e+00 -3.82196164e+00
1.27753268e+01 1.35999454e-01 6.24654591e-02 1.35999454e-01 1.34904875e+01 4.55733716e-01 6.24654591e-02 4.55733716e-01 -1.46927691e+00
1.24016432e+01 7.59419990e-01 5.72408208e-01 7.59419990e-01 1.35068691e+01 1.26784108e+00 5.72408208e-01 1.26784108e+00 -1.50070184e+00
7.42031360e+00 1.59443545e+00 1.04236960e-01 1.59443545e+00 9.93135643e+00 8.88836674e-01 1.04236960e-01 8.88836674e-01 -1.09418004e+01
-3.89536211e+01 8.88775662e-01 5.58040790e+00 8.88775662e-01 -3.59128661e+01 1.57038121e+01 5.58040790e+00 1.57038121e+01 -9.75898929e+01
-8.66841850e+01 -3.12715422e+00 1.46917338e+01 -3.12715422e+00 -8.76070099e+01 8.78175807e+00 1.46917338e+01 8.78175807e+00 -2.14980408e+02
-8.51028786e+00 -3.04054390e+00 -2.84259791e+00 -3.04054390e+00 -2.26739492e+00 3.63857775e+00 -2.84259791e+00 3.63857775e+00 -3.96220360e+01
-5.75852394e-01 -3.54682408e-01 -1.35835584e-01 -3.54682408e-01 2.10942841e+00 1.12827124e+00 -1.35835584e-01 1.12827124e+00 -2.82673635e+01
7.63910484e+00 1.17814238e+00 -9.65832315e-01 1.17814238e+00 6.88654804e+00 7.74717063e-01 -9.65832315e-01 7.74717063e-01 -1.45325203e+01
-3.23524475e-01 -1.67970142e+00 2.62114480e+00 -1.67970142e+00 4.19012165e+00 -9.73831743e-01 2.62114480e+00 -9.73831743e-01 -2.53930588e+01
-1.79061871e+01 -3.23064244e+00 -3.82068098e+00 -3.23064244e+00 -1.36685891e+01 4.71502668e+00 -3.82068098e+00 4.71502668e+00 -5.99825687e+01
-7.55290845e+01 8.99908559e+00 -6.55777891e-01 8.99908559e+00 -4.74993464e+01 -3.39203058e+01 -6.55777891e-01 -3.39203058e+01 -1.17674374e+02
-8.94624980e+00 -2.72809331e+00 -1.84335208e+00 -2.72809331e+00 -1.15184043e+01 -7.00656303e+00 -1.84335208e+00 -7.00656303e+00 -4.30932142e+01
3.73178801e+00 -2.46486682e-02 2.51388624e-01 -2.46486682e-02 5.26077747e-02 -1.45431433e-01 2.51388624e-01 -1.45431433e-01 -2.56673145e+01
7.68369317e-01 2.13428074e-01 8.13254630e-02 2.13428074e-01 -1.51113975e+00 7.57007428e-01 8.13254630e-02 7.57007428e-01 -3.06605184e+01
4.76415783e-01 9.05707408e-01 4.61385380e-01 9.05707408e-01 -2.17232764e+00 4.80758046e-01 4.61385380e-01 4.80758046e-01 -3.16311351e+01
1.24521714e+00 2.81878578e-01 5.84069811e-01 2.81878578e-01 -2.84023842e+00 -3.00937736e-01 5.84069811e-01 -3.00937736e-01 -3.14303508e+01
-4.31332755e+00 9.05928642e-01 -2.07493916e-01 9.05928642e-01 -3.28553683e+00 1.00582121e+00 -2.07493916e-01 1.00582121e+00 -3.80994406e+01
-5.23015398e+00 1.54578713e+00 5.46761831e-01 1.54578713e+00 -4.16539241e+00 1.35931258e+00 5.46761831e-01 1.35931258e+00 -3.98029473e+01
-5.73478901e+00 4.93350022e-01 1.95273973e-01 4.93350022e-01 -3.58662796e+00 4.67276108e-01 1.95273973e-01 4.67276108e-01 -4.00722103e+01
-9.82448770e+00 7.12817781e-01 3.46139598e-01 7.12817781e-01 -4.77600852e+00 1.65530370e+00 3.46139598e-01 1.65530370e+00 -4.51880475e+01
-3.89597389e+00 -9.81854349e-01 9.26544927e-02 -9.81854349e-01 -1.57496130e+00 4.32612367e-01 9.26544927e-02 4.32612367e-01 -3.58355021e+01
-3.07328725e+00 -6.60970144e-01 -5.43732248e-01 -6.60970144e-01 7.31994078e-01 3.47721525e-02 -5.43732248e-01 3.47721525e-02 -3.22347707e+01
1.34920418e+00 -6.77014858e-01 -2.77925074e-01 -6.77014858e-01 4.27168623e+00 -4.36875381e-01 -2.77925074e-01 -4.36875381e-01 -2.37595913e+01
3.95547894e+00 -1.26254822e+00 -8.82983476e-01 -1.26254822e+00 5.41643244e+00 -2.56643283e-01 -8.82983476e-01 -2.56643283e-01 -1.96868502e+01
-1.00905323e+00 3.43957752e-01 3.67716312e-01 3.43957752e-01 4.14608264e+00 -9.55117455e-01 3.67716312e-01 -9.55117455e-01 -2.61651502e+01
-1.48256046e+00 -1.25631227e+00 -4.48091716e-01 -1.25631227e+00 1.32824135e+00 -2.00172596e+00 -4.48091716e-01 -2.00172596e+00 -2.94862559e+01
-5.99516940e+00 1.65304681e+00 1.47004336e+00 1.65304681e+00 -1.08085030e+01 1.74264885e+00 1.47004336e+00 1.74264885e+00 -4.75199184e+01
7.43787766e-01 9.13655683e-01 9.37528506e-01 9.13655683e-01 -3.75575781e+00 -3.26245531e-01 9.37528506e-01 -3.26245531e-01 -3.28915806e+01
-4.42854261e+00 2.37064546e+00 4.86284083e-01 2.37064546e+00 -5.14846444e+00 6.69712905e-01 4.86284083e-01 6.69712905e-01 -3.99871683e+01
5.69904280e+00 1.98333333e+00 -4.13609909e+00 1.98333333e+00 7.07455373e+00 -3.48864799e-01 -4.13609909e+00 -3.48864799e-01 -1.38697016e+01
9.09390749e+00 1.92914258e-01 -3.09442957e+00 1.92914258e-01 1.27825430e+01 -3.83634793e-01 -3.09442957e+00 -3.83634793e-01 -6.53815424e+00
-6.62015597e-01 -1.40453345e+00 -5.58070022e+00 -1.40453345e+00 2.80898841e+00 -1.78564410e+00 -5.58070022e+00 -1.78564410e+00 -2.61602319e+01
-3.62110202e+00 -4.23592380e+00 -7.47822816e+00 -4.23592380e+00 -6.57442284e+00 -3.35381267e+00 -7.47822816e+00 -3.35381267e+00 -3.74701004e+01
-1.76212476e+01 8.98725092e-02 5.26774915e+00 8.98725092e-02 -2.72824308e+01 -5.40232182e-01 5.26774915e+00 -5.40232182e-01 -7.65428273e+01
-2.76101680e+01 -1.91468712e+00 5.61792016e+00 -1.91468712e+00 -3.38605699e+01 -1.06688154e+00 5.61792016e+00 -1.06688154e+00 -9.53680604e+01
9.18996414e+00 1.85056889e+00 2.09593525e-02 1.85056889e+00 2.67993283e+00 -3.84937385e+00 2.09593525e-02 -3.84937385e+00 -1.54272979e+01
3.08537516e+01 1.99719403e+00 -3.00657912e+00 1.99719403e+00 3.11485953e+01 8.14495862e-01 -3.00657912e+00 8.14495862e-01 3.75144869e+01
3.43110123e+01 -3.26974559e+00 4.47730160e+00 -3.26974559e+00 3.25138702e+01 -5.71393538e+00 4.47730160e+00 -5.71393538e+00 6.14331589e+01
1.87742678e+01 -1.20107681e+00 -1.20752160e+00 -1.20107681e+00 1.65095273e+01 -3.46607119e+00 -1.20752160e+00 -3.46607119e+00 1.29245012e+01
-1.81438537e+01 -4.06700481e-01 7.43503630e-01 -4.06700481e-01 -1.77972157e+01 6.23320478e+00 7.43503630e-01 6.23320478e+00 -6.53635457e+01
-3.65731812e+00 3.18917222e-01 -2.05831275e+00 3.18917222e-01 -5.99757894e+00 3.41193275e+00 -2.05831275e+00 3.41193275e+00 -4.00318425e+01
-7.96591759e+01 -8.82258320e+00 7.69236374e+00 -8.82258320e+00 -1.20859142e+02 -1.30465205e+01 7.69236374e+00 -1.30465205e+01 -2.37572884e+02
-2.29756069e+01 1.98890418e-01 -1.33438702e+00 1.98890418e-01 -1.89740593e+01 4.67167338e+00 -1.33438702e+00 4.67167338e+00 -7.45267207e+01
-1.13955783e+01 -2.61832047e-01 3.24657995e+00 -2.61832047e-01 -8.45460486e+00 2.28300399e-01 3.24657995e+00 2.28300399e-01 -5.13932533e+01
5.60681272e+00 -2.06378639e-01 1.90702933e+00 -2.06378639e-01 3.15610071e+00 1.88452817e+00 1.90702933e+00 1.88452817e+00 -2.01361823e+01
5.08348227e+00 2.16121703e-01 1.06568629e+00 2.16121703e-01 4.00450182e+00 -8.81854534e-01 1.06568629e+00 -8.81854534e-01 -1.99950938e+01
-2.55157640e+01 1.04621774e+00 -8.65311604e-01 1.04621774e+00 -3.16616082e+01 -4.38116843e+00 -8.65311604e-01 -4.38116843e+00 -9.00860450e+01
-9.82002616e+00 -1.66605297e+00 -2.57548943e+00 -1.66605297e+00 -1.99366562e+01 6.25398752e+00 -2.57548943e+00 6.25398752e+00 -5.79280019e+01
1.67660167e+01 4.39955950e-01 1.81041904e-01 4.39955950e-01 1.54966068e+00 6.08446226e+00 1.81041904e-01 6.08446226e+00 -1.89262118e+01
1.08523788e+01 -1.84312989e+00 1.76751643e+00 -1.84312989e+00 1.88540478e+01 -1.77803302e+00 1.76751643e+00 -1.77803302e+00 2.18022561e+00
7.85830383e+01 -2.18911362e+00 1.23760891e+00 -2.18911362e+00 5.67507362e+01 1.93697433e+01 1.23760891e+00 1.93697433e+01 7.81788177e+01
4.79670715e+01 1.80160439e+00 7.67006814e-01 1.80160439e+00 4.20776367e+01 8.60075951e+00 7.67006814e-01 8.60075951e+00 6.18969650e+01
8.51466429e+00 -3.56536381e+00 -1.92077449e+00 -3.56536381e+00 7.13384724e+00 -2.80439228e-01 -1.92077449e+00 -2.80439228e-01 3.18607718e+00
8.10268084e-01 -6.60301845e+00 -1.77094351e+00 -6.60301845e+00 1.15311591e+01 -5.64852333e+00 -1.77094351e+00 -5.64852333e+00 4.12211116e+00
-9.96140301e-01 -9.91289735e-01 1.40267122e+00 -9.91289735e-01 1.14555120e+00 -1.00195467e+00 1.40267122e+00 -1.00195467e+00 -6.32853091e-01
-9.30861950e-01 6.25451654e-03 2.27548927e-01 6.25451654e-03 -1.15743823e-01 6.57000422e-01 2.27548927e-01 6.57000422e-01 5.63129425e-01
8.69272649e-01 -6.56837046e-01 2.61392891e-01 -6.56837046e-01 -3.11119497e-01 -1.27805781e+00 2.61392891e-01 -1.27805781e+00 -1.04172826e+00
2.90508837e-01 -1.65489542e+00 -1.26295304e+00 -1.65489542e+00 4.36861455e-01 1.24047637e+00 -1.26295304e+00 1.24047637e+00 -1.21093524e+00
7.05898852e+00 2.57383726e+00 1.54379381e+00 2.57383726e+00 -2.93353157e+00 1.03395329e+00 1.54379381e+00 1.03395329e+00 -6.99684312e-01
1.38234772e+00 -3.96448394e-01 -3.72679507e-02 -3.96448394e-01 -5.21230157e+00 1.11466026e+00 -3.72679507e-02 1.11466026e+00 -6.00318352e-01
-3.27696478e+00 1.00457650e+00 -1.82595048e-01 1.00457650e+00 5.59036762e-01 -1.48420882e+00 -1.82595048e-01 -1.48420882e+00 3.77782643e-01
-5.16982023e+00 -2.84046586e+00 -2.83421184e-01 -2.84046586e+00 2.15525774e+00 -1.15422968e+00 -2.83421184e-01 -1.15422968e+00 3.26703167e+00
1.57945943e+00 -2.12165192e-02 -2.71802768e-03 -2.12165192e-02 -2.71609378e+00 1.67719461e-03 -2.71802768e-03 1.67719461e-03 -3.09239273e+01
1.94497824e-01 3.54917556e-01 -9.75298136e-03 3.54917556e-01 -2.41908615e+00 4.02515844e-01 -9.75298136e-03 4.02515844e-01 -3.22758961e+01
2.02654123e-01 1.23919067e+00 2.69756779e-01 1.23919067e+00 -3.19086224e+00 5.37573665e-01 2.69756779e-01 5.37573665e-01 -3.29209313e+01
1.79292583e+00 3.43249559e-01 2.08403431e-01 3.43249559e-01 -2.99380016e+00 -1.08824589e-02 2.08403431e-01 -1.08824589e-02 -3.09261851e+01
-6.34114933e+00 6.45603269e-01 -7.90629769e-03 6.45603269e-01 -4.85286272e+00 1.11789680e+00 -7.90629769e-03 1.11789680e+00 -4.19692039e+01
-5.94416648e+00 2.37592280e+00 3.35844487e-01 2.37592280e+00 -5.07318991e+00 8.13498974e-01 3.35844487e-01 8.13498974e-01 -4.15011096e+01
-1.09444924e+01 1.17576772e+00 2.84200143e-02 1.17576772e+00 -5.96221441e+00 8.70357096e-01 2.84200143e-02 8.70357096e-01 -4.79074287e+01
-1.43721254e+01 1.84212589e+00 1.05293116e+00 1.84212589e+00 -7.57395428e+00 1.69142070e+00 1.05293116e+00 1.69142070e+00 -5.28320937e+01
-1.05402212e+01 -1.47691190e-01 4.64954972e-02 -1.47691190e-01 -3.92083871e+00 3.24320652e-01 4.64954972e-02 3.24320652e-01 -4.51039276e+01
-1.53392379e+01 -4.34239049e-01 2.02307969e+00 -4.34239049e-01 -6.65561211e+00 1.58023672e+00 2.02307969e+00 1.58023672e+00 -5.28148851e+01
-8.75619841e+00 -3.76610935e-01 7.46338218e-02 -3.76610935e-01 -2.01497730e+00 -2.68895082e-01 7.46338218e-02 -2.68895082e-01 -4.10694847e+01
-8.88690579e+00 -2.17767559e+00 2.10473472e+00 -2.17767559e+00 -3.97624969e-01 2.10470970e-01 2.10473472e+00 2.10470970e-01 -3.86474941e+01
-2.11725655e+01 -3.24238086e+00 1.19909868e-01 -3.24238086e+00 -9.81735134e+00 5.08170068e-01 1.19909868e-01 5.08170068e-01 -6.19128456e+01
-1.92848258e+01 -2.06613386e+00 2.87415493e+00 -2.06613386e+00 -6.35362646e+00 -3.47950399e+00 2.87415493e+00 -3.47950399e+00 -5.51247044e+01
2.60558343e+00 3.00497020e+00 -1.17392266e+00 3.00497020e+00 -1.96902180e+00 1.24644247e+00 -1.17392266e+00 1.24644247e+00 -2.84435024e+01
-5.82949257e+00 5.94475418e-01 -4.08264294e-01 5.94475418e-01 -1.45331502e+01 1.45512376e-01 -4.08264294e-01 1.45512376e-01 -5.10697221e+01
-3.37313664e+00 4.36135489e+00 5.00869870e-01 4.36135489e+00 -3.03595930e+00 2.22469389e+00 5.00869870e-01 2.22469389e+00 -3.54542942e+01
5.89543688e+00 1.81430382e+00 1.63180159e+00 1.81430382e+00 9.41879392e+00 1.57126908e+00 1.63180159e+00 1.57126908e+00 -1.29059298e+01
1.72106290e+01 -1.00328972e+00 1.71888286e+00 -1.00328972e+00 1.81775951e+01 8.10412832e-01 1.71888286e+00 8.10412832e-01 7.68216354e+00
1.84784867e+01 -4.02214304e-02 1.83266203e+00 -4.02214304e-02 1.74840775e+01 -5.55234633e-01 1.83266203e+00 -5.55234633e-01 8.34863186e+00
1.92556860e+01 -3.43789285e+00 1.80473894e+00 -3.43789285e+00 9.14376163e+00 -1.31991786e+00 1.80473894e+00 -1.31991786e+00 2.02827835e+00
-7.24821854e+01 -1.67875066e+00 6.11632299e+00 -1.67875066e+00 -8.66976795e+01 4.08761919e+00 6.11632299e+00 4.08761919e+00 -2.00955078e+02
-8.76799316e+01 -2.79640883e-01 3.45741248e+00 -2.79640883e-01 -9.43614426e+01 1.11905314e-01 3.45741248e+00 1.11905314e-01 -2.26951889e+02
1.19281352e+01 4.98867889e+00 -1.14744147e-01 4.98867889e+00 7.69247500e+00 3.19992564e+00 -1.14744147e-01 3.19992564e+00 -7.14917882e+00
3.19464695e+01 -1.98478149e+00 1.83720893e+00 -1.98478149e+00 3.25177989e+01 1.21190063e+00 1.83720893e+00 1.21190063e+00 3.56751409e+01
3.21389546e+01 -1.81669843e+00 1.99648881e+00 -1.81669843e+00 2.69807058e+01 6.10813856e-01 1.99648881e+00 6.10813856e-01 3.27201226e+01
4.45021255e+00 -5.35167396e-01 -7.65450656e-01 -5.35167396e-01 9.31400204e+00 -3.28216498e+00 -7.65450656e-01 -3.28216498e+00 2.54149498e+00
2.49969342e+01 1.09149078e+00 4.10762960e+00 1.09149078e+00 1.71843112e+01 1.30491375e+00 4.10762960e+00 1.30491375e+00 2.64123372e+01
-1.76288652e+00 -7.82908517e+00 -3.02309036e+00 -7.82908517e+00 -1.04180503e+01 -7.52597541e-01 -3.02309036e+00 -7.52597541e-01 -4.89222050e+00
2.08232207e+01 4.61627319e-02 3.27373505e+00 4.61627319e-02 7.54160786e+00 6.67512149e-01 3.27373505e+00 6.67512149e-01 2.32119837e+01
1.29472504e+01 6.69723535e+00 -1.04860202e+01 6.69723535e+00 1.84171019e+01 1.00228508e+01 -1.04860202e+01 1.00228508e+01 4.35411891e+01
2.33726053e+01 -2.62546456e+00 4.19009985e+00 -2.62546456e+00 2.91490583e+01 -7.49310374e-01 4.19009985e+00 -7.49310374e-01 4.22777424e+01
-1.17651539e+01 7.86454964e+00 -1.54003561e+00 7.86454964e+00 -4.00436306e+00 1.89401894e+01 -1.54003561e+00 1.89401894e+01 -4.75154877e+01
1.35010770e+01 4.67533487e+00 -3.20609772e+00 4.67533487e+00 2.16294352e+01 -3.97964835e-01 -3.20609772e+00 -3.97964835e-01 8.40487957e+00
1.18738194e+01 -5.27331034e-01 4.27485152e+00 -5.27331034e-01 7.43339920e+00 2.63690527e+00 4.27485152e+00 2.63690527e+00 6.28020837e+00
-1.15217620e+00 4.65220696e+00 4.58509046e+00 4.65220696e+00 1.11081736e+01 -8.37155282e-01 4.58509046e+00 -8.37155282e-01 2.66200912e+00
-9.84016299e-01 -5.22511949e+00 -7.91161239e-01 -5.22511949e+00 6.24712795e+00 2.24530846e+00 -7.91161239e-01 2.24530846e+00 9.96251214e+00
4.13637066e+00 -2.07144833e+00 -7.02126145e-01 -2.07144833e+00 -8.79837036e+00 -3.17487793e-01 -7.02126145e-01 -3.17487793e-01 6.27385437e+00
-1.79051566e+00 3.15690041e-03 -1.68108881e+00 3.15690041e-03 -7.30269074e+00 -1.40564206e+00 -1.68108881e+00 -1.40564206e+00 3.53825867e+00
-7.95971375e+01 2.50186205e+00 -2.74842429e+00 2.50186205e+00 -5.70381622e+01 8.51720154e-01 -2.74842429e+00 8.51720154e-01 -1.75632706e+02
-1.14448914e+02 3.41011381e+00 -3.24012518e-01 3.41011381e+00 -1.03695656e+02 2.09582949e+00 -3.24012518e-01 2.09582949e+00 -2.66168518e+02
2.00477982e+00 -1.44136059e+00 1.47277261e+00 -1.44136059e+00 4.53890800e-01 2.15953239e+00 1.47277261e+00 2.15953239e+00 -2.72261264e+01
-3.71894312e+00 -2.12045562e+00 3.72184038e+00 -2.12045562e+00 -9.20089769e+00 5.46872783e-02 3.72184038e+00 5.46872783e-02 -4.28110330e+01
1.23214690e+00 2.33340198e+00 -1.36339378e-01 2.33340198e+00 -2.70394206e-01 -7.31257558e-01 -1.36339378e-01 -7.31257558e-01 3.30942284e+00
1.24828100e+01 1.50423876e+00 5.11647662e-02 1.50423876e+00 2.70729189e+01 5.90897218e+00 5.11647662e-02 5.90897218e+00 2.46394466e+01
2.45270240e+00 1.38508546e+00 4.33082387e-01 1.38508546e+00 -6.02037764e+00 5.97330302e-01 4.33082387e-01 5.97330302e-01 -2.83510745e+00
3.07478666e+00 -1.98766667e+00 1.01252849e+00 -1.98766667e+00 -2.39654922e+00 8.35269652e-01 1.01252849e+00 8.35269652e-01 -2.83100677e+01
9.30767345e+00 1.41303718e+00 -2.85894901e-01 1.41303718e+00 4.06364870e+00 1.81179028e-02 -2.85894901e-01 1.81179028e-02 -1.50784492e+01
-1.70510769e+00 -1.26456743e+00 2.92050108e-01 -1.26456743e+00 -1.60617447e+00 3.92943788e+00 2.92050108e-01 3.92943788e+00 -3.38580995e+01
-4.97366083e+00 -2.28707451e+00 -5.55730164e-02 -2.28707451e+00 -1.39062285e+01 3.84189165e+00 -5.55730164e-02 3.84189165e+00 -4.83463802e+01
1.48247070e+01 3.09595650e+00 -2.13972394e+00 3.09595650e+00 3.99643326e+00 5.08461833e-01 -2.13972394e+00 5.08461833e-01 -9.39882469e+00
3.55098248e+00 -1.45555532e+00 -1.48604783e+00 -1.45555532e+00 2.14388850e+01 1.90168607e+00 -1.48604783e+00 1.90168607e+00 4.94956970e-01
2.43830674e+01 4.04602411e+00 -2.63071138e+00 4.04602411e+00 2.69719272e+01 2.37766767e+00 -2.63071138e+00 2.37766767e+00 2.73753598e+01
-6.62806463e+00 1.41732073e+00 -1.17732173e+00 1.41732073e+00 1.90125489e+00 7.09600523e-01 -1.17732173e+00 7.09600523e-01 4.04716623e+00
-4.54606056e+00 1.53173614e+00 -9.11117345e-03 1.53173614e+00 -4.57973421e-01 -1.63357675e-01 -9.11117345e-03 -1.63357675e-01 8.07081461e-01
</DataArray>
<DataArray type="Float32" Name="Logarithmic_strain_components" NumberOfComponents="9" format="ascii">
2.00278737e-02 -5.08770217e-03 1.64024628e-03 -5.08770217e-03 1.76596649e-02 5.15101676e-03 1.64024628e-03 5.15101676e-03 -3.13591750e-02
2.12681355e-02 -8.68579769e-03 9.18829661e-04 -8.68579769e-03 2.26042502e-02 9.44815417e-03 9.18829661e-04 9.44815417e-03 -3.69303285e-02
2.49269786e-02 -2.10485654e-04 3.77186207e-03 -2.10485654e-04 3.19280298e-02 -2.63605796e-03 3.77186207e-03 -2.63605796e-03 -4.84133959e-02
2.02124082e-02 -4.98256006e-04 -2.24317140e-03 -4.98256006e-04 2.44550756e-02 -2.85960443e-04 -2.24317140e-03 -2.85960443e-04 -3.80012076e-02
2.05009329e-02 3.44638457e-03 9.72707434e-03 3.44638457e-03 2.57969273e-02 5.34068898e-03 9.72707434e-03 5.34068898e-03 -3.78918056e-02
2.34673691e-02 -7.15482590e-03 -8.98205279e-03 -7.15482590e-03 3.55495978e-02 1.03408035e-02 -8.98205279e-03 1.03408035e-02 -4.90947286e-02
3.54569105e-02 -1.68974511e-04 4.07833926e-04 -1.68974511e-04 3.99818672e-02 -1.03281257e-02 4.07833926e-04 -1.03281257e-02 -6.42168829e-02
2.43797619e-02 1.14299852e-02 9.17537323e-03 1.14299852e-02 3.01582632e-02 1.06470600e-02 9.17537323e-03 1.06470600e-02 -4.59486572e-02
2.89606997e-02 8.23294453e-04 -1.32060559e-02 8.23294453e-04 3.00692902e-02 1.31718703e-02 -1.32060559e-02 1.31718703e-02 -5.20714056e-02
3.91294826e-02 1.18335368e-03 -4.27021342e-03 1.18335368e-03 4.36706636e-02 1.77126434e-02 -4.27021342e-03 1.77126434e-02 -7.46591426e-02
4.21605955e-02 1.92375615e-02 -6.38980046e-02 1.92375615e-02 4.20879954e-02 -3.94748431e-03 -6.38980046e-02 -3.94748431e-03 -7.40939106e-02
6.01847898e-02 2.20133113e-02 -5.18295281e-02 2.20133113e-02 3.74491438e-02 -9.55507910e-03 -5.18295281e-02 -9.55507910e-03 -8.52387883e-02
-1.17236937e-06 -2.91994293e-05 -9.17159377e-06 -2.91994293e-05 6.31305380e-06 7.06721539e-06 -9.17159377e-06 7.06721539e-06 -1.05588751e-05
-6.75889004e-06 -6.97163568e-06 -7.55366182e-06 -6.97163568e-06 2.14771035e-07 -8.27848316e-06 -7.55366182e-06 -8.27848316e-06 1.53668822e-06
1.60142504e-05 -7.76533716e-06 -4.11446081e-07 -7.76533716e-06 8.93812398e-07 2.42674946e-05 -4.11446081e-07 2.42674946e-05 -2.22044819e-05
1.03720317e-05 -2.99535241e-05 -1.83918473e-06 -2.99535241e-05 -4.03519971e-06 -2.27048331e-05 -1.83918473e-06 -2.27048331e-05 -1.07229853e-05
4.34345202e-06 1.01355981e-05 1.79703238e-05 1.01355981e-05 1.68410384e-06 1.12296284e-05 1.79703238e-05 1.12296284e-05 -1.33238495e-06
-3.83426777e-06 2.28173349e-06 6.80088851e-06 2.28173349e-06 -5.89099000e-06 -2.03495665e-06 6.80088851e-06 -2.03495665e-06 1.19740389e-05
-1.27965700e-06 2.86073464e-06 -1.43691486e-05 2.86073464e-06 3.64433936e-06 -2.65956769e-05 -1.43691486e-05 -2.65956769e-05 2.01060152e-06
-8.98971666e-06 1.03458860e-05 -6.37060748e-06 1.03458860e-05 -4.57113811e-06 1.70502717e-05 -6.37060748e-06 1.70502717e-05 1.65525853e-05
3.20759658e-02 7.23922858e-06 8.27900693e-03 7.23922858e-06 3.34954243e-02 -1.86519581e-03 8.27900693e-03 -1.86519581e-03 -5.55787813e-02
3.29701733e-02 1.01384241e-03 5.76105760e-03 1.01384241e-03 3.22106155e-02 1.73216382e-03 5.76105760e-03 1.73216382e-03 -5.52503671e-02
3.17029627e-02 -7.14119227e-03 9.39729075e-03 -7.14119227e-03 3.25650033e-02 2.54699573e-03 9.39729075e-03 2.54699573e-03 -5.41544594e-02
3.06102070e-02 9.43687221e-04 8.49058601e-03 9.43687221e-04 3.43460310e-02 -4.37243737e-03 8.49058601e-03 -4.37243737e-03 -5.50231114e-02
4.19719014e-02 -3.45024819e-06 8.09868472e-03 -3.45024819e-06 3.06209298e-02 -1.94923588e-04 8.09868472e-03 -1.94923588e-04 -6.11363146e-02
4.05726833e-02 8.56397644e-04 2.36643641e-03 8.56397644e-04 3.22927898e-02 7.04482768e-03 2.36643641e-03 7.04482768e-03 -6.16929680e-02
4.14431165e-02 1.85498671e-03 1.15445302e-02 1.85498671e-03 3.30815632e-02 3.51874113e-03 1.15445302e-02 3.51874113e-03 -6.28605001e-02
4.26132744e-02 1.81433649e-03 1.17261765e-02 1.81433649e-03 3.32302996e-02 -5.95076242e-03 1.17261765e-02 -5.95076242e-03 -6.41675657e-02
3.56318289e-02 -7.62213592e-03 8.18265136e-03 -7.62213592e-03 2.76580080e-02 6.37286737e-04 8.18265136e-03 6.37286737e-04 -5.33120651e-02
3.49403278e-02 -1.00496861e-02 8.09799694e-03 -1.00496861e-02 3.08804398e-02 3.19244200e-03 8.09799694e-03 3.19244200e-03 -5.53383715e-02
3.78526598e-02 1.85658940e-03 -5.99685285e-04 1.85658940e-03 3.22273294e-02 4.12931459e-03 -5.99685285e-04 4.12931459e-03 -5.93659421e-02
3.76713388e-02 2.52392840e-03 8.58362077e-03 2.52392840e-03 3.51326065e-02 1.00258371e-02 8.58362077e-03 1.00258371e-02 -6.17982321e-02
3.81433479e-02 6.06673173e-04 2.88930949e-03 6.06673173e-04 2.46121385e-02 4.46888266e-03 2.88930949e-03 4.46888266e-03 -5.27038071e-02
3.83287757e-02 -4.62613995e-03 -4.31544488e-03 -4.62613995e-03 3.05884050e-02 -3.58708977e-03 -4.31544488e-03 -3.58708977e-03 -5.76702785e-02
3.60432314e-02 -3.40252050e-03 1.45565005e-04 -3.40252050e-03 2.90955254e-02 4.18362644e-03 1.45565005e-04 4.18362644e-03 -5.50335692e-02
3.50768985e-02 -3.49702404e-03 -4.59972746e-03 -3.49702404e-03 3.24213642e-02 3.31353388e-03 -4.59972746e-03 3.31353388e-03 -5.69949206e-02
3.90773779e-02 1.71587168e-03 -4.20365855e-03 1.71587168e-03 2.33761631e-02 -8.65446113e-04 -4.20365855e-03 -8.65446113e-04 -5.23117101e-02
3.83997001e-02 1.94530047e-03 -5.29493326e-03 1.94530047e-03 3.52828007e-02 -8.01129790e-05 -5.29493326e-03 -8.01129790e-05 -6.21973956e-02
3.42483530e-02 -1.26162628e-03 -5.82426530e-03 -1.26162628e-03 2.57932050e-02 3.18606108e-03 -5.82426530e-03 3.18606108e-03 -5.06476220e-02
3.39827747e-02 -6.88828365e-03 -8.76925822e-03 -6.88828365e-03 2.75620033e-02 -4.27203807e-03 -8.76925822e-03 -4.27203807e-03 -5.12638609e-02
3.61673590e-02 1.26997332e-03 2.58184574e-03 1.26997332e-03 2.44360613e-02 -3.60510236e-03 2.58184574e-03 -3.60510236e-03 -5.06164292e-02
3.78517150e-02 1.38112828e-03 2.54241284e-04 1.38112828e-03 3.41054879e-02 1.91951009e-03 2.54241284e-04 1.91951009e-03 -6.05216380e-02
2.96420469e-02 -1.49494972e-05 -1.04043924e-02 -1.49494972e-05 2.39572306e-02 -1.08431661e-04 -1.04043924e-02 -1.08431661e-04 -4.46745344e-02
3.13557088e-02 -2.03138066e-03 -7.60942131e-03 -2.03138066e-03 2.97971058e-02 -3.84258079e-03 -7.60942131e-03 -3.84258079e-03 -5.14225243e-02
3.43028698e-02 1.20249682e-03 3.05823865e-03 1.20249682e-03 2.35531507e-02 -3.85610480e-03 3.05823865e-03 -3.85610480e-03 -4.79802936e-02
3.49887945e-02 -4.92136684e-04 -9.90865403e-04 -4.92136684e-04 3.30691072e-02 -3.14879743e-03 -9.90865403e-04 -3.14879743e-03 -5.66361640e-02
2.68854154e-02 8.52909451e-03 -8.10838025e-03 8.52909451e-03 2.31440347e-02 -5.64401562e-03 -8.10838025e-03 -5.64401562e-03 -4.12834287e-02
3.05676027e-02 3.12863645e-03 -5.05781115e-03 3.12863645e-03 2.80427467e-02 -3.52766414e-03 -5.05781115e-03 -3.52766414e-03 -4.88800062e-02
2.79677340e-02 -1.19569200e-02 2.24646537e-02 -1.19569200e-02 3.58311289e-02 -3.64776351e-05 2.24646537e-02 -3.64776351e-05 -5.33033418e-02
2.35387478e-02 -9.04286467e-03 1.61470901e-02 -9.04286467e-03 3.81659204e-02 -2.53761047e-03 1.61470901e-02 -2.53761047e-03 -5.18392781e-02
4.45960001e-02 -6.84993138e-04 2.85523625e-02 -6.84993138e-04 3.63156870e-02 7.63016701e-03 2.85523625e-02 7.63016701e-03 -6.87247147e-02
4.23798021e-02 -3.13790028e-04 2.36820388e-02 -3.13790028e-04 3.60925533e-02 -1.94539875e-03 2.36820388e-02 -1.94539875e-03 -6.61360566e-02
3.74877953e-02 -1.82692134e-03 1.55766753e-02 -1.82692134e-03 3.45601243e-02 -3.86971102e-03 1.55766753e-02 -3.86971102e-03 -6.16596506e-02
4.01656772e-02 7.57176016e-03 7.23821504e-03 7.57176016e-03 3.74099081e-02 -6.62739250e-03 7.23821504e-03 -6.62739250e-03 -6.63401647e-02
4.50034030e-02 -9.65359717e-03 -4.37111117e-02 -9.65359717e-03 4.12618242e-02 -6.36449922e-04 -4.37111117e-02 -6.36449922e-04 -7.68097110e-02
3.16260611e-02 5.50188970e-03 -2.69877446e-02 5.50188970e-03 3.40038330e-02 -5.68137744e-03 -2.69877446e-02 -5.68137744e-03 -5.60232273e-02
4.41766698e-02 -5.49369841e-04 -1.25362200e-02 -5.49369841e-04 5.01756482e-02 9.64139050e-03 -1.25362200e-02 9.64139050e-03 -8.29503722e-02
3.57906252e-02 -4.47138061e-03 -4.05436665e-02 -4.47138061e-03 2.82199228e-02 6.36993335e-03 -4.05436665e-02 6.36993335e-03 -5.47408842e-02
4.31480417e-02 -2.70605498e-03 -2.08275463e-03 -2.70605498e-03 4.66073519e-02 7.78272253e-03 -2.08275463e-03 7.78272253e-03 -7.78200179e-02
3.68882082e-02 1.96234608e-03 -1.51915418e-02 1.96234608e-03 4.11290331e-02 -5.52309735e-04 -1.51915418e-02 -5.52309735e-04 -6.85872510e-02
3.89697570e-02 -2.89876101e-04 -3.58518329e-03 -2.89876101e-04 4.63745333e-02 2.93084048e-03 -3.58518329e-03 2.93084048e-03 -7.32493065e-02
3.53555027e-02 -7.53211178e-04 -1.46583477e-02 -7.53211178e-04 4.08095419e-02 -1.20533359e-02 -1.46583477e-02 -1.20533359e-02 -6.65603317e-02
2.35632931e-02 -6.99848730e-03 2.80583935e-02 -6.99848730e-03 3.48364038e-02 6.07552606e-04 2.80583935e-02 6.07552606e-04 -4.88876365e-02
1.89793748e-02 2.21554918e-03 2.24502743e-02 2.21554918e-03 3.42424903e-02 4.50153300e-03 2.24502743e-02 4.50153300e-03 -4.40243063e-02
4.66312958e-02 -3.52834824e-03 3.16898086e-02 -3.52834824e-03 3.71055012e-02 -8.69152269e-03 3.16898086e-02 -8.69152269e-03 -7.05948206e-02
3.61934868e-02 2.13195942e-03 3.42857861e-02 2.13195942e-03 3.76073765e-02 -1.24515896e-02 3.42857861e-02 -1.24515896e-02 -6.15190817e-02
3.49799595e-02 -1.82884773e-02 4.00306098e-02 -1.82884773e-02 4.52908557e-02 -4.44217196e-02 4.00306098e-02 -4.44217196e-02 -6.97499802e-02
5.31524658e-02 -4.27928753e-04 1.21274276e-02 -4.27928753e-04 3.86661500e-02 -3.24067306e-02 1.21274276e-02 -3.24067306e-02 -7.97551364e-02
-1.54627748e-02 -6.89180046e-02 -1.30927667e-01 -6.89180046e-02 1.33284589e-03 -9.43508744e-02 -1.30927667e-01 -9.43508744e-02 4.41146195e-02
2.18259829e-02 -5.56183917e-03 -3.43312367e-02 -5.56183917e-03 1.54625704e-02 -2.73536953e-02 -3.43312367e-02 -2.73536953e-02 -2.47820627e-02
1.89462211e-02 -2.09745253e-03 1.15897338e-02 -2.09745253e-03 2.54586296e-02 1.59392434e-02 1.15897338e-02 1.59392434e-02 -3.63391968e-02
1.74613527e-02 -5.03838644e-03 1.84504628e-02 -5.03838644e-03 2.64753159e-02 2.62734963e-03 1.84504628e-02 2.62734963e-03 -3.62759647e-02
2.97752634e-02 -5.02401001e-03 2.30641698e-02 -5.02401001e-03 3.64411063e-02 2.57286737e-02 2.30641698e-02 2.57286737e-02 -5.31129570e-02
3.20917168e-02 -2.87726027e-03 5.00566413e-03 -2.87726027e-03 3.89921749e-02 1.07950699e-02 5.00566413e-03 1.07950699e-02 -5.84704746e-02
1.95623292e-02 4.38673759e-03 -8.43221787e-04 4.38673759e-03 2.56774123e-02 1.79401628e-03 -8.43221787e-04 1.79401628e-03 -3.77122667e-02
3.61835169e-02 9.14029049e-03 -9.43315907e-03 9.14029049e-03 4.16387125e-02 2.13373740e-02 -9.43315907e-03 2.13373740e-02 -6.48577213e-02
3.20842736e-02 1.08589306e-02 9.67219938e-03 1.08589306e-02 4.68638558e-02 8.84954585e-03 9.67219938e-03 8.84954585e-03 -6.60897326e-02
2.00850695e-02 2.99594579e-03 1.01056324e-02 2.99594579e-03 2.93754162e-02 4.81017623e-02 1.01056324e-02 4.81017623e-02 -4.24941513e-02
5.66379614e-02 -7.84828491e-03 5.00128558e-02 -7.84828491e-03 4.66504246e-02 2.34838736e-02 5.00128558e-02 2.34838736e-02 -9.27082971e-02
3.41967680e-02 -1.00135733e-02 -2.43664671e-02 -1.00135733e-02 5.01949850e-02 -1.30550731e-02 -2.43664671e-02 -1.30550731e-02 -7.12355502e-02
2.14807102e-02 -1.38734083e-03 7.57675059e-03 -1.38734083e-03 3.09403976e-02 8.98368051e-03 7.57675059e-03 8.98368051e-03 -4.40460965e-02
4.05135201e-02 1.50009784e-02 -4.77159081e-03 1.50009784e-02 4.34383890e-02 1.52426916e-02 -4.77159081e-03 1.52426916e-02 -6.82073776e-02
3.32708936e-02 -8.54252791e-03 1.50230126e-02 -8.54252791e-03 5.18465154e-02 -1.31273321e-02 1.50230126e-02 -1.31273321e-02 -7.17983618e-02
4.52242247e-02 -1.34098367e-02 -3.25543350e-02 -1.34098367e-02 4.92518051e-02 3.62329485e-02 -3.25543350e-02 3.62329485e-02 -8.07878170e-02
3.09010210e-02 2.67292143e-02 -4.05561179e-04 2.67292143e-02 5.30738371e-02 -8.50544783e-02 -4.05561179e-04 -8.50544783e-02 -7.08580129e-02
5.16138077e-02 -5.31661929e-03 -1.18162554e-02 -5.31661929e-03 2.98986863e-02 -1.44659171e-02 -1.18162554e-02 -1.44659171e-02 -6.86756137e-02
5.21556679e-02 3.76863682e-06 2.71166523e-03 3.76863682e-06 3.09384856e-02 -2.68109969e-03 2.71166523e-03 -2.68109969e-03 -7.00053200e-02
4.83418135e-02 2.68327876e-03 3.49172903e-03 2.68327876e-03 3.37563455e-02 3.79704071e-03 3.49172903e-03 3.79704071e-03 -6.94086999e-02
5.01177865e-02 9.94797359e-03 6.67970109e-03 9.94797359e-03 3.52528770e-02 4.28512749e-03 6.67970109e-03 4.28512749e-03 -7.22089158e-02
5.49071813e-02 2.37043365e-03 8.14917719e-03 2.37043365e-03 3.27309268e-02 -1.91019874e-03 8.14917719e-03 -1.91019874e-03 -7.40082860e-02
3.95256570e-02 6.44619332e-03 -5.65074908e-04 6.44619332e-03 3.87617107e-02 6.57858324e-03 -5.65074908e-04 6.57858324e-03 -6.65574633e-02
3.96671849e-02 1.35779785e-02 3.10636067e-03 1.35779785e-02 3.90189253e-02 4.79627005e-03 3.10636067e-03 4.79627005e-03 -6.69384496e-02
3.21441083e-02 4.24013706e-03 -2.56949931e-03 4.24013706e-03 3.97250159e-02 1.92990976e-03 -2.56949931e-03 1.92990976e-03 -6.12757057e-02
2.95467442e-02 7.04785525e-03 -8.69925570e-04 7.04785525e-03 3.98252979e-02 6.34873731e-03 -8.69925570e-04 6.34873731e-03 -5.92249343e-02
2.78645908e-02 -2.65391293e-03 -1.55410261e-03 -2.65391293e-03 3.67587702e-02 4.48872539e-04 -1.55410261e-03 4.48872539e-04 -5.50225470e-02
2.47238069e-02 -2.94423095e-03 -2.55103374e-03 -2.94423095e-03 3.54821640e-02 1.22198826e-03 -2.55103374e-03 1.22198826e-03 -5.10589085e-02
2.46047820e-02 -3.73269216e-03 -4.06528823e-03 -3.73269216e-03 3.40626212e-02 2.54087408e-04 -4.06528823e-03 2.54087408e-04 -4.96128649e-02
2.47953008e-02 -6.33027662e-03 -7.03791744e-03 -6.33027662e-03 2.99260167e-02 -1.40402642e-03 -7.03791744e-03 -1.40402642e-03 -4.59790202e-02
2.18734015e-02 1.01199461e-03 -1.68163812e-03 1.01199461e-03 3.57965473e-02 1.52915454e-03 -1.68163812e-03 1.52915454e-03 -4.88615688e-02
2.48789331e-02 -5.78032614e-03 -2.82334955e-03 -5.78032614e-03 3.02397097e-02 -6.84858521e-03 -2.82334955e-03 -6.84858521e-03 -4.65262802e-02
5.92379281e-02 1.27026123e-02 1.91841150e-02 1.27026123e-02 3.47290363e-02 3.93414160e-03 1.91841150e-02 3.93414160e-03 -7.92495525e-02
6.17977828e-02 7.21644016e-03 2.44095020e-02 7.21644016e-03 3.83199095e-02 -8.15492636e-03 2.44095020e-02 -8.15492636e-03 -8.44928101e-02
4.39789528e-02 1.69186656e-02 6.80072088e-04 1.69186656e-02 3.41944152e-02 2.04808979e-03 6.80072088e-04 2.04808979e-03 -6.62833145e-02
2.57380209e-02 1.22466215e-02 -1.32143702e-02 1.22466215e-02 2.83532366e-02 -1.31252006e-03 -1.32143702e-02 -1.31252006e-03 -4.51897373e-02
1.67916260e-02 4.12619373e-04 -1.53437399e-02 4.12619373e-04 2.65979647e-02 -9.37653489e-04 -1.53437399e-02 -9.37653489e-04 -3.64128184e-02
1.48419991e-02 -7.47772632e-03 -2.09733043e-02 -7.47772632e-03 2.37356868e-02 -7.09237750e-03 -2.09733043e-02 -7.09237750e-03 -3.23667216e-02
1.71648602e-02 -1.30313477e-02 -2.35222221e-02 -1.30313477e-02 2.05127651e-02 -1.30304762e-02 -2.35222221e-02 -1.30304762e-02 -3.16190782e-02
6.67420731e-02 -1.87645418e-03 4.96908305e-02 -1.87645418e-03 3.25373306e-02 -1.22966327e-02 4.96908305e-02 -1.22966327e-02 -8.44023501e-02
6.68235446e-02 -1.23237747e-02 4.75646282e-02 -1.23237747e-02 3.71211916e-02 -1.58431018e-02 4.75646282e-02 -1.58431018e-02 -8.96312396e-02
5.11739918e-02 1.25724384e-02 5.02703316e-03 1.25724384e-02 2.47079795e-02 -2.51814437e-02 5.02703316e-03 -2.51814437e-02 -6.36067595e-02
2.19401044e-02 1.36891621e-02 -2.37821955e-02 1.36891621e-02 9.14610984e-03 -1.35200471e-02 -2.37821955e-02 -1.35200471e-02 -2.40887705e-02
6.27005380e-03 -4.11712676e-02 -5.75816557e-02 -4.11712676e-02 -2.07363199e-02 -5.58138937e-02 -5.75816557e-02 -5.58138937e-02 2.64566615e-02
5.70872880e-04 2.58754972e-03 -7.51705066e-03 2.58754972e-03 3.52307436e-03 -3.25102231e-03 -7.51705066e-03 -3.25102231e-03 -9.12645122e-04
6.43234318e-02 2.87806633e-03 -4.07045428e-03 2.87806633e-03 4.86660716e-02 3.58200949e-02 -4.07045428e-03 3.58200949e-02 -9.54451095e-02
6.56156937e-02 1.03685887e-02 -2.92380505e-02 1.03685887e-02 5.84308635e-02 2.98963698e-02 -2.92380505e-02 2.98963698e-02 -1.05843283e-01
6.93719815e-02 -8.48414050e-03 1.29936610e-02 -8.48414050e-03 3.74949742e-02 -3.68140982e-02 1.29936610e-02 -3.68140982e-02 -9.48950537e-02
5.74720850e-02 -4.73881622e-03 -1.46489899e-02 -4.73881622e-03 7.24582498e-02 2.34738902e-02 -1.46489899e-02 2.34738902e-02 -1.10475370e-01
5.75226983e-02 -4.08903859e-03 1.10205940e-02 -4.08903859e-03 7.31692035e-02 -9.74769369e-04 1.10205940e-02 -9.74769369e-04 -1.10146603e-01
6.47696489e-02 -5.53195109e-03 7.76724843e-03 -5.53195109e-03 5.64819816e-02 1.74079980e-02 7.76724843e-03 1.74079980e-02 -1.02615835e-01
6.26277775e-02 2.77392881e-03 1.26748256e-02 2.77392881e-03 5.67286462e-02 -1.07391360e-02 1.26748256e-02 -1.07391360e-02 -1.00824207e-01
5.84952533e-02 1.63426805e-02 -9.05564829e-03 1.63426805e-02 5.91325937e-02 -1.83915501e-02 -9.05564829e-03 -1.83915501e-02 -1.02238709e-01
6.91828728e-02 -9.37556359e-03 -1.68797101e-02 -9.37556359e-03 4.39224737e-02 3.44179638e-02 -1.68797101e-02 3.44179638e-02 -9.58198048e-02
5.08818012e-02 9.55268671e-03 6.12314350e-03 9.55268671e-03 1.91429001e-02 -2.17522145e-02 6.12314350e-03 -2.17522145e-02 -5.99372173e-02
3.89010056e-02 -1.47942614e-02 3.88685486e-03 -1.47942614e-02 2.83886432e-02 -4.32758452e-03 3.88685486e-03 -4.32758452e-03 -5.56888524e-02
-4.07540686e-02 3.89766432e-02 2.81666610e-02 3.89766432e-02 -1.06643029e-02 -1.97399743e-02 2.81666610e-02 -1.97399743e-02 7.85527900e-02
-1.04579367e-02 1.31605249e-02 3.19361947e-02 1.31605249e-02 -2.07079342e-03 -5.84402233e-02 3.19361947e-02 -5.84402233e-02 2.63037160e-02
1.00327042e-02 -2.05074929e-02 -6.91702298e-03 -2.05074929e-02 -1.27994434e-02 2.21213761e-02 -6.91702298e-03 2.21213761e-02 3.86346216e-03
-6.01414436e-03 -3.75792635e-02 -8.88873626e-03 -3.75792635e-02 1.23013102e-03 -6.47504974e-03 -8.88873626e-03 -6.47504974e-03 6.33571501e-03
-2.20464080e-05 -4.75781380e-05 6.70676236e-05 -4.75781380e-05 2.88403480e-05 -4.77643443e-05 6.70676236e-05 -4.77643443e-05 -1.38763917e-05
-2.01863713e-05 -2.07593189e-07 1.11999980e-05 -2.07593189e-07 -8.84910776e-07 3.08342569e-05 1.11999980e-05 3.08342569e-05 1.53129204e-05
2.25499043e-05 -3.20844410e-05 1.21407493e-05 -3.20844410e-05 -5.05166918e-06 -6.16079997e-05 1.21407493e-05 -6.16079997e-05 -2.30348287e-05
8.82420591e-06 -7.90632621e-05 -5.99042505e-05 -7.90632621e-05 1.25859897e-05 5.83639157e-05 -5.99042505e-05 5.83639157e-05 -2.69607845e-05
1.74590022e-04 9.48168294e-05 4.98596199e-05 9.48168294e-05 -1.24894432e-04 1.35798837e-05 4.98596199e-05 1.35798837e-05 -2.16217941e-05
5.09028147e-05 -1.92832473e-05 -1.64835592e-06 -1.92832473e-05 -1.07387346e-04 5.33562549e-05 -1.64835592e-06 5.33562549e-05 3.41031349e-06
-6.98614222e-05 4.80858562e-05 -8.74711282e-06 4.80858562e-05 2.21383407e-05 -7.05234561e-05 -8.74711282e-06 -7.05234561e-05 1.81873629e-05
-1.56117661e-04 -2.90188216e-04 -2.11031268e-07 -2.90188216e-04 5.92868067e-05 -5.12062252e-05 -2.11031268e-07 -5.12062252e-05 1.12020147e-04
5.58952615e-02 -2.64853588e-06 2.04259413e-06 -2.64853588e-06 3.26666310e-02 -1.80238567e-06 2.04259413e-06 -1.80238567e-06 -7.47660175e-02
5.07983789e-02 5.13339322e-03 -5.16395812e-06 5.13339322e-03 3.58225591e-02 3.44807678e-03 -5.16395812e-06 3.44807678e-03 -7.32996985e-02
5.47820665e-02 1.45487732e-02 3.28249822e-03 1.45487732e-02 3.37753878e-02 5.84753253e-03 3.28249822e-03 5.84753253e-03 -7.47755188e-02
6.09309021e-02 4.27418225e-03 1.43255084e-03 4.27418225e-03 3.10760485e-02 -3.46964225e-06 1.43255084e-03 -3.46964225e-06 -7.75569081e-02
3.97298317e-02 4.44121123e-03 -1.94174318e-05 4.44121123e-03 4.21224199e-02 7.47661549e-03 -1.94174318e-05 7.47661549e-03 -6.97018094e-02
4.09321645e-02 1.77242748e-02 3.82758764e-03 1.77242748e-02 3.97078963e-02 5.43014309e-03 3.82758764e-03 5.43014309e-03 -6.85529821e-02
2.96435729e-02 6.56581414e-03 -1.62707329e-05 6.56581414e-03 4.52977121e-02 5.09816245e-03 -1.62707329e-05 5.09816245e-03 -6.40208609e-02
2.88070221e-02 1.14848659e-02 4.97070723e-03 1.14848659e-02 4.22775950e-02 7.37675512e-03 4.97070723e-03 7.37675512e-03 -6.09111460e-02
2.39096517e-02 1.80695055e-03 2.04311800e-06 1.80695055e-03 4.39762827e-02 1.48383057e-03 2.04311800e-06 1.48383057e-03 -5.79759367e-02
2.18547853e-02 2.45226061e-03 8.80590710e-03 2.45226061e-03 4.01810249e-02 5.95788914e-03 8.80590710e-03 5.95788914e-03 -5.32986205e-02
2.33465377e-02 -3.36099602e-03 -1.84552118e-06 -3.36099602e-03 4.07208856e-02 5.08015073e-04 -1.84552118e-06 5.08015073e-04 -5.46805821e-02
1.88788045e-02 -4.98678256e-03 9.62901837e-03 -4.98678256e-03 3.64554836e-02 9.22366147e-04 9.62901837e-03 9.22366147e-04 -4.72866744e-02
2.15068180e-02 -1.33403596e-02 2.65371418e-05 -1.33403596e-02 4.40206416e-02 5.01068495e-03 2.65371418e-05 5.01068495e-03 -5.65101504e-02
1.84061280e-02 -8.87899008e-03 1.30746947e-02 -8.87899008e-03 3.69027220e-02 -9.31641273e-03 1.30746947e-02 -9.31641273e-03 -4.75488193e-02
6.00044625e-02 2.03613879e-02 -6.95260684e-03 2.03613879e-02 4.19868007e-02 1.01738358e-02 -6.95260684e-03 1.01738358e-02 -8.63829348e-02
6.80578891e-02 3.84016824e-03 -3.54364153e-03 3.84016824e-03 4.52640550e-02 -9.92265450e-06 -3.54364153e-03 -9.92265450e-06 -9.64291170e-02
4.17594556e-02 3.14992438e-02 -4.84029188e-05 3.14992438e-02 3.51803200e-02 1.41224407e-02 -4.84029188e-05 1.41224407e-02 -6.49856692e-02
2.29883804e-02 1.76283991e-02 6.67041517e-03 1.76283991e-02 2.90583721e-02 9.23017156e-03 6.67041517e-03 9.23017156e-03 -4.37843567e-02
1.16021952e-02 -3.90604298e-04 8.74785567e-03 -3.90604298e-04 2.17774729e-02 7.89231271e-03 8.74785567e-03 7.89231271e-03 -2.74733715e-02
6.66779431e-03 -7.40012224e-03 9.74933710e-03 -7.40012224e-03 1.68364567e-02 -1.00723396e-03 9.74933710e-03 -1.00723396e-03 -1.87438559e-02
1.06464815e-02 -1.06779026e-02 6.07412169e-03 -1.06779026e-02 1.14398178e-02 -8.22753087e-03 6.07412169e-03 -8.22753087e-03 -1.76897668e-02
7.21618980e-02 -2.03632971e-03 2.95980377e-02 -2.03632971e-03 6.11164905e-02 1.71168558e-02 2.95980377e-02 1.71168558e-02 -1.19510900e-01
8.02359730e-02 -5.51179145e-03 2.23888755e-02 -5.51179145e-03 7.02942759e-02 -2.57288775e-05 2.23888755e-02 -2.57288775e-05 -1.36109009e-01
4.22370682e-02 1.51563020e-02 8.96272343e-03 1.51563020e-02 2.68985170e-02 2.09698658e-02 8.96272343e-03 2.09698658e-02 -5.85192330e-02
1.32551757e-02 7.36043850e-03 5.23800461e-03 7.36043850e-03 7.94944292e-03 1.00421084e-02 5.23800461e-03 1.00421084e-02 -1.50687087e-02
3.30301875e-04 -4.26612569e-03 9.10772767e-04 -4.26612569e-03 3.25887293e-03 4.79062393e-04 9.10772767e-04 4.79062393e-04 -1.41545202e-03
-1.52788727e-03 -3.37307221e-03 -9.11741742e-03 -3.37307221e-03 4.71398513e-03 -6.61816678e-04 -9.11741742e-03 -6.61816678e-04 -1.93672480e-03
7.53797431e-05 -2.49462842e-03 6.38882077e-04 -2.49462842e-03 1.47862548e-03 4.97889807e-04 6.38882077e-04 4.97889807e-04 -2.91604902e-04
8.78381848e-04 -9.77632921e-03 -8.48621270e-03 -9.77632921e-03 -2.57590320e-04 -2.56455001e-04 -8.48621270e-03 -2.56455001e-04 4.25271603e-04
1.77611172e-03 -4.73021128e-03 1.58232974e-03 -4.73021128e-03 -2.21369893e-03 2.47189528e-04 1.58232974e-03 2.47189528e-04 1.49038061e-03
1.43949959e-02 -1.87201519e-03 -1.56662264e-02 -1.87201519e-03 -8.55462102e-03 -3.55439377e-02 -1.56662264e-02 -3.55439377e-02 -4.23632329e-04
-1.58347096e-03 -3.41164815e-03 5.73019474e-03 -3.41164815e-03 1.49914064e-04 4.78160661e-03 5.73019474e-03 4.78160661e-03 6.72241463e-03
2.88252234e-02 1.73548721e-02 -6.31630607e-03 1.73548721e-02 3.70011777e-02 4.97307628e-02 -6.31630607e-03 4.97307628e-02 -5.87197058e-02
1.45391857e-04 -6.77752978e-05 -4.66176934e-04 -6.77752978e-05 3.59253681e-04 3.01677129e-03 -4.66176934e-04 3.01677129e-03 -2.70012364e-05
-7.13783314e-04 -2.21444086e-03 2.62938682e-04 -2.21444086e-03 5.67015154e-04 1.72805977e-04 2.62938682e-04 1.72805977e-04 6.51108256e-04
-1.79682115e-04 2.29703821e-04 1.83100008e-04 2.29703821e-04 3.53993836e-04 -2.66584466e-05 1.83100008e-04 -2.66584466e-05 -3.03158704e-05
-1.65817164e-04 -2.59926353e-04 -1.02282384e-04 -2.59926353e-04 1.88764398e-04 8.49653388e-05 -1.02282384e-04 8.49653388e-05 1.20212295e-04
2.42444647e-04 -8.23383554e-04 3.85199077e-04 -8.23383554e-04 -4.70829051e-04 -2.31083441e-05 3.85199077e-04 -2.31083441e-05 3.31325362e-04
3.82155748e-04 -1.00692381e-03 -1.65339130e-04 -1.00692381e-03 -9.30805011e-04 -9.21215542e-05 -1.65339130e-04 -9.21215542e-05 6.48997117e-04
7.95084685e-02 1.61905009e-02 -1.91757455e-02 1.61905009e-02 1.12274565e-01 3.01147928e-04 -1.91757455e-02 3.01147928e-04 -1.70380533e-01
9.68033746e-02 3.15632264e-04 -1.28480336e-02 3.15632264e-04 1.03565648e-01 2.63692681e-02 -1.28480336e-02 2.63692681e-02 -1.80783123e-01
7.00798320e-02 -1.89347061e-02 1.96462305e-02 -1.89347061e-02 7.64094467e-02 2.16998818e-02 1.96462305e-02 2.16998818e-02 -1.24208868e-01
7.28313625e-02 -9.24293464e-03 2.45024096e-02 -9.24293464e-03 8.36600009e-02 6.25317625e-05 2.45024096e-02 6.25317625e-05 -1.33649193e-01
5.53793002e-05 4.52164313e-05 -6.03146009e-06 4.52164313e-05 -5.33101729e-05 -4.80278795e-05 -6.03146009e-06 -4.80278795e-05 3.39108692e-05
7.21556694e-03 -7.78259786e-03 4.39185981e-05 -7.78259786e-03 -2.68315528e-03 4.28256346e-04 4.39185981e-05 4.28256346e-04 -3.18839497e-03
8.52138328e-05 6.67940949e-05 2.09895597e-05 6.67940949e-05 -1.18307238e-04 2.86030736e-05 2.09895597e-05 2.86030736e-05 -4.18426534e-05
8.12962539e-02 -2.07099402e-02 1.39340209e-02 -2.07099402e-02 5.03669716e-02 1.64003978e-02 1.39340209e-02 1.64003978e-02 -1.11847717e-01
8.23240280e-02 1.06933073e-03 1.54214334e-02 1.06933073e-03 4.93639000e-02 -4.51239466e-05 1.54214334e-02 -4.51239466e-05 -1.10777825e-01
6.13284316e-02 7.12769432e-03 4.98746056e-03 7.12769432e-03 5.87825179e-02 2.49460349e-02 4.98746056e-03 2.49460349e-02 -1.03228725e-01
7.34404419e-02 -1.42394260e-02 -2.54470843e-03 -1.42394260e-02 4.45235688e-02 3.23245116e-02 -2.54470843e-03 3.23245116e-02 -1.00092601e-01
3.20934737e-02 7.72656314e-03 -1.38015547e-02 7.72656314e-03 1.77069111e-02 1.33090336e-02 -1.38015547e-02 1.33090336e-02 -3.80704105e-02
2.23355813e-02 -1.21713744e-02 -9.72543238e-03 -1.21713744e-02 3.35135777e-02 1.26524139e-02 -9.72543238e-03 1.26524139e-02 -4.35365699e-02
-6.54720736e-03 -2.23441914e-02 -8.41591944e-04 -2.23441914e-02 5.12225166e-03 4.26834871e-04 -8.41591944e-04 4.26834871e-04 3.65691998e-03
-3.45095699e-04 -5.04281925e-05 -6.19115272e-05 -5.04281925e-05 1.35964176e-04 1.95609509e-05 -6.19115272e-05 1.95609509e-05 2.31237054e-04
-9.29013841e-05 7.38202798e-05 -4.19803882e-07 7.38202798e-05 4.99351245e-06 -7.27026782e-06 -4.19803882e-07 -7.27026782e-06 3.50702721e-05
</DataArray>
<DataArray type="Float32" Name="Plastic_strain_components" NumberOfComponents="9" format="ascii">
1.97806639e-02 -5.07115974e-03 1.64179543e-03 -5.07115974e-03 1.74637100e-02 5.14872165e-03 1.64179543e-03 5.14872165e-03 -3.12226638e-02
1.75264739e-02 -7.78909591e-03 1.09437837e-03 -7.78909591e-03 1.80334381e-02 8.73497743e-03 1.09437837e-03 8.73497743e-03 -2.81712001e-02
2.69433558e-02 -7.75328022e-04 3.65189282e-03 -7.75328022e-04 3.42530883e-02 -1.94512753e-03 3.65189282e-03 -1.94512753e-03 -5.24682868e-02
2.01272834e-02 -4.77541849e-04 -2.23465597e-03 -4.77541849e-04 2.43575624e-02 -2.80161912e-04 -2.23465597e-03 -2.80161912e-04 -3.74693843e-02
1.27787936e-02 2.27321951e-03 1.03426012e-02 2.27321951e-03 1.64229067e-02 9.08622758e-04 1.03426012e-02 9.08622758e-04 -2.15976411e-02
1.93985329e-02 -5.70715031e-03 -5.82971474e-03 -5.70715031e-03 2.86195019e-02 1.35795515e-02 -5.82971474e-03 1.35795515e-02 -3.88015232e-02
3.70850237e-02 -7.25526828e-04 -1.09609077e-03 -7.25526828e-04 4.27757194e-02 -1.17742831e-02 -1.09609077e-03 -1.17742831e-02 -6.76407134e-02
2.84042959e-02 1.21198260e-02 8.84154659e-03 1.21198260e-02 3.51102278e-02 1.30783138e-02 8.84154659e-03 1.30783138e-02 -5.48093934e-02
3.15551162e-02 5.71899698e-04 -1.25427822e-02 5.71899698e-04 3.34401238e-02 1.65854769e-02 -1.25427822e-02 1.65854769e-02 -5.62256668e-02
3.91546767e-02 1.60908734e-03 -4.18781186e-03 1.60908734e-03 4.33518048e-02 1.71768186e-02 -4.18781186e-03 1.71768186e-02 -6.90949336e-02
4.67645389e-02 1.83858937e-02 -6.60962984e-02 1.83858937e-02 4.85599972e-02 -6.21901980e-03 -6.60962984e-02 -6.21901980e-03 -8.06768189e-02
5.89647461e-02 2.20948588e-02 -5.03282044e-02 2.20948588e-02 3.58860642e-02 -8.99976242e-03 -5.03282044e-02 -8.99976242e-03 -7.84769021e-02
0.00000000e+00 0.00000000e+00 0.00000000e+00 0.00000000e+00 0.00000000e+00 0.00000000e+00 0.00000000e+00 0.00000000e+00 0.00000000e+00
0.00000000e+00 0.00000000e+00 0.00000000e+00 0.00000000e+00 0.00000000e+00 0.00000000e+00 0.00000000e+00 0.00000000e+00 0.00000000e+00
0.00000000e+00 0.00000000e+00 0.00000000e+00 0.00000000e+00 0.00000000e+00 0.00000000e+00 0.00000000e+00 0.00000000e+00 0.00000000e+00
0.00000000e+00 0.00000000e+00 0.00000000e+00 0.00000000e+00 0.00000000e+00 0.00000000e+00 0.00000000e+00 0.00000000e+00 0.00000000e+00
0.00000000e+00 0.00000000e+00 0.00000000e+00 0.00000000e+00 0.00000000e+00 0.00000000e+00 0.00000000e+00 0.00000000e+00 0.00000000e+00
0.00000000e+00 0.00000000e+00 0.00000000e+00 0.00000000e+00 0.00000000e+00 0.00000000e+00 0.00000000e+00 0.00000000e+00 0.00000000e+00
0.00000000e+00 0.00000000e+00 0.00000000e+00 0.00000000e+00 0.00000000e+00 0.00000000e+00 0.00000000e+00 0.00000000e+00 0.00000000e+00
0.00000000e+00 0.00000000e+00 0.00000000e+00 0.00000000e+00 0.00000000e+00 0.00000000e+00 0.00000000e+00 0.00000000e+00 0.00000000e+00
3.20109390e-02 6.39777318e-06 8.27097381e-03 6.39777318e-06 3.34117394e-02 -1.86128775e-03 8.27097381e-03 -1.86128775e-03 -5.50846439e-02
3.28222625e-02 9.98410862e-04 5.74448984e-03 9.98410862e-04 3.20647345e-02 1.72062484e-03 5.74448984e-03 1.72062484e-03 -5.46284765e-02
3.15903353e-02 -7.12432536e-03 9.39915866e-03 -7.12432536e-03 3.24328844e-02 2.52204902e-03 9.39915866e-03 2.52204902e-03 -5.38462545e-02
3.04762097e-02 9.39521255e-04 8.45287688e-03 9.39521255e-04 3.41647333e-02 -4.35692666e-03 8.45287688e-03 -4.35692666e-03 -5.44073042e-02
4.17664945e-02 -2.15704131e-06 8.05598125e-03 -2.15704131e-06 3.04484088e-02 -2.02547461e-04 8.05598125e-03 -2.02547461e-04 -6.07607607e-02
4.04463466e-02 8.46898009e-04 2.36119732e-03 8.46898009e-04 3.21871364e-02 6.98938227e-03 2.36119732e-03 6.98938227e-03 -6.11226186e-02
4.12677769e-02 1.84465894e-03 1.15097457e-02 1.84465894e-03 3.29281446e-02 3.49396600e-03 1.15097457e-02 3.49396600e-03 -6.23850254e-02
4.24765917e-02 1.79492880e-03 1.16796833e-02 1.79492880e-03 3.31320977e-02 -5.91581035e-03 1.16796833e-02 -5.91581035e-03 -6.35756375e-02
3.54485447e-02 -7.57684803e-03 8.17390531e-03 -7.57684803e-03 2.75006182e-02 6.24797651e-04 8.17390531e-03 6.24797651e-04 -5.29477131e-02
3.47379725e-02 -1.00135759e-02 8.05684214e-03 -1.00135759e-02 3.06955366e-02 3.16867106e-03 8.05684214e-03 3.16867106e-03 -5.49900625e-02
3.76694007e-02 1.85129044e-03 -6.09140145e-04 1.85129044e-03 3.20662037e-02 4.09883285e-03 -6.09140145e-04 4.09883285e-03 -5.87184140e-02
3.76169528e-02 2.52342486e-03 8.52147624e-03 2.52342486e-03 3.50613347e-02 9.93520441e-03 8.52147624e-03 9.93520441e-03 -6.11723536e-02
3.79625140e-02 5.98482409e-04 2.89201905e-03 5.98482409e-04 2.44598379e-02 4.43946196e-03 2.89201905e-03 4.43946196e-03 -5.24790734e-02
3.79169127e-02 -4.60128119e-03 -4.28432153e-03 -4.60128119e-03 3.02197058e-02 -3.57668435e-03 -4.28432153e-03 -3.57668435e-03 -5.73005048e-02
3.58383209e-02 -3.36725410e-03 1.28685559e-04 -3.36725410e-03 2.89341789e-02 4.13517217e-03 1.28685559e-04 4.13517217e-03 -5.45335999e-02
3.49052576e-02 -3.46453652e-03 -4.59990348e-03 -3.46453652e-03 3.22518395e-02 3.27012373e-03 -4.59990348e-03 3.27012373e-03 -5.64990356e-02
3.87598341e-02 1.70125411e-03 -4.18612815e-03 1.70125411e-03 2.31350185e-02 -8.83472647e-04 -4.18612815e-03 -8.83472647e-04 -5.20215165e-02
3.81410595e-02 1.94002292e-03 -5.25394188e-03 1.94002292e-03 3.50507407e-02 -8.20292917e-05 -5.25394188e-03 -8.20292917e-05 -6.15771697e-02
3.40930372e-02 -1.24754437e-03 -5.81368757e-03 -1.24754437e-03 2.56833704e-02 3.15652901e-03 -5.81368757e-03 3.15652901e-03 -5.03135249e-02
3.36202709e-02 -6.85059204e-03 -8.74954538e-03 -6.85059204e-03 2.72375150e-02 -4.25547246e-03 -8.74954538e-03 -4.25547246e-03 -5.11564310e-02
3.57881375e-02 1.27133902e-03 2.58487905e-03 1.27133902e-03 2.41339239e-02 -3.59222658e-03 2.58487905e-03 -3.59222658e-03 -5.04063973e-02
3.75956236e-02 1.38128200e-03 2.77123283e-04 1.38128200e-03 3.38969734e-02 1.92087979e-03 2.77123283e-04 1.92087979e-03 -6.01939033e-02
2.93851132e-02 -1.23277750e-05 -1.03948300e-02 -1.23277750e-05 2.37070667e-02 -9.51594266e-05 -1.03948300e-02 -9.51594266e-05 -4.46616150e-02
3.10846444e-02 -2.01405042e-03 -7.57268178e-03 -2.01405042e-03 2.95440669e-02 -3.81256244e-03 -7.57268178e-03 -3.81256244e-03 -5.09967036e-02
3.38872056e-02 1.20751373e-03 3.06181167e-03 1.20751373e-03 2.31866101e-02 -3.81279690e-03 3.06181167e-03 -3.81279690e-03 -4.79844492e-02
3.45825395e-02 -4.84588330e-04 -9.64955805e-04 -4.84588330e-04 3.26903136e-02 -3.14981514e-03 -9.64955805e-04 -3.14981514e-03 -5.66284424e-02
2.65804408e-02 8.50977562e-03 -8.11092416e-03 8.50977562e-03 2.28213426e-02 -5.61882707e-03 -8.11092416e-03 -5.61882707e-03 -4.15415913e-02
3.01779467e-02 3.11057839e-03 -5.04260277e-03 3.11057839e-03 2.76714941e-02 -3.46659502e-03 -5.04260277e-03 -3.46659502e-03 -4.86375391e-02
2.77789745e-02 -1.19040928e-02 2.23603880e-02 -1.19040928e-02 3.55591448e-02 -1.73406443e-05 2.23603880e-02 -1.73406443e-05 -5.28745456e-02
2.34645717e-02 -8.99611320e-03 1.61286020e-02 -8.99611320e-03 3.80125586e-02 -2.52670026e-03 1.61286020e-02 -2.52670026e-03 -5.15588038e-02
4.46312577e-02 -6.91056404e-04 2.84098478e-02 -6.91056404e-04 3.63749808e-02 7.52627855e-03 2.84098478e-02 7.52627855e-03 -6.79109972e-02
4.22604000e-02 -2.97934726e-04 2.36493309e-02 -2.97934726e-04 3.59475333e-02 -1.95096750e-03 2.36493309e-02 -1.95096750e-03 -6.56314632e-02
3.76422432e-02 -1.89004155e-03 1.52591484e-02 -1.89004155e-03 3.46986912e-02 -3.98823206e-03 1.52591484e-02 -3.98823206e-03 -6.12679379e-02
4.00019274e-02 7.56655302e-03 7.87227586e-03 7.56655302e-03 3.73580316e-02 -6.44691446e-03 7.87227586e-03 -6.44691446e-03 -6.49168221e-02
4.59166236e-02 -9.44708696e-03 -4.22938637e-02 -9.44708696e-03 4.23254762e-02 -3.35801113e-04 -4.22938637e-02 -3.35801113e-04 -7.30217040e-02
3.29566489e-02 5.23030240e-03 -2.98776319e-02 5.23030240e-03 3.48607693e-02 -6.69154924e-03 -2.98776319e-02 -6.69154924e-03 -5.76130774e-02
4.48662508e-02 -5.04273339e-04 -1.23020082e-02 -5.04273339e-04 5.07826870e-02 9.57352934e-03 -1.23020082e-02 9.57352934e-03 -8.05030093e-02
3.60911559e-02 -4.43769158e-03 -3.98285398e-02 -4.43769158e-03 2.86020497e-02 6.37536435e-03 -3.98285398e-02 6.37536435e-03 -5.33448882e-02
4.37137550e-02 -2.67093992e-03 -2.08199851e-03 -2.67093992e-03 4.71223593e-02 7.74200741e-03 -2.08199851e-03 7.74200741e-03 -7.64832608e-02
3.74584468e-02 1.96717813e-03 -1.49627535e-02 1.96717813e-03 4.15865202e-02 -4.82273463e-04 -1.49627535e-02 -4.82273463e-04 -6.65470213e-02
3.93005218e-02 -2.44480572e-04 -3.55890137e-03 -2.44480572e-04 4.65887636e-02 2.91676953e-03 -3.55890137e-03 2.91676953e-03 -7.23052584e-02
3.58726345e-02 -6.23040512e-04 -1.44099621e-02 -6.23040512e-04 4.11312878e-02 -1.18343655e-02 -1.44099621e-02 -1.18343655e-02 -6.46787621e-02
2.34756053e-02 -6.95362068e-03 2.78416215e-02 -6.95362068e-03 3.46532605e-02 6.37013000e-04 2.78416215e-02 6.37013000e-04 -4.83131611e-02
1.87468478e-02 2.20314879e-03 2.24370845e-02 2.20314879e-03 3.39830983e-02 4.52057098e-03 2.24370845e-02 4.52057098e-03 -4.40526800e-02
4.72662848e-02 -3.60951398e-03 3.21666234e-02 -3.60951398e-03 3.77256178e-02 -8.58832789e-03 3.21666234e-02 -8.58832789e-03 -7.12951688e-02
3.59458844e-02 2.12481385e-03 3.41709303e-02 2.12481385e-03 3.72861186e-02 -1.24742079e-02 3.41709303e-02 -1.24742079e-02 -6.11609798e-02
3.54184632e-02 -1.79286932e-02 4.10085646e-02 -1.79286932e-02 4.58818926e-02 -4.41415673e-02 4.10085646e-02 -4.41415673e-02 -6.64332472e-02
5.45819417e-02 -8.58553778e-04 7.73413088e-03 -8.58553778e-04 3.97257745e-02 -3.35015617e-02 7.73413088e-03 -3.35015617e-02 -7.97727570e-02
-1.39117846e-02 -7.01229200e-02 -1.49499521e-01 -7.01229200e-02 -1.28560001e-04 -9.97974351e-02 -1.49499521e-01 -9.97974351e-02 2.36801170e-02
1.07916190e-02 -2.87928805e-03 -8.73638317e-03 -2.87928805e-03 7.78458888e-03 -1.85624411e-02 -8.73638317e-03 -1.85624411e-02 -9.03282066e-03
1.85726391e-02 -2.09827241e-03 1.16794168e-02 -2.09827241e-03 2.50658603e-02 1.58638445e-02 1.16794168e-02 1.58638445e-02 -3.64164151e-02
1.72528333e-02 -5.02038340e-03 1.83772853e-02 -5.02038340e-03 2.62382836e-02 2.60826637e-03 1.83772853e-02 2.60826637e-03 -3.62235736e-02
1.81439831e-02 -3.59615714e-03 2.39032765e-02 -3.59615714e-03 2.24386708e-02 1.46992165e-02 2.39032765e-02 1.46992165e-02 -2.90413356e-02
2.04127096e-02 -2.74286309e-03 9.40319913e-03 -2.74286309e-03 2.70472097e-02 6.41292171e-03 9.40319913e-03 6.41292171e-03 -3.56662236e-02
2.02850779e-02 4.62840009e-03 -8.40855530e-04 4.62840009e-03 2.65861545e-02 2.21193145e-03 -8.40855530e-04 2.21193145e-03 -3.97336977e-02
4.27111949e-02 9.81665961e-03 -1.06353858e-02 9.81665961e-03 4.95046579e-02 2.70701251e-02 -1.06353858e-02 2.70701251e-02 -7.98078100e-02
3.10264090e-02 1.02666970e-02 7.64869829e-03 1.02666970e-02 4.50967946e-02 8.46923864e-03 7.64869829e-03 8.46923864e-03 -6.34951554e-02
2.13654584e-02 2.45882209e-03 9.75179370e-03 2.45882209e-03 3.06066917e-02 4.86105173e-02 9.75179370e-03 4.86105173e-02 -4.20018584e-02
6.14691898e-02 -8.19422700e-03 5.25690280e-02 -8.19422700e-03 5.11415079e-02 2.35296907e-02 5.25690280e-02 2.35296907e-02 -9.51383486e-02
3.47856294e-02 -1.05298265e-02 -2.53159162e-02 -1.05298265e-02 5.12641992e-02 -1.45165265e-02 -2.53159162e-02 -1.45165265e-02 -7.17815310e-02
2.08247434e-02 -1.50720245e-03 7.60947959e-03 -1.50720245e-03 3.01645054e-02 8.67926423e-03 7.60947959e-03 8.67926423e-03 -4.26341165e-02
2.52770973e-02 1.17565346e-02 -4.28455736e-03 1.17565346e-02 2.71846255e-02 4.06095874e-03 -4.28455736e-03 4.06095874e-03 -3.88048138e-02
3.53085557e-02 -8.15683557e-03 1.52237560e-02 -8.15683557e-03 5.36012035e-02 -1.24370814e-02 1.52237560e-02 -1.24370814e-02 -7.55814463e-02
4.73374757e-02 -1.21625520e-02 -3.19780703e-02 -1.21625520e-02 5.13523752e-02 3.88878330e-02 -3.19780703e-02 3.88878330e-02 -8.29088725e-02
2.91440866e-02 2.79907178e-02 1.03747317e-03 2.79907178e-02 5.21348752e-02 -8.50715165e-02 1.03747317e-03 -8.50715165e-02 -6.57607044e-02
5.05924175e-02 -3.67435925e-03 -9.72833430e-03 -3.67435925e-03 3.02628428e-02 -1.90887464e-02 -9.72833430e-03 -1.90887464e-02 -6.74631273e-02
5.19440696e-02 5.40706969e-06 2.69882975e-03 5.40706969e-06 3.08106393e-02 -2.67638417e-03 2.69882975e-03 -2.67638417e-03 -6.95326030e-02
4.81990715e-02 2.67682405e-03 3.49191792e-03 2.67682405e-03 3.36691393e-02 3.75869776e-03 3.49191792e-03 3.75869776e-03 -6.88546244e-02
4.99276561e-02 9.89893399e-03 6.64974959e-03 9.89893399e-03 3.51424783e-02 4.25429644e-03 6.64974959e-03 4.25429644e-03 -7.15117566e-02
5.47399605e-02 2.35912483e-03 8.12342210e-03 2.35912483e-03 3.26539055e-02 -1.88985161e-03 8.12342210e-03 -1.88985161e-03 -7.34204948e-02
3.94639792e-02 6.40233571e-03 -5.54091719e-04 6.40233571e-03 3.86808859e-02 6.52586174e-03 -5.54091719e-04 6.52586174e-03 -6.57773372e-02
3.96114173e-02 1.34906680e-02 3.07346413e-03 1.34906680e-02 3.89525611e-02 4.72091493e-03 3.07346413e-03 4.72091493e-03 -6.60569821e-02
3.20901843e-02 4.21244407e-03 -2.58227263e-03 4.21244407e-03 3.96131305e-02 1.90066942e-03 -2.58227263e-03 1.90066942e-03 -6.03722446e-02
2.95886865e-02 7.01876870e-03 -8.75294994e-04 7.01876870e-03 3.97267868e-02 6.27710943e-03 -8.75294994e-04 6.27710943e-03 -5.82521162e-02
2.78118271e-02 -2.60486605e-03 -1.55880244e-03 -2.60486605e-03 3.66555704e-02 4.28645813e-04 -1.55880244e-03 4.28645813e-04 -5.42745683e-02
2.47802669e-02 -2.94235801e-03 -2.60005775e-03 -2.94235801e-03 3.55813731e-02 1.17672693e-03 -2.60005775e-03 1.17672693e-03 -5.08157765e-02
2.45297006e-02 -3.70550534e-03 -4.05356952e-03 -3.70550534e-03 3.39384265e-02 2.76832094e-04 -4.05356952e-03 2.76832094e-04 -4.92059188e-02
2.45578641e-02 -6.20559434e-03 -7.05260452e-03 -6.20559434e-03 2.95423712e-02 -1.39777425e-03 -7.05260452e-03 -1.39777425e-03 -4.54345383e-02
2.18452867e-02 9.89819586e-04 -1.69402454e-03 9.89819586e-04 3.56699787e-02 1.57896825e-03 -1.69402454e-03 1.57896825e-03 -4.83757220e-02
2.46470082e-02 -5.65131073e-03 -2.83163390e-03 -5.65131073e-03 2.98393932e-02 -6.69058959e-03 -2.83163390e-03 -6.69058959e-03 -4.57195528e-02
5.10658080e-02 1.27282853e-02 1.62364119e-02 1.27282853e-02 2.97724409e-02 3.19188845e-03 1.62364119e-02 3.19188845e-03 -6.53617480e-02
6.67868601e-02 7.44238566e-03 2.58674035e-02 7.44238566e-03 4.13236888e-02 -7.76191684e-03 2.58674035e-02 -7.76191684e-03 -9.21439547e-02
3.75425716e-02 1.46348304e-02 4.66854428e-04 1.46348304e-02 3.10032835e-02 1.97599984e-03 4.66854428e-04 1.97599984e-03 -5.58379909e-02
2.58458715e-02 1.22468393e-02 -1.32050152e-02 1.22468393e-02 2.82563795e-02 -1.97045607e-03 -1.32050152e-02 -1.97045607e-03 -4.53125495e-02
1.63409823e-02 4.81057579e-04 -1.58450686e-02 4.81057579e-04 2.53893019e-02 -9.38302313e-04 -1.58450686e-02 -9.38302313e-04 -3.51006288e-02
1.49332460e-02 -7.69477058e-03 -2.04671513e-02 -7.69477058e-03 2.42465132e-02 -6.98648963e-03 -2.04671513e-02 -6.98648963e-03 -3.27987798e-02
1.74312855e-02 -1.31968508e-02 -2.31238979e-02 -1.31968508e-02 2.13340873e-02 -1.31794888e-02 -2.31238979e-02 -1.31794888e-02 -3.22973821e-02
6.97110655e-02 -1.86519340e-03 5.04077906e-02 -1.86519340e-03 3.45489802e-02 -1.21348420e-02 5.04077906e-02 -1.21348420e-02 -8.73597699e-02
6.56229096e-02 -1.23331730e-02 4.68710170e-02 -1.23331730e-02 3.68057601e-02 -1.59695294e-02 4.68710170e-02 -1.59695294e-02 -8.47379093e-02
5.44608148e-02 1.37074066e-02 4.24619101e-03 1.37074066e-02 2.60304511e-02 -2.65434785e-02 4.24619101e-03 -2.65434785e-02 -6.82893184e-02
1.69297056e-02 1.17288663e-02 -2.14450976e-02 1.17288663e-02 7.88148151e-03 -7.63634379e-03 -2.14450976e-02 -7.63634379e-03 -1.93817603e-02
6.02344889e-03 -4.10913825e-02 -6.38585612e-02 -4.10913825e-02 -2.09155194e-02 -5.65409251e-02 -6.38585612e-02 -5.65409251e-02 1.98754799e-02
-1.08687563e-03 2.87978308e-03 -2.59096271e-03 2.87978308e-03 2.52539514e-03 -2.01584633e-03 -2.59096271e-03 -2.01584633e-03 9.42071428e-04
7.30465706e-02 1.36660197e-03 -6.55693747e-03 1.36660197e-03 5.94479018e-02 4.15350413e-02 -6.55693747e-03 4.15350413e-02 -1.12934876e-01
7.34292082e-02 1.01322494e-02 -3.02093216e-02 1.01322494e-02 6.85328158e-02 3.16882258e-02 -3.02093216e-02 3.16882258e-02 -1.22243002e-01
6.80119693e-02 -8.06735898e-03 1.21194879e-02 -8.06735898e-03 3.81069724e-02 -3.61870276e-02 1.21194879e-02 -3.61870276e-02 -8.87832195e-02
4.63837056e-02 -2.46718665e-03 -1.01680585e-02 -2.46718665e-03 5.85781126e-02 1.79237553e-02 -1.01680585e-02 1.79237553e-02 -8.38085947e-02
4.77185124e-02 -3.42485809e-03 1.01876317e-02 -3.42485809e-03 5.73170935e-02 -2.29922490e-03 1.01876317e-02 -2.29922490e-03 -8.39372235e-02
6.74764151e-02 -4.66801575e-03 7.57035054e-03 -4.66801575e-03 5.94935613e-02 1.98953664e-02 7.57035054e-03 1.98953664e-02 -1.08119920e-01
6.16093520e-02 2.70588091e-03 1.24123493e-02 2.70588091e-03 5.57487924e-02 -1.07710371e-02 1.24123493e-02 -1.07710371e-02 -9.85821150e-02
6.20404668e-02 1.67964861e-02 -8.69499543e-03 1.67964861e-02 6.12142514e-02 -2.13347971e-02 -8.69499543e-03 -2.13347971e-02 -1.04263542e-01
6.99177142e-02 -1.01384677e-02 -1.62204711e-02 -1.01384677e-02 4.32822034e-02 3.24582485e-02 -1.62204711e-02 3.24582485e-02 -9.49244332e-02
4.26918638e-02 9.03076434e-03 4.67897319e-03 9.03076434e-03 1.67407416e-02 -9.75245936e-03 4.67897319e-03 -9.75245936e-03 -4.83866729e-02
3.03566561e-02 -1.62868334e-02 7.99624948e-04 -1.62868334e-02 2.61704896e-02 1.69855217e-03 7.99624948e-04 1.69855217e-03 -4.58708927e-02
-2.17443053e-02 2.59770695e-02 1.89682264e-02 2.59770695e-02 -9.24256630e-03 -1.89656205e-02 1.89682264e-02 -1.89656205e-02 3.60838473e-02
-3.85530270e-03 -6.69537578e-03 7.93801807e-03 -6.69537578e-03 -5.94224734e-03 -5.77546051e-03 7.93801807e-03 -5.77546051e-03 1.56331565e-02
8.86313076e-03 -2.34609194e-02 -7.60248617e-03 -2.34609194e-02 -1.29652579e-02 2.39475905e-02 -7.60248617e-03 2.39475905e-02 7.15868766e-03
-3.28495344e-03 -1.82871524e-02 5.97032267e-04 -1.82871524e-02 3.69739886e-03 -2.42870980e-02 5.97032267e-04 -2.42870980e-02 3.69703646e-03
0.00000000e+00 0.00000000e+00 0.00000000e+00 0.00000000e+00 0.00000000e+00 0.00000000e+00 0.00000000e+00 0.00000000e+00 0.00000000e+00
0.00000000e+00 0.00000000e+00 0.00000000e+00 0.00000000e+00 0.00000000e+00 0.00000000e+00 0.00000000e+00 0.00000000e+00 0.00000000e+00
0.00000000e+00 0.00000000e+00 0.00000000e+00 0.00000000e+00 0.00000000e+00 0.00000000e+00 0.00000000e+00 0.00000000e+00 0.00000000e+00
0.00000000e+00 0.00000000e+00 0.00000000e+00 0.00000000e+00 0.00000000e+00 0.00000000e+00 0.00000000e+00 0.00000000e+00 0.00000000e+00
1.93801081e-05 -2.88118801e-05 -2.40013038e-05 -2.88118801e-05 -4.03564470e-05 -3.64122308e-05 -2.40013038e-05 -3.64122308e-05 9.39538459e-06
0.00000000e+00 0.00000000e+00 0.00000000e+00 0.00000000e+00 0.00000000e+00 0.00000000e+00 0.00000000e+00 0.00000000e+00 0.00000000e+00
0.00000000e+00 0.00000000e+00 0.00000000e+00 0.00000000e+00 0.00000000e+00 0.00000000e+00 0.00000000e+00 0.00000000e+00 0.00000000e+00
-3.15382155e-05 -1.54253580e-04 1.33740359e-05 -1.54253580e-04 8.16585513e-06 4.39913886e-06 1.33740359e-05 4.39913886e-06 3.41887401e-05
5.57220466e-02 4.97777364e-07 1.70111889e-06 4.97777364e-07 3.25923860e-02 3.91388312e-07 1.70111889e-06 3.91388312e-07 -7.42028952e-02
5.06101567e-02 5.11388597e-03 -6.37859921e-06 5.11388597e-03 3.57115325e-02 3.42953717e-03 -6.37859921e-06 3.42953717e-03 -7.26083890e-02
5.46712903e-02 1.45143624e-02 3.27478355e-03 1.45143624e-02 3.37382490e-02 5.83032728e-03 3.27478355e-03 5.83032728e-03 -7.42194355e-02
6.07554261e-02 4.26179846e-03 1.42192876e-03 4.26179846e-03 3.10016200e-02 -1.77876973e-06 1.42192876e-03 -1.77876973e-06 -7.69929141e-02
3.96783892e-02 4.40667523e-03 -1.87170044e-05 4.40667523e-03 4.20510806e-02 7.41947908e-03 -1.87170044e-05 7.41947908e-03 -6.87917173e-02
4.09006765e-02 1.76123717e-02 3.81282042e-03 1.76123717e-02 3.96628371e-02 5.39264979e-03 3.81282042e-03 5.39264979e-03 -6.76912945e-02
2.97000222e-02 6.50374754e-03 -1.65051697e-05 6.50374754e-03 4.52257544e-02 5.05234348e-03 -1.65051697e-05 5.05234348e-03 -6.29892368e-02
2.88592223e-02 1.13962889e-02 4.87955823e-03 1.13962889e-02 4.20542164e-02 7.25877681e-03 4.87955823e-03 7.25877681e-03 -5.95038142e-02
2.39539780e-02 1.81181519e-03 -1.58122566e-06 1.81181519e-03 4.38239314e-02 1.46575226e-03 -1.58122566e-06 1.46575226e-03 -5.69254141e-02
2.22939146e-02 2.64457410e-03 8.80751666e-03 2.64457410e-03 4.06214753e-02 6.03967416e-03 8.80751666e-03 6.03967416e-03 -5.29451147e-02
2.33855443e-02 -3.33949947e-03 -4.43457066e-06 -3.33949947e-03 4.05794997e-02 5.22248389e-04 -4.43457066e-06 5.22248389e-04 -5.37523869e-02
1.94749001e-02 -5.69400820e-03 9.84961353e-03 -5.69400820e-03 3.80102219e-02 8.59728490e-04 9.84961353e-03 8.59728490e-04 -4.86528389e-02
2.17278674e-02 -1.31541658e-02 1.65046731e-05 -1.31541658e-02 4.38937061e-02 4.97714616e-03 1.65046731e-05 4.97714616e-03 -5.50170653e-02
1.92580149e-02 -9.34797572e-03 1.31114926e-02 -9.34797572e-03 3.81663479e-02 -9.55399126e-03 1.31114926e-02 -9.55399126e-03 -4.83912565e-02
6.53281491e-02 2.06704473e-02 -5.32398146e-03 2.06704473e-02 4.52103363e-02 1.07387668e-02 -5.32398146e-03 1.07387668e-02 -9.44466516e-02
6.48185574e-02 3.64763511e-03 -4.43324528e-03 3.64763511e-03 4.34057005e-02 -2.06515084e-04 -4.43324528e-03 -2.06515084e-04 -9.01474431e-02
3.96961975e-02 3.00748013e-02 -1.52227893e-04 3.00748013e-02 3.39086433e-02 1.28367781e-02 -1.52227893e-04 1.28367781e-02 -6.09665411e-02
2.50181104e-02 1.89473395e-02 7.05266511e-03 1.89473395e-02 3.03784101e-02 9.83635429e-03 7.05266511e-03 9.83635429e-03 -4.71593374e-02
1.06668511e-02 -9.68558379e-04 8.04248429e-03 -9.68558379e-04 2.06229526e-02 7.32641015e-03 8.04248429e-03 7.32641015e-03 -2.60663782e-02
4.52268007e-03 -4.63960087e-03 8.39095842e-03 -4.63960087e-03 1.07422263e-02 -8.01182148e-04 8.39095842e-03 -8.01182148e-04 -1.12326910e-02
8.22299579e-03 -8.55471275e-03 5.40457619e-03 -8.55471275e-03 6.56876946e-03 -6.75169006e-03 5.40457619e-03 -6.75169006e-03 -1.09517090e-02
7.03271106e-02 -2.19982897e-03 2.82367840e-02 -2.19982897e-03 6.09421823e-02 1.66375171e-02 2.82367840e-02 1.66375171e-02 -1.09666131e-01
8.36299583e-02 -5.37654618e-03 2.25033965e-02 -5.37654618e-03 7.32981861e-02 1.26325758e-04 2.25033965e-02 1.26325758e-04 -1.32604927e-01
4.72865216e-02 1.84091036e-02 9.60806167e-03 1.84091036e-02 2.84941743e-02 2.24415219e-02 9.60806167e-03 2.24415219e-02 -6.51522316e-02
-2.82358960e-04 -1.41940173e-03 3.18652342e-03 -1.41940173e-03 4.44196633e-03 6.43560910e-03 3.18652342e-03 6.43560910e-03 3.04781133e-04
-1.07532241e-03 -4.18975252e-03 1.81734064e-03 -4.18975252e-03 -1.13768911e-04 2.99853167e-04 1.81734064e-03 2.99853167e-04 2.15502315e-03
-1.60108410e-03 -3.55817315e-03 -9.14345616e-03 -3.55817315e-03 4.80042036e-03 -5.19622454e-04 -9.14345616e-03 -5.19622454e-04 -2.18119823e-03
-1.81145987e-04 -1.69928868e-03 7.97866647e-04 -1.69928868e-03 3.05024024e-04 5.03028481e-04 7.97866647e-04 5.03028481e-04 2.66835933e-04
8.43857124e-04 -9.38871932e-03 -8.33370944e-03 -9.38871932e-03 -7.75184599e-05 -2.18476933e-04 -8.33370944e-03 -2.18476933e-04 4.73248947e-04
1.47173658e-03 -4.73751064e-03 1.42092560e-03 -4.73751064e-03 -2.19616061e-03 2.19005291e-04 1.42092560e-03 2.19005291e-04 1.14018569e-03
1.86746202e-02 -1.74997095e-03 -1.50818578e-02 -1.74997095e-03 -8.90371593e-03 -3.82832852e-02 -1.50818578e-02 -3.82832852e-02 -6.00182242e-03
-1.23710774e-02 -2.61243898e-03 4.21170902e-03 -2.61243898e-03 -1.23184379e-03 8.07616604e-03 4.21170902e-03 8.07616604e-03 1.71334553e-02
3.53744961e-02 1.67892408e-02 -5.51805692e-03 1.67892408e-02 3.81801948e-02 4.74969409e-02 -5.51805692e-03 4.74969409e-02 -6.46509975e-02
1.00451725e-05 -2.89417473e-04 -3.15428657e-04 -2.89417473e-04 2.66442039e-05 3.03572000e-03 -3.15428657e-04 3.03572000e-03 -4.22182972e-05
-8.94246643e-04 -2.19205589e-03 5.92504775e-05 -2.19205589e-03 4.95942021e-04 4.89102620e-05 5.92504775e-05 4.89102620e-05 6.08152542e-04
-1.02920964e-04 6.55768213e-06 -3.69348893e-05 6.55768213e-06 1.36463534e-04 1.33293760e-05 -3.69348893e-05 1.33293760e-05 -4.51283842e-05
-8.23576544e-05 -8.84346851e-06 -6.44349567e-05 -8.84346851e-06 9.86758682e-05 -2.28339031e-05 -6.44349567e-05 -2.28339031e-05 -5.91932888e-05
1.48591571e-04 -7.23869540e-04 4.19171993e-04 -7.23869540e-04 -2.54556566e-04 -7.22198865e-06 4.19171993e-04 -7.22198865e-06 1.86145160e-04
4.03110374e-04 -1.00806146e-03 -8.46128969e-05 -1.00806146e-03 -7.78947200e-04 -2.45284737e-05 -8.46128969e-05 -2.45284737e-05 5.42031077e-04
7.78072476e-02 1.60336960e-02 -1.90419555e-02 1.60336960e-02 1.07883796e-01 -3.61205137e-04 -1.90419555e-02 -3.61205137e-04 -1.54945225e-01
9.57208052e-02 1.21088838e-03 -1.08595518e-02 1.21088838e-03 1.01302519e-01 2.45487541e-02 -1.08595518e-02 2.45487541e-02 -1.64218485e-01
7.55164896e-02 -2.02467102e-02 1.74629564e-02 -2.02467102e-02 8.31314946e-02 2.37334066e-02 1.74629564e-02 2.37334066e-02 -1.35598376e-01
7.80420452e-02 -9.36864503e-03 2.48497268e-02 -9.36864503e-03 9.18666273e-02 7.67320511e-04 2.48497268e-02 7.67320511e-04 -1.45286556e-01
4.35748304e-05 -6.64642926e-05 5.00322130e-07 -6.64642926e-05 -2.89968316e-05 -1.31716666e-05 5.00322130e-07 -1.31716666e-05 -2.74639634e-05
3.46890996e-03 -4.46620868e-03 2.17023187e-04 -4.46620868e-03 -1.85466041e-03 8.70829906e-04 2.17023187e-04 8.70829906e-04 -5.60623354e-04
0.00000000e+00 0.00000000e+00 0.00000000e+00 0.00000000e+00 0.00000000e+00 0.00000000e+00 0.00000000e+00 0.00000000e+00 0.00000000e+00
8.04187879e-02 -2.03288044e-02 1.37055730e-02 -2.03288044e-02 4.99194432e-02 1.61849083e-02 1.37055730e-02 1.61849083e-02 -1.09375406e-01
8.18786174e-02 1.01412367e-03 1.54215600e-02 1.01412367e-03 4.91249040e-02 -1.93837041e-05 1.54215600e-02 -1.93837041e-05 -1.10076711e-01
6.71235807e-02 5.84420748e-03 3.77522199e-03 5.84420748e-03 6.30233604e-02 2.63374662e-02 3.77522199e-03 2.63374662e-02 -1.11744732e-01
7.87311718e-02 -1.71327248e-02 -3.12728016e-03 -1.71327248e-02 4.72151674e-02 3.35174855e-02 -3.12728016e-03 3.35174855e-02 -1.07177641e-01
1.52010196e-02 1.13729914e-02 -9.15553211e-03 1.13729914e-02 4.19973768e-03 7.92333949e-03 -9.15553211e-03 7.92333949e-03 -9.14930552e-03
1.11855392e-04 -3.80466529e-03 -7.61841051e-03 -3.80466529e-03 2.35004697e-02 6.75290212e-03 -7.61841051e-03 6.75290212e-03 -1.35536084e-02
-4.62869066e-03 -1.41213023e-02 -6.36984536e-04 -1.41213023e-02 2.26536379e-03 1.86644014e-03 -6.36984536e-04 1.86644014e-03 4.04961163e-03
-1.88037870e-04 -1.18565455e-04 -5.71206056e-06 -1.18565455e-04 8.80782754e-05 -1.43689676e-05 -5.71206056e-06 -1.43689676e-05 1.31787921e-04
0.00000000e+00 0.00000000e+00 0.00000000e+00 0.00000000e+00 0.00000000e+00 0.00000000e+00 0.00000000e+00 0.00000000e+00 0.00000000e+00
</DataArray>
<DataArray type="Float32" Name="Spatial_displacement" NumberOfComponents="3" format="ascii">
2.20903158e-02 1.40581504e-01 -6.51803017e-02
3.79492044e-02 1.34764999e-01 -5.03910333e-02
3.80980037e-02 1.68643638e-01 -7.52101988e-02
1.81796476e-02 1.63861752e-01 -8.35135728e-02
1.79344863e-02 1.61666200e-01 -9.86518189e-02
4.15633358e-02 1.61197305e-01 -9.54563543e-02
3.42499688e-02 2.05566555e-01 -1.26726672e-01
1.93694979e-02 1.84184536e-01 -1.18348703e-01
6.67672306e-02 1.24991313e-01 -4.03762534e-02
7.23725408e-02 1.63541824e-01 -7.43800178e-02
6.89203292e-02 1.54396474e-01 -1.08038343e-01
1.00032255e-01 1.97643876e-01 -1.68210506e-01
6.75551742e-02 1.24918237e-01 2.27391720e-05
6.75560683e-02 1.27990544e-01 1.05649233e-05
6.44765869e-02 1.27998725e-01 -1.04606152e-05
6.44533113e-02 1.24927163e-01 -1.88052654e-05
6.75572976e-02 1.24953777e-01 9.89437103e-06
6.75451532e-02 1.28038153e-01 1.88350677e-05
6.44635856e-02 1.28023788e-01 -2.10702419e-05
6.44828230e-02 1.24939144e-01 -8.18073750e-06
0.00000000e+00 0.00000000e+00 -1.64419949e-01
3.10070589e-02 0.00000000e+00 -1.66183770e-01
3.20622995e-02 3.34542021e-02 -1.60723686e-01
0.00000000e+00 3.24876569e-02 -1.56579405e-01
0.00000000e+00 0.00000000e+00 -2.20732465e-01
4.25723605e-02 0.00000000e+00 -2.20918089e-01
4.34745550e-02 3.26598957e-02 -2.18687803e-01
0.00000000e+00 3.08156125e-02 -2.13107765e-01
6.84030205e-02 0.00000000e+00 -1.76960111e-01
6.05125763e-02 2.72863023e-02 -1.69199899e-01
8.24020654e-02 0.00000000e+00 -2.27781296e-01
8.43352303e-02 3.41524705e-02 -2.28348687e-01
1.01805843e-01 0.00000000e+00 -1.88642249e-01
1.02437474e-01 2.30345801e-02 -1.85898900e-01
1.22343205e-01 0.00000000e+00 -2.39988059e-01
1.18824318e-01 3.00113633e-02 -2.39858031e-01
1.42122239e-01 0.00000000e+00 -1.99519128e-01
1.43905565e-01 2.44168155e-02 -2.03504324e-01
1.56520873e-01 0.00000000e+00 -2.49725968e-01
1.55202821e-01 2.44391225e-02 -2.55261064e-01
1.82882398e-01 0.00000000e+00 -2.13557482e-01
1.84197009e-01 2.65979022e-02 -2.11092383e-01
1.88489914e-01 0.00000000e+00 -2.55983233e-01
1.88473374e-01 2.26378366e-02 -2.65926480e-01
2.19476998e-01 0.00000000e+00 -2.19331622e-01
2.20727071e-01 2.55411454e-02 -2.16406241e-01
2.13420004e-01 0.00000000e+00 -2.58216232e-01
2.22199574e-01 2.11350471e-02 -2.66009450e-01
2.15327218e-02 6.24584928e-02 -1.44051746e-01
0.00000000e+00 7.18614906e-02 -1.41561463e-01
4.31229360e-02 6.71960637e-02 -1.99532032e-01
0.00000000e+00 6.75107464e-02 -1.97703034e-01
5.80030307e-02 6.22655302e-02 -1.63037151e-01
9.01296511e-02 7.04958215e-02 -2.22981364e-01
9.51051861e-02 6.76022768e-02 -1.95058793e-01
1.24474332e-01 6.56761229e-02 -2.66101241e-01
1.42725021e-01 7.55202323e-02 -2.01887280e-01
1.49628356e-01 5.64927980e-02 -2.78842300e-01
1.84752569e-01 6.91212341e-02 -2.02279419e-01
1.87649906e-01 6.37764037e-02 -2.76400745e-01
2.20638379e-01 6.90364838e-02 -2.06101716e-01
2.23007321e-01 6.22534603e-02 -2.76830196e-01
1.69704109e-02 1.08099759e-01 -1.12101942e-01
0.00000000e+00 1.05762668e-01 -1.16415851e-01
3.90230045e-02 1.06270120e-01 -1.75450817e-01
0.00000000e+00 1.04295887e-01 -1.63714960e-01
5.17077073e-02 9.48696584e-02 -1.37320131e-01
1.01011090e-01 1.10518880e-01 -2.32159510e-01
4.34103906e-02 8.28690380e-02 -3.40692401e-01
1.45563304e-01 9.55592766e-02 -3.06915522e-01
1.64188743e-02 1.32253304e-01 -9.28521827e-02
0.00000000e+00 1.37396440e-01 -9.53548402e-02
2.88200937e-02 1.46038920e-01 -1.30337447e-01
0.00000000e+00 1.48987800e-01 -1.40561655e-01
0.00000000e+00 1.57177031e-01 -1.00395828e-01
2.78302133e-02 1.87650844e-01 -1.39518186e-01
0.00000000e+00 1.76222473e-01 -1.47831306e-01
4.24110331e-02 1.32659420e-01 -6.90579191e-02
7.10994229e-02 1.54014438e-01 -1.52497157e-01
6.98758215e-02 1.78093374e-01 -1.43838644e-01
0.00000000e+00 1.85590521e-01 -1.26921758e-01
4.00263220e-02 2.25507110e-01 -1.88653827e-01
0.00000000e+00 2.34543055e-01 -1.76289678e-01
7.13716149e-02 2.38791853e-01 -1.92760214e-01
9.81145948e-02 1.62569582e-01 -2.38662004e-01
1.50683731e-01 1.90849781e-01 -2.32380971e-01
0.00000000e+00 0.00000000e+00 -2.83649206e-01
5.35081849e-02 0.00000000e+00 -2.86154866e-01
5.63333184e-02 3.38375755e-02 -2.82889813e-01
0.00000000e+00 3.13897058e-02 -2.81120181e-01
9.80121195e-02 0.00000000e+00 -2.89521754e-01
1.04719684e-01 3.97953652e-02 -2.90032387e-01
1.34532124e-01 0.00000000e+00 -2.94879138e-01
1.38917536e-01 4.19637933e-02 -2.97301978e-01
1.66132152e-01 0.00000000e+00 -3.01770151e-01
1.63404480e-01 3.78430597e-02 -3.03243726e-01
1.91804200e-01 0.00000000e+00 -3.04273188e-01
1.87974423e-01 3.30427624e-02 -3.08139086e-01
2.12714940e-01 0.00000000e+00 -3.04859519e-01
2.13728279e-01 3.52291726e-02 -3.06450307e-01
6.58910573e-02 7.38040060e-02 -2.77783662e-01
0.00000000e+00 6.63587898e-02 -2.70336509e-01
1.18018404e-01 8.14566463e-02 -2.92286396e-01
1.50720567e-01 8.01486149e-02 -3.12057227e-01
1.68758869e-01 7.12095127e-02 -3.27403665e-01
1.81418568e-01 6.08586930e-02 -3.36632669e-01
1.96722716e-01 6.25877678e-02 -3.35891634e-01
6.79246634e-02 1.00959875e-01 -2.46582344e-01
0.00000000e+00 1.14120871e-01 -2.31811792e-01
1.33390009e-01 1.04838870e-01 -2.98636764e-01
1.73835456e-01 9.87144858e-02 -3.42676818e-01
1.61353961e-01 4.38874215e-02 -3.84369224e-01
1.84332296e-01 8.69692937e-02 -3.54959488e-01
7.11230934e-02 1.40706316e-01 -1.89848840e-01
0.00000000e+00 1.29938513e-01 -2.16840371e-01
1.45504370e-01 1.35072470e-01 -2.76967287e-01
5.96640632e-02 2.13404328e-01 -2.39218831e-01
0.00000000e+00 2.17705309e-01 -2.38352001e-01
7.07702488e-02 2.84574211e-01 -2.63719410e-01
0.00000000e+00 2.81659991e-01 -2.53996015e-01
1.07498899e-01 1.93410441e-01 -2.43672103e-01
1.61682084e-01 2.46173352e-01 -2.62895674e-01
1.62802666e-01 1.38645470e-01 -3.25392246e-01
2.28162184e-01 1.57452270e-01 -3.05269182e-01
5.64356670e-02 1.18580684e-01 -4.32563603e-01
1.41454682e-01 1.20217517e-01 -3.78632307e-01
2.08024234e-01 8.72516185e-02 -3.56187463e-01
2.21392274e-01 8.86637866e-02 -3.55801284e-01
2.08462402e-01 7.54021257e-02 -3.56066883e-01
2.08377123e-01 6.33461028e-02 -3.56072187e-01
2.20433146e-01 6.32804185e-02 -3.56036007e-01
2.20470220e-01 7.53676891e-02 -3.55981171e-01
2.08418578e-01 7.53840059e-02 -3.56071293e-01
2.08413571e-01 6.33205548e-02 -3.56048942e-01
2.20425755e-01 6.32559210e-02 -3.56046081e-01
2.20582962e-01 7.52210245e-02 -3.55982602e-01
0.00000000e+00 0.00000000e+00 -3.56030762e-01
5.71452864e-02 0.00000000e+00 -3.56030762e-01
6.25476986e-02 3.72796282e-02 -3.56030762e-01
0.00000000e+00 3.28644626e-02 -3.56030762e-01
1.05807252e-01 0.00000000e+00 -3.56030762e-01
1.10427812e-01 4.38336916e-02 -3.56030762e-01
1.39791235e-01 0.00000000e+00 -3.56030762e-01
1.46555722e-01 4.72070090e-02 -3.56030762e-01
1.67660266e-01 0.00000000e+00 -3.56030762e-01
1.69517070e-01 4.70274687e-02 -3.56030762e-01
1.92325920e-01 0.00000000e+00 -3.56030762e-01
1.88883990e-01 4.30247225e-02 -3.56030762e-01
2.17813835e-01 0.00000000e+00 -3.56030762e-01
2.04157948e-01 4.88259606e-02 -3.56030762e-01
7.66801760e-02 6.65872395e-02 -3.56030762e-01
0.00000000e+00 6.25447258e-02 -3.56030762e-01
1.32781565e-01 8.16764086e-02 -3.56030762e-01
1.60227627e-01 8.71159062e-02 -3.56030762e-01
1.76718101e-01 8.01347792e-02 -3.56030762e-01
1.80362925e-01 7.07522631e-02 -3.56030762e-01
1.88398153e-01 6.87478930e-02 -3.56030762e-01
8.65201354e-02 1.32292122e-01 -3.56030762e-01
0.00000000e+00 1.38137817e-01 -3.56030762e-01
1.55376405e-01 1.14113085e-01 -3.56030762e-01
1.84010267e-01 1.03985578e-01 -3.56030762e-01
1.84784427e-01 8.78588036e-02 -3.56030762e-01
1.84772342e-01 7.46388435e-02 -3.56639743e-01
1.85269982e-01 7.52694905e-02 -3.56030762e-01
1.86409056e-01 6.50795177e-02 -3.57151657e-01
1.86667174e-01 6.66558743e-02 -3.56030762e-01
1.96720421e-01 1.00297391e-01 -3.64904284e-01
2.01291502e-01 1.06036022e-01 -3.56030762e-01
1.96245238e-01 1.28937095e-01 -3.56030762e-01
1.96626812e-01 8.68807435e-02 -3.55792165e-01
1.96801454e-01 8.71445984e-02 -3.56030762e-01
1.96456790e-01 7.54986852e-02 -3.56086165e-01
1.96541667e-01 7.53962174e-02 -3.56030762e-01
1.96299046e-01 6.36817738e-02 -3.56022656e-01
1.96206957e-01 6.35167286e-02 -3.56030762e-01
0.00000000e+00 1.08396031e-01 -3.56030762e-01
1.00310147e-01 1.26610801e-01 -3.56030762e-01
8.29221904e-02 2.34586984e-01 -3.56030762e-01
0.00000000e+00 2.44627357e-01 -3.56030762e-01
2.08370388e-01 7.53779411e-02 -3.56030762e-01
2.08463579e-01 8.73089209e-02 -3.56030762e-01
2.08442271e-01 6.33413345e-02 -3.56030762e-01
8.85700956e-02 2.99038291e-01 -3.56030762e-01
0.00000000e+00 2.97917128e-01 -3.56030762e-01
1.34126902e-01 1.98604017e-01 -3.56030762e-01
1.96627423e-01 2.43133098e-01 -3.56030762e-01
1.76476449e-01 1.24543004e-01 -3.56030762e-01
2.41137013e-01 1.47309154e-01 -3.56030762e-01
2.21815869e-01 8.78332406e-02 -3.56030762e-01
2.20602930e-01 7.51588345e-02 -3.56030762e-01
2.20417991e-01 6.32554665e-02 -3.56030762e-01
</DataArray>
<DataArray type="Float32" Name="Spatial_acceleration" NumberOfComponents="3" format="ascii">
2.91665394e-08 -1.16586683e-07 4.76837125e-10
7.23600380e-08 -1.22070304e-07 -3.89416996e-08
8.23140169e-08 -1.33911769e-07 -4.35511254e-08
6.09556849e-08 -1.81992846e-07 4.99089552e-08
5.91079399e-08 -1.59005324e-07 -1.79211295e-08
3.70570596e-08 -2.13986354e-07 -2.17982699e-09
2.70207723e-09 -2.17119847e-07 8.90096032e-08
-1.42256420e-08 -1.77383427e-07 4.59353124e-08
-5.32468158e-09 -1.45557024e-07 3.56038399e-08
7.54992158e-08 -2.99056381e-07 -3.56038399e-08
-1.60853077e-07 -1.37752963e-07 5.08626297e-09
-1.10626218e-07 -3.44157229e-07 3.25520830e-07
2.26173555e-07 -2.12763439e-07 4.22835342e-07
2.88844092e-07 -3.58521930e-07 -5.08834887e-07
-1.33633606e-07 -2.89825095e-07 6.33304296e-07
-4.76837125e-10 -1.95086002e-07 -7.27921702e-07
-3.11960150e-07 -3.79234393e-07 -9.05676416e-07
-3.42383970e-07 5.80487161e-08 8.72264309e-07
1.26908219e-07 -3.41718390e-07 -8.89673800e-07
3.69921338e-08 -7.74345068e-08 6.82949405e-07
0.00000000e+00 0.00000000e+00 3.51587914e-07
-4.28557385e-08 0.00000000e+00 3.48409003e-07
-4.61737315e-08 -6.15616642e-08 3.22341918e-07
0.00000000e+00 -8.42859365e-08 3.01996863e-07
0.00000000e+00 0.00000000e+00 5.28971327e-07
-1.02356076e-07 0.00000000e+00 5.16255682e-07
-8.71817250e-08 -2.13781988e-08 4.55220544e-07
0.00000000e+00 -4.31140244e-08 4.55856309e-07
-1.22666364e-07 0.00000000e+00 4.04357905e-07
-8.66651533e-08 2.91069346e-09 3.95456937e-07
-1.68720874e-07 0.00000000e+00 5.39779649e-07
-1.75933039e-07 -2.86102289e-08 5.11805183e-07
-1.39097367e-07 0.00000000e+00 5.22613504e-07
-1.50601068e-07 1.69674550e-08 4.83830775e-07
-2.58406004e-07 0.00000000e+00 5.71568819e-07
-2.69378233e-07 -3.27477849e-08 6.07172638e-07
-2.02973681e-07 0.00000000e+00 6.00179021e-07
-2.39570937e-07 -2.14179359e-08 6.26246106e-07
-3.10659402e-07 0.00000000e+00 6.30696604e-07
-3.13202548e-07 -1.11262004e-08 7.19388311e-07
-3.26080851e-07 0.00000000e+00 7.17163061e-07
-2.92499863e-07 -1.12180905e-08 6.93480160e-07
-3.11414396e-07 0.00000000e+00 7.23203016e-07
-3.52700539e-07 5.17368299e-08 8.14119971e-07
-3.48567966e-07 0.00000000e+00 7.78198228e-07
-3.47216911e-07 5.64754004e-08 7.14302075e-07
-3.63747262e-07 0.00000000e+00 6.96182269e-07
-3.22540586e-07 1.44263112e-07 8.02993782e-07
1.17619834e-08 -6.96182241e-08 2.46683754e-07
0.00000000e+00 -1.17997324e-07 2.05675761e-07
-1.11103056e-07 -9.84271367e-08 3.36488085e-07
0.00000000e+00 -8.44312211e-08 3.20434566e-07
-4.24157989e-08 -2.09808348e-08 3.30243779e-07
-2.21629932e-07 -9.95794949e-08 5.54084750e-07
-1.64604188e-07 -9.66389990e-08 5.60506180e-07
-2.66188664e-07 -6.54856365e-08 8.12712187e-07
-2.38418579e-07 -1.20560330e-07 5.86827582e-07
-3.57055654e-07 -3.71297197e-08 8.74837269e-07
-3.83734687e-07 -7.44660653e-08 5.62667822e-07
-4.17232513e-07 -4.05311589e-08 8.68479390e-07
-5.47240177e-07 -2.87691755e-08 6.06536844e-07
-4.55056636e-07 3.60806780e-08 7.78198228e-07
4.50724649e-08 -1.80380681e-07 8.62848211e-08
0.00000000e+00 -1.32719677e-07 1.20798745e-07
-5.48589796e-08 -1.70298989e-07 2.46320440e-07
0.00000000e+00 -1.72019000e-07 1.30971273e-07
-1.87555944e-08 -1.19606653e-07 2.54948930e-07
-2.55044313e-07 -1.86983740e-07 6.04248044e-07
-9.13937868e-08 -1.74403183e-07 9.00268560e-07
-3.72727726e-07 -8.32875600e-08 7.42594409e-07
8.13347967e-08 -1.74658638e-07 1.45321799e-08
0.00000000e+00 -1.95115803e-07 -2.57492054e-08
2.16960903e-08 -2.29159994e-07 8.47710524e-09
0.00000000e+00 -1.98562944e-07 9.37779703e-08
0.00000000e+00 -1.24553836e-07 3.52859502e-08
-5.55401733e-08 -2.29199728e-07 3.43322739e-08
0.00000000e+00 -2.79267624e-07 1.20798749e-08
2.38418583e-08 -1.16765499e-07 -2.67028799e-08
-8.02675899e-08 -1.99953718e-07 2.59399400e-07
-1.70326231e-07 -3.25775147e-07 1.71915687e-07
0.00000000e+00 -1.83979665e-07 9.91821310e-08
-1.94708498e-08 -3.92357492e-07 1.84377029e-07
0.00000000e+00 -4.07059986e-07 2.33968095e-07
-1.52985251e-07 -4.01814788e-07 3.97682186e-07
-2.14470759e-07 -2.83771101e-07 5.38296149e-07
-3.38024563e-07 -3.44170473e-07 5.02692330e-07
0.00000000e+00 0.00000000e+00 6.66300423e-07
-1.46071116e-07 0.00000000e+00 7.10805239e-07
-1.52647488e-07 -4.09682599e-08 6.74565626e-07
0.00000000e+00 -5.14984109e-08 7.04447416e-07
-2.52872695e-07 0.00000000e+00 7.06354797e-07
-2.65498954e-07 -3.42130662e-08 7.21931428e-07
-2.88367261e-07 0.00000000e+00 7.22885147e-07
-3.48369269e-07 -8.12609997e-08 7.75655110e-07
-3.55243685e-07 0.00000000e+00 7.69933081e-07
-3.53048250e-07 -6.79890277e-08 8.19206207e-07
-3.66528838e-07 0.00000000e+00 7.80105609e-07
-3.73562159e-07 -2.87691755e-08 8.19524132e-07
-3.99529938e-07 0.00000000e+00 8.04265312e-07
-3.84966540e-07 -1.58945718e-10 8.05854768e-07
-1.83025989e-07 -1.41700113e-07 6.20524077e-07
0.00000000e+00 -1.17142996e-07 5.65210996e-07
-3.04063150e-07 -1.52806436e-07 7.36236586e-07
-3.82423394e-07 -1.10467276e-07 9.14891530e-07
-3.99521412e-07 -8.22884658e-08 9.55490805e-07
-3.90423679e-07 -9.11288822e-09 9.16375086e-07
-3.03692303e-07 1.20162966e-07 9.47740375e-07
-2.67823538e-07 -1.48561270e-07 4.81499569e-07
0.00000000e+00 -2.08748716e-07 3.06871215e-07
-3.90582613e-07 -1.41991507e-07 7.61244053e-07
-5.26295764e-07 -9.13408087e-08 8.83314328e-07
-3.88741483e-07 -1.38044356e-07 1.01312003e-06
-5.18926015e-07 1.32242839e-08 8.46862804e-07
-3.13440950e-07 -2.45730092e-07 1.79290765e-07
0.00000000e+00 -1.98364262e-07 2.61094840e-07
-7.03175829e-07 -2.41597490e-07 8.67207859e-07
-2.10020275e-07 -4.53472154e-07 3.64515529e-07
0.00000000e+00 -4.03722112e-07 4.73022453e-07
-1.57435736e-07 -6.72459578e-07 5.87463376e-07
0.00000000e+00 -6.85532882e-07 5.16891475e-07
-2.87214903e-07 -3.62475703e-07 4.55220544e-07
-4.53313191e-07 -5.76019261e-07 5.55674205e-07
-4.58081558e-07 -2.56578119e-07 7.88370755e-07
-7.75496176e-07 -2.25941335e-07 7.40051235e-07
-3.86873864e-07 8.34465013e-08 1.35739640e-06
-5.22414837e-07 -3.32971410e-07 1.14727015e-06
-6.55174233e-07 -2.09212310e-08 8.51790105e-07
-6.45425587e-07 -4.83194995e-08 9.58336727e-07
-8.43304576e-07 -1.95732976e-08 1.34624929e-06
-1.01236253e-06 -3.08950732e-09 5.21946674e-07
-8.15570331e-07 2.52341238e-07 1.19711956e-06
-7.44320459e-07 4.31003677e-08 6.07802235e-07
-6.29854185e-07 3.72012465e-08 8.25846200e-07
-4.32348088e-07 2.40802773e-08 9.91957108e-07
-7.86488272e-07 -2.65022123e-07 8.15997510e-07
-6.60101591e-07 1.17037033e-07 1.04457808e-06
0.00000000e+00 0.00000000e+00 8.93479239e-07
-9.86059518e-08 0.00000000e+00 8.93479239e-07
-1.82926655e-07 -6.79045939e-08 8.93479239e-07
0.00000000e+00 -7.62939401e-09 8.93479239e-07
-3.10738869e-07 0.00000000e+00 8.93479239e-07
-2.71975978e-07 -9.30627166e-08 8.93479239e-07
-3.64303588e-07 0.00000000e+00 8.93479239e-07
-3.44355897e-07 -1.01010002e-07 8.93479239e-07
-3.23017446e-07 0.00000000e+00 8.93479239e-07
-3.44216829e-07 -8.78969786e-08 8.93479239e-07
-3.66171207e-07 0.00000000e+00 8.93479239e-07
-3.92953552e-07 -7.72476199e-08 8.93479239e-07
-4.23292306e-07 0.00000000e+00 8.93479239e-07
-4.21841946e-07 -4.22795594e-08 8.93479239e-07
-2.32696536e-07 -1.09513600e-07 8.93479239e-07
0.00000000e+00 -9.88642341e-08 8.93479239e-07
-3.93946948e-07 -1.26709537e-07 8.93479239e-07
-3.86635463e-07 -6.72340406e-08 8.93479239e-07
-4.47074569e-07 1.76429751e-08 8.93479239e-07
-3.44822809e-07 -4.54783446e-08 8.93479239e-07
-2.42312751e-07 -2.49544776e-08 8.93479239e-07
-3.31958120e-07 -2.79903418e-07 8.93479239e-07
0.00000000e+00 -3.58720627e-07 8.93479239e-07
-4.63591675e-07 -3.00725304e-07 8.93479239e-07
-4.75565599e-07 -6.85056065e-08 8.93479239e-07
-5.16891475e-07 -6.80287684e-08 8.93479239e-07
-5.75542458e-07 4.84784444e-08 7.81853998e-07
-4.97341148e-07 1.12851462e-08 8.93479239e-07
-6.13212592e-07 -1.08083086e-07 9.89913929e-07
-6.80923449e-07 -2.06629434e-08 8.93479239e-07
-5.29289252e-07 -1.78654986e-07 8.40504981e-07
-4.29550795e-07 -1.18414562e-07 8.93479239e-07
-6.33398713e-07 -2.92082632e-07 8.93479239e-07
-6.27305781e-07 -1.67422822e-08 7.93748427e-07
-5.35647075e-07 -6.50617835e-08 8.93479239e-07
-6.60657861e-07 -4.25179785e-08 8.68240988e-07
-5.12440977e-07 1.09026832e-08 8.93479239e-07
-7.37984976e-07 6.64393127e-08 9.08970833e-07
-4.49975317e-07 1.06175740e-07 8.93479239e-07
0.00000000e+00 -1.40306852e-07 8.93479239e-07
-4.21049691e-07 -1.93932408e-07 8.93479239e-07
-2.66181104e-07 -5.36839195e-07 8.93479239e-07
0.00000000e+00 -4.28120302e-07 8.93479239e-07
-6.65585219e-07 -1.66098282e-08 8.93479239e-07
-5.72151635e-07 -4.91672090e-08 8.93479239e-07
-8.40663915e-07 1.86125433e-07 8.93479239e-07
-2.70108387e-07 -7.76628667e-07 8.93479239e-07
0.00000000e+00 -7.80018638e-07 8.93479239e-07
-4.75088740e-07 -4.11192559e-07 8.93479239e-07
-6.12258930e-07 -5.59012108e-07 8.93479239e-07
-4.34954956e-07 -2.18152991e-07 8.93479239e-07
-7.93377524e-07 -3.54607891e-07 8.93479239e-07
-5.21659842e-07 8.58306848e-09 8.93479239e-07
-7.41481756e-07 1.95503240e-08 8.93479239e-07
-6.58556814e-07 3.73661521e-07 8.93479239e-07
</DataArray>
<DataArray type="Float32" Name="Spatial_velocity" NumberOfComponents="3" format="ascii">
9.84047801e-05 4.87681566e-04 -2.51586520e-04
1.59469069e-04 4.62301396e-04 -2.16350381e-04
1.65326084e-04 5.91050659e-04 -3.05210880e-04
9.01724488e-05 5.79906104e-04 -3.15542275e-04
8.06217868e-05 5.68480871e-04 -3.89123132e-04
1.70833315e-04 5.54070633e-04 -3.62841645e-04
1.48118634e-04 7.15189846e-04 -4.73527150e-04
9.04313929e-05 6.61289087e-04 -4.74252214e-04
2.67701835e-04 4.26025246e-04 -1.66564641e-04
2.90278025e-04 5.60306362e-04 -2.98359286e-04
2.44268245e-04 5.43815666e-04 -4.15323622e-04
3.45120323e-04 6.40885788e-04 -5.35371306e-04
2.87222414e-04 3.78267170e-04 2.25216041e-07
2.87218660e-04 3.74966010e-04 4.01500671e-07
2.90671422e-04 3.74884810e-04 -4.82038672e-07
2.90698896e-04 3.78289988e-04 -6.83425085e-08
2.87364295e-04 3.78985540e-04 6.99341342e-07
2.87391274e-04 3.75511852e-04 3.52880356e-08
2.90722266e-04 3.75588861e-04 -5.20908259e-08
2.90664902e-04 3.79013974e-04 -6.02555190e-07
0.00000000e+00 0.00000000e+00 -5.22357994e-04
9.88822940e-05 0.00000000e+00 -5.24785137e-04
1.06986416e-04 1.10223322e-04 -5.19606343e-04
0.00000000e+00 1.04833649e-04 -5.12793718e-04
0.00000000e+00 0.00000000e+00 -7.01188052e-04
1.30648419e-04 0.00000000e+00 -6.97606883e-04
1.35229697e-04 1.14107512e-04 -6.95839815e-04
0.00000000e+00 1.05189021e-04 -6.80660363e-04
2.20122223e-04 0.00000000e+00 -5.44284063e-04
1.98329493e-04 9.85053412e-05 -5.36131789e-04
2.54122366e-04 0.00000000e+00 -7.15219299e-04
2.59267021e-04 1.20959572e-04 -7.13182846e-04
3.28069698e-04 0.00000000e+00 -5.67564042e-04
3.30502749e-04 9.35214994e-05 -5.66093193e-04
3.80709855e-04 0.00000000e+00 -7.41842785e-04
3.65732063e-04 1.05546926e-04 -7.34735804e-04
4.57406015e-04 0.00000000e+00 -5.88679861e-04
4.64935263e-04 9.70179026e-05 -5.94017387e-04
4.94782755e-04 0.00000000e+00 -7.59258459e-04
4.86423261e-04 8.93102988e-05 -7.66850833e-04
6.01666863e-04 0.00000000e+00 -6.09333511e-04
5.99706487e-04 1.01394675e-04 -6.07525813e-04
6.09572511e-04 0.00000000e+00 -7.76224479e-04
6.06540940e-04 9.08245856e-05 -7.90412305e-04
7.41373515e-04 0.00000000e+00 -6.13708806e-04
7.32056273e-04 1.08264234e-04 -6.14361779e-04
7.05341692e-04 0.00000000e+00 -7.82865973e-04
7.34886329e-04 9.66205553e-05 -7.91503931e-04
7.85306111e-05 2.11240826e-04 -4.89987957e-04
0.00000000e+00 2.37699423e-04 -4.84721299e-04
1.35500435e-04 2.24138450e-04 -6.67613233e-04
0.00000000e+00 2.22812829e-04 -6.67781918e-04
2.04553260e-04 2.19458729e-04 -5.12026541e-04
2.77674175e-04 2.41338174e-04 -6.99628901e-04
3.14413308e-04 2.28327612e-04 -5.76546590e-04
3.84817919e-04 2.30566482e-04 -7.83196883e-04
4.48870996e-04 2.49632954e-04 -6.01216569e-04
4.65500081e-04 2.06200726e-04 -8.13895604e-04
5.76058868e-04 2.43431015e-04 -5.88672992e-04
5.89922071e-04 2.29338330e-04 -8.19396577e-04
6.87588821e-04 2.75181344e-04 -5.98412997e-04
6.92297530e-04 2.48268945e-04 -8.22889560e-04
7.63200005e-05 3.60258768e-04 -4.21376259e-04
0.00000000e+00 3.53264884e-04 -4.18487820e-04
1.36864197e-04 3.54830729e-04 -6.03510765e-04
0.00000000e+00 3.57803772e-04 -6.08941249e-04
1.84177363e-04 3.13614350e-04 -4.60347888e-04
3.13568540e-04 3.59784492e-04 -7.10429740e-04
1.38948730e-04 2.64903007e-04 -9.99168842e-04
4.28437692e-04 3.34222743e-04 -9.21903993e-04
7.96407039e-05 4.49664716e-04 -3.56138044e-04
0.00000000e+00 4.64968616e-04 -3.74143681e-04
1.20044708e-04 4.95603483e-04 -5.02521696e-04
0.00000000e+00 5.17077395e-04 -5.55956445e-04
0.00000000e+00 5.58871427e-04 -4.03695129e-04
1.00990001e-04 6.62084727e-04 -5.59918000e-04
0.00000000e+00 6.20917184e-04 -5.85822214e-04
1.81597425e-04 4.52829059e-04 -2.99614127e-04
2.46061478e-04 5.21375972e-04 -5.33419778e-04
2.30738762e-04 6.09200855e-04 -5.24895848e-04
0.00000000e+00 6.71928050e-04 -4.92427149e-04
1.37269337e-04 7.62481126e-04 -6.76357653e-04
0.00000000e+00 8.00309354e-04 -6.49043592e-04
2.20944101e-04 8.02361348e-04 -6.50896633e-04
2.77155486e-04 5.73523226e-04 -7.09813496e-04
4.53165965e-04 6.29514107e-04 -7.23819423e-04
0.00000000e+00 0.00000000e+00 -8.90307245e-04
1.61045187e-04 0.00000000e+00 -8.93431075e-04
1.66981656e-04 1.17328571e-04 -8.92138225e-04
0.00000000e+00 1.09389308e-04 -8.85062327e-04
2.94645753e-04 0.00000000e+00 -9.01526888e-04
3.13942990e-04 1.34123038e-04 -9.05834313e-04
4.11786081e-04 0.00000000e+00 -9.17433528e-04
4.23287682e-04 1.36246483e-04 -9.13600612e-04
5.24647417e-04 0.00000000e+00 -9.29484726e-04
5.08403347e-04 1.22833837e-04 -9.28453694e-04
6.15217141e-04 0.00000000e+00 -9.40074620e-04
6.01060106e-04 1.13814065e-04 -9.45999229e-04
6.86534215e-04 0.00000000e+00 -9.48414032e-04
6.89000241e-04 1.26819257e-04 -9.41422186e-04
1.85941070e-04 2.42569426e-04 -8.78200633e-04
0.00000000e+00 2.24975200e-04 -8.72666307e-04
3.44701635e-04 2.66475661e-04 -8.98844970e-04
4.52835870e-04 2.72669567e-04 -9.44597821e-04
5.19673049e-04 2.46799522e-04 -9.84805869e-04
5.68242220e-04 2.12769999e-04 -1.00540230e-03
6.28820446e-04 2.31732047e-04 -1.00838160e-03
1.85867801e-04 3.41812876e-04 -8.36727384e-04
0.00000000e+00 3.76094715e-04 -8.23907496e-04
3.80357873e-04 3.55578784e-04 -9.06093046e-04
5.28420729e-04 3.44570435e-04 -1.05263223e-03
4.98666952e-04 1.59281364e-04 -1.18541962e-03
5.61484136e-04 3.12504504e-04 -1.09955901e-03
2.03319971e-04 4.95825603e-04 -7.15326518e-04
0.00000000e+00 4.78557398e-04 -7.94283231e-04
3.89390625e-04 4.34704300e-04 -8.21533729e-04
1.59906253e-04 7.10314373e-04 -8.23775248e-04
0.00000000e+00 7.26348138e-04 -8.30066507e-04
2.00315131e-04 9.02123982e-04 -8.80530046e-04
0.00000000e+00 8.91464413e-04 -8.57640698e-04
3.02177214e-04 6.64128165e-04 -7.75186403e-04
4.57134156e-04 7.99208763e-04 -8.37280240e-04
4.73502238e-04 4.87715821e-04 -9.93728172e-04
6.84305676e-04 5.46669064e-04 -9.37662204e-04
5.25217765e-05 4.31056658e-04 -1.34857802e-03
3.94768693e-04 4.08779859e-04 -1.16849702e-03
6.25770946e-04 3.11400770e-04 -1.10255054e-03
6.57056691e-04 3.10830510e-04 -1.10271398e-03
6.25028799e-04 2.80006410e-04 -1.10247254e-03
6.24651322e-04 2.48616590e-04 -1.10246881e-03
6.56108605e-04 2.48202821e-04 -1.10266020e-03
6.56480552e-04 2.79674539e-04 -1.10242295e-03
6.25172164e-04 2.80046719e-04 -1.10242085e-03
6.24839740e-04 2.48600030e-04 -1.10261573e-03
6.56195392e-04 2.48279917e-04 -1.10248907e-03
6.56622171e-04 2.79599975e-04 -1.10248057e-03
0.00000000e+00 0.00000000e+00 -1.10248523e-03
1.70505489e-04 0.00000000e+00 -1.10248523e-03
1.80553398e-04 1.22177036e-04 -1.10248523e-03
0.00000000e+00 1.12680988e-04 -1.10248523e-03
3.15612298e-04 0.00000000e+00 -1.10248523e-03
3.28481401e-04 1.40374643e-04 -1.10248523e-03
4.25990729e-04 0.00000000e+00 -1.10248523e-03
4.47320694e-04 1.50273787e-04 -1.10248523e-03
5.30195655e-04 0.00000000e+00 -1.10248523e-03
5.29542565e-04 1.47504339e-04 -1.10248523e-03
6.11868338e-04 0.00000000e+00 -1.10248523e-03
6.05317648e-04 1.38894698e-04 -1.10248523e-03
6.95289345e-04 0.00000000e+00 -1.10248523e-03
6.48136949e-04 1.56985538e-04 -1.10248523e-03
2.15227978e-04 2.27047014e-04 -1.10248523e-03
0.00000000e+00 2.17753957e-04 -1.10248523e-03
3.86640895e-04 2.70921504e-04 -1.10248523e-03
4.82018862e-04 2.96287821e-04 -1.10248523e-03
5.38757478e-04 2.74713530e-04 -1.10248523e-03
5.61042223e-04 2.45366187e-04 -1.10248523e-03
6.06523245e-04 2.53939332e-04 -1.10248523e-03
2.12847241e-04 4.00029065e-04 -1.10248523e-03
0.00000000e+00 4.03515151e-04 -1.10248523e-03
4.44848556e-04 3.63983505e-04 -1.10248523e-03
5.57247666e-04 3.63722123e-04 -1.10248523e-03
5.63416048e-04 3.13202268e-04 -1.10248523e-03
5.62161556e-04 2.78861378e-04 -1.10328721e-03
5.62432979e-04 2.81443296e-04 -1.10248523e-03
5.66322880e-04 2.52039667e-04 -1.10376230e-03
5.65809605e-04 2.54211860e-04 -1.10248523e-03
5.95647667e-04 3.44233355e-04 -1.13654369e-03
6.08080998e-04 3.70777649e-04 -1.10248523e-03
5.76714869e-04 4.18921554e-04 -1.10248523e-03
5.93802892e-04 3.11651296e-04 -1.10213889e-03
5.94291079e-04 3.11890792e-04 -1.10248523e-03
5.93865756e-04 2.80509790e-04 -1.10270781e-03
5.93946606e-04 2.80535343e-04 -1.10248523e-03
5.93237812e-04 2.48639437e-04 -1.10227568e-03
5.93087927e-04 2.48894648e-04 -1.10248523e-03
0.00000000e+00 4.36170929e-04 -1.10248523e-03
2.10916463e-04 4.91760147e-04 -1.10248523e-03
2.12897299e-04 7.50167819e-04 -1.10248523e-03
0.00000000e+00 8.06379365e-04 -1.10248523e-03
6.25165296e-04 2.80036445e-04 -1.10248523e-03
6.25526533e-04 3.11413285e-04 -1.10248523e-03
6.24921115e-04 2.48582975e-04 -1.10248523e-03
2.28762903e-04 9.40636033e-04 -1.10248523e-03
0.00000000e+00 9.02821193e-04 -1.10248523e-03
3.88758781e-04 6.73353497e-04 -1.10248523e-03
5.40850218e-04 7.94568390e-04 -1.10248523e-03
4.99078655e-04 4.51672735e-04 -1.10248523e-03
7.26262457e-04 5.19588822e-04 -1.10248523e-03
6.56750111e-04 3.11056967e-04 -1.10248523e-03
6.56635035e-04 2.79643340e-04 -1.10248523e-03
6.56262971e-04 2.48215452e-04 -1.10248523e-03
</DataArray>
<DataArray type="Float32" Name="Reaction_force" NumberOfComponents="3" format="ascii">
0.00000000e+00 0.00000000e+00 0.00000000e+00
0.00000000e+00 0.00000000e+00 0.00000000e+00
0.00000000e+00 0.00000000e+00 0.00000000e+00
0.00000000e+00 0.00000000e+00 0.00000000e+00
0.00000000e+00 0.00000000e+00 0.00000000e+00
0.00000000e+00 0.00000000e+00 0.00000000e+00
0.00000000e+00 0.00000000e+00 0.00000000e+00
0.00000000e+00 0.00000000e+00 0.00000000e+00
0.00000000e+00 0.00000000e+00 0.00000000e+00
0.00000000e+00 0.00000000e+00 0.00000000e+00
0.00000000e+00 0.00000000e+00 0.00000000e+00
0.00000000e+00 0.00000000e+00 0.00000000e+00
0.00000000e+00 0.00000000e+00 0.00000000e+00
0.00000000e+00 0.00000000e+00 0.00000000e+00
0.00000000e+00 0.00000000e+00 0.00000000e+00
0.00000000e+00 0.00000000e+00 0.00000000e+00
0.00000000e+00 0.00000000e+00 0.00000000e+00
0.00000000e+00 0.00000000e+00 0.00000000e+00
0.00000000e+00 0.00000000e+00 0.00000000e+00
0.00000000e+00 0.00000000e+00 0.00000000e+00
-1.02250502e-01 -3.38333577e-01 0.00000000e+00
0.00000000e+00 6.11879587e-01 0.00000000e+00
0.00000000e+00 0.00000000e+00 0.00000000e+00
1.48272109e+00 0.00000000e+00 0.00000000e+00
1.92107126e-01 1.08770418e+00 0.00000000e+00
0.00000000e+00 1.86051548e+00 0.00000000e+00
0.00000000e+00 0.00000000e+00 0.00000000e+00
7.56677866e-01 0.00000000e+00 0.00000000e+00
0.00000000e+00 1.41856456e+00 0.00000000e+00
0.00000000e+00 0.00000000e+00 0.00000000e+00
0.00000000e+00 1.70407748e+00 0.00000000e+00
0.00000000e+00 0.00000000e+00 0.00000000e+00
0.00000000e+00 2.18425584e+00 0.00000000e+00
0.00000000e+00 0.00000000e+00 0.00000000e+00
0.00000000e+00 1.68715775e+00 0.00000000e+00
0.00000000e+00 0.00000000e+00 0.00000000e+00
0.00000000e+00 3.30898046e+00 0.00000000e+00
0.00000000e+00 0.00000000e+00 0.00000000e+00
0.00000000e+00 1.36330676e+00 0.00000000e+00
0.00000000e+00 0.00000000e+00 0.00000000e+00
0.00000000e+00 2.05411410e+00 0.00000000e+00
0.00000000e+00 0.00000000e+00 0.00000000e+00
0.00000000e+00 5.15671968e-02 0.00000000e+00
0.00000000e+00 0.00000000e+00 0.00000000e+00
0.00000000e+00 6.94686770e-01 0.00000000e+00
0.00000000e+00 0.00000000e+00 0.00000000e+00
0.00000000e+00 -4.30915952e-02 0.00000000e+00
0.00000000e+00 0.00000000e+00 0.00000000e+00
0.00000000e+00 0.00000000e+00 0.00000000e+00
1.47660923e+00 0.00000000e+00 0.00000000e+00
0.00000000e+00 0.00000000e+00 0.00000000e+00
8.93702090e-01 0.00000000e+00 0.00000000e+00
0.00000000e+00 0.00000000e+00 0.00000000e+00
0.00000000e+00 0.00000000e+00 0.00000000e+00
0.00000000e+00 0.00000000e+00 0.00000000e+00
0.00000000e+00 0.00000000e+00 0.00000000e+00
0.00000000e+00 0.00000000e+00 0.00000000e+00
0.00000000e+00 0.00000000e+00 0.00000000e+00
0.00000000e+00 0.00000000e+00 0.00000000e+00
0.00000000e+00 0.00000000e+00 0.00000000e+00
0.00000000e+00 0.00000000e+00 0.00000000e+00
0.00000000e+00 0.00000000e+00 0.00000000e+00
0.00000000e+00 0.00000000e+00 0.00000000e+00
1.26970977e-01 0.00000000e+00 0.00000000e+00
0.00000000e+00 0.00000000e+00 0.00000000e+00
1.66516399e+00 0.00000000e+00 0.00000000e+00
0.00000000e+00 0.00000000e+00 0.00000000e+00
0.00000000e+00 0.00000000e+00 0.00000000e+00
0.00000000e+00 0.00000000e+00 0.00000000e+00
0.00000000e+00 0.00000000e+00 0.00000000e+00
0.00000000e+00 0.00000000e+00 0.00000000e+00
5.26427448e-01 0.00000000e+00 0.00000000e+00
0.00000000e+00 0.00000000e+00 0.00000000e+00
9.10264850e-01 0.00000000e+00 0.00000000e+00
5.67433357e-01 0.00000000e+00 0.00000000e+00
0.00000000e+00 0.00000000e+00 0.00000000e+00
3.89864504e-01 0.00000000e+00 0.00000000e+00
0.00000000e+00 0.00000000e+00 0.00000000e+00
0.00000000e+00 0.00000000e+00 0.00000000e+00
0.00000000e+00 0.00000000e+00 0.00000000e+00
-4.36772078e-01 0.00000000e+00 0.00000000e+00
0.00000000e+00 0.00000000e+00 0.00000000e+00
8.01945388e-01 0.00000000e+00 0.00000000e+00
0.00000000e+00 0.00000000e+00 0.00000000e+00
0.00000000e+00 0.00000000e+00 0.00000000e+00
0.00000000e+00 0.00000000e+00 0.00000000e+00
2.33275115e-01 1.88645434e+00 0.00000000e+00
0.00000000e+00 2.58181477e+00 0.00000000e+00
0.00000000e+00 0.00000000e+00 0.00000000e+00
4.24025834e-01 0.00000000e+00 0.00000000e+00
0.00000000e+00 8.20340574e-01 0.00000000e+00
0.00000000e+00 0.00000000e+00 0.00000000e+00
0.00000000e+00 1.95249021e-01 0.00000000e+00
0.00000000e+00 0.00000000e+00 0.00000000e+00
0.00000000e+00 -7.08078623e-01 0.00000000e+00
0.00000000e+00 0.00000000e+00 0.00000000e+00
0.00000000e+00 -2.52434087e+00 0.00000000e+00
0.00000000e+00 0.00000000e+00 0.00000000e+00
0.00000000e+00 -2.11859655e+00 0.00000000e+00
0.00000000e+00 0.00000000e+00 0.00000000e+00
0.00000000e+00 0.00000000e+00 0.00000000e+00
1.27961397e+00 0.00000000e+00 0.00000000e+00
0.00000000e+00 0.00000000e+00 0.00000000e+00
0.00000000e+00 0.00000000e+00 0.00000000e+00
0.00000000e+00 0.00000000e+00 0.00000000e+00
0.00000000e+00 0.00000000e+00 0.00000000e+00
0.00000000e+00 0.00000000e+00 0.00000000e+00
0.00000000e+00 0.00000000e+00 0.00000000e+00
-5.39236546e-01 0.00000000e+00 0.00000000e+00
0.00000000e+00 0.00000000e+00 0.00000000e+00
0.00000000e+00 0.00000000e+00 0.00000000e+00
0.00000000e+00 0.00000000e+00 0.00000000e+00
0.00000000e+00 0.00000000e+00 0.00000000e+00
0.00000000e+00 0.00000000e+00 0.00000000e+00
1.00975394e+00 0.00000000e+00 0.00000000e+00
0.00000000e+00 0.00000000e+00 0.00000000e+00
0.00000000e+00 0.00000000e+00 0.00000000e+00
8.06173325e-01 0.00000000e+00 0.00000000e+00
0.00000000e+00 0.00000000e+00 0.00000000e+00
8.90995145e-01 0.00000000e+00 0.00000000e+00
0.00000000e+00 0.00000000e+00 0.00000000e+00
0.00000000e+00 0.00000000e+00 0.00000000e+00
0.00000000e+00 0.00000000e+00 0.00000000e+00
0.00000000e+00 0.00000000e+00 0.00000000e+00
0.00000000e+00 0.00000000e+00 0.00000000e+00
0.00000000e+00 0.00000000e+00 0.00000000e+00
0.00000000e+00 0.00000000e+00 0.00000000e+00
0.00000000e+00 0.00000000e+00 0.00000000e+00
0.00000000e+00 0.00000000e+00 0.00000000e+00
0.00000000e+00 0.00000000e+00 0.00000000e+00
0.00000000e+00 0.00000000e+00 0.00000000e+00
0.00000000e+00 0.00000000e+00 0.00000000e+00
0.00000000e+00 0.00000000e+00 0.00000000e+00
0.00000000e+00 0.00000000e+00 0.00000000e+00
0.00000000e+00 0.00000000e+00 0.00000000e+00
0.00000000e+00 0.00000000e+00 0.00000000e+00
7.96073154e-02 9.99737203e-01 -9.28701210e+00
0.00000000e+00 1.46717072e+00 -1.84496784e+01
0.00000000e+00 0.00000000e+00 -3.66073875e+01
1.03447735e-02 0.00000000e+00 -1.86368999e+01
0.00000000e+00 3.07205886e-01 -1.82256966e+01
0.00000000e+00 0.00000000e+00 -3.59848099e+01
0.00000000e+00 -4.27710861e-01 -1.79903851e+01
0.00000000e+00 0.00000000e+00 -3.31242790e+01
0.00000000e+00 -9.86200869e-01 -1.65575352e+01
0.00000000e+00 0.00000000e+00 -2.98550186e+01
0.00000000e+00 -1.76219702e+00 -1.43038168e+01
0.00000000e+00 0.00000000e+00 -2.69446030e+01
0.00000000e+00 -1.80518687e+00 -7.48721123e+00
0.00000000e+00 0.00000000e+00 -1.47126398e+01
0.00000000e+00 0.00000000e+00 -4.00022011e+01
1.82333088e+00 0.00000000e+00 -2.20147762e+01
0.00000000e+00 0.00000000e+00 -2.98042984e+01
0.00000000e+00 0.00000000e+00 -2.34991169e+01
0.00000000e+00 0.00000000e+00 -1.90544624e+01
0.00000000e+00 0.00000000e+00 -1.83401966e+01
0.00000000e+00 0.00000000e+00 -1.16660547e+01
0.00000000e+00 0.00000000e+00 -2.76957455e+01
-8.54589522e-01 0.00000000e+00 -1.69010220e+01
0.00000000e+00 0.00000000e+00 -2.29928303e+01
0.00000000e+00 0.00000000e+00 -1.25687370e+01
0.00000000e+00 0.00000000e+00 -7.55567312e+00
0.00000000e+00 0.00000000e+00 0.00000000e+00
0.00000000e+00 0.00000000e+00 -1.00594406e+01
0.00000000e+00 0.00000000e+00 0.00000000e+00
0.00000000e+00 0.00000000e+00 -5.43109703e+00
0.00000000e+00 0.00000000e+00 0.00000000e+00
0.00000000e+00 0.00000000e+00 -3.59715867e+00
0.00000000e+00 0.00000000e+00 -1.08408422e+01
0.00000000e+00 0.00000000e+00 0.00000000e+00
0.00000000e+00 0.00000000e+00 2.56501341e+00
0.00000000e+00 0.00000000e+00 0.00000000e+00
0.00000000e+00 0.00000000e+00 5.52087498e+00
0.00000000e+00 0.00000000e+00 0.00000000e+00
0.00000000e+00 0.00000000e+00 3.48526239e+00
8.22422206e-01 0.00000000e+00 -1.63330402e+01
0.00000000e+00 0.00000000e+00 -1.74300022e+01
0.00000000e+00 0.00000000e+00 -3.06839867e+01
2.13746095e+00 0.00000000e+00 -2.10657024e+01
0.00000000e+00 0.00000000e+00 1.68258202e+00
0.00000000e+00 0.00000000e+00 -5.99178267e+00
0.00000000e+00 0.00000000e+00 -8.04889143e-01
0.00000000e+00 0.00000000e+00 -1.62114239e+01
-1.93053111e-02 0.00000000e+00 -6.66157722e+00
0.00000000e+00 0.00000000e+00 -1.69706879e+01
0.00000000e+00 0.00000000e+00 -1.68317394e+01
0.00000000e+00 0.00000000e+00 -1.09391909e+01
0.00000000e+00 0.00000000e+00 -1.04126081e+01
0.00000000e+00 0.00000000e+00 -6.19259644e+00
0.00000000e+00 0.00000000e+00 3.53818804e-01
0.00000000e+00 0.00000000e+00 -9.09185708e-02
</DataArray>
<DataArray type="Float32" Name="Equivalent_plastic_strain" format="ascii">
3.21444296e-02
3.23052462e-02
5.06982207e-02
3.74474721e-02
2.66409512e-02
4.07594270e-02
6.91091623e-02
5.39417956e-02
5.40339965e-02
6.93868827e-02
8.43428820e-02
8.44850093e-02
0.00000000e+00
0.00000000e+00
0.00000000e+00
0.00000000e+00
0.00000000e+00
0.00000000e+00
0.00000000e+00
0.00000000e+00
5.51958047e-02
5.47635285e-02
5.43214851e-02
5.46195488e-02
6.11480474e-02
6.14433717e-02
6.30479516e-02
6.42298032e-02
5.33870589e-02
5.57433991e-02
5.88135468e-02
6.14179894e-02
5.30861858e-02
5.78459827e-02
5.46589810e-02
5.68880998e-02
5.27077653e-02
6.19996875e-02
5.05122216e-02
5.17880749e-02
5.07941814e-02
6.03105663e-02
4.50053541e-02
5.14157107e-02
4.85175978e-02
5.68138035e-02
4.19560820e-02
4.91734277e-02
5.58557441e-02
5.29447235e-02
6.98991935e-02
6.71261689e-02
5.93806159e-02
6.55106464e-02
7.98319072e-02
5.85198291e-02
8.08406081e-02
5.97645774e-02
7.66180921e-02
6.67058984e-02
7.25253411e-02
6.57852832e-02
5.23928532e-02
4.63210177e-02
7.43553489e-02
6.44333661e-02
7.75926802e-02
8.23094785e-02
7.78570846e-02
1.72957530e-02
3.85509602e-02
3.87917995e-02
4.06583228e-02
4.31373573e-02
3.97155937e-02
7.87044567e-02
6.52489411e-02
5.42829037e-02
9.76035856e-02
7.73370288e-02
4.37366068e-02
4.72352286e-02
7.48675559e-02
8.81038327e-02
8.37538540e-02
7.38066733e-02
7.05668926e-02
6.94840793e-02
7.23631578e-02
7.45922998e-02
6.60064612e-02
6.67799572e-02
6.04929170e-02
5.89769641e-02
5.44167263e-02
5.12693217e-02
4.94457223e-02
4.60971599e-02
4.87817898e-02
4.65794262e-02
7.16693507e-02
9.22762491e-02
5.95002901e-02
4.70463270e-02
3.59372180e-02
3.47700259e-02
3.56206223e-02
9.37287398e-02
9.19107397e-02
6.98085328e-02
2.51659824e-02
4.17769477e-02
2.69023989e-03
1.20295206e-01
1.20079103e-01
8.87413695e-02
9.17747638e-02
9.14023183e-02
1.06959477e-01
9.92915519e-02
1.05211074e-01
9.86438636e-02
4.41710688e-02
5.13616186e-02
-1.46311009e-04
9.76533070e-03
2.26002365e-02
6.30241165e-03
0.00000000e+00
0.00000000e+00
0.00000000e+00
0.00000000e+00
-6.18176799e-05
0.00000000e+00
0.00000000e+00
5.77369841e-05
7.53463954e-02
7.31832720e-02
7.57617801e-02
7.87857361e-02
6.90525472e-02
6.86929952e-02
6.37138747e-02
6.06472371e-02
5.79073653e-02
5.38044609e-02
5.44930473e-02
4.90886066e-02
5.65946251e-02
4.98661418e-02
9.34581943e-02
9.27013531e-02
6.47128765e-02
4.76059671e-02
2.73657166e-02
1.47448755e-02
1.43747651e-02
1.11284237e-01
1.31869942e-01
6.44451380e-02
5.77923661e-03
-9.55854804e-04
5.90557868e-03
3.27893766e-04
6.61680050e-03
2.21935322e-03
2.99304435e-02
-8.51201033e-03
6.21935464e-02
-2.95054476e-05
1.12015977e-03
-6.18471354e-05
-2.28856631e-04
4.28036670e-04
8.87088070e-04
1.57868862e-01
1.67112797e-01
1.32995682e-01
1.43039361e-01
-6.87814913e-05
1.92670587e-03
0.00000000e+00
1.11903287e-01
1.11714736e-01
1.07636772e-01
1.08256914e-01
2.11796835e-02
2.49058604e-02
3.88924454e-03
1.69879335e-04
0.00000000e+00
</DataArray>
<DataArray type="Float32" Name="Stress_Mises" format="ascii">
1.85026943e+01
2.94081633e+01
5.26691046e+01
2.95265412e+01
2.01161789e+01
3.81043141e+01
4.26204292e+01
2.27245398e+01
4.87544775e+01
1.09284718e+02
1.07084445e+02
9.42133446e+01
1.50423461e+00
1.45663756e+00
1.94151825e+00
2.81813180e+00
8.50309014e-01
7.67477989e-01
1.09708583e+00
1.20981038e+00
2.96837473e+01
2.95401850e+01
2.54317520e+01
2.89748483e+01
2.51848869e+01
2.99278073e+01
2.74730384e+01
3.06811662e+01
2.52706668e+01
2.45113450e+01
2.91639915e+01
3.11195697e+01
2.33083467e+01
2.68693802e+01
2.68967447e+01
2.82557910e+01
2.10151196e+01
2.80132140e+01
2.54684458e+01
2.34721131e+01
1.69941785e+01
2.86509553e+01
1.60037752e+01
2.32600875e+01
1.15084286e+01
2.22132017e+01
1.32682083e+01
1.99484468e+01
2.55463502e+01
2.56357555e+01
3.67006067e+01
2.93183904e+01
3.70969067e+01
3.43027176e+01
9.83177673e+01
3.22962948e+01
7.68037119e+01
6.23485954e+01
5.96132021e+01
6.92107353e+01
4.66384544e+01
6.54179382e+01
2.93023829e+01
2.47811421e+01
3.86165004e+01
2.07326450e+01
1.21887558e+02
5.97516014e+01
4.59575844e+01
3.11645304e+01
2.03296028e+01
1.62062355e+01
2.82401452e+01
2.22228662e+01
2.08744643e+01
2.36569911e+01
3.49229183e+01
7.17663689e+01
1.31765305e+02
4.95544014e+01
2.92302902e+01
4.94131837e+01
3.59381411e+01
5.07248471e+01
1.05212392e+02
4.54280688e+01
2.77479305e+01
3.04091721e+01
3.09570072e+01
3.08667903e+01
3.44140697e+01
3.54008343e+01
3.54922295e+01
3.84293711e+01
3.32510543e+01
3.14580752e+01
2.67478571e+01
2.48740356e+01
2.81788292e+01
3.25554224e+01
4.30186814e+01
5.16214390e+01
3.58636677e+01
3.10059316e+01
2.89086973e+01
4.13094791e+01
3.99370707e+01
5.58669055e+01
6.57639338e+01
4.45055113e+01
3.15255636e+01
3.12688751e+01
2.32544119e+01
5.10974982e+01
3.62333728e+01
1.47208885e+02
6.37875210e+01
4.86934869e+01
3.11652606e+01
2.48178327e+01
6.39786882e+01
4.74552989e+01
5.02958106e+01
3.01625679e+01
4.01562004e+01
2.33278370e+01
2.97279582e+01
2.64511040e+01
3.97529054e+00
1.76891208e+00
3.03135252e+00
4.48475504e+00
1.30105420e+01
7.14245001e+00
4.92264533e+00
1.76446347e+01
3.05827274e+01
3.12695456e+01
3.16842532e+01
3.06168733e+01
3.64933643e+01
3.63322692e+01
3.97716532e+01
4.25852447e+01
3.83291302e+01
4.27335134e+01
3.61678562e+01
3.53758183e+01
4.77878952e+01
4.46782360e+01
4.75871983e+01
4.16332474e+01
4.19489555e+01
3.44541001e+01
2.47320411e+01
2.56836398e+01
3.25487947e+01
1.22721535e+02
1.36187027e+02
3.70295518e+01
2.24046135e+01
1.54979987e+01
2.35961125e+01
1.97974002e+01
3.20172882e+01
1.90245047e+01
4.32855320e+01
2.11303720e+01
5.37087326e+01
2.31864707e+01
1.99385567e+01
2.37578356e+01
2.04874883e+01
2.10879946e+01
1.95458374e+01
1.09278625e+02
1.57525650e+02
4.72112007e+01
3.78006287e+01
1.25380120e+01
2.43896306e+01
9.02646828e+00
2.97744586e+01
2.23726978e+01
3.33327234e+01
4.08042259e+01
3.69518595e+01
2.96479445e+01
2.08114958e+01
1.63770590e+01
5.53203630e+00
</DataArray>
<DataArray type="Float32" Name="Stress_Max_Principal" format="ascii">
1.26691733e+01
3.93627805e+00
1.33126292e+01
1.67957675e+00
2.28318506e+01
3.67846007e+01
-3.59590143e+00
8.37645397e+00
-1.00095659e+01
-6.38666725e+01
-5.02612704e+01
-4.39138163e+01
8.13387156e-01
7.90398955e-01
9.34252977e-01
1.65325391e+00
6.33301377e-01
5.99283278e-01
7.41077423e-01
8.37799489e-01
6.55936241e-01
1.11577183e+00
5.06337105e+00
1.87988755e+00
5.03238320e+00
6.58959806e-01
2.97491928e+00
5.31641111e-01
5.32790524e+00
6.98715588e+00
1.07983796e+00
-1.30686209e-01
6.79367687e+00
1.38264237e+01
3.70945635e+00
2.85492986e+00
9.09019488e+00
3.23814258e+00
5.17665744e+00
1.47439955e+01
1.23168298e+01
9.52853197e+00
1.26478029e+01
7.18935010e+00
1.66616883e+01
2.01384724e+01
2.06398735e+01
1.44720871e+01
6.33069533e+00
6.26872456e+00
-4.30997048e+00
1.19821680e+00
1.71556278e+01
-2.53266127e+00
-5.46402515e+01
1.56231527e+01
-3.76013255e+01
-2.42819864e+01
-2.31141729e+01
-3.09789124e+01
-1.10429966e+01
-2.57576962e+01
3.68153466e+00
1.76650300e+01
-4.29382610e+00
9.13691735e+00
-6.69563923e+01
-1.76662878e+01
9.03302307e+01
1.61742198e+01
2.46778572e+01
1.28544736e+01
3.54819005e+01
1.62544521e+01
1.69568527e+01
1.94513963e+01
1.86875329e+01
-3.01155421e+01
-8.04860573e+01
6.06085436e+00
2.20269680e+00
2.28765521e+01
8.85669041e+00
-6.45914054e+00
-3.60104752e+01
3.84923617e-02
3.73273009e+00
8.18863034e-01
8.42925884e-01
1.26726097e+00
-2.69698399e+00
-2.77883811e+00
-3.47357893e+00
-4.48515385e+00
-1.13751444e+00
1.07905412e+00
4.43951488e+00
6.46311289e+00
4.17612976e+00
3.76717126e+00
-3.46861884e+00
1.11317186e+01
-1.93964815e+00
1.42125564e+01
1.87380537e+01
1.09387244e+01
2.23387527e+00
-1.73465100e+01
-2.69343624e+01
2.13903131e+01
5.23191702e+01
6.34133720e+01
3.04416391e+01
-1.37739733e+01
-2.46411800e+00
-7.55126457e+01
-1.35159685e+01
-4.54481685e+00
9.32902050e+00
5.22924948e+00
-2.27448640e+01
-7.14172339e+00
2.74091516e+01
2.60690367e+01
9.77632217e+01
6.60892639e+01
2.55415833e+01
2.08913930e+01
2.45309782e+00
8.58573198e-01
1.75030506e+00
2.80118084e+00
9.00252160e+00
2.10951459e+00
1.40161866e+00
8.10405286e+00
1.57956433e+00
2.53018737e-01
6.92583323e-01
1.81782103e+00
-4.38417554e+00
-2.95475399e+00
-5.69461209e+00
-6.93424350e+00
-3.91631746e+00
-6.54646099e+00
-1.99244041e+00
6.23484850e-01
-8.95673943e+00
-5.74817161e+00
1.36343172e+01
-5.77009487e+00
6.00117874e+00
1.76972952e+01
2.65912867e+01
2.67125933e+01
2.88589400e+01
-7.21835766e+01
-8.76682434e+01
2.41445339e+01
4.49462941e+01
3.98033938e+01
2.04443393e+01
3.38154325e+01
1.09404573e+01
2.62370763e+01
5.02367730e+01
4.48827305e+01
2.98589182e+00
2.90936279e+01
2.02193197e+01
1.84399668e+01
1.52465611e+01
9.64926147e+00
7.14916801e+00
-5.67054291e+01
-1.02704956e+02
1.16212482e+01
-1.80106831e+00
7.26069063e+00
3.44723609e+01
3.34225476e+00
4.78516150e+00
9.66429901e+00
1.17475605e+00
-3.20204309e+00
2.33435321e+01
2.70226469e+01
3.80676713e+01
6.67900419e+00
8.15779209e-01
</DataArray>
<DataArray type="Float32" Name="Stress_Mid_Principal" format="ascii">
8.98516247e+00
-3.35906953e+00
-3.90413809e+00
-2.18852699e-01
1.62907451e+01
1.87293163e+01
-1.71180027e+01
6.84862283e+00
-1.42570572e+01
-7.00654526e+01
-6.62457425e+01
-6.36642265e+01
-3.59559182e-01
-3.84272769e-01
-5.97421080e-02
-5.96314684e-01
-7.27123767e-03
-6.25752658e-02
7.88765848e-02
6.95368834e-03
-2.17802525e-02
-2.44479708e-01
2.93624683e+00
3.04885507e-02
3.32934761e+00
-4.95381951e-01
1.49386640e+00
-1.62932214e+00
2.88706495e+00
3.99006045e+00
4.63006526e-01
-1.59910300e+00
4.73048723e+00
7.70159554e+00
1.74500400e+00
5.03161415e-01
6.34330563e+00
2.10399032e-01
2.72666728e+00
9.66900419e+00
1.00338188e+01
4.50579083e+00
1.16099868e+01
4.84147024e+00
1.52952733e+01
1.44286294e+01
1.75253248e+01
1.00800900e+01
1.46613258e+00
1.35458827e+00
-6.74071354e+00
3.01066518e-01
7.74727665e+00
-5.45864666e+00
-6.24900337e+01
7.86385768e+00
-4.24575205e+01
-2.77280524e+01
-2.75180759e+01
-3.58370600e+01
-1.75261307e+01
-3.49672165e+01
-1.95925116e+00
1.08276558e+01
-7.06553916e+00
7.28625572e+00
-8.64392929e+01
-2.70715422e+01
4.49531784e+01
7.54847654e+00
1.80773774e+01
1.09287672e+01
2.11432250e+01
1.07608426e+01
1.27556362e+01
1.11264336e+01
6.59881949e+00
-3.72803169e+01
-9.14162636e+01
-8.52831821e+00
-6.16300583e-01
5.87749910e+00
-6.65546417e-01
-2.20537882e+01
-5.56534831e+01
-1.46383899e+01
5.48995733e-02
-1.53618515e+00
-2.51573694e+00
-2.84560602e+00
-4.86072528e+00
-6.52020646e+00
-5.83353430e+00
-9.95913516e+00
-4.31215519e+00
-3.31553601e+00
1.19441700e+00
3.10875171e+00
-9.80172873e-01
-2.32001626e+00
-1.13725986e+01
-3.78438711e+00
-7.40968502e+00
4.15083075e+00
8.93119512e+00
-1.29529667e+00
-8.26797358e+00
-2.68390438e+01
-3.40060594e+01
2.75584682e+00
2.99096067e+01
3.48235931e+01
1.30790708e+01
-1.99777207e+01
-6.66670227e+00
-1.22463238e+02
-2.31269596e+01
-1.14744556e+01
2.82387762e+00
4.02859926e+00
-3.32376375e+01
-2.07231245e+01
1.50790596e+00
1.35396829e+01
6.05470543e+01
4.45241776e+01
6.11686468e-01
3.94769907e+00
-1.09152532e+00
-1.58066049e-01
-5.48901618e-01
-1.29220378e+00
-5.57527936e-01
-8.44119022e-01
2.41129182e-01
3.47225276e+00
-2.71619821e+00
-2.47260396e+00
-3.66905445e+00
-3.01662540e+00
-6.77469230e+00
-8.04154551e+00
-1.11916023e+01
-1.49165815e+01
-1.05416173e+01
-1.52915821e+01
-8.77636623e+00
-9.78630793e+00
-2.20263443e+01
-1.94081039e+01
-3.60647440e+00
-1.45854788e+01
-7.67296156e+00
4.82466185e+00
1.67503593e+01
1.82410693e+01
9.73320293e+00
-8.65334625e+01
-9.42829361e+01
5.20763652e+00
3.43001215e+01
2.98907245e+01
1.89022946e+00
2.27792451e+01
-3.17690420e+00
1.96167793e+01
2.36856365e+01
2.89041147e+01
-1.01871233e+01
1.05702695e+01
8.10064030e+00
2.62689877e+00
7.81487560e+00
5.23064207e+00
1.65079749e+00
-7.98575974e+01
-1.15409821e+02
8.07829539e-01
-1.06839600e+01
3.31580973e+00
2.29247145e+01
-2.80642283e+00
-4.03277969e+00
3.71135545e+00
-4.00267029e+00
-1.53291392e+01
4.16118526e+00
5.14066505e+00
2.54148798e+01
3.61790383e+00
4.75057364e-02
</DataArray>
<DataArray type="Float32" Name="Stress_Min_Principal" format="ascii">
-7.30246868e+00
-2.83727273e+01
-4.27918873e+01
-2.86907754e+01
1.57703662e+00
-4.07338532e+00
-5.12555828e+01
-1.48426971e+01
-6.06909623e+01
-1.76114952e+02
-1.64270045e+02
-1.46233641e+02
-8.82034659e-01
-8.34355980e-01
-1.30270541e+00
-1.48525903e+00
-3.31403643e-01
-2.42018297e-01
-5.25284886e-01
-5.50203860e-01
-2.93606033e+01
-2.90807488e+01
-2.13484101e+01
-2.79616234e+01
-2.09606489e+01
-2.98285184e+01
-2.52054925e+01
-3.11693236e+01
-2.10709567e+01
-1.87761905e+01
-2.83871715e+01
-3.19553597e+01
-1.74679435e+01
-1.42198011e+01
-2.41115270e+01
-2.64774126e+01
-1.31545130e+01
-2.61576017e+01
-2.14277210e+01
-9.86252731e+00
-5.70257673e+00
-2.04188277e+01
-3.83919287e+00
-1.71508795e+01
4.53737235e+00
-3.01176548e+00
6.53471756e+00
-6.88086784e+00
-2.12541740e+01
-2.14583126e+01
-4.21494293e+01
-2.85556650e+01
-2.09710925e+01
-3.81741345e+01
-1.56420975e+02
-1.85624311e+01
-1.16710489e+02
-8.81678570e+01
-8.48067379e+01
-1.02472567e+02
-6.05837460e+01
-9.52923775e+01
-2.79570348e+01
-8.71437764e+00
-4.40390268e+01
-1.24441970e+01
-1.97389191e+02
-8.14852432e+01
4.38133240e+01
-1.70883813e+01
3.41124943e+00
-4.22462440e+00
5.59409750e+00
-7.12246251e+00
-4.91595149e+00
-6.17001901e+00
-1.88764827e+01
-1.05060522e+02
-2.17369286e+02
-4.79322556e+01
-2.83201857e+01
-2.87609177e+01
-2.97176037e+01
-6.30444169e+01
-1.49038845e+02
-4.89579711e+01
-2.56705494e+01
-3.06859670e+01
-3.16542362e+01
-3.14470274e+01
-3.81405964e+01
-3.98994487e+01
-4.00865140e+01
-4.53442545e+01
-3.58567667e+01
-3.23395826e+01
-2.37726333e+01
-1.98868030e+01
-2.62240777e+01
-3.10877287e+01
-4.94823751e+01
-4.32508802e+01
-4.02148412e+01
-1.94594918e+01
-1.23309519e+01
-3.36566868e+01
-4.16315282e+01
-7.72609523e+01
-9.58983752e+01
-2.77035625e+01
1.72880570e+01
3.00210762e+01
4.68758678e+00
-6.75529189e+01
-4.05559206e+01
-2.40115318e+02
-7.98334586e+01
-5.52241659e+01
-2.35261664e+01
-2.01649585e+01
-9.12809156e+01
-5.98198364e+01
-2.95275941e+01
-7.72206795e+00
5.52023163e+01
4.13282318e+01
-7.31868184e+00
-8.37555377e+00
-1.84501469e+00
-1.18398345e+00
-1.68497860e+00
-1.99254203e+00
-5.01922121e+00
-5.69566790e+00
-3.98289311e+00
-1.13238365e+01
-3.09239273e+01
-3.22808990e+01
-3.29326692e+01
-3.09282547e+01
-4.20043488e+01
-4.15221676e+01
-4.79279222e+01
-5.29273491e+01
-4.51070518e+01
-5.29716907e+01
-4.10718536e+01
-3.87692015e+01
-6.19196777e+01
-5.56068821e+01
-3.78347864e+01
-5.10767920e+01
-4.01916075e+01
-2.01136560e+01
-2.71258235e-01
-6.42467022e-01
-8.16441917e+00
-2.01417900e+02
-2.27042084e+02
-1.68807386e+01
2.08929939e+01
2.21456652e+01
-6.02885985e+00
1.19989052e+01
-2.48367090e+01
5.72295666e+00
9.83129501e-01
2.10125604e+01
-5.60837708e+01
3.87149445e+00
-2.73253345e+00
-8.44885910e+00
-7.83581308e+00
-1.32680483e+01
-1.43549132e+01
-1.75704971e+02
-2.66198303e+02
-3.71965332e+01
-4.32458466e+01
-6.30532485e+00
6.79810015e+00
-6.93861485e+00
-2.83842139e+01
-1.50827818e+01
-3.43414683e+01
-4.86950874e+01
-1.80824032e+01
-6.67848778e+00
1.52478032e+01
-1.09765515e+01
-5.06023741e+00
</DataArray>
<DataArray type="Float32" Name="Stress_Pressure" format="ascii">
-4.78395580e+00
9.26517268e+00
1.11278000e+01
9.07668376e+00
-1.35665441e+01
-1.71468438e+01
2.39898300e+01
-1.27460480e-01
2.83191953e+01
1.03349026e+02
9.35923519e+01
8.46038971e+01
1.42735556e-01
1.42743275e-01
1.42731518e-01
1.42773259e-01
-9.82088223e-02
-9.82299149e-02
-9.82230455e-02
-9.81830955e-02
9.57548213e+00
9.40315270e+00
4.44959731e+00
8.68374906e+00
4.19963956e+00
9.88831359e+00
6.91223572e+00
1.07556684e+01
4.28532875e+00
2.59965831e+00
8.94810916e+00
1.12283832e+01
1.98126006e+00
-2.43607257e+00
6.21902215e+00
7.70644069e+00
-7.59662390e-01
7.56968695e+00
4.50813240e+00
-4.85015768e+00
-5.54935741e+00
2.12816823e+00
-6.80619884e+00
1.70668614e+00
-1.21647778e+01
-1.05184454e+01
-1.48999716e+01
-5.89043677e+00
4.48578191e+00
4.61166656e+00
1.77333711e+01
9.01879418e+00
-1.31060410e+00
1.53884810e+01
9.11837547e+01
-1.64152565e+00
6.55897789e+01
4.67259650e+01
4.51463280e+01
5.64295120e+01
2.97176247e+01
5.20057659e+01
8.74491700e+00
-6.59276874e+00
1.84661314e+01
-1.32632514e+00
1.16928288e+02
4.20743579e+01
-5.96989136e+01
-2.21143897e+00
-1.53888286e+01
-6.51953876e+00
-2.07397405e+01
-6.63094354e+00
-8.26551215e+00
-8.13593701e+00
-2.13662291e+00
5.74854609e+01
1.29757206e+02
1.67999065e+01
8.91126347e+00
2.29072571e-03
7.17548752e+00
3.05191164e+01
8.02342720e+01
2.11859547e+01
7.29430604e+00
1.04677630e+01
1.11090158e+01
1.10084573e+01
1.52327684e+01
1.63994980e+01
1.64645425e+01
1.99295145e+01
1.37688123e+01
1.15253541e+01
6.04623362e+00
3.43831295e+00
7.67604065e+00
9.88019185e+00
2.14411967e+01
1.19678507e+01
1.65213922e+01
3.65368307e-01
-5.11276511e+00
8.00441996e+00
1.58885409e+01
4.04821695e+01
5.22796008e+01
1.18580075e+00
-3.31722778e+01
-4.27526817e+01
-1.60694322e+01
3.37682050e+01
1.65622470e+01
1.46030396e+02
3.88254617e+01
2.37478118e+01
3.79109025e+00
3.63570404e+00
4.90878069e+01
2.92282286e+01
2.03511238e-01
-1.06288838e+01
-7.11708679e+01
-5.06472244e+01
-6.27819642e+00
-5.48784594e+00
1.61147401e-01
1.61158785e-01
1.61191702e-01
1.61188319e-01
-1.14192419e+00
1.47675737e+00
7.80048482e-01
-8.41564089e-02
1.06868534e+01
1.15001612e+01
1.19697134e+01
1.07090199e+01
1.77210722e+01
1.75061554e+01
2.16047111e+01
2.49260577e+01
1.98549957e+01
2.49365780e+01
1.72802200e+01
1.59773413e+01
3.09675865e+01
2.69210520e+01
9.26898098e+00
2.38107886e+01
1.39544642e+01
-8.02767336e-01
-1.43567955e+01
-1.47703992e+01
-1.01425762e+01
1.20044979e+02
1.36331085e+02
-4.15714391e+00
-3.33798031e+01
-3.06132604e+01
-5.43523651e+00
-2.28645269e+01
5.69105227e+00
-1.71922708e+01
-2.49685135e+01
-3.15998011e+01
2.10950012e+01
-1.45117973e+01
-8.52914238e+00
-4.20600230e+00
-5.07520789e+00
-5.37284970e-01
1.85164928e+00
1.04089333e+02
1.61437698e+02
8.25581868e+00
1.85769577e+01
-1.42372519e+00
-2.13983915e+01
2.13426089e+00
9.21061039e+00
5.69042385e-01
1.23897943e+01
2.24087563e+01
-3.14077187e+00
-8.49494171e+00
-2.62434514e+01
2.26547837e-01
1.39898419e+00
</DataArray>
<DataArray type="Float32" Name="Stress_Tresca" format="ascii">
1.99716423e+01
3.23090051e+01
5.61045160e+01
3.03703523e+01
2.12548137e+01
4.08579865e+01
4.76596804e+01
2.32191505e+01
5.06813955e+01
1.12248280e+02
1.14008771e+02
1.02319828e+02
1.69542181e+00
1.62475491e+00
2.23695838e+00
3.13851285e+00
9.64704990e-01
8.41301560e-01
1.26636231e+00
1.38800335e+00
3.00165386e+01
3.01965203e+01
2.64117812e+01
2.98415103e+01
2.59930320e+01
3.04874787e+01
2.81804116e+01
3.17009647e+01
2.63988626e+01
2.57633464e+01
2.94670091e+01
3.18246732e+01
2.42616203e+01
2.80462250e+01
2.78209839e+01
2.93323423e+01
2.22447078e+01
2.93957441e+01
2.66043787e+01
2.46065223e+01
1.80194063e+01
2.99473590e+01
1.64869962e+01
2.43402295e+01
1.21243157e+01
2.31502376e+01
1.41051559e+01
2.13529544e+01
2.75848687e+01
2.77270374e+01
3.78394585e+01
2.97538824e+01
3.81267204e+01
3.56414737e+01
1.01780722e+02
3.41855839e+01
7.91091652e+01
6.38858719e+01
6.16925659e+01
7.14936543e+01
4.95407486e+01
6.95346832e+01
3.16385694e+01
2.63794074e+01
3.97452003e+01
2.15811141e+01
1.30432800e+02
6.38189541e+01
4.65169067e+01
3.32626019e+01
2.12666082e+01
1.70790982e+01
2.98878034e+01
2.33769143e+01
2.18728042e+01
2.56214149e+01
3.75640154e+01
7.49449797e+01
1.36883228e+02
5.39931099e+01
3.05228825e+01
5.16374702e+01
3.85742950e+01
5.65852752e+01
1.13028367e+02
4.89964638e+01
2.94032803e+01
3.15048308e+01
3.24971622e+01
3.27142885e+01
3.54436131e+01
3.71206107e+01
3.66129351e+01
4.08590999e+01
3.47192516e+01
3.34186366e+01
2.82121477e+01
2.63499154e+01
3.04002075e+01
3.48548999e+01
4.60137558e+01
5.43825989e+01
3.82751925e+01
3.36720486e+01
3.10690054e+01
4.45954113e+01
4.38654022e+01
5.99144414e+01
6.89640134e+01
4.90938759e+01
3.50311136e+01
3.33922958e+01
2.57540524e+01
5.37789464e+01
3.80918029e+01
1.64602669e+02
6.63174909e+01
5.06793499e+01
3.28551874e+01
2.53942084e+01
6.85360513e+01
5.26781120e+01
5.69367461e+01
3.37911055e+01
4.25609055e+01
2.47610321e+01
3.28602648e+01
2.92669474e+01
4.29811239e+00
2.04255676e+00
3.43528366e+00
4.79372311e+00
1.40217425e+01
7.80518238e+00
5.38451195e+00
1.94278898e+01
3.25034904e+01
3.25339174e+01
3.36252532e+01
3.27460766e+01
3.76201725e+01
3.85674129e+01
4.22333107e+01
4.59931059e+01
4.11907349e+01
4.64252291e+01
3.90794125e+01
3.93926859e+01
5.29629364e+01
4.98587112e+01
5.14691038e+01
4.53066950e+01
4.61927862e+01
3.78109522e+01
2.68625445e+01
2.73550601e+01
3.70233593e+01
1.29234329e+02
1.39373840e+02
4.10252724e+01
2.40532999e+01
1.76577287e+01
2.64731991e+01
2.18165274e+01
3.57771664e+01
2.05141201e+01
4.92536430e+01
2.38701706e+01
5.90696640e+01
2.52221330e+01
2.29518534e+01
2.68888264e+01
2.30823746e+01
2.29173098e+01
2.15040817e+01
1.18999542e+02
1.63493347e+02
4.88177821e+01
4.14447775e+01
1.35660152e+01
2.76742605e+01
1.02808695e+01
3.31693759e+01
2.47470818e+01
3.55162253e+01
4.54930439e+01
4.14259357e+01
3.37011356e+01
2.28198681e+01
1.76555557e+01
5.87601662e+00
</DataArray>
<DataArray type="Float32" Name="Stress_Third_Invariant" format="ascii">
-1.69726416e+01
-2.70193720e+01
-2.99476614e+01
-2.90747972e+01
-1.03628758e+01
-8.75127070e+00
-3.55013671e+01
-2.08173517e+01
-4.81414769e+01
-1.08876278e+02
-1.03764090e+02
-8.85805721e+01
1.27257657e+00
1.26700932e+00
-1.11078376e+00
2.39204860e+00
6.89186275e-01
7.17967093e-01
4.71298993e-01
8.39015245e-01
-2.96655426e+01
-2.94687147e+01
-2.51776519e+01
-2.87998281e+01
-2.50543866e+01
-2.98752441e+01
-2.73733093e+01
-3.04983735e+01
-2.49919322e+01
-2.34881888e+01
-2.91477919e+01
-3.10320171e+01
-2.30715458e+01
-1.92990097e+01
-2.67219243e+01
-2.79468472e+01
-2.05765048e+01
-2.76156901e+01
-2.51996360e+01
-1.73787276e+01
-1.66411183e+01
-2.31620426e+01
-1.58957471e+01
-2.29762546e+01
-1.13034565e+01
-1.28272589e+01
-9.09717643e+00
-1.62883103e+01
-2.43191702e+01
-2.45067933e+01
-3.64685166e+01
-2.92790582e+01
-2.10400293e+01
-3.39235423e+01
-9.68990204e+01
-2.18081566e+01
-7.64345522e+01
-6.17803188e+01
-5.92441416e+01
-6.87699833e+01
-4.56078739e+01
-6.39350624e+01
-2.77823661e+01
-1.61250622e+01
-3.72075894e+01
-2.04980099e+01
-1.18232645e+02
-5.77895012e+01
4.59257584e+01
-2.19803740e+01
-8.77798591e+00
-1.59332855e+01
-3.47703862e+00
-1.56217142e+01
-1.47357326e+01
-1.38495881e+01
-1.89699178e+01
-7.05326777e+01
-1.30718803e+02
-3.47541119e+01
-2.88737690e+01
-2.15167651e+01
-2.69202833e+01
-4.42630716e+01
-9.49558992e+01
-2.83642966e+01
-2.71909485e+01
-3.01618285e+01
-3.05360613e+01
-3.02323442e+01
-3.42566476e+01
-3.49446125e+01
-3.53139043e+01
-3.74929781e+01
-3.28911877e+01
-3.07375079e+01
-2.62671027e+01
-2.42531069e+01
-2.70843420e+01
-2.92379591e+01
-3.85600590e+01
-3.09298954e+01
-3.48744134e+01
-2.02543943e+01
-1.56501012e+01
-2.79346409e+01
-3.42115550e+01
-5.37081709e+01
-6.47385387e+01
-2.06300478e+01
1.10070256e+01
3.04225006e+01
1.04693075e+01
-4.97175226e+01
-3.54896997e+01
-1.26926899e+02
-5.39167322e+01
-4.15565746e+01
-2.47309117e+01
-2.47457943e+01
-6.18604445e+01
-4.23042321e+01
-2.22758740e+01
-1.65516297e+01
3.93440399e+01
2.28274899e+01
2.70713377e+01
3.49059105e-02
3.80962706e+00
-3.51819217e-01
2.47958779e+00
4.35917807e+00
5.23769951e+00
-2.46936083e+00
-4.54262257e+00
-1.59323797e+01
-2.98926468e+01
-3.09720688e+01
-3.09532423e+01
-2.97385793e+01
-3.62870731e+01
-3.53872695e+01
-3.89003019e+01
-4.07878599e+01
-3.69434643e+01
-4.06309710e+01
-3.46926861e+01
-3.15577683e+01
-4.34863358e+01
-3.92914925e+01
-2.73113251e+01
-3.93519855e+01
-3.04874287e+01
-1.94866867e+01
-1.01486294e+01
-9.97889996e+00
-6.69684792e+00
-1.20713749e+02
-1.35824860e+02
-1.27502613e+01
1.16824090e+00
1.32075143e+00
1.99474845e+01
1.77338845e+00
-1.58029366e+00
-8.94233990e+00
-5.46351433e-01
1.68962722e+01
-4.98760223e+01
1.50047448e+01
1.36266947e+00
7.31087947e+00
-1.64449682e+01
-1.98961735e+01
-1.66862912e+01
-1.03542595e+02
-1.56366714e+02
-2.87380454e+01
-3.53117242e+01
-7.30926335e+00
-6.72429911e+00
5.26195741e+00
-2.64966114e+01
-2.04741039e+01
-3.19978836e+01
-3.64062138e+01
-1.46766987e+01
2.31737242e+01
6.06733322e-01
-1.55856590e+01
-5.41005945e+00
</DataArray>
<DataArray type="Float32" Name="Logarithmic_strain_Max_Principal" format="ascii">
2.39361366e-02
2.93331451e-02
3.35250064e-02
2.46005361e-02
2.73097500e-02
3.73922653e-02
5.29948603e-02
3.48910890e-02
3.54766836e-02
4.37690448e-02
6.02113754e-02
6.61307108e-02
2.07047633e-05
2.07598787e-05
2.39321835e-05
4.15675186e-05
1.47225264e-05
1.26379064e-05
1.68960487e-05
1.92421430e-05
3.36883701e-02
3.43135297e-02
3.66741307e-02
3.47196776e-02
4.19719983e-02
4.07503257e-02
4.16159150e-02
4.27613193e-02
3.72235663e-02
3.94683061e-02
3.80633064e-02
3.93114137e-02
3.82415187e-02
4.14015502e-02
3.65827931e-02
3.67198875e-02
3.91418627e-02
4.34381682e-02
3.43621848e-02
3.61236506e-02
3.62974331e-02
4.00811317e-02
2.96638026e-02
3.54059716e-02
3.45869008e-02
3.84454671e-02
2.99915634e-02
3.48565727e-02
4.19671326e-02
4.02676463e-02
4.51547573e-02
4.24053231e-02
3.87398813e-02
4.38962192e-02
5.45742482e-02
3.99082793e-02
5.21411840e-02
4.11100589e-02
4.81066210e-02
4.26381035e-02
4.65461276e-02
4.13480140e-02
4.10599868e-02
3.59483026e-02
4.99103016e-02
4.06288365e-02
6.10132599e-02
5.88469781e-02
9.52241346e-02
3.58663512e-02
2.76617794e-02
2.90810829e-02
4.09025537e-02
4.14429642e-02
2.70885220e-02
4.69699113e-02
5.07877218e-02
3.84362009e-02
6.24670982e-02
5.67595989e-02
3.16106193e-02
5.00275930e-02
5.34206070e-02
6.85070464e-02
6.78211662e-02
6.48377935e-02
5.21704033e-02
4.85382881e-02
5.21553727e-02
5.49749741e-02
4.29827012e-02
4.71107322e-02
4.03293138e-02
4.18264023e-02
3.69798969e-02
3.63498447e-02
3.44838379e-02
3.22601548e-02
3.58227845e-02
3.39642521e-02
6.14489010e-02
6.24140231e-02
5.03794178e-02
3.64735413e-02
2.91720009e-02
2.74332259e-02
2.86501876e-02
6.80571261e-02
6.96243246e-02
5.38425129e-02
3.06768947e-02
4.87179272e-02
1.32195282e-02
7.46162292e-02
7.85529663e-02
7.45523069e-02
7.48387016e-02
7.38920374e-02
7.24098254e-02
6.30418845e-02
7.05095623e-02
7.86137227e-02
5.55506507e-02
5.40688680e-02
8.11158270e-02
4.50572707e-02
3.21565065e-02
2.61423863e-02
6.01242173e-05
2.22511007e-05
4.40120020e-05
6.85825871e-05
1.94303988e-04
6.83388826e-05
4.23666024e-05
2.59952962e-04
5.58952615e-02
5.12786917e-02
5.73914954e-02
6.10834993e-02
4.51953337e-02
4.99418862e-02
4.59799673e-02
4.52371314e-02
4.40171305e-02
4.07521520e-02
4.08820193e-02
3.77038540e-02
4.58525568e-02
3.94048095e-02
6.70649949e-02
6.88323379e-02
5.60519332e-02
3.79583328e-02
2.43317378e-02
1.97477096e-02
1.95972929e-02
7.39050806e-02
8.09871480e-02
4.91135704e-02
1.94863271e-02
4.90752285e-03
8.17595792e-03
3.02637258e-03
8.02567409e-03
3.73943179e-03
3.54631543e-02
8.17640964e-03
4.39647660e-02
2.06420289e-03
1.43591747e-03
4.98495541e-04
2.88683754e-04
6.41047205e-04
7.79943606e-04
1.14469409e-01
1.03713810e-01
8.71570085e-02
9.82391424e-02
1.34302623e-04
9.13882261e-03
1.06558575e-04
8.74439515e-02
8.23327526e-02
6.97099939e-02
8.29400271e-02
3.77411023e-02
4.79563940e-02
1.23959660e-02
2.82758701e-04
3.52538591e-05
</DataArray>
<DataArray type="Float32" Name="Logarithmic_strain_Min_Principal" format="ascii">
-3.21942298e-02
-3.80677276e-02
-4.86723529e-02
-3.82939205e-02
-3.87266907e-02
-5.05077642e-02
-6.61376966e-02
-4.72125886e-02
-5.37525099e-02
-7.54918344e-02
-8.56502031e-02
-9.18405950e-02
-1.91761656e-05
-1.85402209e-05
-2.93545390e-05
-3.37638285e-05
-9.03450109e-06
-7.05185221e-06
-1.38792138e-05
-1.49284124e-05
-5.57806306e-02
-5.54411886e-02
-5.45688756e-02
-5.53218313e-02
-6.13149721e-02
-6.18586615e-02
-6.34486289e-02
-6.46416619e-02
-5.35250008e-02
-5.58371027e-02
-5.94321238e-02
-6.22652294e-02
-5.28196227e-02
-5.80308284e-02
-5.51343458e-02
-5.76565037e-02
-5.23863472e-02
-6.24241093e-02
-5.08140139e-02
-5.19795879e-02
-5.07362969e-02
-6.06282577e-02
-4.50864416e-02
-5.18873087e-02
-4.82688583e-02
-5.67525877e-02
-4.16632164e-02
-4.93429312e-02
-5.54802231e-02
-5.26571907e-02
-7.10823815e-02
-6.77228104e-02
-6.31744175e-02
-6.69929092e-02
-8.74597877e-02
-5.89085764e-02
-8.35702587e-02
-6.37164392e-02
-7.81349223e-02
-6.91655409e-02
-7.34772310e-02
-6.79336041e-02
-5.23720650e-02
-4.56787338e-02
-7.43438974e-02
-6.49164207e-02
-8.73339567e-02
-8.46789941e-02
-8.91359225e-02
-4.18516739e-02
-3.91421063e-02
-3.81595744e-02
-5.95488244e-02
-6.00688318e-02
-3.82574918e-02
-6.75945106e-02
-6.70112986e-02
-5.85615924e-02
-9.87521932e-02
-7.93409087e-02
-4.49843034e-02
-6.90662432e-02
-7.26524666e-02
-8.77755117e-02
-9.37649657e-02
-7.62049506e-02
-7.00382926e-02
-6.94950968e-02
-7.23868497e-02
-7.42145013e-02
-6.66981880e-02
-6.71340628e-02
-6.13357918e-02
-5.95827661e-02
-5.50931143e-02
-5.15127298e-02
-4.96721426e-02
-4.67584818e-02
-4.89055980e-02
-4.74629132e-02
-8.07106784e-02
-8.62098075e-02
-6.64598336e-02
-4.63796207e-02
-3.76498667e-02
-3.48681957e-02
-3.54753205e-02
-9.06421666e-02
-9.43009431e-02
-6.57887229e-02
-2.95836615e-02
-5.14116623e-02
-8.67138645e-03
-1.07572421e-01
-1.08749253e-01
-9.76383649e-02
-1.11826504e-01
-1.10426474e-01
-1.04015926e-01
-1.01650469e-01
-1.05724625e-01
-9.99122187e-02
-6.43548761e-02
-5.90494545e-02
-5.20854369e-02
-3.28208320e-02
-1.87866079e-02
-2.51488392e-02
-4.25101643e-05
-2.61187506e-05
-3.86705251e-05
-4.52719250e-05
-1.48412885e-04
-1.19009646e-04
-8.65325019e-05
-3.58864044e-04
-7.47660175e-02
-7.33236894e-02
-7.48618394e-02
-7.75616318e-02
-6.98300935e-02
-6.86472282e-02
-6.40903525e-02
-6.11125855e-02
-5.79826608e-02
-5.36195450e-02
-5.46814092e-02
-4.75711161e-02
-5.65910377e-02
-4.83446773e-02
-8.66792854e-02
-9.64521654e-02
-6.54715085e-02
-4.42098938e-02
-2.82887951e-02
-1.94799621e-02
-1.85174607e-02
-1.21101923e-01
-1.36714458e-01
-5.97878632e-02
-1.63537334e-02
-1.93236301e-03
-5.30304101e-03
-1.59162348e-03
-7.82428531e-03
-4.20624705e-03
-2.55564172e-02
-4.94494312e-03
-6.55615255e-02
-1.66634858e-03
-1.59764537e-03
-3.09762007e-04
-2.36585336e-04
-8.30924168e-04
-1.28691355e-03
-1.70706108e-01
-1.81552708e-01
-1.25357678e-01
-1.34372208e-01
-1.30514142e-04
-4.63984156e-03
-1.40338165e-04
-1.12536035e-01
-1.11148246e-01
-1.04204744e-01
-1.01656202e-01
-3.96788754e-02
-4.46169768e-02
-1.37888035e-02
-4.61085699e-04
-1.05339583e-04
</DataArray>
<DataArray type="Float32" Name="Plastic_strain_Max_Principal" format="ascii">
2.36773191e-02
2.83589226e-02
3.59097174e-02
2.45016706e-02
2.93282053e-02
3.46119835e-02
5.45483222e-02
3.98206231e-02
3.89736178e-02
4.35616430e-02
6.64739050e-02
6.48397207e-02
0.00000000e+00
0.00000000e+00
0.00000000e+00
0.00000000e+00
0.00000000e+00
0.00000000e+00
0.00000000e+00
0.00000000e+00
3.36056035e-02
3.41500361e-02
3.65330628e-02
3.45361307e-02
4.17665970e-02
4.06222120e-02
4.14392762e-02
4.26228726e-02
3.70282065e-02
3.92431985e-02
3.78795099e-02
3.92376152e-02
3.80596546e-02
4.09751614e-02
3.63709861e-02
3.65283857e-02
3.88236949e-02
4.31570192e-02
3.42056779e-02
3.57504431e-02
3.59184183e-02
3.98259540e-02
2.94068092e-02
3.51147060e-02
3.41690611e-02
3.80411521e-02
2.96709845e-02
3.44415195e-02
4.16755611e-02
4.01091231e-02
4.51885676e-02
4.22849404e-02
3.89079090e-02
4.37908820e-02
5.53932928e-02
4.12938371e-02
5.27458144e-02
4.13745925e-02
4.86098668e-02
4.31020772e-02
4.67604361e-02
4.16646991e-02
4.08352182e-02
3.56907574e-02
5.04938838e-02
4.03095586e-02
6.19564112e-02
6.03052594e-02
9.02983844e-02
4.95562218e-02
2.72687109e-02
2.88372119e-02
3.71287518e-02
3.70222251e-02
2.80274069e-02
5.44887462e-02
4.89363763e-02
3.93277411e-02
6.73475806e-02
5.79446644e-02
3.08649959e-02
3.29666799e-02
5.50882425e-02
7.03618852e-02
6.74538948e-02
6.44186524e-02
5.19588366e-02
4.83947517e-02
5.19561968e-02
5.48073351e-02
4.28870637e-02
4.69967853e-02
4.02144454e-02
4.17255810e-02
3.68701797e-02
3.64421615e-02
3.43562914e-02
3.18669900e-02
3.56957261e-02
3.35481977e-02
6.08001482e-02
6.73824307e-02
4.51523348e-02
3.66640368e-02
2.80592003e-02
2.78825560e-02
2.92664493e-02
7.10221132e-02
6.86281373e-02
5.73634952e-02
2.44526747e-02
4.54571582e-02
1.71241223e-02
8.51517431e-02
8.84048293e-02
7.34774992e-02
6.32865302e-02
5.81101351e-02
7.49446806e-02
6.20147120e-02
7.45260380e-02
7.89384861e-02
4.62950855e-02
4.67771590e-02
3.87956165e-02
1.69157032e-02
3.52730001e-02
1.85344496e-02
0.00000000e+00
0.00000000e+00
0.00000000e+00
0.00000000e+00
3.45065795e-05
0.00000000e+00
0.00000000e+00
6.84104064e-05
5.57220466e-02
5.10891285e-02
5.72763272e-02
6.09076675e-02
4.51032761e-02
4.98438999e-02
4.59009465e-02
4.50131092e-02
4.38653808e-02
4.11910219e-02
4.07402571e-02
3.93449115e-02
4.57025543e-02
4.07196209e-02
7.21790195e-02
6.61564581e-02
5.35832224e-02
4.06300081e-02
2.26353148e-02
1.33464225e-02
1.43838539e-02
7.22371116e-02
8.43205974e-02
5.44640745e-02
1.44344028e-02
5.85448771e-03
7.96096306e-03
2.02087301e-03
7.71080545e-03
3.43734416e-03
3.78759005e-02
1.81443579e-02
4.72159460e-02
1.57930652e-03
1.16634615e-03
1.54854212e-04
1.57882139e-04
4.21293254e-04
5.89058094e-04
1.10212214e-01
1.01437911e-01
9.41363052e-02
1.06318083e-01
5.85495889e-05
4.63765439e-03
0.00000000e+00
8.64523165e-02
8.18865299e-02
7.55185783e-02
8.82870369e-02
2.85328906e-02
2.66746590e-02
7.23287920e-03
1.32019777e-04
0.00000000e+00
</DataArray>
<DataArray type="Float32" Name="Plastic_strain_Min_Principal" format="ascii">
-3.20551314e-02
-3.31964883e-02
-5.27021093e-02
-3.77627620e-02
-3.39824761e-02
-4.50366481e-02
-6.96246959e-02
-5.60478531e-02
-5.81660420e-02
-6.99276533e-02
-9.23878551e-02
-8.52126852e-02
0.00000000e+00
0.00000000e+00
0.00000000e+00
0.00000000e+00
0.00000000e+00
0.00000000e+00
0.00000000e+00
0.00000000e+00
-5.52873947e-02
-5.48193026e-02
-5.42615019e-02
-5.47059262e-02
-6.09386209e-02
-6.12870706e-02
-6.29727943e-02
-6.40494218e-02
-5.31614460e-02
-5.54866465e-02
-5.87843917e-02
-6.16351287e-02
-5.25942752e-02
-5.76603082e-02
-5.46332942e-02
-5.71585679e-02
-5.20960065e-02
-6.18040166e-02
-5.04798936e-02
-5.18701673e-02
-5.05263889e-02
-6.03000126e-02
-4.50742142e-02
-5.14606251e-02
-4.82706688e-02
-5.67444507e-02
-4.19208836e-02
-4.90985923e-02
-5.50473034e-02
-5.23780975e-02
-7.02605946e-02
-6.72225421e-02
-6.27316189e-02
-6.55650725e-02
-8.34190294e-02
-6.10479436e-02
-8.11141115e-02
-6.21600010e-02
-7.67981689e-02
-6.71159262e-02
-7.25338347e-02
-6.60301633e-02
-5.17843749e-02
-4.57103159e-02
-7.50336434e-02
-6.45613894e-02
-8.44148621e-02
-8.48329395e-02
-1.03420615e-01
-4.64912951e-02
-3.92197860e-02
-3.81019595e-02
-4.47027537e-02
-4.53645284e-02
-4.02770671e-02
-8.26791977e-02
-6.42040260e-02
-5.77007262e-02
-1.01299059e-01
-7.93320037e-02
-4.35912795e-02
-4.37671349e-02
-7.63843320e-02
-8.97189192e-02
-9.10202737e-02
-7.70950144e-02
-6.95655383e-02
-6.89405762e-02
-7.16892127e-02
-7.36265425e-02
-6.59170244e-02
-6.62504099e-02
-6.04323652e-02
-5.86061217e-02
-5.43448757e-02
-5.12690791e-02
-4.92652906e-02
-4.62264125e-02
-4.84198406e-02
-4.66559939e-02
-7.48869665e-02
-9.38495789e-02
-5.80930585e-02
-4.65392186e-02
-3.64426452e-02
-3.51436318e-02
-3.59851327e-02
-9.35959208e-02
-8.94668152e-02
-7.04941265e-02
-2.40550639e-02
-5.53439036e-02
-1.12329909e-02
-1.25168482e-01
-1.25005764e-01
-9.15034339e-02
-8.79140097e-02
-8.43316349e-02
-1.09570347e-01
-9.94149484e-02
-1.08176451e-01
-9.88897718e-02
-5.21047233e-02
-5.00511378e-02
-3.24142314e-02
-8.51006992e-03
-2.04876546e-02
-1.67439796e-02
0.00000000e+00
0.00000000e+00
0.00000000e+00
0.00000000e+00
-5.26661624e-05
0.00000000e+00
0.00000000e+00
-9.15978162e-05
-7.42028952e-02
-7.26322941e-02
-7.43057095e-02
-7.69975968e-02
-6.89191632e-02
-6.77851848e-02
-6.30582049e-02
-5.97015489e-02
-5.69320563e-02
-5.32685434e-02
-5.37532717e-02
-4.89390902e-02
-5.50981723e-02
-4.91797868e-02
-9.47283227e-02
-9.01844464e-02
-6.14022706e-02
-4.76072840e-02
-2.68019438e-02
-1.33782753e-02
-1.17811798e-02
-1.11214802e-01
-1.33218154e-01
-6.64369365e-02
-1.16092087e-02
-3.76987587e-03
-5.28064501e-03
-1.65792737e-03
-7.29413156e-03
-4.16903128e-03
-2.85389638e-02
-1.31549509e-02
-7.01939389e-02
-1.58454300e-03
-1.53110217e-03
-1.12770684e-04
-1.40244803e-04
-5.13873936e-04
-9.65962419e-04
-1.55289724e-01
-1.64908469e-01
-1.36715685e-01
-1.45987388e-01
-4.43825704e-05
-3.00989874e-03
0.00000000e+00
-1.10055681e-01
-1.10449307e-01
-1.12725183e-01
-1.08720191e-01
-2.40938910e-02
-1.94274730e-02
-9.47524639e-03
-2.00402283e-04
0.00000000e+00
</DataArray>
</PointData>
<Cells>
<DataArray type="Int32" Name="connectivity" format="ascii">
0 1 2 3 4 5 6 7
1 8 9 2 5 10 11 6
12 13 14 15 16 17 18 19
20 21 22 23 24 25 26 27
21 28 29 22 25 30 31 26
28 32 33 29 30 34 35 31
32 36 37 33 34 38 39 35
36 40 41 37 38 42 43 39
40 44 45 41 42 46 47 43
23 22 48 49 27 26 50 51
22 29 52 48 26 31 53 50
29 33 54 52 31 35 55 53
33 37 56 54 35 39 57 55
37 41 58 56 39 43 59 57
41 45 60 58 43 47 61 59
49 48 62 63 51 50 64 65
48 52 66 62 50 53 67 64
52 54 68 66 53 55 69 67
63 62 70 71 65 64 72 73
71 70 4 74 73 72 75 76
70 77 5 4 72 78 79 75
74 4 7 80 76 75 81 82
4 5 6 7 75 79 83 81
5 10 11 6 79 84 85 83
24 25 26 27 86 87 88 89
25 30 31 26 87 90 91 88
30 34 35 31 90 92 93 91
34 38 39 35 92 94 95 93
38 42 43 39 94 96 97 95
42 46 47 43 96 98 99 97
27 26 50 51 89 88 100 101
26 31 53 50 88 91 102 100
31 35 55 53 91 93 103 102
35 39 57 55 93 95 104 103
39 43 59 57 95 97 105 104
43 47 61 59 97 99 106 105
51 50 64 65 101 100 107 108
50 53 67 64 100 102 109 107
53 55 69 67 102 103 110 109
55 57 111 69 103 104 112 110
65 64 72 73 108 107 113 114
64 67 78 72 107 109 115 113
73 72 75 76 114 113 116 117
76 75 81 82 117 116 118 119
75 79 83 81 116 120 121 118
79 84 85 83 120 122 123 121
84 124 125 85 122 126 127 123
128 129 130 131 132 133 134 135
86 87 88 89 136 137 138 139
87 90 91 88 137 140 141 138
90 92 93 91 140 142 143 141
92 94 95 93 142 144 145 143
94 96 97 95 144 146 147 145
96 98 99 97 146 148 149 147
89 88 100 101 139 138 150 151
88 91 102 100 138 141 152 150
91 93 103 102 141 143 153 152
93 95 104 103 143 145 154 153
95 97 105 104 145 147 155 154
97 99 106 105 147 149 156 155
101 100 107 108 151 150 157 158
100 102 109 107 150 152 159 157
102 103 110 109 152 153 160 159
103 104 112 110 153 154 161 160
104 105 162 112 154 155 163 161
105 106 164 162 155 156 165 163
109 110 166 115 159 160 167 168
110 112 169 166 160 161 170 167
112 162 171 169 161 163 172 170
162 164 173 171 163 165 174 172
114 113 116 117 175 176 177 178
169 171 132 126 170 172 179 180
171 173 133 132 172 174 181 179
117 116 118 119 178 177 182 183
116 120 121 118 177 184 185 182
120 122 123 121 184 186 187 185
122 126 127 123 186 180 188 187
126 132 135 127 180 179 189 188
132 133 134 135 179 181 190 189
</DataArray>
<DataArray type="Int32" Name="offsets" format="ascii">
8
16
24
32
40
48
56
64
72
80
88
96
104
112
120
128
136
144
152
160
168
176
184
192
200
208
216
224
232
240
248
256
264
272
280
288
296
304
312
320
328
336
344
352
360
368
376
384
392
400
408
416
424
432
440
448
456
464
472
480
488
496
504
512
520
528
536
544
552
560
568
576
584
592
600
608
616
624
632
</DataArray>
<DataArray type="UInt8" Name="types" format="ascii">
12
12
12
12
12
12
12
12
12
12
12
12
12
12
12
12
12
12
12
12
12
12
12
12
12
12
12
12
12
12
12
12
12
12
12
12
12
12
12
12
12
12
12
12
12
12
12
12
12
12
12
12
12
12
12
12
12
12
12
12
12
12
12
12
12
12
12
12
12
12
12
12
12
12
12
12
12
12
12
</DataArray>
</Cells>
</Piece>
</UnstructuredGrid>
</VTKFile>
