<VTKFile type="UnstructuredGrid" version="0.1" byte_order="LittleEndian">
<UnstructuredGrid>
<Piece NumberOfPoints="191" NumberOfCells="79">
<Points>
<DataArray type="Float64" NumberOfComponents="3" format="ascii">
 1.03992081e+00  5.22462988e+00  1.89076650e+00
 2.06676412e+00  5.21379852e+00  1.91144156e+00
 2.06802344e+00  6.27009010e+00  1.87128353e+00
 1.03483057e+00  6.26386738e+00  1.86234164e+00
 1.03246319e+00  5.25908852e+00  2.83283520e+00
 2.07183456e+00  5.25554037e+00  2.84174132e+00
 2.06031656e+00  6.32778645e+00  2.79207635e+00
 1.03549480e+00  6.29765797e+00  2.79939795e+00
 3.11391830e+00  5.19781303e+00  1.93101215e+00
 3.12364769e+00  6.25877810e+00  1.87386560e+00
 3.11063170e+00  5.24715662e+00  2.82098246e+00
 3.15972137e+00  6.30577040e+00  2.74246454e+00
 5.11942148e+00  5.18773985e+00  2.00003457e+00
 6.11942101e+00  5.18967390e+00  2.00003147e+00
 6.11748505e+00  6.18968105e+00  1.99998295e+00
 5.11745834e+00  6.18775225e+00  1.99996650e+00
 5.11941242e+00  5.18780279e+00  3.00002265e+00
 6.11940527e+00  5.18974543e+00  3.00003886e+00
 6.11746359e+00  6.18973541e+00  2.99997282e+00
 5.11747980e+00  6.18779135e+00  2.99997735e+00
 0.00000000e+00  0.00000000e+00  2.74846625e+00
 1.04770875e+00  0.00000000e+00  2.74648571e+00
 1.05035830e+00  1.05223763e+00  2.75237989e+00
 0.00000000e+00  1.05031323e+00  2.75741982e+00
 0.00000000e+00  0.00000000e+00  3.66266394e+00
 1.06439900e+00  0.00000000e+00  3.66323066e+00
 1.06611884e+00  1.05212176e+00  3.66513133e+00
 0.00000000e+00  1.04879642e+00  3.67315865e+00
 2.10578561e+00  0.00000000e+00  2.73288512e+00
 2.09437013e+00  1.04448998e+00  2.74168396e+00
 2.12474990e+00  0.00000000e+00  3.65361500e+00
 2.12752438e+00  1.05494952e+00  3.65325356e+00
 3.15744114e+00  0.00000000e+00  2.71787596e+00
 3.15847921e+00  1.03981900e+00  2.72143650e+00
 3.18591952e+00  0.00000000e+00  3.63757133e+00
 3.17974901e+00  1.04819500e+00  3.63896990e+00
 4.21962595e+00  0.00000000e+00  2.70459318e+00
 4.22243834e+00  1.04151773e+00  2.69992232e+00
 4.23956442e+00  0.00000000e+00  3.62566090e+00
 4.23672485e+00  1.04012430e+00  3.61905503e+00
 5.28490591e+00  0.00000000e+00  2.68827415e+00
 5.28556347e+00  1.04429543e+00  2.69071007e+00
 5.29134941e+00  0.00000000e+00  3.61704397e+00
 5.29064512e+00  1.03896010e+00  3.60540175e+00
 6.34514618e+00  0.00000000e+00  2.68267012e+00
 6.34491062e+00  1.04470503e+00  2.68473172e+00
 6.33306551e+00  0.00000000e+00  3.61375427e+00
 6.34669828e+00  1.03899932e+00  3.60539961e+00
 1.03534770e+00  2.09861708e+00  2.77294683e+00
 0.00000000e+00  2.11234522e+00  2.77618742e+00
 1.06586087e+00  2.10540986e+00  3.68789434e+00
 0.00000000e+00  2.10546803e+00  3.68960190e+00
 2.09360981e+00  2.10017633e+00  2.75153255e+00
 2.13644052e+00  2.11177611e+00  3.66093397e+00
 3.14856553e+00  2.10655093e+00  2.71049452e+00
 3.18886805e+00  2.10549116e+00  3.60669374e+00
 4.21833134e+00  2.11792135e+00  2.70012736e+00
 4.22730589e+00  2.09218788e+00  3.58936286e+00
 5.28120661e+00  2.11069536e+00  2.70192432e+00
 5.28628874e+00  2.10341477e+00  3.59051943e+00
 6.33523512e+00  2.11679840e+00  2.69670343e+00
 6.33817387e+00  2.10597754e+00  3.58957815e+00
 1.03104079e+00  3.16915894e+00  2.81502771e+00
 0.00000000e+00  3.16599917e+00  2.81111598e+00
 1.06218994e+00  3.16664767e+00  3.72160721e+00
 0.00000000e+00  3.16524076e+00  3.73178959e+00
 2.08399677e+00  3.14845657e+00  2.78479433e+00
 2.15298724e+00  3.17134738e+00  3.65072441e+00
 3.06662607e+00  3.12677574e+00  2.49650002e+00
 3.21629548e+00  3.15211797e+00  3.54005933e+00
 1.03129292e+00  4.20909262e+00  2.84504890e+00
 0.00000000e+00  4.21683884e+00  2.83865380e+00
 1.04965413e+00  4.23002052e+00  3.78219604e+00
 0.00000000e+00  4.23689222e+00  3.76257038e+00
 0.00000000e+00  5.25307035e+00  2.82900453e+00
 1.04474866e+00  5.30046988e+00  3.76333761e+00
 0.00000000e+00  5.28176785e+00  3.75044441e+00
 2.07447243e+00  4.20971060e+00  2.87770367e+00
 2.11252284e+00  4.24246073e+00  3.75751996e+00
 2.10838270e+00  5.28112364e+00  3.76608300e+00
 0.00000000e+00  6.30129337e+00  2.78843188e+00
 1.06317604e+00  6.35414648e+00  3.69590163e+00
 0.00000000e+00  6.36961460e+00  3.71359873e+00
 2.10832500e+00  6.37476921e+00  3.69720244e+00
 3.14417434e+00  5.26007175e+00  3.64336085e+00
 3.22640920e+00  6.29709864e+00  3.64718986e+00
 0.00000000e+00  0.00000000e+00  4.56859064e+00
 1.08007109e+00  0.00000000e+00  4.56581497e+00
 1.08372748e+00  1.05389905e+00  4.56908798e+00
 0.00000000e+00  1.05012465e+00  4.57197475e+00
 2.14653993e+00  0.00000000e+00  4.56127548e+00
 2.15639234e+00  1.06260180e+00  4.56010294e+00
 3.20278215e+00  0.00000000e+00  4.55329514e+00
 3.20894051e+00  1.06488490e+00  4.55212164e+00
 4.25389719e+00  0.00000000e+00  4.54483652e+00
 4.24797010e+00  1.05862761e+00  4.54409695e+00
 5.29516125e+00  0.00000000e+00  4.54089403e+00
 5.28892803e+00  1.05268550e+00  4.53642607e+00
 6.32853031e+00  0.00000000e+00  4.53859282e+00
 6.33005285e+00  1.05718720e+00  4.53898907e+00
 1.09595919e+00  2.11469054e+00  4.57589102e+00
 0.00000000e+00  2.10455656e+00  4.58363914e+00
 2.17454004e+00  2.12643027e+00  4.55899620e+00
 3.22545695e+00  2.12702990e+00  4.53302479e+00
 4.25489044e+00  2.11387396e+00  4.51170397e+00
 5.27610493e+00  2.09773278e+00  4.49962854e+00
 6.30246258e+00  2.10370326e+00  4.49973392e+00
 1.09785807e+00  3.15899324e+00  4.61306190e+00
 0.00000000e+00  3.17726564e+00  4.62869740e+00
 2.19550657e+00  3.16538024e+00  4.55205822e+00
 3.26071668e+00  3.15806699e+00  4.48379850e+00
 4.24499893e+00  3.06938577e+00  3.41979408e+00
 4.27678347e+00  3.14137888e+00  4.46311283e+00
 1.10330260e+00  4.22480297e+00  4.68739891e+00
 0.00000000e+00  4.21164465e+00  4.64814425e+00
 2.20765495e+00  4.20862770e+00  4.58887863e+00
 1.08535922e+00  5.33244133e+00  4.62159967e+00
 0.00000000e+00  5.33994865e+00  4.62204361e+00
 1.10325301e+00  6.43521070e+00  4.58896065e+00
 0.00000000e+00  6.42987728e+00  4.60215712e+00
 2.15690589e+00  5.30552197e+00  4.62590027e+00
 2.23655963e+00  6.37940931e+00  4.59724045e+00
 3.24032402e+00  5.22133255e+00  4.51066923e+00
 3.33894897e+00  6.24961090e+00  4.53958130e+00
 4.06232309e+00  5.19450712e+00  3.34829259e+00
 4.20540714e+00  6.18920612e+00  3.43129230e+00
 4.30980396e+00  5.14144182e+00  4.46181059e+00
 4.32777500e+00  6.14276314e+00  4.46215868e+00
 5.31014061e+00  5.12499666e+00  3.46195412e+00
 6.30998659e+00  5.10833788e+00  3.46193576e+00
 6.32665110e+00  6.10820436e+00  3.46197748e+00
 5.32675219e+00  6.12489748e+00  3.46204662e+00
 5.31010580e+00  5.12497616e+00  4.46195364e+00
 6.31004238e+00  5.10830164e+00  4.46195650e+00
 6.32665157e+00  6.10817671e+00  4.46197033e+00
 5.32688189e+00  6.12474251e+00  4.46204042e+00
 0.00000000e+00  0.00000000e+00  5.46198511e+00
 1.08505511e+00  0.00000000e+00  5.46198511e+00
 1.09195697e+00  1.05800259e+00  5.46198511e+00
 0.00000000e+00  1.05200398e+00  5.46198511e+00
 2.15764999e+00  0.00000000e+00  5.46198511e+00
 2.16429663e+00  1.06754291e+00  5.46198511e+00
 3.21008325e+00  0.00000000e+00  5.46198511e+00
 3.22059917e+00  1.07238543e+00  5.46198511e+00
 4.25640202e+00  0.00000000e+00  5.46198511e+00
 4.25747585e+00  1.07172227e+00  5.46198511e+00
 5.29484034e+00  0.00000000e+00  5.46198511e+00
 5.29053974e+00  1.06669080e+00  5.46198511e+00
 6.33484602e+00  0.00000000e+00  5.46198511e+00
 6.31291008e+00  1.07548487e+00  5.46198511e+00
 1.11126494e+00  2.10495567e+00  5.46198511e+00
 0.00000000e+00  2.09958982e+00  5.46198511e+00
 2.19587159e+00  2.12738705e+00  5.46198511e+00
 3.23935962e+00  2.13771439e+00  5.46198511e+00
 4.26578236e+00  2.12782121e+00  5.46198511e+00
 5.27364588e+00  2.11340499e+00  5.46198511e+00
 6.29077578e+00  2.11337161e+00  5.46198511e+00
 1.12002802e+00  3.19886136e+00  5.46198511e+00
 0.00000000e+00  3.20498514e+00  5.46198511e+00
 2.22745395e+00  3.17462683e+00  5.46198511e+00
 3.27550077e+00  3.16744661e+00  5.46198511e+00
 4.27746201e+00  3.14217520e+00  5.46198511e+00
 5.27719736e+00  3.12430692e+00  4.46129274e+00
 5.27773094e+00  3.12501907e+00  5.46198511e+00
 6.27919054e+00  3.11043096e+00  4.46067953e+00
 6.27941561e+00  3.11216784e+00  5.46198511e+00
 3.29377604e+00  4.15946436e+00  4.44676018e+00
 3.30214691e+00  4.17035580e+00  5.46198511e+00
 2.29076242e+00  4.19983292e+00  5.46198511e+00
 4.29376316e+00  4.14116859e+00  4.46223736e+00
 4.29391718e+00  4.14138174e+00  5.46198511e+00
 5.29354668e+00  4.12516642e+00  4.46193218e+00
 5.29363394e+00  4.12506866e+00  5.46198511e+00
 6.29329109e+00  4.10870266e+00  4.46202421e+00
 6.29319954e+00  4.10855484e+00  5.46198511e+00
 0.00000000e+00  4.18304777e+00  5.46198511e+00
 1.13278365e+00  4.21060514e+00  5.46198511e+00
 1.11709201e+00  5.35964394e+00  5.46198511e+00
 0.00000000e+00  5.38013649e+00  5.46198511e+00
 5.31005287e+00  5.12497234e+00  5.46198511e+00
 4.31020737e+00  5.14151621e+00  5.46198511e+00
 6.31007767e+00  5.10832596e+00  5.46198511e+00
 1.12582374e+00  6.45565367e+00  5.46198511e+00
 0.00000000e+00  6.44721985e+00  5.46198511e+00
 2.19691563e+00  5.31180954e+00  5.46198511e+00
 2.28385329e+00  6.37516165e+00  5.46198511e+00
 3.25786877e+00  5.20118952e+00  5.46198511e+00
 3.35905886e+00  6.23484850e+00  5.46198511e+00
 4.32815361e+00  6.14197731e+00  5.46198511e+00
 5.32689762e+00  6.12468147e+00  5.46198511e+00
 6.32664680e+00  6.10817432e+00  5.46198511e+00
</DataArray>
</Points>
<PointData Tensors="Stress_Components,Plastic_strain_components" Vevtors="Spatial_displacement,Reaction_force" Scalars="Equivalent_plastic_strain,Stress_Mises,Stress_Max_Principal,Stress_Mid_Principal,Stress_Min_Principal,Stress_Pressure,Stress_Tresca,Stress_Third_Invariant,Plastic_strain_Max_Principal,Plastic_strain_Min_Principal">
<DataArray type="Float32" Name="Stress_Components" NumberOfComponents="9" format="ascii">
1.65077259e+01 -2.11741626e-02 2.23418809e-01 -2.11741626e-02 1.36685272e+01 9.14507215e-02 2.23418809e-01 9.14507215e-02 2.84849447e+00
4.39218098e+00 -2.76515444e+00 8.90267279e-01 -2.76515444e+00 3.73236072e+00 2.42791333e+00 8.90267279e-01 2.42791333e+00 -1.89010259e+01
-1.04226899e+01 -2.60202542e-01 1.31898578e+00 -2.60202542e-01 -4.06239223e+00 -2.59224315e+00 1.31898578e+00 -2.59224315e+00 -4.50902805e+01
-2.23742884e+00 -8.18233274e-01 -7.59033412e-02 -8.18233274e-01 -2.52699566e+00 -6.56568119e-02 -7.59033412e-02 -6.56568119e-02 -3.52432098e+01
1.62861440e+01 7.70088295e-02 9.50729167e-01 7.70088295e-02 1.70360748e+01 -3.32527366e-01 9.50729167e-01 -3.32527366e-01 5.99977624e+00
2.21559582e+01 -2.24497533e+00 3.06214606e+00 -2.24497533e+00 2.47770536e+01 5.33705473e-01 3.06214606e+00 5.33705473e-01 1.68123234e+01
-1.35538218e+01 -2.14081377e-01 5.91267392e-01 -2.14081377e-01 -6.38633490e-01 -8.19369964e-03 5.91267392e-01 -8.19369964e-03 -4.34000909e+01
1.14166894e+01 -1.62631828e-01 4.03283779e-01 -1.62631828e-01 1.02869524e+01 6.59303658e-01 4.03283779e-01 6.59303658e-01 -6.85798883e+00
-2.05411482e+01 -1.77224290e+00 -3.64941005e-01 -1.77224290e+00 -1.88517532e+01 6.11504894e+00 -3.64941005e-01 6.11504894e+00 -7.45911388e+01
-8.68148460e+01 -3.65962291e+00 -5.97302318e+00 -3.65962291e+00 -8.14089394e+01 4.79128039e+00 -5.97302318e+00 4.79128039e+00 -2.12054741e+02
-7.25410360e+01 8.50800959e+00 -2.71435037e+01 8.50800959e+00 -7.64947414e+01 -2.49512251e+00 -2.71435037e+01 -2.49512251e+00 -1.72124706e+02
-5.16933002e+01 1.79801464e-01 -5.28252435e+00 1.79801464e-01 -7.53362122e+01 -1.16633701e+00 -5.28252435e+00 -1.16633701e+00 -1.65409105e+02
-2.40469169e-01 -6.07721806e-01 -2.63818718e-01 -6.07721806e-01 2.96689203e-01 2.62663007e-01 -2.63818718e-01 2.62663007e-01 -4.38138276e-01
-4.30819269e-01 -4.31389064e-02 -9.83070731e-02 -4.31389064e-02 -9.98420641e-02 -2.44398333e-01 -9.83070731e-02 -2.44398333e-01 1.48834951e-01
6.92212999e-01 -1.46174446e-01 -1.10596187e-01 -1.46174446e-01 -1.06078871e-01 5.84180776e-01 -1.10596187e-01 5.84180776e-01 -9.67987537e-01
3.92938465e-01 -7.10960805e-01 8.28015804e-03 -7.10960805e-01 -1.99154021e-01 -5.22393674e-01 8.28015804e-03 -5.22393674e-01 -5.75773694e-01
2.35400736e-01 2.04432070e-01 3.69008780e-01 2.04432070e-01 6.60246164e-02 1.57484919e-01 3.69008780e-01 1.57484919e-01 -3.87670211e-02
-5.61833829e-02 2.33668946e-02 1.15367554e-01 2.33668946e-02 -1.61897570e-01 1.54238632e-02 1.15367554e-01 1.54238632e-02 4.80860621e-01
-5.15670367e-02 5.51541075e-02 -2.46947944e-01 5.51541075e-02 2.04841629e-01 -5.41410506e-01 -2.46947944e-01 -5.41410506e-01 1.09435186e-01
-3.19532990e-01 2.36250103e-01 -1.29588991e-01 2.36250103e-01 -1.26847014e-01 3.46107930e-01 -1.29588991e-01 3.46107930e-01 7.08947718e-01
1.05267072e+00 3.67737412e-02 2.00698242e-01 3.67737412e-02 1.81065702e+00 -3.17419982e-02 2.00698242e-01 -3.17419982e-02 -2.69297156e+01
1.72126458e+00 4.60660271e-01 7.37443417e-02 4.60660271e-01 1.69170600e+00 2.98344351e-01 7.37443417e-02 2.98344351e-01 -2.62748510e+01
5.99736346e+00 -2.46996228e-01 1.11290381e-01 -2.46996228e-01 6.59920577e+00 4.66993902e-01 1.11290381e-01 4.66993902e-01 -1.63342400e+01
1.53886238e+00 1.94357757e-01 2.17399575e-01 1.94357757e-01 2.98244619e+00 -2.17905283e-01 2.17399575e-01 -2.17905283e-01 -2.50862466e+01
6.47211242e+00 -2.96108546e-02 6.23028323e-01 -2.96108546e-02 5.33444929e+00 2.10523847e-01 6.23028323e-01 2.10523847e-01 -1.72132492e+01
3.95858943e-01 2.23542735e-01 -1.82041310e-01 2.23542735e-01 -1.07844174e-01 1.11439010e+00 -1.82041310e-01 1.11439010e+00 -2.95994687e+01
4.16027257e+00 3.68388963e-01 3.13936647e-01 3.68388963e-01 3.53069377e+00 4.23797015e-01 3.13936647e-01 4.23797015e-01 -2.16656404e+01
1.12426883e+00 3.67793344e-01 6.60236027e-01 3.67793344e-01 -4.06612247e-01 -6.65522452e-01 6.60236027e-01 -6.65522452e-01 -2.91514010e+01
6.69876254e+00 -8.25684085e-01 1.70737864e-01 -8.25684085e-01 5.89089513e+00 -3.38136993e-02 1.70737864e-01 -3.38136993e-02 -1.63598496e+01
6.02667426e+00 -5.33988426e-01 8.56654992e-01 -5.33988426e-01 5.95504689e+00 9.06402395e-01 8.56654992e-01 9.06402395e-01 -1.68022207e+01
3.10133994e-01 1.12194242e-01 1.51289795e-02 1.12194242e-01 3.30597341e-01 3.67391119e-01 1.51289795e-02 3.67391119e-01 -2.93589656e+01
-1.39626795e+00 7.34665587e-02 1.09068467e+00 7.34665587e-02 -4.59162295e-02 1.85105109e+00 1.09068467e+00 1.85105109e+00 -3.12743546e+01
6.75990021e+00 1.31784691e-01 2.72461265e-01 1.31784691e-01 5.68428117e+00 6.14470359e-01 2.72461265e-01 6.14470359e-01 -1.64441512e+01
1.11307243e+01 -5.95967136e-02 6.67196661e-02 -5.95967136e-02 9.60022512e+00 -3.53952236e-02 6.67196661e-02 -3.53952236e-02 -7.56558192e+00
3.43185444e+00 -7.34059200e-01 3.28393511e-01 -7.34059200e-01 2.39148816e+00 8.95466292e-01 3.28393511e-01 8.95466292e-01 -2.36151230e+01
3.29460743e+00 -6.53480849e-01 5.02952695e-01 -6.53480849e-01 3.28866881e+00 7.45969840e-01 5.02952695e-01 7.45969840e-01 -2.27500237e+01
9.20488405e+00 1.23725541e-01 -1.35693090e-01 1.23725541e-01 7.17954341e+00 4.44399884e-01 -1.35693090e-01 4.44399884e-01 -1.21469796e+01
5.21261382e+00 4.55233259e-02 -4.76423888e-01 4.55233259e-02 3.05508339e+00 9.26252306e-02 -4.76423888e-01 9.26252306e-02 -2.09602232e+01
6.89739180e+00 -3.19216903e-01 -2.21790507e-01 -3.19216903e-01 5.11940873e+00 5.71706519e-01 -2.21790507e-01 5.71706519e-01 -1.69548800e+01
1.49132574e+01 -4.13334744e-01 3.21522139e-01 -4.13334744e-01 1.36576339e+01 -2.41559083e-01 3.21522139e-01 -2.41559083e-01 8.62941265e-01
1.24153535e+01 -1.82016492e-01 -8.87901254e-03 -1.82016492e-01 1.07405425e+01 -3.72878276e-03 -8.87901254e-03 -3.72878276e-03 -4.86351311e+00
9.45644784e+00 3.02353399e-02 -3.24392013e-01 3.02353399e-02 6.91223156e+00 7.18239089e-02 -3.24392013e-01 7.18239089e-02 -1.21902096e+01
1.60702509e+01 -1.23236784e-01 -1.50813341e-01 -1.23236784e-01 1.60958451e+01 -3.22518300e-01 -1.50813341e-01 -3.22518300e-01 4.76076221e+00
7.93345095e+00 -2.12696815e-01 -1.88442261e-01 -2.12696815e-01 6.53085241e+00 -3.47492804e-01 -1.88442261e-01 -3.47492804e-01 -1.43028063e+01
1.38590903e+01 -1.13697454e-01 -8.38880846e-02 -1.13697454e-01 1.30743084e+01 -3.06312591e-01 -8.38880846e-02 -3.06312591e-01 -7.34170914e-01
1.74966145e+01 2.33487818e-01 -4.48268821e-01 2.33487818e-01 1.55131336e+01 3.00109442e-02 -4.48268821e-01 3.00109442e-02 5.68807507e+00
1.90308714e+01 4.71991524e-01 2.41078958e-02 4.71991524e-01 1.97568505e+01 -7.12539870e-01 2.41078958e-02 -7.12539870e-01 1.20242357e+01
1.21109768e+01 5.43856844e-01 3.37290097e-01 5.43856844e-01 1.08865402e+01 -9.35937902e-01 3.37290097e-01 -9.35937902e-01 -4.93955469e+00
2.55781627e+00 -8.13354217e-01 1.43499865e+00 -8.13354217e-01 4.97428590e+00 4.44002561e-02 1.43499865e+00 4.44002561e-02 -2.12868296e+01
3.31808662e+00 -1.09524918e+00 1.00280752e+00 -1.09524918e+00 6.76290077e+00 -2.75563980e-01 1.00280752e+00 -2.75563980e-01 -1.87277224e+01
-5.03077564e+00 4.55431283e-01 2.44576807e+00 4.55431283e-01 -6.29314655e+00 2.10915271e+00 2.44576807e+00 2.10915271e+00 -4.16833515e+01
8.62395048e-01 -1.03755645e-01 5.00649109e-01 -1.03755645e-01 1.10574126e+00 -6.92686595e-02 5.00649109e-01 -6.92686595e-02 -2.79273269e+01
1.60067454e+01 2.67850967e+00 4.13061633e+00 2.67850967e+00 1.44265091e+01 3.39378618e+00 4.13061633e+00 3.39378618e+00 -3.60666643e+00
-6.37158662e+00 9.15506051e-01 -1.82655603e-02 9.15506051e-01 -6.17666960e+00 2.60192720e-01 -1.82655603e-02 2.60192720e-01 -4.21940144e+01
-7.89574776e+01 -6.51608714e+00 -1.71105173e+01 -6.51608714e+00 -7.97079613e+01 -2.06129067e+00 -1.71105173e+01 -2.06129067e+00 -1.82483018e+02
1.27013811e+01 1.41089953e+00 3.98631326e-01 1.41089953e+00 1.66081373e+01 1.40232749e+00 3.98631326e-01 1.40232749e+00 -2.98279858e+00
-5.10275755e+01 -1.26940796e+00 -4.08015841e+00 -1.26940796e+00 -4.64210501e+01 1.23488699e+00 -4.08015841e+00 1.23488699e+00 -1.34909885e+02
-3.66576281e+01 -1.84785509e+00 -1.73269206e+01 -1.84785509e+00 -4.59216122e+01 -1.16537072e+00 -1.73269206e+01 -1.16537072e+00 -9.75673573e+01
-3.38796430e+01 -1.57367132e+00 -1.11704633e-01 -1.57367132e+00 -2.96680622e+01 1.61974376e+00 -1.11704633e-01 1.61974376e+00 -9.85284958e+01
-4.55190964e+01 -3.40933315e-01 -4.39530927e+00 -3.40933315e-01 -3.99774904e+01 -1.67123615e+00 -4.39530927e+00 -1.67123615e+00 -1.21920736e+02
-2.76913252e+01 -2.42407024e+00 -7.59495139e-01 -2.42407024e+00 -1.90633531e+01 3.07252675e-01 -7.59495139e-01 3.07252675e-01 -7.97954521e+01
-4.55930042e+01 -4.19634330e+00 -4.97983599e+00 -4.19634330e+00 -3.45196419e+01 -3.76302303e+00 -4.97983599e+00 -3.76302303e+00 -1.14241364e+02
2.33808395e+00 9.06312061e-02 2.92201201e+00 9.06312061e-02 5.15056683e+00 6.25630953e-01 2.92201201e+00 6.25630953e-01 -2.10590790e+01
1.26128073e+01 1.20666916e-01 1.16670153e+00 1.20666916e-01 1.38238635e+01 -3.23892460e-01 1.16670153e+00 -3.23892460e-01 -1.23933446e+00
-9.51783841e+00 -4.11877054e-01 3.83740318e+00 -4.11877054e-01 -9.94079072e+00 1.66518501e+00 3.83740318e+00 1.66518501e+00 -4.99520986e+01
4.76127003e+00 5.58379106e-02 1.60593893e+00 5.58379106e-02 6.31097021e+00 7.44384434e-02 1.60593893e+00 7.44384434e-02 -1.79544654e+01
-1.07822130e+02 -1.18354319e+01 9.51243091e+00 -1.18354319e+01 -9.82162628e+01 -1.54362058e+01 9.51243091e+00 -1.54362058e+01 -2.26566895e+02
-2.08700371e+01 2.51974331e+00 2.39190061e+00 2.51974331e+00 -2.80445669e+01 -2.93603830e+00 2.39190061e+00 -2.93603830e+00 -8.37724394e+01
1.13571075e+02 1.11495152e+01 1.69078751e+01 1.11495152e+01 1.09666573e+02 1.95166302e+01 1.69078751e+01 1.95166302e+01 1.77062714e+02
6.16577593e+00 -5.20857059e+00 -8.53375697e+00 -5.20857059e+00 3.87685966e+00 -6.00516248e+00 -8.53375697e+00 -6.00516248e+00 -5.50618521e+00
2.35713380e+01 -7.49098744e-02 -2.28310339e+00 -7.49098744e-02 2.37791784e+01 2.74477209e-01 -2.28310339e+00 2.74477209e-01 2.04435595e+01
1.34665514e+01 -3.92901734e-01 1.28909103e+00 -3.92901734e-01 1.38933489e+01 6.79170463e-01 1.28909103e+00 6.79170463e-01 1.82175636e-03
2.13072441e+01 -5.95988790e-01 -1.74052499e-01 -5.95988790e-01 2.32972055e+01 1.13766363e+00 -1.74052499e-01 1.13766363e+00 1.90982668e+01
7.91233063e+00 -9.00799619e-01 2.38681342e+00 -9.00799619e-01 8.60434008e+00 1.67624455e+00 2.38681342e+00 1.67624455e+00 -1.14571528e+01
1.44976325e+01 -3.02834529e-02 8.89789900e-02 -3.02834529e-02 1.45790071e+01 2.52777413e-01 8.89789900e-02 2.52777413e-01 1.50162554e+00
1.99272736e+01 4.32281224e-01 9.70513250e-01 4.32281224e-01 2.07783766e+01 3.33556397e-01 9.70513250e-01 3.33556397e-01 1.42700656e+01
2.61942554e+00 1.89294247e+00 1.51647508e-01 1.89294247e+00 5.26076794e+00 1.22264850e+00 1.51647508e-01 1.22264850e+00 -2.12072136e+01
-5.59804444e+01 1.69711211e+00 6.11487457e+00 1.69711211e+00 -5.23056280e+01 1.86686399e+01 6.11487457e+00 1.86686399e+01 -1.28018983e+02
-1.02872478e+02 -3.64518404e+00 1.32830281e+01 -3.64518404e+00 -1.00608986e+02 1.14623990e+01 1.32830281e+01 1.14623990e+01 -2.46544220e+02
-5.19237144e+00 -3.06812663e+00 -2.94320459e+00 -3.06812663e+00 7.96621799e-01 4.97668343e+00 -2.94320459e+00 4.97668343e+00 -3.31641186e+01
3.10247135e+00 -4.43380654e-01 -3.29554573e-01 -4.43380654e-01 5.26205349e+00 8.24171662e-01 -3.29554573e-01 8.24171662e-01 -2.09566364e+01
2.07074070e+00 1.25299245e+00 -1.33261888e+00 1.25299245e+00 3.76637936e-01 8.85756224e-01 -1.33261888e+00 8.85756224e-01 -2.73593502e+01
3.42626572e+00 -1.83491540e+00 2.40838563e+00 -1.83491540e+00 7.32782555e+00 -1.31782012e+00 2.40838563e+00 -1.31782012e+00 -1.80535259e+01
-2.25224080e+01 -3.53554530e+00 -4.26146829e+00 -3.53554530e+00 -1.71641264e+01 3.99390018e+00 -4.26146829e+00 3.99390018e+00 -6.85985489e+01
-8.83240573e+01 1.14694453e+01 2.30567296e-01 1.14694453e+01 -5.24687678e+01 -3.84537800e+01 2.30567296e-01 -3.84537800e+01 -1.26884717e+02
-3.15131565e+00 -3.83008381e+00 -8.62306063e-01 -3.83008381e+00 -8.29561551e+00 -4.13338534e+00 -8.62306063e-01 -4.13338534e+00 -3.72120730e+01
4.97197706e+00 -3.54294796e-02 2.08977409e-01 -3.54294796e-02 2.31646395e+00 -3.60458617e-02 2.08977409e-01 -3.60458617e-02 -2.19834676e+01
4.01770830e-01 1.33030443e-01 -3.57032530e-02 1.33030443e-01 -1.03989804e+00 7.36042713e-01 -3.57032530e-02 7.36042713e-01 -3.06037245e+01
7.44047035e-01 7.19460744e-01 2.70779045e-01 7.19460744e-01 -1.16665286e+00 3.91807265e-01 2.70779045e-01 3.91807265e-01 -3.03514194e+01
-1.13019347e-02 2.89391885e-01 4.21379976e-01 2.89391885e-01 -3.34560645e+00 -2.96866510e-01 4.21379976e-01 -2.96866510e-01 -3.34454384e+01
-5.35498673e+00 8.46720465e-01 -1.85961276e-01 8.46720465e-01 -3.77888614e+00 8.17400873e-01 -1.85961276e-01 8.17400873e-01 -3.97827041e+01
-6.32197535e+00 1.30119737e+00 5.01555080e-01 1.30119737e+00 -4.77581751e+00 1.51066657e+00 5.01555080e-01 1.51066657e+00 -4.16800077e+01
-6.56931907e+00 3.26755177e-01 5.57651915e-01 3.26755177e-01 -4.82046354e+00 3.94554049e-01 5.57651915e-01 3.94554049e-01 -4.23326623e+01
-1.29407182e+01 5.67036567e-01 6.94780307e-01 5.67036567e-01 -6.94035301e+00 1.80383793e+00 6.94780307e-01 1.80383793e+00 -5.07877607e+01
-4.38760793e+00 -1.23745306e+00 3.95682063e-01 -1.23745306e+00 -2.40490502e+00 5.59075642e-01 3.95682063e-01 5.59075642e-01 -3.72332851e+01
-2.25808772e+00 -7.10940214e-01 -2.19774224e-01 -7.10940214e-01 1.38109422e+00 -1.04126693e-01 -2.19774224e-01 -1.04126693e-01 -3.06958441e+01
4.23740083e+00 -5.66358492e-01 -5.11996076e-02 -5.66358492e-01 6.65110090e+00 -5.91229446e-01 -5.11996076e-02 -5.91229446e-01 -1.80857395e+01
8.20587432e+00 -1.12044221e+00 -2.48853220e-01 -1.12044221e+00 9.16964281e+00 -8.43621548e-02 -2.48853220e-01 -8.43621548e-02 -1.11591682e+01
3.47796917e-01 4.14635763e-01 7.88124710e-01 4.14635763e-01 5.01699126e+00 -1.35821315e+00 7.88124710e-01 -1.35821315e+00 -2.36821840e+01
-3.47967854e+00 -1.17888792e+00 5.02378643e-02 -1.17888792e+00 1.26924872e-01 -2.12542555e+00 5.02378643e-02 -2.12542555e+00 -3.29210300e+01
-6.63926373e+00 1.40147295e+00 9.75468796e-01 1.40147295e+00 -1.05741345e+01 1.78600849e+00 9.75468796e-01 1.78600849e+00 -4.81613991e+01
-1.67937946e+00 8.10799375e-01 3.10818017e-01 8.10799375e-01 -5.46973324e+00 -1.21638780e-01 3.10818017e-01 -1.21638780e-01 -3.75228825e+01
-7.88633442e+00 2.76801728e+00 3.95586334e-01 2.76801728e+00 -8.26664996e+00 9.62442489e-01 3.95586334e-01 9.62442489e-01 -4.70294124e+01
6.55645287e+00 1.72415057e+00 -5.25481456e+00 1.72415057e+00 8.36821961e+00 -5.88466011e-01 -5.25481456e+00 -5.88466011e-01 -1.08923982e+01
1.18214771e+01 -1.64950199e-01 -2.52640081e+00 -1.64950199e-01 1.71043115e+01 -8.20550376e-02 -2.52640081e+00 -8.20550376e-02 6.16183622e-02
-8.62012434e+00 -2.45890675e+00 -7.22439025e+00 -2.45890675e+00 -2.47353450e+00 -1.88245216e+00 -7.22439025e+00 -1.88245216e+00 -3.87617264e+01
-4.31081200e+00 -5.43562937e+00 -8.89290027e+00 -5.43562937e+00 -8.10245037e+00 -2.40077055e+00 -8.89290027e+00 -2.40077055e+00 -3.83739700e+01
-2.32056307e+01 2.24723528e-01 4.59730458e+00 2.24723528e-01 -3.21968307e+01 -3.17954769e-02 4.59730458e+00 -3.17954769e-02 -8.84002037e+01
-2.87698768e+01 -1.54634911e+00 4.19891622e+00 -1.54634911e+00 -3.32941399e+01 -3.05685518e-01 4.19891622e+00 -3.05685518e-01 -9.66004826e+01
1.28351897e+01 2.20024695e+00 -4.81648983e-01 2.20024695e+00 7.93010585e+00 -4.22615726e+00 -4.81648983e-01 -4.22615726e+00 -6.10179623e+00
3.53380893e+01 1.91202108e+00 -2.45485204e+00 1.91202108e+00 3.19935163e+01 5.15847206e-02 -2.45485204e+00 5.15847206e-02 4.12331645e+01
7.85481339e+01 3.76249075e+00 2.50034409e+01 3.76249075e+00 9.37457352e+01 6.45756912e+00 2.50034409e+01 6.45756912e+00 1.22879082e+02
1.97344910e+01 -2.40664288e+00 -1.07181993e+00 -2.40664288e+00 1.42036698e+01 -3.28590837e+00 -1.07181993e+00 -3.28590837e+00 1.45936870e+01
-2.40140759e+01 -4.71421748e-01 2.04910696e-01 -4.71421748e-01 -2.17799280e+01 5.90771663e+00 2.04910696e-01 5.90771663e+00 -7.69466305e+01
6.54307048e-01 1.11330832e-01 -1.73750393e+00 1.11330832e-01 -1.13973300e+00 3.07959818e+00 -1.73750393e+00 3.07959818e+00 -3.03281492e+01
-1.02496899e+02 -1.16954951e+01 1.10054195e+01 -1.16954951e+01 -1.52089359e+02 -1.32966235e+01 1.10054195e+01 -1.32966235e+01 -2.92369148e+02
-3.20418183e+01 3.24555439e-01 -1.77594629e+00 3.24555439e-01 -2.73463407e+01 4.89285680e+00 -1.77594629e+00 4.89285680e+00 -9.32804146e+01
-1.29583552e+01 -5.17078605e-01 3.80491550e+00 -5.17078605e-01 -1.00008221e+01 -1.30483229e-01 3.80491550e+00 -1.30483229e-01 -5.46474824e+01
1.75678131e+01 -2.27799773e-01 2.15389164e+00 -2.27799773e-01 1.58128752e+01 5.61615661e-01 2.15389164e+00 5.61615661e-01 6.10807419e+00
8.69169664e+00 4.38202932e-01 5.60054094e-01 4.38202932e-01 7.55657578e+00 -7.69851141e-01 5.60054094e-01 -7.69851141e-01 -1.22970257e+01
-3.09203504e+01 8.12912762e-01 -5.60758956e-01 8.12912762e-01 -3.89730833e+01 -3.85800207e+00 -5.60758956e-01 -3.85800207e+00 -1.03661312e+02
-1.15376501e+01 -1.48994537e+00 -3.13951501e+00 -1.48994537e+00 -2.15506240e+01 6.76152998e+00 -3.13951501e+00 6.76152998e+00 -6.11459891e+01
1.10196173e+01 -1.03016299e+00 -3.71722549e-01 -1.03016299e+00 -6.84715629e+00 6.37713653e+00 -3.71722549e-01 6.37713653e+00 -3.56514276e+01
1.26352782e+01 -1.90228143e+00 2.07905212e+00 -1.90228143e+00 2.07093308e+01 -3.48326118e+00 2.07905212e+00 -3.48326118e+00 7.46632665e+00
9.01962967e+01 -3.83333707e+00 9.45695043e-01 -3.83333707e+00 6.32752075e+01 2.19406605e+01 9.45695043e-01 2.19406605e+01 8.76957932e+01
4.33046455e+01 2.60190701e+00 -1.54096276e-01 2.60190701e+00 3.89251022e+01 6.45187044e+00 -1.54096276e-01 6.45187044e+00 5.70923729e+01
8.98463845e+00 -2.68379560e+00 -2.15020100e+00 -2.68379560e+00 9.65968907e+00 5.29580802e-01 -2.15020100e+00 5.29580802e-01 9.15461766e+00
3.64564371e+00 -5.14120408e+00 -1.84370427e+00 -5.14120408e+00 1.36692435e+01 -4.00908466e+00 -1.84370427e+00 -4.00908466e+00 6.49213696e+00
-1.14114273e+00 -9.57738876e-01 1.50954270e+00 -9.57738876e-01 1.16877508e+00 -1.07461214e+00 1.50954270e+00 -1.07461214e+00 -5.01417756e-01
-9.35626984e-01 1.29750073e-01 1.32498786e-01 1.29750073e-01 -1.03210956e-01 7.82582819e-01 1.32498786e-01 7.82582819e-01 5.64809084e-01
9.14740026e-01 -6.08773828e-01 3.29133749e-01 -6.08773828e-01 -4.28414702e-01 -1.41936564e+00 3.29133749e-01 -1.41936564e+00 -9.60433125e-01
3.86988848e-01 -1.69686687e+00 -1.27691936e+00 -1.69686687e+00 5.21501124e-01 1.29706585e+00 -1.27691936e+00 1.29706585e+00 -1.38263643e+00
7.07366718e+00 2.55588760e+00 1.59695872e+00 2.55588760e+00 -2.96766300e+00 9.69430590e-01 1.59695872e+00 9.69430590e-01 -7.03901295e-01
1.22335764e+00 -4.31178451e-01 -1.93724622e-01 -4.31178451e-01 -5.14863809e+00 9.29776967e-01 -1.93724622e-01 9.29776967e-01 -7.98905835e-01
-3.54222465e+00 9.34557736e-01 3.12574208e-03 9.34557736e-01 8.20988834e-01 -1.51014036e+00 3.12574208e-03 -1.51014036e+00 4.79655012e-01
-5.20014600e+00 -2.44839684e+00 -3.51715823e-01 -2.44839684e+00 2.36655343e+00 -7.35899329e-01 -3.51715823e-01 -7.35899329e-01 3.36563239e+00
2.00281525e+00 -3.17171738e-02 2.67987885e-03 -3.17171738e-02 -1.30944610e+00 2.75510061e-03 2.67987885e-03 2.75510061e-03 -2.90622044e+01
-3.75472069e-01 2.64229305e-01 -1.18669504e-02 2.64229305e-01 -2.21422392e+00 2.92553253e-01 -1.18669504e-02 2.92553253e-01 -3.27399702e+01
1.26740146e+00 9.43951793e-01 2.18511108e-01 9.43951793e-01 -1.02451754e+00 3.79347349e-01 2.18511108e-01 3.79347349e-01 -2.95859044e+01
1.15824699e+00 3.60700540e-01 1.44451573e-01 3.60700540e-01 -2.61633635e+00 -7.89126661e-03 1.44451573e-01 -7.89126661e-03 -3.13483366e+01
-8.18755174e+00 5.97386092e-01 -8.65916349e-03 5.97386092e-01 -6.12780714e+00 1.07022890e+00 -8.65916349e-03 1.07022890e+00 -4.53425102e+01
-6.46927433e+00 2.04560131e+00 2.55854711e-01 2.04560131e+00 -5.36906317e+00 6.72745988e-01 2.55854711e-01 6.72745988e-01 -4.25262687e+01
-1.16503806e+01 1.27446541e+00 3.09855794e-02 1.27446541e+00 -7.42782879e+00 6.26867071e-01 3.09855794e-02 6.26867071e-01 -5.03856449e+01
-2.10779018e+01 1.66688752e+00 1.14445068e+00 1.66688752e+00 -1.25604547e+01 1.91955838e+00 1.14445068e+00 1.91955838e+00 -6.53019485e+01
-1.19278305e+01 -6.59868628e-01 6.55695535e-02 -6.59868628e-01 -5.75281709e+00 3.66051465e-01 6.55695535e-02 3.66051465e-01 -4.86480179e+01
-1.93576931e+01 -8.34063180e-01 2.03195670e+00 -8.34063180e-01 -9.81238711e+00 1.41234037e+00 2.03195670e+00 1.41234037e+00 -6.04379160e+01
-9.54991698e+00 -2.56722160e-01 1.11358069e-01 -2.56722160e-01 -2.95085460e+00 -4.99419674e-01 1.11358069e-01 -4.99419674e-01 -4.29709702e+01
-5.78155684e+00 -2.20941833e+00 1.74215907e+00 -2.20941833e+00 1.84945035e+00 1.10131141e-01 1.74215907e+00 1.10131141e-01 -3.29085622e+01
-2.45881462e+01 -3.48403096e+00 2.09948227e-01 -3.48403096e+00 -1.32517452e+01 1.73697665e-01 2.09948227e-01 1.73697665e-01 -6.94330597e+01
-2.13016815e+01 -1.68599516e+00 2.45174241e+00 -1.68599516e+00 -6.94562531e+00 -3.85710967e+00 2.45174241e+00 -3.85710967e+00 -5.76814938e+01
1.62527704e+00 2.91958457e+00 -1.19153389e+00 2.91958457e+00 -2.97192740e+00 1.21192466e+00 -1.19153389e+00 1.21192466e+00 -3.07260695e+01
-1.45853043e+00 4.43739980e-01 -5.57932705e-01 4.43739980e-01 -9.06933308e+00 1.31700672e-01 -5.57932705e-01 1.31700672e-01 -4.06547022e+01
-8.69225390e+00 5.01066592e+00 5.63124418e-01 5.01066592e+00 -8.77260470e+00 2.30662701e+00 5.63124418e-01 2.30662701e+00 -4.71924210e+01
8.61596298e+00 1.18440657e+00 1.80887923e+00 1.18440657e+00 1.24997835e+01 9.73208386e-01 1.80887923e+00 9.73208386e-01 -7.27635860e+00
2.73380256e+01 -1.13051710e+00 2.03710762e+00 -1.13051710e+00 2.57102201e+01 3.35991710e-01 2.03710762e+00 3.35991710e-01 2.58307295e+01
1.89451499e+01 -5.70522547e-02 2.49366575e+00 -5.70522547e-02 1.76314149e+01 -4.94287586e-01 2.49366575e+00 -4.94287586e-01 8.34782672e+00
1.52913203e+01 -5.62742487e+00 1.76443833e+00 -5.62742487e+00 6.71456528e+00 -7.93469846e-01 1.76443833e+00 -7.93469846e-01 -3.83182716e+00
-8.90294170e+01 -2.76533151e+00 5.50022769e+00 -2.76533151e+00 -1.05981955e+02 3.56945550e+00 5.50022769e+00 3.56945550e+00 -2.39528343e+02
-1.02730713e+02 -7.11141825e-02 2.79554892e+00 -7.11141825e-02 -1.08276169e+02 1.39752865e-01 2.79554892e+00 1.39752865e-01 -2.58367981e+02
2.45693693e+01 4.53421116e+00 -8.85994998e-01 4.53421116e+00 2.34465831e+01 1.80359646e+00 -8.85994998e-01 1.80359646e+00 2.31444429e+01
3.16204197e+01 -2.46967235e+00 3.00560680e+00 -2.46967235e+00 3.15210714e+01 1.95439152e+00 3.00560680e+00 1.95439152e+00 3.56342020e+01
2.91634119e+01 -1.21276058e+00 3.53990898e-01 -1.21276058e+00 2.80937551e+01 1.78989335e+00 3.53990898e-01 1.78989335e+00 3.15935476e+01
1.79577881e+01 6.42120838e-01 3.10901624e+00 6.42120838e-01 1.68544295e+01 -3.03178917e+00 3.10901624e+00 -3.03178917e+00 2.15303092e+01
2.21300128e+01 1.10305867e+00 3.21852711e+00 1.10305867e+00 1.59395035e+01 1.23597164e+00 3.21852711e+00 1.23597164e+00 2.55993310e+01
2.88477266e+00 -7.07871550e+00 -7.72246838e-01 -7.07871550e+00 -4.17678142e+00 -9.11720425e-01 -7.72246838e-01 -9.11720425e-01 3.76749349e+00
2.76696804e+01 3.87278096e+00 3.30517530e+00 3.87278096e+00 1.38830109e+01 4.54346355e-01 3.30517530e+00 4.54346355e-01 3.35761914e+01
1.10059872e+01 5.73744774e+00 -1.01144021e+01 5.73744774e+00 2.15951405e+01 1.89048638e+01 -1.01144021e+01 1.89048638e+01 5.87720027e+01
2.50052748e+01 -2.52206790e+00 3.46335548e+00 -2.52206790e+00 2.90815611e+01 -3.61359978e+00 3.46335548e+00 -3.61359978e+00 3.88259430e+01
-2.40314054e+00 1.03955603e+01 -2.50688577e+00 1.03955603e+01 9.45860767e+00 2.08222408e+01 -2.50688577e+00 2.08222408e+01 -2.33695793e+01
1.97861528e+01 4.85278436e+00 -3.00513236e+00 4.85278436e+00 2.73025700e+01 -3.96012727e+00 -3.00513236e+00 -3.96012727e+00 1.32724991e+01
1.49383754e+01 3.54809711e-01 3.23380669e+00 3.54809711e-01 7.86798954e+00 2.50223332e+00 3.23380669e+00 2.50223332e+00 5.55250474e+00
-1.46605611e-01 4.56566438e+00 4.83428749e+00 4.56566438e+00 1.04413237e+01 -8.37657869e-01 4.83428749e+00 -8.37657869e-01 3.23335937e+00
-1.23445459e-01 -4.41661206e+00 -5.37415147e-01 -4.41661206e+00 6.65357900e+00 2.10452914e+00 -5.37415147e-01 2.10452914e+00 9.67863175e+00
3.30591369e+00 -1.90323853e+00 -6.88537121e-01 -1.90323853e+00 -7.08646059e+00 5.25413482e-02 -6.88537121e-01 5.25413482e-02 5.28228289e+00
-2.19059181e+00 -3.53374481e-01 -1.39907178e+00 -3.53374481e-01 -6.58411145e+00 -1.24254656e+00 -1.39907178e+00 -1.24254656e+00 2.98480868e+00
-9.56132126e+01 2.55598044e+00 -3.17610621e+00 2.55598044e+00 -6.57523499e+01 1.14189887e+00 -3.17610621e+00 1.14189887e+00 -2.01147385e+02
-1.41775620e+02 5.55260420e+00 8.28638136e-01 5.55260420e+00 -1.27377243e+02 1.43313146e+00 8.28638136e-01 1.43313146e+00 -3.21184967e+02
6.81873703e+00 -1.42701377e+00 1.33188184e+00 -1.42701377e+00 4.90383021e+00 2.05172423e+00 1.33188184e+00 2.05172423e+00 -1.73621712e+01
5.52662468e+00 -2.48839200e+00 3.93613887e+00 -2.48839200e+00 -4.16651917e+00 -9.89349857e-02 3.93613887e+00 -9.89349857e-02 -2.72071056e+01
1.80814334e+00 2.12632066e+00 -9.42048542e-02 2.12632066e+00 -5.86163282e-01 -8.43503412e-01 -9.42048542e-02 -8.43503412e-01 3.01731206e+00
1.21926407e+01 1.36673228e+00 3.47348253e-01 1.36673228e+00 2.62177947e+01 5.23206917e+00 3.47348253e-01 5.23206917e+00 2.38969795e+01
2.61526453e+00 1.53920484e+00 5.02977222e-01 1.53920484e+00 -6.41400075e+00 7.35169500e-01 5.02977222e-01 7.35169500e-01 -3.04924440e+00
6.64877939e+00 -1.54707825e+00 7.71854095e-01 -1.54707825e+00 2.78892231e+00 7.24732921e-01 7.71854095e-01 7.24732921e-01 -1.90605011e+01
1.77392845e+01 1.65696180e+00 -9.90097284e-01 1.65696180e+00 1.45039835e+01 1.21474154e-02 -9.90097284e-01 1.21474154e-02 5.12066936e+00
-1.16123152e+00 -1.02744663e+00 3.38980600e-01 -1.02744663e+00 -2.55208921e+00 3.95740622e+00 3.38980600e-01 3.95740622e+00 -3.40994029e+01
-5.91700864e+00 -2.27046570e+00 -2.36886036e-01 -2.27046570e+00 -1.61875496e+01 3.35871315e+00 -2.36886036e-01 3.35871315e+00 -5.18349686e+01
1.21187449e+01 3.02733332e+00 -2.40080659e+00 3.02733332e+00 3.59869766e+00 9.06247735e-01 -2.40080659e+00 9.06247735e-01 -1.31436367e+01
1.18163838e+01 -7.48469174e-01 -1.31582147e+00 -7.48469174e-01 2.61767406e+01 2.50687349e+00 -1.31582147e+00 2.50687349e+00 1.33959999e+01
2.06749220e+01 2.98050775e+00 -2.16908465e+00 2.98050775e+00 2.41420650e+01 1.36388174e+00 -2.16908465e+00 1.36388174e+00 2.28561926e+01
-5.95457476e+00 1.41013551e+00 -1.15533906e+00 1.41013551e+00 1.82114947e+00 6.35297373e-01 -1.15533906e+00 6.35297373e-01 3.86827621e+00
-4.48861361e+00 1.32659960e+00 -5.23475371e-02 1.32659960e+00 -3.95435929e-01 -9.04705971e-02 -5.23475371e-02 -9.04705971e-02 8.74811232e-01
</DataArray>
<DataArray type="Float32" Name="Logarithmic_strain_components" NumberOfComponents="9" format="ascii">
3.51621143e-02 -7.55394629e-03 2.55164824e-03 -7.55394629e-03 3.03385258e-02 7.19845756e-03 2.55164824e-03 7.19845756e-03 -5.43223307e-02
3.44582016e-02 -1.44834166e-02 -2.28236429e-04 -1.44834166e-02 3.78454553e-02 1.55322535e-02 -2.28236429e-04 1.55322535e-02 -6.06659986e-02
4.01653158e-02 -1.75520603e-03 3.05352360e-03 -1.75520603e-03 5.25247464e-02 -6.36181957e-03 3.05352360e-03 -6.36181957e-03 -7.86052123e-02
3.58892251e-02 -1.39784045e-03 -2.92077748e-03 -1.39784045e-03 4.12176065e-02 -2.42454931e-04 -2.92077748e-03 -2.42454931e-04 -6.56072013e-02
3.54718792e-02 3.25892149e-03 1.19556051e-02 3.25892149e-03 4.41147769e-02 9.03143315e-03 1.19556051e-02 9.03143315e-03 -6.53451220e-02
3.60032182e-02 -1.20099173e-02 -1.42954098e-02 -1.20099173e-02 5.70617419e-02 1.42242496e-02 -1.42954098e-02 1.42242496e-02 -7.74372891e-02
5.22651509e-02 -6.46469230e-03 -5.36974649e-03 -6.46469230e-03 6.32867627e-02 -1.18169824e-02 -5.36974649e-03 -1.18169824e-02 -9.83091276e-02
3.99571755e-02 1.61610692e-02 6.78367430e-03 1.61610692e-02 4.90913698e-02 1.53372221e-02 6.78367430e-03 1.53372221e-02 -7.48618683e-02
4.69992440e-02 4.27220599e-04 -2.19165679e-02 4.27220599e-04 4.95504155e-02 2.08856948e-02 -2.19165679e-02 2.08856948e-02 -8.57997555e-02
6.01996388e-02 -1.18511321e-04 -1.69558208e-02 -1.18511321e-04 6.61691763e-02 2.34715645e-02 -1.69558208e-02 2.34715645e-02 -1.13632292e-01
6.40872369e-02 2.96449273e-02 -9.47779231e-02 2.96449273e-02 5.86874758e-02 -1.65547159e-02 -9.47779231e-02 -1.65547159e-02 -1.06485029e-01
9.09612998e-02 2.47032084e-02 -6.91203680e-02 2.47032084e-02 5.07455803e-02 -1.21537447e-02 -6.91203680e-02 -1.21537447e-02 -1.23428479e-01
-4.19701712e-06 -2.92630384e-05 -1.28722759e-05 -2.92630384e-05 8.64687968e-06 1.27155276e-05 -1.28722759e-05 1.27155276e-05 -8.63919581e-06
-8.88525824e-06 -2.14594724e-06 -4.94995675e-06 -2.14594724e-06 -9.84196504e-07 -1.12135679e-05 -4.94995675e-06 -1.12135679e-05 5.16503451e-06
1.83499160e-05 -6.48542164e-06 -5.50967866e-06 -6.48542164e-06 -9.46444516e-07 2.86880806e-05 -5.50967866e-06 2.86880806e-05 -2.13111107e-05
1.12386592e-05 -3.37180572e-05 -5.53154678e-08 -3.37180572e-05 -3.53752603e-06 -2.46946893e-05 -5.53154678e-08 -2.46946893e-05 -1.27298033e-05
4.66713709e-06 1.02679523e-05 1.76217582e-05 1.02679523e-05 3.76424651e-07 7.83746054e-06 1.76217582e-05 7.83746054e-06 -1.72320802e-06
-2.41907196e-06 7.70192457e-07 5.14395742e-06 7.70192457e-07 -5.08291168e-06 7.51608184e-07 5.14395742e-06 7.51608184e-07 1.00867765e-05
-2.27731630e-06 2.48096649e-06 -1.17401860e-05 2.48096649e-06 3.79832431e-06 -2.54065453e-05 -1.17401860e-05 -2.54065453e-05 1.45181184e-06
-9.08807760e-06 1.18767130e-05 -6.64831214e-06 1.18767130e-05 -4.18944455e-06 1.67151720e-05 -6.64831214e-06 1.67151720e-05 1.62577671e-05
4.91960701e-02 8.70645454e-06 9.72262397e-03 8.70645454e-06 5.16552553e-02 -2.15494190e-03 9.72262397e-03 -2.15494190e-03 -8.51632468e-02
5.06893396e-02 2.50613166e-03 6.39288104e-03 2.50613166e-03 5.00043845e-02 2.80653758e-03 6.39288104e-03 2.80653758e-03 -8.50516725e-02
4.89150044e-02 -8.71212082e-03 1.14879382e-02 -8.71212082e-03 5.07941223e-02 3.85108560e-03 1.14879382e-02 3.85108560e-03 -8.37060101e-02
4.75128945e-02 1.83362397e-03 1.01951309e-02 1.83362397e-03 5.30317938e-02 -5.47184923e-03 1.01951309e-02 -5.47184923e-03 -8.49004332e-02
6.30358998e-02 -1.26591840e-05 1.14948945e-02 -1.26591840e-05 4.82522994e-02 6.23606436e-04 1.14948945e-02 6.23606436e-04 -9.34759006e-02
6.07930478e-02 1.60343817e-03 2.07576144e-03 1.60343817e-03 5.10112615e-02 1.02183759e-02 2.07576144e-03 1.02183759e-02 -9.44563206e-02
6.21854770e-02 3.58041530e-03 1.42773562e-02 3.58041530e-03 5.15625984e-02 4.69694989e-03 1.42773562e-02 4.69694989e-03 -9.56853265e-02
6.39713686e-02 3.21348163e-03 1.46934260e-02 3.21348163e-03 5.13082910e-02 -8.83489312e-03 1.46934260e-02 -8.83489312e-03 -9.72768236e-02
5.45246787e-02 -1.08228805e-02 9.54557443e-03 -1.08228805e-02 4.44568591e-02 6.06877598e-04 9.54557443e-03 6.06877598e-04 -8.31021760e-02
5.33384979e-02 -1.16267596e-02 1.16913427e-02 -1.16267596e-02 4.93159746e-02 5.08457613e-03 1.16913427e-02 5.08457613e-03 -8.61896481e-02
5.71636343e-02 2.60992959e-03 -3.91318703e-04 2.60992959e-03 5.14943404e-02 5.15735632e-03 -3.91318703e-04 5.15735632e-03 -9.19245034e-02
5.63766635e-02 3.82299494e-03 1.25540300e-02 3.82299494e-03 5.51264770e-02 1.49081222e-02 1.25540300e-02 1.49081222e-02 -9.43715237e-02
5.80646349e-02 9.78718381e-04 3.86270654e-03 9.78718381e-04 4.15678127e-02 5.93437527e-03 3.86270654e-03 5.93437527e-03 -8.35673865e-02
5.86897712e-02 -5.62307125e-03 -5.54478698e-03 -5.62307125e-03 4.83154729e-02 -4.40791651e-03 -5.54478698e-03 -4.40791651e-03 -8.93826159e-02
5.56357177e-02 -5.85646217e-03 1.53990040e-03 -5.85646217e-03 4.66475431e-02 6.17964772e-03 1.53990040e-03 6.17964772e-03 -8.62444006e-02
5.34000546e-02 -5.33138958e-03 -4.82859509e-03 -5.33138958e-03 5.13742235e-02 5.13095877e-03 -4.82859509e-03 5.13095877e-03 -8.81788414e-02
6.08497681e-02 2.65246007e-03 -5.08106034e-03 2.65246007e-03 3.95974535e-02 -2.97141349e-04 -5.08106034e-03 -2.97141349e-04 -8.41372032e-02
5.92252859e-02 1.39368871e-03 -8.06498824e-03 1.39368871e-03 5.47100147e-02 2.48968718e-05 -8.06498824e-03 2.48968718e-05 -9.59376330e-02
5.39246947e-02 -2.66518316e-03 -7.15065352e-03 -2.66518316e-03 4.17771377e-02 5.10489277e-03 -7.15065352e-03 5.10489277e-03 -8.04076008e-02
5.34715559e-02 -1.01818121e-02 -1.14548246e-02 -1.01818121e-02 4.44940245e-02 -6.03088611e-03 -1.14548246e-02 -6.03088611e-03 -8.14045807e-02
5.85933747e-02 6.25994435e-04 2.62421829e-03 6.25994435e-04 4.10052342e-02 -3.28727123e-03 2.62421829e-03 -3.28727123e-03 -8.33043624e-02
5.92643712e-02 -3.34801545e-04 3.64350970e-04 -3.34801545e-04 5.36320210e-02 3.07074840e-03 3.64350970e-04 3.07074840e-03 -9.46896961e-02
4.80969753e-02 -6.75259333e-04 -1.25349159e-02 -6.75259333e-04 4.06132042e-02 -1.51700152e-03 -1.25349159e-02 -1.51700152e-03 -7.37659074e-02
5.10064289e-02 -2.98543074e-03 -1.03967128e-02 -2.98543074e-03 4.78857760e-02 -5.80759789e-03 -1.03967128e-02 -5.80759789e-03 -8.30714870e-02
5.64105585e-02 -2.41972994e-04 2.21785076e-03 -2.41972994e-04 4.15761918e-02 -3.01891845e-03 2.21785076e-03 -3.01891845e-03 -8.17725137e-02
5.52545115e-02 -4.37029584e-03 -2.65482618e-03 -4.37029584e-03 5.43644037e-02 -2.49600597e-03 -2.65482618e-03 -2.49600597e-03 -9.13429540e-02
4.42406088e-02 1.30028538e-02 -8.90738145e-03 1.30028538e-02 4.15616278e-02 -1.14991437e-02 -8.90738145e-03 -1.14991437e-02 -7.10121803e-02
4.99238716e-02 2.31487420e-03 -7.14289196e-03 2.31487420e-03 4.69490401e-02 -7.07892425e-03 -7.14289196e-03 -7.07892425e-03 -8.09553489e-02
4.49353242e-02 -1.49754708e-02 2.98014908e-02 -1.49754708e-02 5.56663866e-02 1.51775507e-03 2.98014908e-02 1.51775507e-03 -8.41070451e-02
3.78912063e-02 -1.29331695e-02 2.19530836e-02 -1.29331695e-02 5.92905749e-02 -3.34984291e-03 2.19530836e-02 -3.34984291e-03 -8.14156886e-02
6.64906702e-02 1.12962917e-03 3.86824529e-02 1.12962917e-03 5.55598112e-02 1.23522775e-02 3.86824529e-02 1.23522775e-02 -1.03387840e-01
6.36759670e-02 -8.14199375e-05 2.86188135e-02 -8.14199375e-05 5.62609881e-02 -1.87481253e-03 2.86188135e-02 -1.87481253e-03 -1.00965897e-01
5.69808265e-02 -7.95569579e-04 2.24822674e-02 -7.95569579e-04 5.24759383e-02 -3.60042602e-03 2.24822674e-02 -3.60042602e-03 -9.39655825e-02
6.03548260e-02 1.25401944e-02 1.09878591e-02 1.25401944e-02 5.65992761e-02 -6.57715806e-03 1.09878591e-02 -6.57715806e-03 -1.00381090e-01
6.54272132e-02 -1.54399863e-02 -6.18019378e-02 -1.54399863e-02 5.94785538e-02 -1.26447678e-03 -6.18019378e-02 -1.26447678e-03 -1.11403185e-01
4.78451380e-02 7.54914556e-03 -3.97167855e-02 7.54914556e-03 5.32240303e-02 -6.72990603e-03 -3.97167855e-02 -6.72990603e-03 -8.67382927e-02
6.47716140e-02 -2.14149733e-03 -1.81992166e-02 -2.14149733e-03 7.41895288e-02 1.19097549e-02 -1.81992166e-02 1.19097549e-02 -1.21911678e-01
5.45167185e-02 -7.00418756e-03 -5.88723678e-02 -7.00418756e-03 4.38700229e-02 7.44171883e-03 -5.88723678e-02 7.44171883e-03 -8.35911170e-02
6.36558719e-02 -4.83340878e-03 -1.66430767e-03 -4.83340878e-03 7.11680129e-02 1.09071360e-02 -1.66430767e-03 1.09071360e-02 -1.16602164e-01
5.55440970e-02 2.32313588e-03 -2.25731158e-02 2.32313588e-03 6.39529023e-02 -2.27159570e-03 -2.25731158e-02 -2.27159570e-03 -1.04788417e-01
5.71876336e-02 -3.65836965e-03 -4.21191973e-03 -3.65836965e-03 7.42321052e-02 3.63330694e-03 -4.21191973e-03 3.63330694e-03 -1.12963747e-01
5.18134348e-02 -5.81419375e-03 -2.36414047e-02 -5.81419375e-03 6.58170544e-02 -1.65605597e-02 -2.36414047e-02 -1.65605597e-02 -1.02565248e-01
3.87653176e-02 -9.03513078e-03 4.07327805e-02 -9.03513078e-03 5.45030135e-02 1.86490743e-03 4.07327805e-02 1.86490743e-03 -7.78973560e-02
3.39284590e-02 2.95077008e-03 3.20192440e-02 2.95077008e-03 5.39835691e-02 4.17798047e-03 3.20192440e-02 4.17798047e-03 -7.28308745e-02
7.02111753e-02 -4.27354515e-03 4.49746360e-02 -4.27354515e-03 5.79509655e-02 -9.16200477e-03 4.49746360e-02 -9.16200477e-03 -1.08147816e-01
5.74472258e-02 1.61865997e-03 4.52983910e-02 1.61865997e-03 6.03309730e-02 -1.11497985e-02 4.52983910e-02 -1.11497985e-02 -9.87237114e-02
4.93289093e-02 -2.72010821e-02 5.40761719e-02 -2.72010821e-02 6.65128147e-02 -6.20807803e-02 5.40761719e-02 -6.20807803e-02 -9.93748493e-02
7.63366260e-02 8.15282483e-04 2.02693177e-02 8.15282483e-04 5.81790857e-02 -4.88261484e-02 2.02693177e-02 -4.88261484e-02 -1.16762201e-01
-2.07884535e-02 -1.12518691e-01 -1.82097167e-01 -1.12518691e-01 1.92680955e-03 -1.22300699e-01 -1.82097167e-01 -1.22300699e-01 7.54971877e-02
3.37443606e-02 -1.16053026e-02 -5.46908006e-02 -1.16053026e-02 2.60590276e-02 -4.51310060e-02 -5.46908006e-02 -4.51310060e-02 -3.80642630e-02
3.32679725e-02 -3.26054204e-03 1.55874658e-02 -3.26054204e-03 4.22539722e-02 2.58061529e-02 1.55874658e-02 2.58061529e-02 -6.17690230e-02
3.26245208e-02 -7.50127621e-03 2.59987117e-02 -7.50127621e-03 4.43075467e-02 6.87826239e-03 2.59987117e-02 6.87826239e-03 -6.38017319e-02
4.82381502e-02 -9.12799758e-03 3.02206931e-02 -9.12799758e-03 5.96689048e-02 3.92300310e-02 3.02206931e-02 3.92300310e-02 -8.73121396e-02
5.30948965e-02 -6.56998006e-03 8.09450191e-03 -6.56998006e-03 6.12795288e-02 2.14602994e-02 8.09450191e-03 2.14602994e-02 -9.43222493e-02
3.45385633e-02 5.78515942e-03 -2.75707617e-03 5.78515942e-03 4.41425210e-02 4.06222430e-03 -2.75707617e-03 4.06222430e-03 -6.57900721e-02
5.59679509e-02 1.10724204e-02 -1.65275495e-02 1.10724204e-02 6.38997108e-02 3.17842889e-02 -1.65275495e-02 3.17842889e-02 -9.96686720e-02
5.00887791e-02 1.73293501e-02 1.31376488e-02 1.73293501e-02 7.12813726e-02 1.41697952e-02 1.31376488e-02 1.41697952e-02 -1.01312548e-01
3.26789024e-02 7.72393084e-03 1.73138489e-02 7.72393084e-03 4.70350366e-02 7.53391003e-02 1.73138489e-02 7.53391003e-02 -6.90001864e-02
7.99619742e-02 -1.04553439e-02 6.60745651e-02 -1.04553439e-02 6.95536882e-02 3.14551070e-02 6.60745651e-02 3.14551070e-02 -1.33250378e-01
4.84893654e-02 -1.84014875e-02 -3.53671007e-02 -1.84014875e-02 7.67642945e-02 -1.42554782e-02 -3.53671007e-02 -1.42554782e-02 -1.05975816e-01
3.64280492e-02 -3.49426805e-03 7.31104007e-03 -3.49426805e-03 4.99619432e-02 1.18245627e-02 7.31104007e-03 1.18245627e-02 -7.20388927e-02
6.13025930e-02 2.19670869e-02 -1.02824409e-02 2.19670869e-02 6.23929370e-02 2.14678557e-02 -1.02824409e-02 2.14678557e-02 -9.86774489e-02
5.16080055e-02 -1.42633221e-02 1.84542676e-02 -1.42633221e-02 7.65770748e-02 -1.93646122e-02 1.84542676e-02 -1.93646122e-02 -1.08211100e-01
6.47669816e-02 -2.34332914e-02 -5.10115447e-02 -2.34332914e-02 7.43152341e-02 5.29593453e-02 -5.10115447e-02 5.29593453e-02 -1.19753920e-01
3.87622820e-02 4.48058539e-02 -3.51364290e-03 4.48058539e-02 7.65740785e-02 -1.23579861e-01 -3.51364290e-03 -1.23579861e-01 -9.49107967e-02
7.63880589e-02 -1.03121994e-02 -1.70372593e-02 -1.03121994e-02 4.22036710e-02 -2.41819821e-02 -1.70372593e-02 -2.41819821e-02 -9.95589693e-02
7.69833550e-02 5.56878513e-06 3.75445595e-03 5.56878513e-06 4.88647204e-02 -3.06664687e-03 3.75445595e-03 -3.06664687e-03 -1.05777342e-01
7.14557078e-02 3.39029072e-03 3.61700490e-03 3.39029072e-03 5.32085383e-02 5.54193164e-03 3.61700490e-03 5.54193164e-03 -1.05213467e-01
7.41171325e-02 1.32883957e-02 8.29690066e-03 1.32883957e-02 5.44785801e-02 5.36987217e-03 8.29690066e-03 5.36987217e-03 -1.08562038e-01
8.06494392e-02 3.59031366e-03 9.89678921e-03 3.59031366e-03 5.11920368e-02 -3.22913652e-03 9.89678921e-03 -3.22913652e-03 -1.11264933e-01
5.91881406e-02 9.28531610e-03 -1.32877275e-03 9.28531610e-03 6.02135593e-02 8.54822720e-03 -1.32877275e-03 8.54822720e-03 -1.01293400e-01
5.97725897e-02 1.84569469e-02 4.52359059e-03 1.84569469e-02 6.01463518e-02 7.84706253e-03 4.52359059e-03 7.84706253e-03 -1.01827604e-01
5.01895519e-02 5.83899103e-03 -1.27901288e-03 5.83899103e-03 6.07137773e-02 2.44356712e-03 -1.27901288e-03 2.44356712e-03 -9.43551604e-02
4.56126491e-02 9.20823012e-03 2.14852218e-04 9.20823012e-03 6.22299504e-02 1.05362280e-02 2.14852218e-04 1.05362280e-02 -9.18796677e-02
4.47061043e-02 -5.67122281e-03 -8.00435082e-04 -5.67122281e-03 5.64819956e-02 1.28015128e-03 -8.00435082e-04 1.28015128e-03 -8.59152842e-02
3.97834522e-02 -5.13849089e-03 -2.95601785e-03 -5.13849089e-03 5.59478849e-02 1.36636034e-03 -2.95601785e-03 1.36636034e-03 -8.09437949e-02
3.90226291e-02 -5.99232595e-03 -4.83595056e-03 -5.99232595e-03 5.36737842e-02 -1.68149946e-03 -4.83595056e-03 -1.68149946e-03 -7.80128613e-02
4.03943779e-02 -9.83608274e-03 -8.97218660e-03 -9.83608274e-03 4.78760037e-02 -2.60459767e-03 -8.97218660e-03 -2.60459767e-03 -7.39079844e-02
3.43336929e-02 1.51137420e-03 4.02725404e-04 1.51137420e-03 5.71218841e-02 -1.63011497e-03 4.02725404e-04 -1.63011497e-03 -7.71918297e-02
3.95544376e-02 -8.48610699e-03 -3.59803252e-03 -8.48610699e-03 4.96512353e-02 -1.30742809e-02 -3.59803252e-03 -1.30742809e-02 -7.51443394e-02
8.59575495e-02 1.67621041e-02 2.41547776e-02 1.67621041e-02 5.32146720e-02 6.92987093e-03 2.41547776e-02 6.92987093e-03 -1.17030868e-01
8.87183044e-02 9.61460616e-03 2.92276212e-02 9.61460616e-03 5.84129402e-02 -8.83971737e-03 2.92276212e-02 -8.83971737e-03 -1.23975331e-01
6.61575980e-02 2.43955422e-02 2.66244888e-03 2.43955422e-02 5.30864792e-02 4.02798805e-03 2.66244888e-03 4.02798805e-03 -1.01077268e-01
4.09353543e-02 1.92826682e-02 -2.11538537e-02 1.92826682e-02 4.64071650e-02 -2.03073665e-03 -2.11538537e-02 -2.03073665e-03 -7.31376531e-02
2.78293674e-02 -5.69065767e-04 -2.50152758e-02 -5.69065767e-04 4.45166781e-02 -1.51438971e-03 -2.50152758e-02 -1.51438971e-03 -6.06401957e-02
2.54116595e-02 -1.30103903e-02 -3.09954736e-02 -1.30103903e-02 3.98752177e-02 -1.10765080e-02 -3.09954736e-02 -1.10765080e-02 -5.44673726e-02
2.91121149e-02 -2.00225494e-02 -3.58955444e-02 -2.00225494e-02 3.49654239e-02 -1.82982134e-02 -3.58955444e-02 -1.82982134e-02 -5.34456149e-02
9.60262691e-02 -2.33958196e-03 6.35283310e-02 -2.33958196e-03 5.21709366e-02 -1.47497880e-02 6.35283310e-02 -1.47497880e-02 -1.26347890e-01
9.43845982e-02 -1.67632438e-02 5.77233570e-02 -1.67632438e-02 5.86260495e-02 -1.72669832e-02 5.77233570e-02 -1.72669832e-02 -1.31656535e-01
7.79284437e-02 1.64365928e-02 1.00131891e-02 1.64365928e-02 3.88597045e-02 -3.63275365e-02 1.00131891e-02 -3.63275365e-02 -9.79467084e-02
3.50414660e-02 2.15092817e-02 -3.84250262e-02 2.15092817e-02 1.50751885e-02 -2.36657336e-02 -3.84250262e-02 -2.36657336e-02 -3.81096909e-02
1.35511905e-02 -6.84618279e-02 -8.52075294e-02 -6.84618279e-02 -3.36086676e-02 -9.15580243e-02 -8.52075294e-02 -9.15580243e-02 4.51458097e-02
4.04691778e-04 3.83583269e-03 -1.45187032e-02 3.83583269e-03 7.03980873e-03 -6.68655690e-03 -1.45187032e-02 -6.68655690e-03 -1.52347663e-03
9.23863854e-02 3.65770597e-04 -3.44800949e-03 3.65770597e-04 7.55585339e-02 5.04028490e-02 -3.44800949e-03 5.04028490e-02 -1.42874712e-01
9.35332502e-02 1.24536150e-02 -3.68483681e-02 1.24536150e-02 8.74265271e-02 4.53782516e-02 -3.68483681e-02 4.53782516e-02 -1.54506919e-01
1.03606787e-01 -2.06430764e-02 2.47430718e-02 -2.06430764e-02 5.37813678e-02 -5.48644671e-02 2.47430718e-02 -5.48644671e-02 -1.38190653e-01
8.19156306e-02 -5.87525226e-03 -2.42051335e-02 -5.87525226e-03 1.03457499e-01 3.40106043e-02 -2.42051335e-02 3.40106043e-02 -1.57432787e-01
8.15594420e-02 -6.93829276e-03 1.73136541e-02 -6.93829276e-03 1.04100296e-01 -5.32213235e-04 1.73136541e-02 -5.32213235e-04 -1.55709367e-01
9.34782717e-02 -5.57163265e-03 9.10193054e-03 -5.57163265e-03 8.08620416e-02 2.47363558e-02 9.10193054e-03 2.47363558e-02 -1.47303510e-01
9.07556824e-02 4.90646577e-03 1.29618496e-02 4.90646577e-03 7.93268308e-02 -1.51397800e-02 1.29618496e-02 -1.51397800e-02 -1.43721379e-01
8.71360302e-02 2.29252053e-02 -1.38578774e-02 2.29252053e-02 8.32277983e-02 -2.57975087e-02 -1.38578774e-02 -2.57975087e-02 -1.48349408e-01
1.03943700e-01 -1.36964521e-02 -2.85264603e-02 -1.36964521e-02 6.22384343e-02 4.79844310e-02 -2.85264603e-02 4.79844310e-02 -1.40712701e-01
7.80716864e-02 1.05293070e-02 1.07877356e-02 1.05293070e-02 2.97327666e-02 -3.59776812e-02 1.07877356e-02 -3.59776812e-02 -9.34337750e-02
5.93720414e-02 -2.24534058e-02 9.86469700e-03 -2.24534058e-02 4.34405799e-02 -8.02157633e-03 9.86469700e-03 -8.02157633e-03 -8.51478362e-02
-5.61284646e-02 7.10769519e-02 4.08071801e-02 7.10769519e-02 -1.66762825e-02 8.89371708e-03 4.08071801e-02 8.89371708e-03 1.33330807e-01
-1.38838617e-02 3.28378156e-02 5.79711087e-02 3.28378156e-02 -6.06869441e-03 -7.41123259e-02 5.79711087e-02 -7.41123259e-02 4.56420109e-02
1.65331021e-02 -3.50979932e-02 -1.10994551e-02 -3.50979932e-02 -2.02132099e-02 3.55018232e-02 -1.10994551e-02 3.55018232e-02 3.91832352e-03
-1.00738266e-02 -6.05632621e-02 -1.12915483e-02 -6.05632621e-02 1.76081566e-03 -9.83836984e-03 -1.12915483e-02 -9.83836984e-03 8.49593106e-03
-2.57864940e-05 -4.65407320e-05 7.22226105e-05 -4.65407320e-05 2.95141799e-05 -5.19524983e-05 7.22226105e-05 -5.19524983e-05 -1.06922271e-05
-2.05396900e-05 6.02325872e-06 6.21204026e-06 6.02325872e-06 -4.14981685e-07 3.82412909e-05 6.21204026e-06 3.82412909e-05 1.45878030e-05
2.37055192e-05 -2.96070230e-05 1.53755955e-05 -2.96070230e-05 -8.47094543e-06 -6.80170706e-05 1.53755955e-05 -6.80170706e-05 -2.09252739e-05
1.05104191e-05 -8.16940446e-05 -6.13265147e-05 -8.16940446e-05 1.46832581e-05 6.23326559e-05 -6.13265147e-05 6.23326559e-05 -3.17380000e-05
1.75035834e-04 9.31318675e-05 5.22963779e-05 9.31318675e-05 -1.25703120e-04 1.04841398e-05 5.22963779e-05 1.04841398e-05 -2.19215645e-05
4.87423567e-05 -2.07858636e-05 -9.29707797e-06 -2.07858636e-05 -1.04427276e-04 4.43551180e-05 -9.29707797e-06 4.43551180e-05 -1.95463144e-07
-7.65883196e-05 4.42906203e-05 3.16591468e-07 4.42906203e-05 2.83996942e-05 -7.16902941e-05 3.16591468e-07 -7.16902941e-05 1.96181491e-05
-1.58177722e-04 -2.71101356e-04 -4.08333411e-06 -2.71101356e-04 6.37244921e-05 -3.08285271e-05 -4.08333411e-06 -3.08285271e-05 1.13458105e-04
8.20557326e-02 -4.33804234e-06 4.04997263e-06 -4.33804234e-06 5.11337593e-02 -2.15174805e-06 4.04997263e-06 -2.15174805e-06 -1.12211369e-01
7.51529932e-02 6.39964477e-03 -9.29116504e-06 6.39964477e-03 5.56263514e-02 4.59573395e-03 -9.29116504e-06 4.59573395e-03 -1.10508177e-01
8.02479163e-02 1.94624553e-02 3.80921311e-03 1.94624553e-02 5.24217505e-02 7.51926238e-03 3.80921311e-03 7.51926238e-03 -1.11711534e-01
8.84725973e-02 5.70109789e-03 1.79159082e-03 5.70109789e-03 4.91394978e-02 -6.57171768e-06 1.79159082e-03 -6.57171768e-06 -1.15892339e-01
5.97857740e-02 6.26176991e-03 -4.00760036e-05 6.26176991e-03 6.44761994e-02 1.04171843e-02 -4.00760036e-05 1.04171843e-02 -1.05637401e-01
6.17334154e-02 2.47444124e-02 4.53955494e-03 2.47444124e-02 6.09446149e-02 7.33224163e-03 4.53955494e-03 7.33224163e-03 -1.04052391e-01
4.65270579e-02 1.00322305e-02 -3.08103627e-05 1.00322305e-02 6.81931935e-02 6.94477907e-03 -3.08103627e-05 6.94477907e-03 -9.77340825e-02
4.50226348e-02 1.60054273e-02 6.89459068e-03 1.60054273e-02 6.59861127e-02 1.10402124e-02 6.89459068e-03 1.10402124e-02 -9.51585118e-02
3.86905577e-02 1.02010951e-03 7.33821071e-06 1.02010951e-03 6.65346757e-02 2.39061902e-03 7.33821071e-06 2.39061902e-03 -8.96745920e-02
3.54544539e-02 1.91923945e-03 1.22487417e-02 1.91923945e-03 6.30162079e-02 9.13214264e-03 1.22487417e-02 9.13214264e-03 -8.45598504e-02
3.65191866e-02 -4.14177240e-03 -3.95082861e-06 -4.14177240e-03 6.26465976e-02 -3.13657700e-04 -3.95082861e-06 -3.13657700e-04 -8.43986981e-02
2.99405432e-02 -8.47508793e-03 1.32180806e-02 -8.47508793e-03 5.76873254e-02 1.63394635e-03 1.32180806e-02 1.63394635e-03 -7.45492894e-02
3.33956778e-02 -2.11573783e-02 5.27881311e-05 -2.11573783e-02 6.69679791e-02 6.14692364e-03 5.27881311e-05 6.14692364e-03 -8.63309875e-02
2.73160776e-02 -1.32450322e-02 1.71280708e-02 -1.32450322e-02 5.99770155e-02 -1.65179744e-02 1.71280708e-02 -1.65179744e-02 -7.47740678e-02
8.80667921e-02 2.57418782e-02 -9.19391727e-03 2.57418782e-02 6.24581687e-02 1.39849309e-02 -9.19391727e-03 1.39849309e-02 -1.27508143e-01
9.79320779e-02 4.99598449e-03 -4.48023947e-03 4.99598449e-03 6.57752268e-02 -9.64558058e-06 -4.48023947e-03 -9.64558058e-06 -1.39254376e-01
6.41523320e-02 4.52015074e-02 3.81370555e-04 4.52015074e-02 5.38998665e-02 1.99006372e-02 3.81370555e-04 1.99006372e-02 -9.96590462e-02
3.66079989e-02 2.68273118e-02 9.95789212e-03 2.68273118e-02 4.82771294e-02 1.32502969e-02 9.95789212e-03 1.32502969e-02 -7.15059973e-02
2.02039885e-02 -1.76773171e-03 1.34689074e-02 -1.76773171e-03 3.77781815e-02 1.07414476e-02 1.34689074e-02 1.07414476e-02 -4.77160336e-02
1.43607059e-02 -1.33364955e-02 1.52354117e-02 -1.33364955e-02 3.06604584e-02 -2.31142028e-03 1.52354117e-02 -2.31142028e-03 -3.63807306e-02
2.08647456e-02 -1.65087162e-02 9.41584073e-03 -1.65087162e-02 2.18518991e-02 -1.14331213e-02 9.41584073e-03 -1.14331213e-02 -3.45473224e-02
1.03327129e-01 -5.84443926e-03 3.66985649e-02 -5.84443926e-03 8.55786987e-02 1.96424136e-02 3.66985649e-02 1.96424136e-02 -1.70069128e-01
1.09887183e-01 -5.63806668e-03 2.50456557e-02 -5.63806668e-03 9.69473943e-02 -6.14303863e-05 2.50456557e-02 -6.14303863e-05 -1.87106565e-01
6.80908437e-02 2.72361737e-02 8.61247225e-03 2.72361737e-02 4.07605407e-02 2.96167750e-02 8.61247225e-03 2.96167750e-02 -9.26128676e-02
2.23232906e-02 1.50302355e-02 9.21463175e-03 1.50302355e-02 1.35015607e-02 1.44205592e-02 9.21463175e-03 1.44205592e-02 -2.50532865e-02
2.11764549e-04 -7.00161567e-03 8.58461368e-04 -7.00161567e-03 6.00345634e-03 7.41564276e-04 8.58461368e-04 7.41564276e-04 -2.11802807e-03
-3.11834850e-03 -6.61740775e-03 -1.82331429e-02 -6.61740775e-03 9.20876426e-03 -8.26281348e-04 -1.82331429e-02 -8.26281348e-04 -3.49048486e-03
-6.32333337e-04 -4.93861863e-03 7.35825932e-04 -4.93861863e-03 4.26900461e-03 5.30591395e-04 7.35825932e-04 5.30591395e-04 -9.73719541e-04
8.52313737e-04 -1.84536059e-02 -1.71187461e-02 -1.84536059e-02 1.11074606e-03 -3.16391088e-04 -1.71187461e-02 -3.16391088e-04 3.53670068e-04
2.26411212e-03 -1.16517951e-02 1.74743589e-03 -1.16517951e-02 -1.80017418e-03 1.98030975e-04 1.74743589e-03 1.98030975e-04 1.87605148e-03
2.39049527e-02 -2.22956995e-03 -2.43295822e-02 -2.22956995e-03 -1.51090611e-02 -5.65376254e-02 -2.43295822e-02 -5.65376254e-02 1.11103291e-03
-1.42544787e-03 -2.09646265e-03 1.08492612e-02 -2.09646265e-03 -3.03004374e-04 8.86003440e-03 1.08492612e-02 8.86003440e-03 1.14941266e-02
4.95344065e-02 3.16963382e-02 -9.43676289e-03 3.16963382e-02 5.92413023e-02 8.00495893e-02 -9.43676289e-03 8.00495893e-02 -9.75530222e-02
2.59594923e-04 -1.14705944e-04 -6.21428834e-04 -1.14705944e-04 3.68016064e-04 5.12049577e-03 -6.21428834e-04 5.12049577e-03 -3.26247634e-06
-1.46745804e-03 -4.08813980e-03 2.10846221e-04 -4.08813980e-03 1.06819101e-03 1.50036101e-04 2.10846221e-04 1.50036101e-04 1.09473485e-03
-1.88061946e-04 2.30475031e-04 2.34599005e-04 2.30475031e-04 3.78778878e-04 -1.41490964e-05 2.34599005e-04 -1.41490964e-05 -3.46747393e-05
-1.55301816e-04 -2.47131486e-04 -9.75547373e-05 -2.47131486e-04 1.84319009e-04 8.70700223e-05 -9.75547373e-05 8.70700223e-05 1.26187082e-04
2.75372133e-04 -1.05087759e-03 4.88398204e-04 -1.05087759e-03 -5.18400098e-04 1.04560330e-05 4.88398204e-04 1.04560330e-05 3.72847600e-04
4.39414238e-04 -1.20648628e-03 -1.48341358e-04 -1.20648628e-03 -1.03020441e-03 -9.19043741e-05 -1.48341358e-04 -9.19043741e-05 7.16403014e-04
1.03485078e-01 2.33581178e-02 -2.40352713e-02 2.33581178e-02 1.60018191e-01 5.44432434e-04 -2.40352713e-02 5.44432434e-04 -2.35512823e-01
1.29861161e-01 9.65797994e-03 -1.26639055e-02 9.65797994e-03 1.43963978e-01 2.56178007e-02 -1.26639055e-02 2.56178007e-02 -2.48631805e-01
9.90872358e-02 -2.55512822e-02 2.43693447e-02 -2.55512822e-02 1.07585264e-01 2.85872724e-02 2.43693447e-02 2.85872724e-02 -1.74983179e-01
1.02209311e-01 -1.82744451e-02 3.51755433e-02 -1.82744451e-02 1.15380939e-01 2.03031013e-04 3.51755433e-02 2.03031013e-04 -1.85913384e-01
6.84635206e-05 3.49423644e-05 -3.80334291e-06 3.49423644e-05 -6.09041090e-05 -5.29933486e-05 -3.80334291e-06 -5.29933486e-05 2.63264046e-05
1.16676909e-02 -1.40249716e-02 4.03095595e-05 -1.40249716e-02 -4.52270843e-03 3.77624645e-04 4.03095595e-05 3.77624645e-04 -5.31766752e-03
9.06231326e-05 7.38087656e-05 2.38310367e-05 7.38087656e-05 -1.25926519e-04 3.48573067e-05 2.38310367e-05 3.48573067e-05 -4.55585941e-05
1.14071772e-01 -2.54878849e-02 1.91893680e-02 -2.54878849e-02 7.37959296e-02 2.00541755e-02 1.91893680e-02 2.00541755e-02 -1.59902386e-01
1.17786720e-01 7.85364211e-03 1.61942299e-02 7.85364211e-03 6.42355308e-02 -1.53539411e-04 1.61942299e-02 -1.53539411e-04 -1.52085930e-01
9.20775421e-02 6.98788092e-03 5.95139712e-03 6.98788092e-03 8.50599669e-02 3.61843258e-02 5.95139712e-03 3.61843258e-02 -1.53230436e-01
1.10651359e-01 -2.52504443e-02 -3.18844093e-03 -2.52504443e-02 6.42453153e-02 4.18790802e-02 -3.18844093e-03 4.18790802e-02 -1.49157979e-01
5.12257572e-02 1.29470173e-02 -1.94888683e-02 1.29470173e-02 2.81850882e-02 1.68074658e-02 -1.94888683e-02 1.68074658e-02 -5.95980771e-02
3.76924283e-02 -1.39610693e-02 -1.38573200e-02 -1.39610693e-02 5.11873271e-02 1.92791596e-02 -1.38573200e-02 1.92791596e-02 -6.80202805e-02
-1.05881212e-02 -3.62076849e-02 -8.07780743e-04 -3.62076849e-02 8.13981440e-03 3.89977591e-04 -8.07780743e-04 3.89977591e-04 5.83426899e-03
-3.31497728e-04 -4.86014469e-05 -6.12020340e-05 -4.86014469e-05 1.31922261e-04 1.60292657e-05 -6.12020340e-05 1.60292657e-05 2.24727242e-04
-9.22868421e-05 6.38936908e-05 -2.15016780e-06 6.38936908e-05 5.44311797e-06 -3.92742368e-06 -2.15016780e-06 -3.92742368e-06 3.56072997e-05
</DataArray>
<DataArray type="Float32" Name="Plastic_strain_components" NumberOfComponents="9" format="ascii">
3.48630634e-02 -7.56023762e-03 2.58225577e-03 -7.56023762e-03 3.00893858e-02 7.23018844e-03 2.58225577e-03 7.23018844e-03 -5.45009314e-02
3.00450462e-02 -1.37954837e-02 7.68880418e-04 -1.37954837e-02 3.20948438e-02 1.50470292e-02 7.68880418e-04 1.50470292e-02 -5.00540924e-02
3.47854155e-02 2.05431425e-04 2.35310639e-03 2.05431425e-04 4.71108295e-02 -4.69107419e-03 2.35310639e-03 -4.69107419e-03 -6.72854837e-02
3.59233283e-02 -1.36761108e-03 -2.94698315e-03 -1.36761108e-03 4.12762612e-02 -2.39941757e-04 -2.94698315e-03 -2.39941757e-04 -6.50296789e-02
1.92715526e-02 9.95639435e-04 1.40442073e-02 9.95639435e-04 2.46521420e-02 5.67824929e-04 1.40442073e-02 5.67824929e-04 -3.08671077e-02
2.46467771e-02 -8.34341128e-03 -6.40958839e-03 -8.34341128e-03 3.73073118e-02 2.21738823e-02 -6.40958839e-03 2.21738823e-02 -4.70215383e-02
5.91176068e-02 -8.58243601e-03 -8.89715718e-03 -8.58243601e-03 7.40831811e-02 -1.55769929e-02 -8.89715718e-03 -1.55769929e-02 -1.14797039e-01
4.86438056e-02 1.75522277e-02 5.62462909e-03 1.75522277e-02 5.96771110e-02 2.00879867e-02 5.62462909e-03 2.00879867e-02 -9.41856494e-02
5.03856884e-02 3.74644762e-04 -1.99963013e-02 3.74644762e-04 5.46561284e-02 2.69773896e-02 -1.99963013e-02 2.69773896e-02 -9.07177329e-02
6.49616923e-02 -9.22215841e-04 -1.65851526e-02 -9.22215841e-04 7.07425624e-02 2.24227696e-02 -1.65851526e-02 2.24227696e-02 -1.15286224e-01
7.48571592e-02 2.76920283e-02 -1.01948554e-01 2.76920283e-02 7.46391285e-02 -2.23765793e-02 -1.01948554e-01 -2.23765793e-02 -1.28056757e-01
8.67109224e-02 2.55786451e-02 -6.61789756e-02 2.55786451e-02 4.47047800e-02 -1.05269665e-02 -6.61789756e-02 -1.05269665e-02 -1.07574750e-01
0.00000000e+00 0.00000000e+00 0.00000000e+00 0.00000000e+00 0.00000000e+00 0.00000000e+00 0.00000000e+00 0.00000000e+00 0.00000000e+00
0.00000000e+00 0.00000000e+00 0.00000000e+00 0.00000000e+00 0.00000000e+00 0.00000000e+00 0.00000000e+00 0.00000000e+00 0.00000000e+00
0.00000000e+00 0.00000000e+00 0.00000000e+00 0.00000000e+00 0.00000000e+00 0.00000000e+00 0.00000000e+00 0.00000000e+00 0.00000000e+00
0.00000000e+00 0.00000000e+00 0.00000000e+00 0.00000000e+00 0.00000000e+00 0.00000000e+00 0.00000000e+00 0.00000000e+00 0.00000000e+00
0.00000000e+00 0.00000000e+00 0.00000000e+00 0.00000000e+00 0.00000000e+00 0.00000000e+00 0.00000000e+00 0.00000000e+00 0.00000000e+00
0.00000000e+00 0.00000000e+00 0.00000000e+00 0.00000000e+00 0.00000000e+00 0.00000000e+00 0.00000000e+00 0.00000000e+00 0.00000000e+00
0.00000000e+00 0.00000000e+00 0.00000000e+00 0.00000000e+00 0.00000000e+00 0.00000000e+00 0.00000000e+00 0.00000000e+00 0.00000000e+00
0.00000000e+00 0.00000000e+00 0.00000000e+00 0.00000000e+00 0.00000000e+00 0.00000000e+00 0.00000000e+00 0.00000000e+00 0.00000000e+00
4.91825417e-02 8.47902083e-06 9.75421956e-03 8.47902083e-06 5.16204163e-02 -2.16113427e-03 9.75421956e-03 -2.16113427e-03 -8.48823451e-02
5.04914317e-02 2.48717016e-03 6.39356708e-03 2.48717016e-03 4.98079499e-02 2.80380134e-03 6.39356708e-03 2.80380134e-03 -8.44506007e-02
4.88045006e-02 -8.71735439e-03 1.15457918e-02 -8.71735439e-03 5.06643802e-02 3.82379330e-03 1.15457918e-02 3.82379330e-03 -8.36860761e-02
4.73130895e-02 1.83562431e-03 1.01739006e-02 1.83562431e-03 5.27706575e-02 -5.46551694e-03 1.01739006e-02 -5.46551694e-03 -8.42545312e-02
6.28001895e-02 -1.10739056e-05 1.14748366e-02 -1.10739056e-05 4.80245855e-02 6.11235097e-04 1.14748366e-02 6.11235097e-04 -9.32648331e-02
6.06777454e-02 1.59277281e-03 2.09068321e-03 1.59277281e-03 5.09027345e-02 1.01624769e-02 2.09068321e-03 1.01624769e-02 -9.39162970e-02
6.19801912e-02 3.57548028e-03 1.42822460e-02 3.57548028e-03 5.13579967e-02 4.67688094e-03 1.42822460e-02 4.67688094e-03 -9.53367762e-02
6.38251621e-02 3.19621834e-03 1.46772633e-02 3.19621834e-03 5.11809131e-02 -8.80467775e-03 1.46772633e-02 -8.80467775e-03 -9.67449956e-02
5.42999161e-02 -1.07854565e-02 9.55538149e-03 -1.07854565e-02 4.42419192e-02 5.94870180e-04 9.55538149e-03 5.94870180e-04 -8.29172824e-02
5.31111192e-02 -1.16116109e-02 1.16674585e-02 -1.16116109e-02 4.91006807e-02 5.06967108e-03 1.16674585e-02 5.06967108e-03 -8.59351847e-02
5.69384219e-02 2.60824431e-03 -4.04709353e-04 2.60824431e-03 5.12842750e-02 5.13424659e-03 -4.04709353e-04 5.13424659e-03 -9.11359638e-02
5.63622848e-02 3.82908076e-03 1.24998911e-02 3.82908076e-03 5.50792948e-02 1.48190836e-02 1.24998911e-02 1.48190836e-02 -9.37951915e-02
5.79096843e-02 9.69304077e-04 3.85993626e-03 9.69304077e-04 4.14084727e-02 5.90201028e-03 3.85993626e-03 5.90201028e-03 -8.35479219e-02
5.44084134e-02 -5.28994668e-03 -4.59671207e-03 -5.28994668e-03 4.40257005e-02 -4.38708341e-03 -4.59671207e-03 -4.38708341e-03 -8.15328020e-02
5.54064047e-02 -5.81455103e-03 1.51499582e-03 -5.81455103e-03 4.64557037e-02 6.13001810e-03 1.51499582e-03 6.13001810e-03 -8.57632719e-02
5.31727723e-02 -5.30799045e-03 -4.83465870e-03 -5.30799045e-03 5.11373449e-02 5.08620961e-03 -4.83465870e-03 5.08620961e-03 -8.77684336e-02
6.04523225e-02 2.64145486e-03 -5.06320468e-03 2.64145486e-03 3.92706534e-02 -3.33215619e-04 -5.06320468e-03 -3.33215619e-04 -8.38524774e-02
6.00483138e-02 1.29467162e-03 -8.34306257e-03 1.29467162e-03 5.55477552e-02 2.33592873e-05 -8.34306257e-03 2.33592873e-05 -9.76904593e-02
5.37792612e-02 -2.65677786e-03 -7.15953810e-03 -2.65677786e-03 4.16494422e-02 5.07827252e-03 -7.15953810e-03 5.07827252e-03 -8.03347379e-02
5.21433745e-02 -1.00364788e-02 -1.11294338e-02 -1.00364788e-02 4.31754403e-02 -6.02708304e-03 -1.11294338e-02 -6.02708304e-03 -7.98755568e-02
5.81045775e-02 6.31765972e-04 2.64164148e-03 6.31765972e-04 4.05972013e-02 -3.28597977e-03 2.64164148e-03 -3.28597977e-03 -8.30424838e-02
5.88465398e-02 -3.23533699e-04 4.10324603e-04 -3.23533699e-04 5.32500343e-02 3.06547269e-03 4.10324603e-04 3.06547269e-03 -9.43606654e-02
4.77828579e-02 -6.69603643e-04 -1.25600903e-02 -6.69603643e-04 4.02813107e-02 -1.50367831e-03 -1.25600903e-02 -1.50367831e-03 -7.41151292e-02
5.08447015e-02 -2.99161106e-03 -1.04420025e-02 -2.99161106e-03 4.77306168e-02 -5.77735993e-03 -1.04420025e-02 -5.77735993e-03 -8.30120016e-02
5.59220761e-02 -2.42537229e-04 2.23970925e-03 -2.42537229e-04 4.11350261e-02 -2.97415722e-03 2.23970925e-03 -2.97415722e-03 -8.16269442e-02
5.46588171e-02 -4.35912798e-03 -2.62781404e-03 -4.35912798e-03 5.37759271e-02 -2.51339790e-03 -2.62781404e-03 -2.51339790e-03 -9.12713557e-02
4.39161398e-02 1.30126639e-02 -8.93281400e-03 1.30126639e-02 4.11985982e-02 -1.15013998e-02 -8.93281400e-03 -1.15013998e-02 -7.15944171e-02
4.93505476e-02 2.32224679e-03 -7.10311331e-03 2.32224679e-03 4.63682534e-02 -6.97133481e-03 -7.10311331e-03 -6.97133481e-03 -8.04741289e-02
4.45287928e-02 -1.49250804e-02 2.96347503e-02 -1.49250804e-02 5.51368534e-02 1.54675142e-03 2.96347503e-02 1.54675142e-03 -8.33024895e-02
3.78210312e-02 -1.28998221e-02 2.20304714e-02 -1.28998221e-02 5.91810616e-02 -3.34879168e-03 2.20304714e-02 -3.34879168e-03 -8.14010892e-02
6.65851799e-02 1.12614188e-03 3.85963889e-02 1.12614188e-03 5.56547409e-02 1.22282713e-02 3.85963889e-02 1.22282713e-02 -1.02545789e-01
6.35436019e-02 -5.58580559e-05 2.86581458e-02 -5.58580559e-05 5.60743026e-02 -1.89102086e-03 2.86581458e-02 -1.89102086e-03 -1.00479987e-01
5.75444086e-02 -9.09993200e-04 2.20894389e-02 -9.09993200e-04 5.29928473e-02 -3.73646730e-03 2.20894389e-02 -3.73646730e-03 -9.36969072e-02
6.00836473e-02 1.24261901e-02 1.22225354e-02 1.24261901e-02 5.65644070e-02 -6.35157112e-03 1.22225354e-02 -6.35157112e-03 -9.77905141e-02
6.87155180e-02 -1.52421862e-02 -6.02099720e-02 -1.52421862e-02 6.29908975e-02 -8.35445803e-04 -6.02099720e-02 -8.35445803e-04 -1.09379147e-01
5.12650971e-02 7.69882576e-03 -4.48689612e-02 7.69882576e-03 5.56161430e-02 -8.31871094e-03 -4.48689612e-02 -8.31871094e-03 -9.11337744e-02
6.52875556e-02 -2.01483106e-03 -1.77620663e-02 -2.01483106e-03 7.46088214e-02 1.18886133e-02 -1.77620663e-02 1.18886133e-02 -1.17521301e-01
5.55514373e-02 -7.01194303e-03 -5.84581595e-02 -7.01194303e-03 4.49459160e-02 7.58672962e-03 -5.84581595e-02 7.58672962e-03 -8.28598440e-02
6.47595339e-02 -4.78883940e-03 -1.66157470e-03 -4.78883940e-03 7.22301118e-02 1.08996938e-02 -1.66157470e-03 1.08996938e-02 -1.15349222e-01
5.64806927e-02 2.37301158e-03 -2.23162840e-02 2.37301158e-03 6.47540409e-02 -2.15400493e-03 -2.23162840e-02 -2.15400493e-03 -1.02006376e-01
5.79433031e-02 -3.57359601e-03 -4.17109404e-03 -3.57359601e-03 7.48525225e-02 3.62350605e-03 -4.17109404e-03 3.62350605e-03 -1.11757692e-01
5.27705904e-02 -5.60171157e-03 -2.33824849e-02 -5.60171157e-03 6.65191337e-02 -1.63237397e-02 -2.33824849e-02 -1.63237397e-02 -1.00166190e-01
3.98838291e-02 -9.11352855e-03 4.17589678e-02 -9.11352855e-03 5.58425039e-02 2.39593060e-03 4.17589678e-02 2.39593060e-03 -8.02967948e-02
3.32254856e-02 3.01281194e-03 3.16102537e-02 3.01281194e-03 5.32656861e-02 3.91326024e-03 3.16102537e-02 3.91326024e-03 -7.22326338e-02
7.26509504e-02 -4.52942325e-03 4.68654122e-02 -4.52942325e-03 6.03422837e-02 -8.90672766e-03 4.68654122e-02 -8.90672766e-03 -1.12113236e-01
5.73048079e-02 1.60201004e-03 4.53289747e-02 1.60201004e-03 6.00953558e-02 -1.11565320e-02 4.53289747e-02 -1.11565320e-02 -9.83315855e-02
4.96893274e-02 -2.68351515e-02 5.60991517e-02 -2.68351515e-02 6.71979645e-02 -6.22982287e-02 5.60991517e-02 -6.22982287e-02 -9.51357801e-02
7.76871338e-02 -1.12230796e-04 1.29225777e-02 -1.12230796e-04 5.91295272e-02 -5.05576227e-02 1.29225777e-02 -5.05576227e-02 -1.15535937e-01
-2.21386701e-02 -1.15814701e-01 -2.13565156e-01 -1.15814701e-01 -3.93986050e-03 -1.32068574e-01 -2.13565156e-01 -1.32068574e-01 3.89028639e-02
1.98669552e-02 -4.55996922e-03 -1.81868151e-02 -4.55996922e-03 1.64868807e-02 -3.22564468e-02 -1.81868151e-02 -3.22564468e-02 -2.13390564e-02
3.03091521e-02 -3.14198379e-03 1.27099528e-02 -3.14198379e-03 3.88629737e-02 2.42320010e-02 1.27099528e-02 2.42320010e-02 -5.68655095e-02
3.40717053e-02 -7.73687556e-03 2.78960422e-02 -7.73687556e-03 4.59222486e-02 7.94276444e-03 2.78960422e-02 7.94276444e-03 -6.74790228e-02
2.22838813e-02 -5.57512448e-03 2.83050009e-02 -5.57512448e-03 2.91178155e-02 2.12012841e-02 2.83050009e-02 2.12012841e-02 -3.28486295e-02
3.44919260e-02 -5.58881700e-03 1.56223300e-02 -5.58881700e-03 4.30153259e-02 1.35168312e-02 1.56223300e-02 1.35168312e-02 -5.84842814e-02
3.78161529e-02 6.62700227e-03 -2.94974237e-03 6.62700227e-03 4.79788473e-02 5.34094195e-03 -2.94974237e-03 5.34094195e-03 -7.33832745e-02
6.85013953e-02 1.31809212e-02 -1.83425548e-02 1.31809212e-02 7.89719777e-02 4.11168180e-02 -1.83425548e-02 4.11168180e-02 -1.28521285e-01
3.91645553e-02 1.48907709e-02 8.42222455e-03 1.48907709e-02 5.71829309e-02 9.78249637e-03 8.42222455e-03 9.78249637e-03 -7.65033974e-02
3.53147378e-02 6.57416550e-03 1.64702986e-02 6.57416550e-03 4.98852311e-02 7.84269767e-02 1.64702986e-02 7.84269767e-02 -6.92262119e-02
9.31089222e-02 -1.15902401e-02 7.53109157e-02 -1.15902401e-02 8.21729340e-02 3.24722412e-02 7.53109157e-02 3.24722412e-02 -1.50095001e-01
5.08512221e-02 -1.97061975e-02 -3.77408579e-02 -1.97061975e-02 8.03641051e-02 -1.62142687e-02 -3.77408579e-02 -1.62142687e-02 -1.10040212e-01
3.42369266e-02 -3.93366744e-03 7.46739167e-03 -3.93366744e-03 4.74988781e-02 1.10534877e-02 7.46739167e-03 1.10534877e-02 -6.80473857e-02
2.26225375e-02 1.28208987e-02 -7.60052167e-03 1.28208987e-02 2.28693011e-02 -3.58788139e-03 -7.60052167e-03 -3.58788139e-03 -2.45315819e-02
5.20885531e-02 -1.24735101e-02 1.70211075e-02 -1.24735101e-02 7.49311857e-02 -1.65980165e-02 1.70211075e-02 -1.65980165e-02 -1.07048199e-01
6.92036068e-02 -2.06010384e-02 -5.02758953e-02 -2.06010384e-02 7.87413903e-02 5.89517562e-02 -5.02758953e-02 5.89517562e-02 -1.24658458e-01
3.41870549e-02 4.89911623e-02 -3.46172950e-04 4.89911623e-02 7.41034634e-02 -1.23649097e-01 -3.46172950e-04 -1.23649097e-01 -8.60824517e-02
7.46710454e-02 -7.17789202e-03 -1.26565023e-02 -7.17789202e-03 4.27470362e-02 -3.24643689e-02 -1.26565023e-02 -3.24643689e-02 -9.78386092e-02
7.67258890e-02 7.74126238e-06 3.74292489e-03 7.74126238e-06 4.86664698e-02 -3.07451130e-03 3.74292489e-03 -3.07451130e-03 -1.05413981e-01
7.13375788e-02 3.39091732e-03 3.63130181e-03 3.39091732e-03 5.31292353e-02 5.49953726e-03 3.63130181e-03 5.49953726e-03 -1.04717588e-01
7.38848494e-02 1.32458261e-02 8.27810302e-03 1.32458261e-02 5.43195410e-02 5.34070411e-03 8.27810302e-03 5.34070411e-03 -1.07816354e-01
8.05297792e-02 3.58107622e-03 9.89198999e-03 3.58107622e-03 5.11310920e-02 -3.20381596e-03 9.89198999e-03 -3.20381596e-03 -1.10664183e-01
5.91480630e-02 9.24267899e-03 -1.31780331e-03 9.24267899e-03 6.01438927e-02 8.50022060e-03 -1.31780331e-03 8.50022060e-03 -1.00426950e-01
5.97420619e-02 1.83720586e-02 4.48638428e-03 1.83720586e-02 6.01058439e-02 7.75312138e-03 4.48638428e-03 7.75312138e-03 -1.00793036e-01
5.01283146e-02 5.81547432e-03 -1.32392769e-03 5.81547432e-03 6.05889950e-02 2.41300257e-03 -1.32392769e-03 2.41300257e-03 -9.32273529e-02
4.56207939e-02 9.20791911e-03 2.38274632e-04 9.20791911e-03 6.19206466e-02 1.04854475e-02 2.38274632e-04 1.04854475e-02 -9.03040366e-02
4.46643289e-02 -5.60689229e-03 -8.25119423e-04 -5.60689229e-03 5.64057520e-02 1.25178971e-03 -8.25119423e-04 1.25178971e-03 -8.50933753e-02
4.02760711e-02 -5.06661778e-03 -3.18922196e-03 -5.06661778e-03 5.69616072e-02 1.22770911e-03 -3.18922196e-03 1.22770911e-03 -8.20833035e-02
3.89380315e-02 -5.97694342e-03 -4.84258682e-03 -5.97694342e-03 5.35741802e-02 -1.64970712e-03 -4.84258682e-03 -1.64970712e-03 -7.78573602e-02
4.08435212e-02 -1.03421375e-02 -9.37972649e-03 -1.03421375e-02 4.88062315e-02 -2.85732230e-03 -9.37972649e-03 -2.85732230e-03 -7.57503584e-02
3.43172308e-02 1.48201705e-03 3.68962617e-04 1.48201705e-03 5.70422597e-02 -1.55843981e-03 3.68962617e-04 -1.55843981e-03 -7.68129490e-02
3.92628452e-02 -8.37216841e-03 -3.78972664e-03 -8.37216841e-03 4.90713548e-02 -1.28881263e-02 -3.78972664e-03 -1.28881263e-02 -7.40957763e-02
7.41332730e-02 1.70357911e-02 1.98908160e-02 1.70357911e-02 4.61817521e-02 5.72448428e-03 1.98908160e-02 5.72448428e-03 -9.74963419e-02
8.35910756e-02 9.53002763e-03 2.85527387e-02 9.53002763e-03 5.28750196e-02 -8.37649859e-03 2.85527387e-02 -8.37649859e-03 -1.12882135e-01
5.70762623e-02 2.12506129e-02 1.84354603e-03 2.12506129e-02 4.84874529e-02 4.01826300e-03 1.84354603e-03 4.01826300e-03 -8.61147274e-02
3.97250312e-02 1.79534658e-02 -2.03418622e-02 1.79534658e-02 4.58170729e-02 -4.09702392e-03 -2.03418622e-02 -4.09702392e-03 -7.13721404e-02
2.57618498e-02 -6.86506574e-04 -2.65571347e-02 -6.86506574e-04 3.99180256e-02 -2.02238595e-03 -2.65571347e-02 -2.02238595e-03 -5.45174670e-02
2.17299001e-02 -9.87972630e-03 -2.86404913e-02 -9.87972630e-03 3.32260565e-02 -9.71495151e-03 -2.86404913e-02 -9.71495151e-03 -4.38696938e-02
2.95156886e-02 -1.98056220e-02 -3.47330825e-02 -1.98056220e-02 3.63897330e-02 -1.85483644e-02 -3.47330825e-02 -1.85483644e-02 -5.50723138e-02
1.02847771e-01 -1.77704263e-03 6.45567924e-02 -1.77704263e-03 5.59362657e-02 -1.45431810e-02 6.45567924e-02 -1.45431810e-02 -1.33911704e-01
9.71048524e-02 -1.66631509e-02 5.79896383e-02 -1.66631509e-02 6.16210128e-02 -1.75427018e-02 5.79896383e-02 -1.75427018e-02 -1.33179252e-01
7.66170627e-02 1.76993424e-02 6.18998501e-03 1.76993424e-02 3.74813409e-02 -4.16742448e-02 6.18998501e-03 -4.16742448e-02 -9.53770721e-02
1.16977607e-02 1.23376551e-02 -2.36023356e-02 1.23376551e-02 6.48705444e-03 -4.04048137e-03 -2.36023356e-02 -4.04048137e-03 -8.46920670e-03
1.01241712e-02 -6.92569092e-02 -9.45350453e-02 -6.92569092e-02 -3.69850583e-02 -9.53825861e-02 -9.45350453e-02 -9.53825861e-02 3.44670452e-02
-2.68920649e-03 3.65331805e-03 -6.89418908e-04 3.65331805e-03 3.31823556e-03 -6.45691401e-04 -6.89418908e-04 -6.45691401e-04 4.01820863e-03
1.10428140e-01 -2.71109538e-03 -6.17069565e-03 -2.71109538e-03 9.73588498e-02 6.02863636e-02 -6.17069565e-03 6.02863636e-02 -1.79191411e-01
1.07354154e-01 1.15190102e-02 -3.84344956e-02 1.15190102e-02 1.05630744e-01 4.87098768e-02 -3.84344956e-02 4.87098768e-02 -1.84415527e-01
1.04237575e-01 -2.10870602e-02 2.18838891e-02 -2.10870602e-02 5.15744742e-02 -6.20969795e-02 2.18838891e-02 -6.20969795e-02 -1.30179558e-01
6.20604216e-02 -2.08274861e-03 -1.56886642e-02 -2.08274861e-03 7.86693494e-02 2.44648483e-02 -1.56886642e-02 2.44648483e-02 -1.10244914e-01
6.41417386e-02 -4.58567514e-03 1.53908180e-02 -4.58567514e-03 7.46744744e-02 -2.16572256e-03 1.53908180e-02 -2.16572256e-03 -1.08687015e-01
1.01532865e-01 -3.19447834e-03 8.32390226e-03 -3.19447834e-03 8.91864635e-02 3.08548023e-02 8.32390226e-03 3.08548023e-02 -1.64029613e-01
8.99504982e-02 4.49896953e-03 1.31228438e-02 4.49896953e-03 7.90611506e-02 -1.56346187e-02 1.31228438e-02 -1.56346187e-02 -1.42301105e-01
9.41609908e-02 2.36213626e-02 -1.32301013e-02 2.36213626e-02 8.73991009e-02 -3.13435579e-02 -1.32301013e-02 -3.13435579e-02 -1.53793290e-01
1.06049184e-01 -1.57408328e-02 -2.69922535e-02 -1.57408328e-02 6.11682506e-02 4.40362180e-02 -2.69922535e-02 4.40362180e-02 -1.40398329e-01
6.30114658e-02 1.04778231e-02 7.22813627e-03 1.04778231e-02 2.54576528e-02 -1.39252099e-02 7.22813627e-03 -1.39252099e-02 -7.10582198e-02
4.08035733e-02 -2.29182810e-02 4.36925446e-03 -2.29182810e-02 3.81154532e-02 4.05453285e-03 4.36925446e-03 4.05453285e-03 -6.23766289e-02
-1.61886197e-02 3.28416862e-02 2.05125585e-02 3.28416862e-02 -9.56244860e-03 -1.24675389e-02 2.05125585e-02 -1.24675389e-02 3.47745232e-02
-3.09898052e-03 -6.66239345e-03 7.22333044e-03 -6.66239345e-03 -1.07775843e-02 1.52767450e-02 7.22333044e-03 1.52767450e-02 2.41219606e-02
1.55190227e-02 -4.01849093e-02 -1.15414942e-02 -4.01849093e-02 -2.07450070e-02 3.98661162e-02 -1.15414942e-02 3.98661162e-02 1.00963618e-02
-6.73451317e-03 -2.86521814e-02 3.11007007e-03 -2.86521814e-02 7.15738581e-03 -4.34470764e-02 3.11007007e-03 -4.34470764e-02 6.16007318e-03
0.00000000e+00 0.00000000e+00 0.00000000e+00 0.00000000e+00 0.00000000e+00 0.00000000e+00 0.00000000e+00 0.00000000e+00 0.00000000e+00
0.00000000e+00 0.00000000e+00 0.00000000e+00 0.00000000e+00 0.00000000e+00 0.00000000e+00 0.00000000e+00 0.00000000e+00 0.00000000e+00
0.00000000e+00 0.00000000e+00 0.00000000e+00 0.00000000e+00 0.00000000e+00 0.00000000e+00 0.00000000e+00 0.00000000e+00 0.00000000e+00
0.00000000e+00 0.00000000e+00 0.00000000e+00 0.00000000e+00 0.00000000e+00 0.00000000e+00 0.00000000e+00 0.00000000e+00 0.00000000e+00
1.92480928e-05 -2.93597590e-05 -2.38326709e-05 -2.93597590e-05 -4.02234155e-05 -3.65211807e-05 -2.38326709e-05 -3.65211807e-05 9.39532092e-06
0.00000000e+00 0.00000000e+00 0.00000000e+00 0.00000000e+00 0.00000000e+00 0.00000000e+00 0.00000000e+00 0.00000000e+00 0.00000000e+00
0.00000000e+00 0.00000000e+00 0.00000000e+00 0.00000000e+00 0.00000000e+00 0.00000000e+00 0.00000000e+00 0.00000000e+00 0.00000000e+00
-3.22474176e-05 -1.53882545e-04 1.33525658e-05 -1.53882545e-04 8.87463527e-06 4.45710036e-06 1.33525658e-05 4.45710036e-06 3.41866131e-05
8.18826109e-02 1.00326724e-06 2.48101423e-06 1.00326724e-06 5.10297678e-02 7.20974640e-07 2.48101423e-06 7.20974640e-07 -1.11728400e-01
7.49586448e-02 6.38519553e-03 -1.09449393e-05 6.38519553e-03 5.55037241e-02 4.58672130e-03 -1.09449393e-05 4.58672130e-03 -1.09770916e-01
8.01523179e-02 1.94629184e-02 3.81032872e-03 1.94629184e-02 5.23639629e-02 7.52069964e-03 3.81032872e-03 7.52069964e-03 -1.11319784e-01
8.83366540e-02 5.69132762e-03 1.78496115e-03 5.69132762e-03 4.90620192e-02 -3.32059790e-06 1.78496115e-03 -3.32059790e-06 -1.15374129e-01
5.97760696e-02 6.22867770e-03 -3.81366808e-05 6.22867770e-03 6.44425675e-02 1.03623993e-02 -3.81366808e-05 1.03623993e-02 -1.04559816e-01
6.17155759e-02 2.46417045e-02 4.53310926e-03 2.46417045e-02 6.09116824e-02 7.30289018e-03 4.53310926e-03 7.30289018e-03 -1.03071395e-01
4.65893596e-02 9.95392865e-03 -3.27434027e-05 9.95392865e-03 6.81218505e-02 6.90526189e-03 -3.27434027e-05 6.90526189e-03 -9.64725055e-02
4.50093038e-02 1.59300503e-02 6.65531203e-03 1.59300503e-02 6.52612802e-02 1.08012103e-02 6.65531203e-03 1.08012103e-02 -9.24152937e-02
3.87532189e-02 1.05137523e-03 -1.76441972e-08 1.05137523e-03 6.63776286e-02 2.36636947e-03 -1.76441972e-08 2.36636947e-03 -8.83343853e-02
3.69307101e-02 2.41749968e-03 1.26309399e-02 2.41749968e-03 6.55626282e-02 9.63526568e-03 1.26309399e-02 9.63526568e-03 -8.67133699e-02
3.65834758e-02 -4.12702747e-03 -9.45048214e-06 -4.12702747e-03 6.25145566e-02 -2.82138455e-04 -9.45048214e-06 -2.82138455e-04 -8.32845904e-02
3.18840211e-02 -1.10127472e-02 1.45459138e-02 -1.10127472e-02 6.32039811e-02 1.49439331e-03 1.45459138e-02 1.49439331e-03 -8.11550077e-02
3.36768031e-02 -2.09105667e-02 2.47271946e-05 -2.09105667e-02 6.67876229e-02 6.13491377e-03 2.47271946e-05 6.13491377e-03 -8.42409879e-02
3.00642811e-02 -1.48202977e-02 1.76094938e-02 -1.48202977e-02 6.51695859e-02 -1.77470902e-02 1.76094938e-02 -1.77470902e-02 -8.10100958e-02
8.61472171e-02 2.74266936e-02 -7.40383792e-03 2.74266936e-02 5.87679707e-02 1.40262505e-02 -7.40383792e-03 1.40262505e-02 -1.21074185e-01
1.06876157e-01 4.94932104e-03 -3.90721916e-03 4.94932104e-03 7.36994054e-02 5.96525584e-04 -3.90721916e-03 5.96525584e-04 -1.54756166e-01
4.98888670e-02 3.96080250e-02 -5.19033274e-05 3.96080250e-02 4.64507588e-02 1.56474057e-02 -5.19033274e-05 1.56474057e-02 -7.67168114e-02
3.69476927e-02 2.60597705e-02 1.11573059e-02 2.60597705e-02 5.06770369e-02 1.43545633e-02 1.11573059e-02 1.43545633e-02 -7.42202960e-02
1.61045877e-02 -3.85331153e-03 1.11121610e-02 -3.85331153e-03 3.06729832e-02 8.86991585e-03 1.11121610e-02 8.86991585e-03 -3.77609339e-02
7.31981805e-03 -5.00524358e-03 9.20720026e-03 -5.00524358e-03 1.16423371e-02 -1.90490691e-03 9.20720026e-03 -1.90490691e-03 -1.12243769e-02
1.25465961e-02 -1.21976808e-02 6.87743700e-03 -1.21976808e-02 3.37332534e-03 -6.44318719e-03 6.87743700e-03 -6.44318719e-03 -8.35324917e-03
1.03944127e-01 -7.14369980e-03 3.49860787e-02 -7.14369980e-03 8.90099630e-02 1.94694828e-02 3.49860787e-02 1.94694828e-02 -1.62279338e-01
1.07645899e-01 -5.57547854e-03 2.43716240e-02 -5.57547854e-03 9.56139416e-02 -3.22947541e-04 2.43716240e-02 -3.22947541e-04 -1.69631377e-01
8.73939892e-02 3.71701466e-02 1.06971559e-02 3.71701466e-02 4.87130793e-02 3.38136281e-02 1.06971559e-02 3.38136281e-02 -1.19650503e-01
-3.13812715e-03 -6.08943458e-03 5.11835033e-03 -6.08943458e-03 2.55460641e-03 5.98875107e-03 5.11835033e-03 5.98875107e-03 9.03212628e-03
-1.53480578e-03 -4.99489523e-03 2.66770065e-03 -4.99489523e-03 -2.09491031e-03 -2.00621391e-04 2.66770065e-03 -2.00621391e-04 6.31311332e-03
-3.46640037e-03 -8.01206941e-03 -1.89695306e-02 -8.01206941e-03 1.06162363e-02 -7.89139225e-04 -1.89695306e-02 -7.89139225e-04 -5.34209625e-03
-5.34959114e-04 3.10422940e-04 3.21649485e-03 3.10422940e-04 -2.21593701e-03 9.06161869e-04 3.21649485e-03 9.06161869e-04 4.47062936e-03
1.02457081e-03 -1.98536751e-02 -1.74356255e-02 -1.98536751e-02 1.35333039e-03 -3.56232951e-04 -1.74356255e-02 -3.56232951e-04 -1.69371575e-04
8.30563309e-04 -5.22451912e-03 2.98167620e-03 -5.22451912e-03 -2.44754343e-03 5.09163146e-04 2.98167620e-03 5.09163146e-04 2.95382645e-03
1.48462406e-02 1.95962936e-03 -2.19269637e-02 1.95962936e-03 -1.09462464e-02 -3.35825579e-02 -2.19269637e-02 -3.35825579e-02 3.04943346e-03
-1.71468602e-02 -4.76937805e-03 7.00721389e-03 -4.76937805e-03 -2.97492595e-03 7.27978605e-03 7.00721389e-03 7.27978605e-03 2.70514525e-02
6.01478778e-02 3.32655832e-02 -7.26624439e-03 3.32655832e-02 6.21996857e-02 8.09448808e-02 -7.26624439e-03 8.09448808e-02 -1.07902639e-01
5.68589785e-05 -3.12073200e-04 -4.88359246e-04 -3.12073200e-04 -1.32019365e-05 5.31087030e-03 -4.88359246e-04 5.31087030e-03 -3.59556373e-05
-1.67399058e-03 -4.21888277e-03 6.88933878e-05 -4.21888277e-03 1.01151221e-03 3.16049415e-05 6.88933878e-05 3.16049415e-05 1.05416794e-03
-1.32692713e-04 1.14708880e-05 2.44514285e-06 1.14708880e-05 1.79891792e-04 2.63758391e-05 2.44514285e-06 2.63758391e-05 -6.01407490e-05
-8.94031914e-05 -3.52372896e-05 -7.18074034e-05 -3.52372896e-05 8.75727205e-05 -1.38029281e-05 -7.18074034e-05 -1.38029281e-05 -4.32815659e-05
2.00535578e-04 -9.59973026e-04 5.22107177e-04 -9.59973026e-04 -3.44272121e-04 7.43550390e-06 5.22107177e-04 7.43550390e-06 2.50428682e-04
4.68995684e-04 -1.19088392e-03 -8.10477723e-05 -1.19088392e-03 -8.97101127e-04 -3.21793050e-05 -8.10477723e-05 -3.21793050e-05 6.22290536e-04
9.84973907e-02 2.35297196e-02 -2.42399294e-02 2.35297196e-02 1.49483114e-01 -9.42608225e-04 -2.42399294e-02 -9.42608225e-04 -2.05500528e-01
1.31701276e-01 1.06516453e-02 -8.73452332e-03 1.06516453e-02 1.45184860e-01 2.37331502e-02 -8.73452332e-03 2.37331502e-02 -2.31709883e-01
1.04014692e-01 -2.71252086e-02 1.97898646e-02 -2.71252086e-02 1.13231900e-01 3.09790919e-02 1.97898646e-02 3.09790919e-02 -1.84760933e-01
1.14463598e-01 -1.92828747e-02 3.64952106e-02 -1.92828747e-02 1.34432178e-01 2.01833622e-03 3.64952106e-02 2.01833622e-03 -2.14809835e-01
4.32666970e-05 -6.71312953e-05 5.59118519e-07 -6.71312953e-05 -2.86893394e-05 -1.31672186e-05 5.59118519e-07 -1.31672186e-05 -2.74639041e-05
-7.53621962e-04 -2.73733461e-03 5.85174375e-04 -2.73733461e-03 -1.15297107e-03 2.71516826e-03 5.85174375e-04 2.71516826e-03 4.12551503e-03
0.00000000e+00 0.00000000e+00 0.00000000e+00 0.00000000e+00 0.00000000e+00 0.00000000e+00 0.00000000e+00 0.00000000e+00 0.00000000e+00
1.12295333e-01 -2.48593381e-02 1.88123528e-02 -2.48593381e-02 7.27433786e-02 1.97014539e-02 1.88123528e-02 1.97014539e-02 -1.55342683e-01
1.17227502e-01 7.82286748e-03 1.62835680e-02 7.82286748e-03 6.38311058e-02 -1.05623854e-04 1.62835680e-02 -1.05623854e-04 -1.52045563e-01
1.02846291e-01 5.08916471e-03 4.07333847e-03 5.08916471e-03 9.31129828e-02 3.87811512e-02 4.07333847e-03 3.87811512e-02 -1.68599889e-01
1.20945856e-01 -3.04308109e-02 -4.33480984e-03 -3.04308109e-02 6.92282505e-02 4.43630274e-02 -4.33480984e-03 4.43630274e-02 -1.62387401e-01
2.50513407e-02 1.54337978e-02 -1.23228005e-02 1.54337978e-02 4.39871009e-03 6.93752168e-03 -1.23228005e-02 6.93752168e-03 -1.31402370e-02
-5.07563085e-03 -3.19419417e-03 -9.72151780e-03 -3.19419417e-03 3.49816559e-02 7.40620412e-03 -9.72151780e-03 7.40620412e-03 -1.41805671e-02
-3.17756209e-03 -6.86204340e-03 -5.43540024e-04 -6.86204340e-03 -1.52150259e-03 5.81119295e-03 -5.43540024e-04 5.81119295e-03 8.23089747e-03
-1.88578691e-04 -1.16009222e-04 -5.64249649e-06 -1.16009222e-04 8.86208945e-05 -1.43955967e-05 -5.64249649e-06 -1.43955967e-05 1.31784691e-04
0.00000000e+00 0.00000000e+00 0.00000000e+00 0.00000000e+00 0.00000000e+00 0.00000000e+00 0.00000000e+00 0.00000000e+00 0.00000000e+00
</DataArray>
<DataArray type="Float32" Name="Spatial_displacement" NumberOfComponents="3" format="ascii">
3.99207845e-02 2.24629909e-01 -1.09233528e-01
6.67640716e-02 2.13798612e-01 -8.85584056e-02
6.80234209e-02 2.70090133e-01 -1.28716484e-01
3.48305628e-02 2.63867438e-01 -1.37658328e-01
3.24631929e-02 2.59088397e-01 -1.67164773e-01
7.18346536e-02 2.55540192e-01 -1.58258632e-01
6.03165030e-02 3.27786267e-01 -2.07923576e-01
3.54948342e-02 2.97657967e-01 -2.00602144e-01
1.13918260e-01 1.97813272e-01 -6.89878911e-02
1.23647757e-01 2.58778006e-01 -1.26134425e-01
1.10631749e-01 2.47156650e-01 -1.79017469e-01
1.59721315e-01 3.05770397e-01 -2.57535428e-01
1.19421266e-01 1.87739953e-01 3.44663858e-05
1.19420812e-01 1.89673692e-01 3.14861536e-05
1.17484987e-01 1.89681157e-01 -1.70916319e-05
1.17458358e-01 1.87752411e-01 -3.35425138e-05
1.19412512e-01 1.87802672e-01 2.27391720e-05
1.19405173e-01 1.89745337e-01 3.88622284e-05
1.17463693e-01 1.89735562e-01 -2.72840261e-05
1.17479712e-01 1.87791318e-01 -2.26646662e-05
0.00000000e+00 0.00000000e+00 -2.51533747e-01
4.77087423e-02 0.00000000e+00 -2.53514200e-01
5.03582880e-02 5.22376522e-02 -2.47620001e-01
0.00000000e+00 5.03132194e-02 -2.42580160e-01
0.00000000e+00 0.00000000e+00 -3.37336063e-01
6.43990561e-02 0.00000000e+00 -3.36769313e-01
6.61187917e-02 5.21217808e-02 -3.34868729e-01
0.00000000e+00 4.87964377e-02 -3.26841414e-01
1.05785623e-01 0.00000000e+00 -2.67114878e-01
9.43702087e-02 4.44899946e-02 -2.58315951e-01
1.24749862e-01 0.00000000e+00 -3.46385032e-01
1.27524301e-01 5.49494699e-02 -3.46746325e-01
1.57441169e-01 0.00000000e+00 -2.82123923e-01
1.58479169e-01 3.98189500e-02 -2.78563410e-01
1.85919434e-01 0.00000000e+00 -3.62428665e-01
1.79749042e-01 4.81949598e-02 -3.61030012e-01
2.19626158e-01 0.00000000e+00 -2.95406938e-01
2.22438470e-01 4.15177345e-02 -3.00077677e-01
2.39564598e-01 0.00000000e+00 -3.74339044e-01
2.36724794e-01 4.01243493e-02 -3.80944937e-01
2.84905791e-01 0.00000000e+00 -3.11725855e-01
2.85563529e-01 4.42953780e-02 -3.09289813e-01
2.91349590e-01 0.00000000e+00 -3.82955909e-01
2.90645123e-01 3.89600918e-02 -3.94598186e-01
3.45146090e-01 0.00000000e+00 -3.17330003e-01
3.44910562e-01 4.47050035e-02 -3.15268278e-01
3.33065569e-01 0.00000000e+00 -3.86245698e-01
3.46698076e-01 3.89993042e-02 -3.94600391e-01
3.53476927e-02 9.86169949e-02 -2.27053076e-01
0.00000000e+00 1.12345263e-01 -2.23812699e-01
6.58609048e-02 1.05409823e-01 -3.12105566e-01
0.00000000e+00 1.05468109e-01 -3.10398132e-01
9.36097652e-02 1.00176401e-01 -2.48467520e-01
1.36440441e-01 1.11776203e-01 -3.39066088e-01
1.48565620e-01 1.06550902e-01 -2.89505541e-01
1.88868016e-01 1.05491057e-01 -3.93306136e-01
2.18331337e-01 1.17921352e-01 -2.99872667e-01
2.27305949e-01 9.21879634e-02 -4.10637051e-01
2.81206816e-01 1.10695422e-01 -2.98075646e-01
2.86288679e-01 1.03414699e-01 -4.09480631e-01
3.35235089e-01 1.16798498e-01 -3.03296447e-01
3.38173866e-01 1.05977654e-01 -4.10421759e-01
3.10408324e-02 1.69158831e-01 -1.84972227e-01
0.00000000e+00 1.65999129e-01 -1.88884124e-01
6.21899664e-02 1.66647688e-01 -2.78392911e-01
0.00000000e+00 1.65240780e-01 -2.68210500e-01
8.39966536e-02 1.48456499e-01 -2.15205714e-01
1.52987301e-01 1.71347380e-01 -3.49275500e-01
6.66260943e-02 1.26775801e-01 -5.03500104e-01
2.16295451e-01 1.52117997e-01 -4.59940672e-01
3.12929228e-02 2.09092498e-01 -1.54951036e-01
0.00000000e+00 2.16838941e-01 -1.61346182e-01
4.96540889e-02 2.30020583e-01 -2.17803866e-01
0.00000000e+00 2.36892015e-01 -2.37429604e-01
0.00000000e+00 2.53070354e-01 -1.70995489e-01
4.47486341e-02 3.00469756e-01 -2.36662284e-01
0.00000000e+00 2.81767845e-01 -2.49555543e-01
7.44723529e-02 2.09710658e-01 -1.22296289e-01
1.12522945e-01 2.42460594e-01 -2.42480010e-01
1.08382702e-01 2.81123549e-01 -2.33917043e-01
0.00000000e+00 3.01293433e-01 -2.11568028e-01
6.31760806e-02 3.54146540e-01 -3.04098397e-01
0.00000000e+00 3.69614810e-01 -2.86401272e-01
1.08324900e-01 3.74769270e-01 -3.02797586e-01
1.44174233e-01 2.60071933e-01 -3.56639087e-01
2.26409107e-01 2.97098428e-01 -3.52810085e-01
0.00000000e+00 0.00000000e+00 -4.31409180e-01
8.00710917e-02 0.00000000e+00 -4.34184968e-01
8.37274417e-02 5.38990125e-02 -4.30911988e-01
0.00000000e+00 5.01246229e-02 -4.28025484e-01
1.46539837e-01 0.00000000e+00 -4.38724369e-01
1.56392232e-01 6.26017675e-02 -4.39897001e-01
2.02782035e-01 0.00000000e+00 -4.46704984e-01
2.08940566e-01 6.48849607e-02 -4.47878182e-01
2.53897369e-01 0.00000000e+00 -4.55163360e-01
2.47969955e-01 5.86276501e-02 -4.55903172e-01
2.95161337e-01 0.00000000e+00 -4.59106028e-01
2.88927794e-01 5.26854992e-02 -4.63573992e-01
3.28530073e-01 0.00000000e+00 -4.61407006e-01
3.30052674e-01 5.71871921e-02 -4.61011052e-01
9.59591866e-02 1.14690475e-01 -4.24109042e-01
0.00000000e+00 1.04556657e-01 -4.16361094e-01
1.74540132e-01 1.26430199e-01 -4.41003561e-01
2.25456879e-01 1.27029926e-01 -4.66975242e-01
2.54890561e-01 1.13873906e-01 -4.88296241e-01
2.76105106e-01 9.77328420e-02 -5.00371575e-01
3.02462548e-01 1.03703335e-01 -5.00266075e-01
9.78581011e-02 1.58993155e-01 -3.86938214e-01
0.00000000e+00 1.77265555e-01 -3.71302485e-01
1.95506528e-01 1.65380299e-01 -4.47941899e-01
2.60716647e-01 1.58066899e-01 -5.16201615e-01
2.44999170e-01 6.93858266e-02 -5.80206037e-01
2.76783586e-01 1.41378865e-01 -5.36887109e-01
1.03302561e-01 2.24802867e-01 -3.12601119e-01
0.00000000e+00 2.11644650e-01 -3.51855814e-01
2.07654983e-01 2.08627701e-01 -4.11121309e-01
8.53591710e-02 3.32441390e-01 -3.78400326e-01
0.00000000e+00 3.39948505e-01 -3.77956629e-01
1.03253007e-01 4.35210615e-01 -4.11039442e-01
0.00000000e+00 4.29877341e-01 -3.97843093e-01
1.56905800e-01 3.05521727e-01 -3.74099791e-01
2.36559659e-01 3.79409194e-01 -4.02759701e-01
2.40324110e-01 2.21332341e-01 -4.89330769e-01
3.38949054e-01 2.49610662e-01 -4.60418582e-01
6.23228922e-02 1.94506913e-01 -6.51707411e-01
2.05407351e-01 1.89205974e-01 -5.68707705e-01
3.09803754e-01 1.41441867e-01 -5.38189232e-01
3.27774853e-01 1.42763153e-01 -5.37841320e-01
3.10140520e-01 1.24996513e-01 -5.38045764e-01
3.09986740e-01 1.08337969e-01 -5.38064241e-01
3.26650918e-01 1.08204275e-01 -5.38022518e-01
3.26752096e-01 1.24897361e-01 -5.37953317e-01
3.10105979e-01 1.24976218e-01 -5.38046539e-01
3.10042560e-01 1.08301803e-01 -5.38043559e-01
3.26651335e-01 1.08176678e-01 -5.38029671e-01
3.26881766e-01 1.24742478e-01 -5.37959456e-01
0.00000000e+00 0.00000000e+00 -5.38014889e-01
8.50551054e-02 0.00000000e+00 -5.38014889e-01
9.19570178e-02 5.80026358e-02 -5.38014889e-01
0.00000000e+00 5.20040095e-02 -5.38014889e-01
1.57649964e-01 0.00000000e+00 -5.38014889e-01
1.64296597e-01 6.75428808e-02 -5.38014889e-01
2.10083336e-01 0.00000000e+00 -5.38014889e-01
2.20599249e-01 7.23854452e-02 -5.38014889e-01
2.56401896e-01 0.00000000e+00 -5.38014889e-01
2.57476091e-01 7.17222840e-02 -5.38014889e-01
2.94840395e-01 0.00000000e+00 -5.38014889e-01
2.90539622e-01 6.66908249e-02 -5.38014889e-01
3.34846199e-01 0.00000000e+00 -5.38014889e-01
3.12910140e-01 7.54849091e-02 -5.38014889e-01
1.11264884e-01 1.04955599e-01 -5.38014889e-01
0.00000000e+00 9.95897353e-02 -5.38014889e-01
1.95871532e-01 1.27386987e-01 -5.38014889e-01
2.39359722e-01 1.37714460e-01 -5.38014889e-01
2.65782505e-01 1.27821118e-01 -5.38014889e-01
2.73646027e-01 1.13405094e-01 -5.38014889e-01
2.90775687e-01 1.13371506e-01 -5.38014889e-01
1.20028049e-01 1.98861286e-01 -5.38014889e-01
0.00000000e+00 2.04985112e-01 -5.38014889e-01
2.27453917e-01 1.74626887e-01 -5.38014889e-01
2.75500864e-01 1.67446718e-01 -5.38014889e-01
2.77462155e-01 1.42175287e-01 -5.38014889e-01
2.77197540e-01 1.24306917e-01 -5.38707197e-01
2.77731180e-01 1.25018999e-01 -5.38014889e-01
2.79190749e-01 1.10430971e-01 -5.39320469e-01
2.79415727e-01 1.12167820e-01 -5.38014889e-01
2.93775976e-01 1.59464285e-01 -5.53239942e-01
3.02146852e-01 1.70355856e-01 -5.38014889e-01
2.90762365e-01 1.99833021e-01 -5.38014889e-01
2.93763041e-01 1.41168371e-01 -5.37762523e-01
2.93917060e-01 1.41381532e-01 -5.38014889e-01
2.93546557e-01 1.25166342e-01 -5.38067997e-01
2.93633789e-01 1.25068665e-01 -5.38014889e-01
2.93290973e-01 1.08702719e-01 -5.37975609e-01
2.93199360e-01 1.08554810e-01 -5.38014889e-01
0.00000000e+00 1.83047950e-01 -5.38014889e-01
1.32783681e-01 2.10605130e-01 -5.38014889e-01
1.17091998e-01 3.59643936e-01 -5.38014889e-01
0.00000000e+00 3.80136341e-01 -5.38014889e-01
3.10052723e-01 1.24972232e-01 -5.38014889e-01
3.10207427e-01 1.41516015e-01 -5.38014889e-01
3.10077846e-01 1.08325891e-01 -5.38014889e-01
1.25823766e-01 4.55653816e-01 -5.38014889e-01
0.00000000e+00 4.47219998e-01 -5.38014889e-01
1.96915746e-01 3.11809599e-01 -5.38014889e-01
2.83853233e-01 3.75161767e-01 -5.38014889e-01
2.57868856e-01 2.01189607e-01 -5.38014889e-01
3.59058857e-01 2.34848440e-01 -5.38014889e-01
3.28153670e-01 1.41977340e-01 -5.38014889e-01
3.26897800e-01 1.24681391e-01 -5.38014889e-01
3.26646984e-01 1.08174130e-01 -5.38014889e-01
</DataArray>
<DataArray type="Float32" Name="Spatial_acceleration" NumberOfComponents="3" format="ascii">
-3.06288399e-07 -1.53187909e-06 8.10146332e-07
-5.36203402e-07 -1.45761169e-06 6.84897088e-07
-5.14229157e-07 -1.85537340e-06 9.77834020e-07
-2.80658412e-07 -1.84019405e-06 1.00866953e-06
-2.46524820e-07 -1.79684162e-06 1.25455858e-06
-5.53312759e-07 -1.72260832e-06 1.12043108e-06
-4.60465742e-07 -2.24606197e-06 1.49154664e-06
-2.68379836e-07 -2.08576512e-06 1.49440768e-06
-8.55048484e-07 -1.34845573e-06 5.37236531e-07
-9.58442683e-07 -1.77359584e-06 9.02811678e-07
-7.61561921e-07 -1.71195143e-06 1.30886508e-06
-1.09608970e-06 -1.98167550e-06 1.68228144e-06
-9.35549508e-07 -1.15436978e-06 2.22697849e-07
-7.95831284e-07 -1.18216872e-06 -2.08392734e-07
-1.10149381e-06 -1.24168150e-06 1.67836745e-07
-8.72095427e-07 -9.11960967e-07 -2.62265388e-07
-8.12632038e-07 -1.15806722e-06 -3.80650164e-07
-9.93963340e-07 -1.02466402e-06 3.84661064e-07
-8.21659967e-07 -1.22230495e-06 -4.61809321e-07
-8.91086927e-07 -9.83115228e-07 3.72257091e-07
0.00000000e+00 0.00000000e+00 1.64286291e-06
-2.83241263e-07 0.00000000e+00 1.63269044e-06
-3.25510882e-07 -3.40034575e-07 1.61441164e-06
0.00000000e+00 -3.34699934e-07 1.58945716e-06
0.00000000e+00 0.00000000e+00 2.14385977e-06
-3.78996134e-07 0.00000000e+00 2.13750195e-06
-4.07079852e-07 -3.62992296e-07 2.14227043e-06
0.00000000e+00 -3.30924991e-07 2.09299719e-06
-6.71943042e-07 0.00000000e+00 1.68418887e-06
-6.13798704e-07 -3.15457584e-07 1.67814892e-06
-7.57604823e-07 0.00000000e+00 2.22396852e-06
-7.83562655e-07 -3.84211546e-07 2.21220648e-06
-9.85662155e-07 0.00000000e+00 1.78527830e-06
-1.00485488e-06 -3.09069947e-07 1.72837576e-06
-1.14581485e-06 0.00000000e+00 2.26084398e-06
-1.10628946e-06 -3.33060825e-07 2.26656584e-06
-1.39389931e-06 0.00000000e+00 1.80880227e-06
-1.44751868e-06 -3.51170684e-07 1.79386132e-06
-1.52017674e-06 0.00000000e+00 2.33332321e-06
-1.50028859e-06 -2.82208134e-07 2.31774652e-06
-1.87964736e-06 0.00000000e+00 1.84059138e-06
-1.86204909e-06 -3.56115407e-07 1.84917451e-06
-1.85664487e-06 0.00000000e+00 2.41216026e-06
-1.85887018e-06 -3.18725910e-07 2.42614738e-06
-2.35722450e-06 0.00000000e+00 1.88954664e-06
-2.31587887e-06 -3.78121939e-07 1.90830224e-06
-2.20036509e-06 0.00000000e+00 2.43695581e-06
-2.30387855e-06 -3.26414892e-07 2.46556601e-06
-2.48988471e-07 -6.73611964e-07 1.53064730e-06
0.00000000e+00 -7.49707226e-07 1.51570634e-06
-4.15603324e-07 -6.99639315e-07 2.06724803e-06
0.00000000e+00 -6.88592593e-07 2.05930064e-06
-6.42776456e-07 -7.10532788e-07 1.58982050e-06
-8.48452260e-07 -7.63098399e-07 2.16197964e-06
-9.50622564e-07 -7.35092158e-07 1.78782147e-06
-1.17383684e-06 -7.47499030e-07 2.38509392e-06
-1.40925249e-06 -7.70211216e-07 1.80625909e-06
-1.40368149e-06 -6.54856365e-07 2.39105225e-06
-1.76652270e-06 -7.74741181e-07 1.76811216e-06
-1.84027351e-06 -7.11599967e-07 2.45348610e-06
-2.12094187e-06 -9.04520334e-07 1.84885664e-06
-2.11528868e-06 -7.93615982e-07 2.45666502e-06
-2.57333113e-07 -1.12152100e-06 1.32569812e-06
0.00000000e+00 -1.10524888e-06 1.33991239e-06
-4.34012634e-07 -1.11529937e-06 1.90426056e-06
0.00000000e+00 -1.11786528e-06 1.90925607e-06
-5.93344339e-07 -1.00994112e-06 1.45848594e-06
-9.37207574e-07 -1.13258363e-06 2.16573085e-06
-3.67561967e-07 -8.06530295e-07 3.06129459e-06
-1.29569901e-06 -1.06663174e-06 2.83983013e-06
-2.81152268e-07 -1.41561600e-06 1.13351007e-06
0.00000000e+00 -1.46346292e-06 1.21466314e-06
-3.87324235e-07 -1.54673387e-06 1.60344439e-06
0.00000000e+00 -1.62055096e-06 1.77701315e-06
0.00000000e+00 -1.77923835e-06 1.33037565e-06
-3.03767962e-07 -2.07810172e-06 1.80961968e-06
0.00000000e+00 -1.93983306e-06 1.88064575e-06
-5.99861153e-07 -1.40782197e-06 9.93092840e-07
-7.76767706e-07 -1.60439811e-06 1.65557856e-06
-6.90269474e-07 -1.89450589e-06 1.67287192e-06
0.00000000e+00 -2.14123725e-06 1.61361697e-06
-4.31577348e-07 -2.37083441e-06 2.14385977e-06
0.00000000e+00 -2.48527522e-06 2.02369688e-06
-6.74883495e-07 -2.52302493e-06 2.03704826e-06
-8.52372921e-07 -1.80519953e-06 2.21337223e-06
-1.38685436e-06 -1.95312509e-06 2.20447123e-06
0.00000000e+00 0.00000000e+00 2.72878015e-06
-4.78287518e-07 0.00000000e+00 2.75039679e-06
-4.91460185e-07 -3.65902963e-07 2.75452931e-06
0.00000000e+00 -3.44196962e-07 2.72496550e-06
-8.57452562e-07 0.00000000e+00 2.79108690e-06
-9.38912251e-07 -4.08887871e-07 2.78949733e-06
-1.25489635e-06 0.00000000e+00 2.80825293e-06
-1.27522151e-06 -4.26053987e-07 2.81143184e-06
-1.60658362e-06 0.00000000e+00 2.82605492e-06
-1.57732768e-06 -3.90370673e-07 2.82796213e-06
-1.90695130e-06 0.00000000e+00 2.93858852e-06
-1.83236602e-06 -3.75191377e-07 2.90997809e-06
-2.07994390e-06 0.00000000e+00 2.93731682e-06
-2.14672082e-06 -4.02768450e-07 2.90775301e-06
-5.46296405e-07 -7.60396290e-07 2.71670024e-06
0.00000000e+00 -7.10964173e-07 2.71097815e-06
-1.04649860e-06 -8.32140415e-07 2.77328490e-06
-1.36546294e-06 -8.53379561e-07 2.87818898e-06
-1.58595753e-06 -7.93820334e-07 2.99871522e-06
-1.74935656e-06 -6.62167849e-07 3.05260551e-06
-1.98851694e-06 -7.22885147e-07 2.99072258e-06
-5.56574946e-07 -1.06324092e-06 2.59568969e-06
0.00000000e+00 -1.16072761e-06 2.59738499e-06
-1.15247565e-06 -1.11113650e-06 2.78133825e-06
-1.57170825e-06 -1.06716152e-06 3.20180266e-06
-1.49981179e-06 -4.67499092e-07 3.64240009e-06
-1.66556038e-06 -9.71984832e-07 3.34243782e-06
-5.97000110e-07 -1.54399868e-06 2.29263310e-06
0.00000000e+00 -1.50002370e-06 2.50413677e-06
-1.11373265e-06 -1.36009851e-06 2.49354048e-06
-4.72174747e-07 -2.19835169e-06 2.56771523e-06
0.00000000e+00 -2.25353233e-06 2.56729118e-06
-6.03516867e-07 -2.79068945e-06 2.73768114e-06
0.00000000e+00 -2.74682043e-06 2.65630092e-06
-9.18070441e-07 -2.07014887e-06 2.44903572e-06
-1.40444433e-06 -2.46612240e-06 2.57619217e-06
-1.43464399e-06 -1.49255993e-06 3.03967795e-06
-2.05294282e-06 -1.70095757e-06 2.86165869e-06
-1.05301538e-07 -1.45246588e-06 4.04453294e-06
-1.17321804e-06 -1.31922957e-06 3.56006626e-06
-1.89205014e-06 -1.00121895e-06 3.37958340e-06
-1.96965539e-06 -9.95000164e-07 3.40694851e-06
-1.88214653e-06 -9.13922122e-07 3.51460699e-06
-1.83854991e-06 -8.68679308e-07 3.22103369e-06
-1.97818872e-06 -8.83902089e-07 3.42141948e-06
-2.05036008e-06 -9.13675876e-07 3.36121775e-06
-1.86332068e-06 -9.09145683e-07 3.36186690e-06
-1.90789660e-06 -7.71760938e-07 3.41141231e-06
-2.00030695e-06 -8.61962633e-07 3.36912512e-06
-2.01008061e-06 -8.73300792e-07 3.40106430e-06
0.00000000e+00 0.00000000e+00 3.37570827e-06
-4.74313879e-07 0.00000000e+00 3.37570827e-06
-5.22305584e-07 -3.96897377e-07 3.37570827e-06
0.00000000e+00 -3.54687359e-07 3.37570827e-06
-9.67661549e-07 0.00000000e+00 3.37570827e-06
-9.93808044e-07 -4.55220544e-07 3.37570827e-06
-1.29437444e-06 0.00000000e+00 3.37570827e-06
-1.34714446e-06 -4.56333169e-07 3.37570827e-06
-1.60360332e-06 0.00000000e+00 3.37570827e-06
-1.67727467e-06 -4.78744482e-07 3.37570827e-06
-1.92264724e-06 0.00000000e+00 3.37570827e-06
-1.82628628e-06 -4.56810000e-07 3.37570827e-06
-2.11239853e-06 0.00000000e+00 3.37570827e-06
-2.03363106e-06 -4.34080761e-07 3.37570827e-06
-6.38087556e-07 -7.03970557e-07 3.37570827e-06
0.00000000e+00 -6.77903472e-07 3.37570827e-06
-1.14671388e-06 -8.40581947e-07 3.37570827e-06
-1.45816796e-06 -9.22997799e-07 3.37570827e-06
-1.70079863e-06 -7.80582411e-07 3.37570827e-06
-1.69415273e-06 -7.69337021e-07 3.37570827e-06
-1.79195399e-06 -7.87893896e-07 3.37570827e-06
-6.01609543e-07 -1.21021264e-06 3.37570827e-06
0.00000000e+00 -1.23403470e-06 3.37570827e-06
-1.31596460e-06 -1.10869939e-06 3.37570827e-06
-1.68100996e-06 -1.17397303e-06 3.37570827e-06
-1.69396401e-06 -9.53276924e-07 3.37570827e-06
-1.74633658e-06 -8.96930658e-07 3.37123856e-06
-1.74458819e-06 -8.90970227e-07 3.37570827e-06
-1.68704980e-06 -8.44875956e-07 3.39984899e-06
-1.73981982e-06 -8.13802103e-07 3.37570827e-06
-1.81452435e-06 -1.08146662e-06 3.50125629e-06
-1.89586478e-06 -1.23103462e-06 3.37570827e-06
-1.73695878e-06 -1.30975241e-06 3.37570827e-06
-1.80149084e-06 -9.74443196e-07 3.35284085e-06
-1.81165831e-06 -1.01153057e-06 3.37570827e-06
-1.78229811e-06 -8.88188652e-07 3.35644677e-06
-1.79417930e-06 -9.09343328e-07 3.37570827e-06
-1.81659061e-06 -8.16981014e-07 3.33293269e-06
-1.81102746e-06 -8.48452260e-07 3.37570827e-06
0.00000000e+00 -1.42778947e-06 3.37570827e-06
-5.84681800e-07 -1.49464609e-06 3.37570827e-06
-6.33451691e-07 -2.31530930e-06 3.37570827e-06
0.00000000e+00 -2.49417621e-06 3.37570827e-06
-1.86443322e-06 -9.09646360e-07 3.37570827e-06
-1.86612874e-06 -1.00877548e-06 3.37570827e-06
-1.93190567e-06 -8.59419515e-07 3.37570827e-06
-6.74650039e-07 -2.89769969e-06 3.37570827e-06
0.00000000e+00 -2.75395314e-06 3.37570827e-06
-1.17778779e-06 -2.05294282e-06 3.37570827e-06
-1.62808101e-06 -2.45889032e-06 3.37570827e-06
-1.48868560e-06 -1.39776864e-06 3.37570827e-06
-2.18065588e-06 -1.57515206e-06 3.37570827e-06
-1.93436949e-06 -1.00231171e-06 3.37570827e-06
-2.02751153e-06 -9.14255793e-07 3.37570827e-06
-1.88578167e-06 -7.44650777e-07 3.37570827e-06
</DataArray>
<DataArray type="Float32" Name="Spatial_velocity" NumberOfComponents="3" format="ascii">
6.71724338e-05 3.04077519e-04 -1.61829885e-04
1.08102686e-04 2.83713016e-04 -1.40759948e-04
1.12960450e-04 3.64801876e-04 -1.95152519e-04
6.37686680e-05 3.61560233e-04 -1.94920925e-04
5.42949019e-05 3.49931826e-04 -2.51360208e-04
1.11606103e-04 3.37165053e-04 -2.27889628e-04
9.54121861e-05 4.38569201e-04 -2.91559205e-04
5.97586768e-05 4.08255699e-04 -2.97963183e-04
1.73897308e-04 2.61044857e-04 -1.02621023e-04
1.88710561e-04 3.39868857e-04 -1.87020109e-04
1.49788073e-04 3.31545569e-04 -2.53539794e-04
2.17374327e-04 3.83574457e-04 -3.14190984e-04
1.95106652e-04 2.19921189e-04 -4.82496034e-08
1.95110450e-04 2.13932231e-04 4.02265208e-08
2.01131028e-04 2.13940424e-04 -1.37416425e-08
2.01096176e-04 2.19928872e-04 -2.86691382e-09
1.95069922e-04 2.19884809e-04 -2.00558041e-08
1.95065862e-04 2.13904030e-04 -2.87042070e-08
2.01053423e-04 2.13884006e-04 8.63880629e-08
2.01038958e-04 2.19930633e-04 -5.87131126e-08
0.00000000e+00 0.00000000e+00 -3.05179070e-04
5.95405254e-05 0.00000000e+00 -3.05395020e-04
6.58640784e-05 6.74259063e-05 -3.05210735e-04
0.00000000e+00 6.39122445e-05 -3.02719971e-04
0.00000000e+00 0.00000000e+00 -4.07789455e-04
7.69721737e-05 0.00000000e+00 -4.04678838e-04
7.99414702e-05 6.97636133e-05 -4.07532207e-04
0.00000000e+00 6.47826528e-05 -3.99281125e-04
1.33868874e-04 0.00000000e+00 -3.14345787e-04
1.21591002e-04 6.28831986e-05 -3.11245967e-04
1.48852458e-04 0.00000000e+00 -4.13719041e-04
1.51897402e-04 7.51103507e-05 -4.13327769e-04
1.98637106e-04 0.00000000e+00 -3.24004097e-04
2.00307783e-04 6.25722460e-05 -3.20080784e-04
2.24088726e-04 0.00000000e+00 -4.25548700e-04
2.13977415e-04 6.56541233e-05 -4.20564349e-04
2.76673265e-04 0.00000000e+00 -3.28848109e-04
2.79283558e-04 6.29178903e-05 -3.31652322e-04
2.93774327e-04 0.00000000e+00 -4.31011023e-04
2.88253243e-04 5.76078419e-05 -4.33703535e-04
3.63960862e-04 0.00000000e+00 -3.33594740e-04
3.60717153e-04 6.44536776e-05 -3.34783428e-04
3.65563028e-04 0.00000000e+00 -4.36993781e-04
3.62431048e-04 6.10937277e-05 -4.41275450e-04
4.47369850e-04 0.00000000e+00 -3.30143754e-04
4.42943070e-04 7.06361607e-05 -3.35436955e-04
4.26600513e-04 0.00000000e+00 -4.39882278e-04
4.43294615e-04 6.81751262e-05 -4.39677417e-04
5.09410165e-05 1.30162283e-04 -2.94887606e-04
0.00000000e+00 1.45153157e-04 -2.92421930e-04
8.03623916e-05 1.37082752e-04 -3.98212083e-04
0.00000000e+00 1.36177187e-04 -3.99170764e-04
1.30010667e-04 1.37341398e-04 -2.99810781e-04
1.62985249e-04 1.48458872e-04 -4.05581377e-04
1.91449624e-04 1.39672673e-04 -3.26094829e-04
2.27348355e-04 1.44548598e-04 -4.36366710e-04
2.68398871e-04 1.51398737e-04 -3.36536556e-04
2.73228768e-04 1.29492168e-04 -4.51053405e-04
3.40878381e-04 1.49187108e-04 -3.28658323e-04
3.47857218e-04 1.43670739e-04 -4.55497764e-04
4.03061131e-04 1.72731467e-04 -3.32808151e-04
4.04408813e-04 1.60454016e-04 -4.56579874e-04
5.36410589e-05 2.18030822e-04 -2.62923713e-04
0.00000000e+00 2.16074273e-04 -2.62447516e-04
8.23761657e-05 2.16120883e-04 -3.67754459e-04
0.00000000e+00 2.18267116e-04 -3.74701805e-04
1.18604912e-04 1.92798281e-04 -2.76782986e-04
1.81661409e-04 2.16435961e-04 -4.06861422e-04
8.23011942e-05 1.53845875e-04 -5.59469103e-04
2.46474723e-04 2.00685856e-04 -5.34681778e-04
5.69508848e-05 2.75765371e-04 -2.26901335e-04
0.00000000e+00 2.85541377e-04 -2.42083333e-04
7.48007296e-05 2.99316918e-04 -3.17383296e-04
0.00000000e+00 3.13765282e-04 -3.51880532e-04
0.00000000e+00 3.44593544e-04 -2.57896783e-04
5.95267229e-05 4.03221755e-04 -3.52016359e-04
0.00000000e+00 3.77118005e-04 -3.67793167e-04
1.17589028e-04 2.75484548e-04 -1.96405992e-04
1.46558523e-04 3.15208279e-04 -3.18668026e-04
1.35071678e-04 3.66696506e-04 -3.24311375e-04
0.00000000e+00 4.17323463e-04 -3.04972869e-04
8.13934384e-05 4.57003014e-04 -4.12945054e-04
0.00000000e+00 4.79007052e-04 -3.93166847e-04
1.30741828e-04 4.84298769e-04 -3.91400274e-04
1.61671211e-04 3.47817142e-04 -4.12650610e-04
2.67262367e-04 3.77351796e-04 -4.22157813e-04
0.00000000e+00 0.00000000e+00 -5.15630061e-04
9.24288106e-05 0.00000000e+00 -5.15919412e-04
9.49158566e-05 7.21328761e-05 -5.16644563e-04
0.00000000e+00 6.74510084e-05 -5.13096107e-04
1.68763159e-04 0.00000000e+00 -5.19425434e-04
1.79613038e-04 8.16335523e-05 -5.21837384e-04
2.38666107e-04 0.00000000e+00 -5.28402859e-04
2.44378840e-04 8.14314335e-05 -5.22709917e-04
3.09188792e-04 0.00000000e+00 -5.32630831e-04
2.96570070e-04 7.42257835e-05 -5.28962002e-04
3.65594344e-04 0.00000000e+00 -5.36449312e-04
3.56976758e-04 7.15110800e-05 -5.37223241e-04
4.11642686e-04 0.00000000e+00 -5.43311180e-04
4.13546019e-04 8.04543743e-05 -5.33426239e-04
1.02874379e-04 1.45242579e-04 -5.12637198e-04
0.00000000e+00 1.36645656e-04 -5.12907514e-04
1.95680783e-04 1.59725023e-04 -5.17693989e-04
2.60456873e-04 1.69109699e-04 -5.35420200e-04
3.00776243e-04 1.55162503e-04 -5.53993857e-04
3.32486205e-04 1.34620816e-04 -5.62463480e-04
3.74167314e-04 1.52485183e-04 -5.63409936e-04
1.02015329e-04 2.07264005e-04 -4.94514476e-04
0.00000000e+00 2.23110983e-04 -4.94389446e-04
2.14066706e-04 2.16677960e-04 -5.17806213e-04
3.01947730e-04 2.14351763e-04 -6.04402507e-04
2.96460814e-04 8.39550121e-05 -6.81088713e-04
3.20360123e-04 1.98619906e-04 -6.32721581e-04
1.08103683e-04 2.99776031e-04 -4.39801428e-04
0.00000000e+00 2.91925942e-04 -4.79514390e-04
2.11156133e-04 2.61864683e-04 -4.62818803e-04
8.74903271e-05 4.20419005e-04 -4.94009641e-04
0.00000000e+00 4.33750160e-04 -4.93387401e-04
1.11425463e-04 5.30283956e-04 -5.18431596e-04
0.00000000e+00 5.19810128e-04 -5.05214499e-04
1.70036394e-04 3.98256583e-04 -4.61183459e-04
2.58335087e-04 4.68138751e-04 -4.91509563e-04
2.67043186e-04 2.94794329e-04 -5.69790835e-04
3.77982651e-04 3.26546782e-04 -5.41289337e-04
1.29094587e-05 2.79482629e-04 -7.51055428e-04
2.19500551e-04 2.44029477e-04 -6.51179871e-04
3.48208181e-04 1.97753005e-04 -6.32369483e-04
3.62159422e-04 1.97448215e-04 -6.32512849e-04
3.47882684e-04 1.83871860e-04 -6.32253068e-04
3.47636669e-04 1.69985404e-04 -6.32316573e-04
3.61549115e-04 1.69734631e-04 -6.32302661e-04
3.61789396e-04 1.83651384e-04 -6.32241368e-04
3.47910245e-04 1.83865966e-04 -6.32254698e-04
3.47691734e-04 1.69928302e-04 -6.32313022e-04
3.61595681e-04 1.69723426e-04 -6.32277632e-04
3.61846731e-04 1.83618307e-04 -6.32250158e-04
0.00000000e+00 0.00000000e+00 -6.32278912e-04
9.64516148e-05 0.00000000e+00 -6.32278912e-04
1.01266742e-04 7.40978503e-05 -6.32278912e-04
0.00000000e+00 6.84330953e-05 -6.32278912e-04
1.79858369e-04 0.00000000e+00 -6.32278912e-04
1.86481906e-04 8.44015594e-05 -6.32278912e-04
2.44603143e-04 0.00000000e+00 -6.32278912e-04
2.58707878e-04 8.90421434e-05 -6.32278912e-04
3.12703458e-04 0.00000000e+00 -6.32278912e-04
3.07677168e-04 8.77426210e-05 -6.32278912e-04
3.61934508e-04 0.00000000e+00 -6.32278912e-04
3.58829740e-04 8.50189463e-05 -6.32278912e-04
4.14950249e-04 0.00000000e+00 -6.32278912e-04
3.85148480e-04 9.52626870e-05 -6.32278912e-04
1.17493757e-04 1.36666131e-04 -6.32278912e-04
0.00000000e+00 1.32460467e-04 -6.32278912e-04
2.17847642e-04 1.62153330e-04 -6.32278912e-04
2.74055841e-04 1.82833959e-04 -6.32278912e-04
3.10264993e-04 1.73113163e-04 -6.32278912e-04
3.26358015e-04 1.57183531e-04 -6.32278912e-04
3.61944316e-04 1.66339567e-04 -6.32278912e-04
1.11896414e-04 2.33545230e-04 -6.32278912e-04
0.00000000e+00 2.34034072e-04 -6.32278912e-04
2.46233365e-04 2.12735773e-04 -6.32278912e-04
3.16163758e-04 2.29999336e-04 -6.32278912e-04
3.20483581e-04 1.98089663e-04 -6.32278912e-04
3.19888350e-04 1.84564677e-04 -6.32539100e-04
3.20079009e-04 1.84159348e-04 -6.32278912e-04
3.20762716e-04 1.71131425e-04 -6.33250631e-04
3.21103347e-04 1.71660751e-04 -6.32278912e-04
3.32702562e-04 2.13364532e-04 -6.55667856e-04
3.50304064e-04 2.32526581e-04 -6.32278912e-04
3.28388589e-04 2.52100872e-04 -6.32278912e-04
3.34215583e-04 1.98102091e-04 -6.32209820e-04
3.34154349e-04 1.97907983e-04 -6.32278912e-04
3.34016629e-04 1.84133314e-04 -6.32204814e-04
3.34014563e-04 1.84145232e-04 -6.32278912e-04
3.33686941e-04 1.70092258e-04 -6.32173964e-04
3.33679083e-04 1.70110201e-04 -6.32278912e-04
0.00000000e+00 2.66691291e-04 -6.32278912e-04
1.07254724e-04 3.02760338e-04 -6.32278912e-04
1.15105278e-04 4.38814459e-04 -6.32278912e-04
0.00000000e+00 4.80225834e-04 -6.32278912e-04
3.47891619e-04 1.83882483e-04 -6.32278912e-04
3.48088768e-04 1.97829970e-04 -6.32278912e-04
3.47729539e-04 1.69953273e-04 -6.32278912e-04
1.28601299e-04 5.50120196e-04 -6.32278912e-04
0.00000000e+00 5.20681380e-04 -6.32278912e-04
2.13417603e-04 4.01338009e-04 -6.32278912e-04
2.96620245e-04 4.61842719e-04 -6.32278912e-04
2.79119151e-04 2.73634156e-04 -6.32278912e-04
4.02951671e-04 3.10539821e-04 -6.32278912e-04
3.62016552e-04 1.97621906e-04 -6.32278912e-04
3.61822662e-04 1.83620170e-04 -6.32278912e-04
3.61609389e-04 1.69724182e-04 -6.32278912e-04
</DataArray>
<DataArray type="Float32" Name="Reaction_force" NumberOfComponents="3" format="ascii">
0.00000000e+00 0.00000000e+00 0.00000000e+00
0.00000000e+00 0.00000000e+00 0.00000000e+00
0.00000000e+00 0.00000000e+00 0.00000000e+00
0.00000000e+00 0.00000000e+00 0.00000000e+00
0.00000000e+00 0.00000000e+00 0.00000000e+00
0.00000000e+00 0.00000000e+00 0.00000000e+00
0.00000000e+00 0.00000000e+00 0.00000000e+00
0.00000000e+00 0.00000000e+00 0.00000000e+00
0.00000000e+00 0.00000000e+00 0.00000000e+00
0.00000000e+00 0.00000000e+00 0.00000000e+00
0.00000000e+00 0.00000000e+00 0.00000000e+00
0.00000000e+00 0.00000000e+00 0.00000000e+00
0.00000000e+00 0.00000000e+00 0.00000000e+00
0.00000000e+00 0.00000000e+00 0.00000000e+00
0.00000000e+00 0.00000000e+00 0.00000000e+00
0.00000000e+00 0.00000000e+00 0.00000000e+00
0.00000000e+00 0.00000000e+00 0.00000000e+00
0.00000000e+00 0.00000000e+00 0.00000000e+00
0.00000000e+00 0.00000000e+00 0.00000000e+00
0.00000000e+00 0.00000000e+00 0.00000000e+00
4.79827970e-02 -1.77055091e-01 0.00000000e+00
0.00000000e+00 9.07610893e-01 0.00000000e+00
0.00000000e+00 0.00000000e+00 0.00000000e+00
1.75999427e+00 0.00000000e+00 0.00000000e+00
3.73507082e-01 9.69183087e-01 0.00000000e+00
0.00000000e+00 1.43652999e+00 0.00000000e+00
0.00000000e+00 0.00000000e+00 0.00000000e+00
1.12898564e+00 0.00000000e+00 0.00000000e+00
0.00000000e+00 1.53713346e+00 0.00000000e+00
0.00000000e+00 0.00000000e+00 0.00000000e+00
0.00000000e+00 1.26232851e+00 0.00000000e+00
0.00000000e+00 0.00000000e+00 0.00000000e+00
0.00000000e+00 2.02011752e+00 0.00000000e+00
0.00000000e+00 0.00000000e+00 0.00000000e+00
0.00000000e+00 1.61928773e+00 0.00000000e+00
0.00000000e+00 0.00000000e+00 0.00000000e+00
0.00000000e+00 2.84493256e+00 0.00000000e+00
0.00000000e+00 0.00000000e+00 0.00000000e+00
0.00000000e+00 1.49002004e+00 0.00000000e+00
0.00000000e+00 0.00000000e+00 0.00000000e+00
0.00000000e+00 1.22676313e+00 0.00000000e+00
0.00000000e+00 0.00000000e+00 0.00000000e+00
0.00000000e+00 -1.80442512e-01 0.00000000e+00
0.00000000e+00 0.00000000e+00 0.00000000e+00
0.00000000e+00 1.59370959e-01 0.00000000e+00
0.00000000e+00 0.00000000e+00 0.00000000e+00
0.00000000e+00 -4.33229178e-01 0.00000000e+00
0.00000000e+00 0.00000000e+00 0.00000000e+00
0.00000000e+00 0.00000000e+00 0.00000000e+00
1.47463727e+00 0.00000000e+00 0.00000000e+00
0.00000000e+00 0.00000000e+00 0.00000000e+00
1.02713084e+00 0.00000000e+00 0.00000000e+00
0.00000000e+00 0.00000000e+00 0.00000000e+00
0.00000000e+00 0.00000000e+00 0.00000000e+00
0.00000000e+00 0.00000000e+00 0.00000000e+00
0.00000000e+00 0.00000000e+00 0.00000000e+00
0.00000000e+00 0.00000000e+00 0.00000000e+00
0.00000000e+00 0.00000000e+00 0.00000000e+00
0.00000000e+00 0.00000000e+00 0.00000000e+00
0.00000000e+00 0.00000000e+00 0.00000000e+00
0.00000000e+00 0.00000000e+00 0.00000000e+00
0.00000000e+00 0.00000000e+00 0.00000000e+00
0.00000000e+00 0.00000000e+00 0.00000000e+00
2.24288329e-02 0.00000000e+00 0.00000000e+00
0.00000000e+00 0.00000000e+00 0.00000000e+00
1.47149658e+00 0.00000000e+00 0.00000000e+00
0.00000000e+00 0.00000000e+00 0.00000000e+00
0.00000000e+00 0.00000000e+00 0.00000000e+00
0.00000000e+00 0.00000000e+00 0.00000000e+00
0.00000000e+00 0.00000000e+00 0.00000000e+00
0.00000000e+00 0.00000000e+00 0.00000000e+00
8.55974913e-01 0.00000000e+00 0.00000000e+00
0.00000000e+00 0.00000000e+00 0.00000000e+00
8.55043828e-01 0.00000000e+00 0.00000000e+00
4.69820142e-01 0.00000000e+00 0.00000000e+00
0.00000000e+00 0.00000000e+00 0.00000000e+00
1.01292416e-01 0.00000000e+00 0.00000000e+00
0.00000000e+00 0.00000000e+00 0.00000000e+00
0.00000000e+00 0.00000000e+00 0.00000000e+00
0.00000000e+00 0.00000000e+00 0.00000000e+00
-6.47743881e-01 0.00000000e+00 0.00000000e+00
0.00000000e+00 0.00000000e+00 0.00000000e+00
4.35768962e-01 0.00000000e+00 0.00000000e+00
0.00000000e+00 0.00000000e+00 0.00000000e+00
0.00000000e+00 0.00000000e+00 0.00000000e+00
0.00000000e+00 0.00000000e+00 0.00000000e+00
4.00387734e-01 1.49894083e+00 0.00000000e+00
0.00000000e+00 1.83193982e+00 0.00000000e+00
0.00000000e+00 0.00000000e+00 0.00000000e+00
6.49809718e-01 0.00000000e+00 0.00000000e+00
0.00000000e+00 3.11383426e-01 0.00000000e+00
0.00000000e+00 0.00000000e+00 0.00000000e+00
0.00000000e+00 2.88547337e-01 0.00000000e+00
0.00000000e+00 0.00000000e+00 0.00000000e+00
0.00000000e+00 -3.55804920e-01 0.00000000e+00
0.00000000e+00 0.00000000e+00 0.00000000e+00
0.00000000e+00 -2.05333519e+00 0.00000000e+00
0.00000000e+00 0.00000000e+00 0.00000000e+00
0.00000000e+00 -2.08624983e+00 0.00000000e+00
0.00000000e+00 0.00000000e+00 0.00000000e+00
0.00000000e+00 0.00000000e+00 0.00000000e+00
1.22900915e+00 0.00000000e+00 0.00000000e+00
0.00000000e+00 0.00000000e+00 0.00000000e+00
0.00000000e+00 0.00000000e+00 0.00000000e+00
0.00000000e+00 0.00000000e+00 0.00000000e+00
0.00000000e+00 0.00000000e+00 0.00000000e+00
0.00000000e+00 0.00000000e+00 0.00000000e+00
0.00000000e+00 0.00000000e+00 0.00000000e+00
-2.10989609e-01 0.00000000e+00 0.00000000e+00
0.00000000e+00 0.00000000e+00 0.00000000e+00
0.00000000e+00 0.00000000e+00 0.00000000e+00
0.00000000e+00 0.00000000e+00 0.00000000e+00
0.00000000e+00 0.00000000e+00 0.00000000e+00
0.00000000e+00 0.00000000e+00 0.00000000e+00
1.05515230e+00 0.00000000e+00 0.00000000e+00
0.00000000e+00 0.00000000e+00 0.00000000e+00
0.00000000e+00 0.00000000e+00 0.00000000e+00
2.05060005e-01 0.00000000e+00 0.00000000e+00
0.00000000e+00 0.00000000e+00 0.00000000e+00
9.47337031e-01 0.00000000e+00 0.00000000e+00
0.00000000e+00 0.00000000e+00 0.00000000e+00
0.00000000e+00 0.00000000e+00 0.00000000e+00
0.00000000e+00 0.00000000e+00 0.00000000e+00
0.00000000e+00 0.00000000e+00 0.00000000e+00
0.00000000e+00 0.00000000e+00 0.00000000e+00
0.00000000e+00 0.00000000e+00 0.00000000e+00
0.00000000e+00 0.00000000e+00 0.00000000e+00
0.00000000e+00 0.00000000e+00 0.00000000e+00
0.00000000e+00 0.00000000e+00 0.00000000e+00
0.00000000e+00 0.00000000e+00 0.00000000e+00
0.00000000e+00 0.00000000e+00 0.00000000e+00
0.00000000e+00 0.00000000e+00 0.00000000e+00
0.00000000e+00 0.00000000e+00 0.00000000e+00
0.00000000e+00 0.00000000e+00 0.00000000e+00
0.00000000e+00 0.00000000e+00 0.00000000e+00
0.00000000e+00 0.00000000e+00 0.00000000e+00
1.29942775e-01 7.37941444e-01 -9.43728638e+00
0.00000000e+00 1.03138471e+00 -1.88769627e+01
0.00000000e+00 0.00000000e+00 -3.72789497e+01
1.85977489e-01 0.00000000e+00 -1.91034832e+01
0.00000000e+00 6.95619583e-02 -1.89498425e+01
0.00000000e+00 0.00000000e+00 -3.76259384e+01
0.00000000e+00 -3.10288072e-01 -1.91024990e+01
0.00000000e+00 0.00000000e+00 -3.48834305e+01
0.00000000e+00 -8.23962212e-01 -1.73907871e+01
0.00000000e+00 0.00000000e+00 -3.14877567e+01
0.00000000e+00 -1.56293631e+00 -1.43819389e+01
0.00000000e+00 0.00000000e+00 -2.78399715e+01
0.00000000e+00 -1.81384230e+00 -7.93495560e+00
0.00000000e+00 0.00000000e+00 -1.55589352e+01
0.00000000e+00 0.00000000e+00 -4.21025658e+01
1.86826968e+00 0.00000000e+00 -2.30228329e+01
0.00000000e+00 0.00000000e+00 -3.12140541e+01
0.00000000e+00 0.00000000e+00 -2.35052490e+01
0.00000000e+00 0.00000000e+00 -1.96235790e+01
0.00000000e+00 0.00000000e+00 -1.97224140e+01
0.00000000e+00 0.00000000e+00 -1.22671976e+01
0.00000000e+00 0.00000000e+00 -3.07212429e+01
-8.71387422e-01 0.00000000e+00 -1.83612213e+01
0.00000000e+00 0.00000000e+00 -2.32112160e+01
0.00000000e+00 0.00000000e+00 -1.21972733e+01
0.00000000e+00 0.00000000e+00 -7.17059660e+00
0.00000000e+00 0.00000000e+00 0.00000000e+00
0.00000000e+00 0.00000000e+00 -8.80315018e+00
0.00000000e+00 0.00000000e+00 0.00000000e+00
0.00000000e+00 0.00000000e+00 -5.28285742e+00
0.00000000e+00 0.00000000e+00 0.00000000e+00
0.00000000e+00 0.00000000e+00 -3.26360869e+00
0.00000000e+00 0.00000000e+00 -1.19045095e+01
0.00000000e+00 0.00000000e+00 0.00000000e+00
0.00000000e+00 0.00000000e+00 2.42293930e+00
0.00000000e+00 0.00000000e+00 0.00000000e+00
0.00000000e+00 0.00000000e+00 5.45522881e+00
0.00000000e+00 0.00000000e+00 0.00000000e+00
0.00000000e+00 0.00000000e+00 3.28027892e+00
6.59988046e-01 0.00000000e+00 -1.76704330e+01
0.00000000e+00 0.00000000e+00 -2.01889610e+01
0.00000000e+00 0.00000000e+00 -3.26819725e+01
2.21601033e+00 0.00000000e+00 -2.17881413e+01
0.00000000e+00 0.00000000e+00 1.53616524e+00
0.00000000e+00 0.00000000e+00 -5.86468744e+00
0.00000000e+00 0.00000000e+00 -9.93516207e-01
0.00000000e+00 0.00000000e+00 -1.59532518e+01
6.80781603e-02 0.00000000e+00 -6.04923582e+00
0.00000000e+00 0.00000000e+00 -1.85181961e+01
0.00000000e+00 0.00000000e+00 -1.79173527e+01
0.00000000e+00 0.00000000e+00 -1.15712748e+01
0.00000000e+00 0.00000000e+00 -1.07457409e+01
0.00000000e+00 0.00000000e+00 -5.84308720e+00
0.00000000e+00 0.00000000e+00 5.14508486e-01
0.00000000e+00 0.00000000e+00 -8.42472315e-02
</DataArray>
<DataArray type="Float32" Name="Equivalent_plastic_strain" format="ascii">
5.57904602e-02
5.58772396e-02
6.99522058e-02
6.49673827e-02
4.11185368e-02
5.42082606e-02
1.13595726e-01
9.07762684e-02
8.74182908e-02
1.13287997e-01
1.31409623e-01
1.17667135e-01
0.00000000e+00
0.00000000e+00
0.00000000e+00
0.00000000e+00
0.00000000e+00
0.00000000e+00
0.00000000e+00
0.00000000e+00
8.49820003e-02
8.46159533e-02
8.42424501e-02
8.45024586e-02
9.37229060e-02
9.42938421e-02
9.60778827e-02
9.74983945e-02
8.34046286e-02
8.68872432e-02
9.12021976e-02
9.41979177e-02
8.42214096e-02
8.42947303e-02
8.59292783e-02
8.82953275e-02
8.47039055e-02
9.75046745e-02
8.05848986e-02
8.11598888e-02
8.35905839e-02
9.45793856e-02
7.44549204e-02
8.34149178e-02
8.23631249e-02
9.16380938e-02
7.21577778e-02
8.13693795e-02
8.70710528e-02
8.32772516e-02
1.05125884e-01
1.02143252e-01
9.04302427e-02
9.87888128e-02
1.19419333e-01
9.18627764e-02
1.18405519e-01
9.33551222e-02
1.15545982e-01
1.02448653e-01
1.12298623e-01
1.02089521e-01
8.47228116e-02
7.53155947e-02
1.15429941e-01
1.02004351e-01
1.12929633e-01
1.19775492e-01
1.11386642e-01
3.30501894e-02
6.12852792e-02
6.97901109e-02
5.41881600e-02
7.05438568e-02
7.20683485e-02
1.24712444e-01
8.51382436e-02
8.79621245e-02
1.49955779e-01
1.17220336e-01
6.99365400e-02
4.66283434e-02
1.07405230e-01
1.32537454e-01
1.21362175e-01
1.09059205e-01
1.06644835e-01
1.05435651e-01
1.08825174e-01
1.12067698e-01
1.00708630e-01
1.01735304e-01
9.33522545e-02
9.15214485e-02
8.52882974e-02
8.23628809e-02
7.82472044e-02
7.59405950e-02
7.76474252e-02
7.56269414e-02
1.05995220e-01
1.18592881e-01
9.14465798e-02
7.46935329e-02
5.74445602e-02
4.99470967e-02
5.95008371e-02
1.40270073e-01
1.38974252e-01
1.00262112e-01
2.33777633e-02
6.54831603e-02
3.17356490e-03
1.84227396e-01
1.78870810e-01
1.33723639e-01
1.24637560e-01
1.22355637e-01
1.59528542e-01
1.42655477e-01
1.55715682e-01
1.45915136e-01
6.41884860e-02
7.26525430e-02
-1.53641533e-02
1.24173472e-02
3.92756938e-02
9.80789771e-03
0.00000000e+00
0.00000000e+00
0.00000000e+00
0.00000000e+00
-6.18176799e-05
0.00000000e+00
0.00000000e+00
5.77369841e-05
1.13114543e-01
1.10446461e-01
1.13179071e-01
1.17527433e-01
1.04912393e-01
1.04341455e-01
9.73950550e-02
9.42478608e-02
8.96008834e-02
8.71485546e-02
8.43721218e-02
8.08927864e-02
8.65832120e-02
8.22963864e-02
1.24445902e-01
1.51372097e-01
8.66756523e-02
7.53990002e-02
4.15616306e-02
1.98828697e-02
1.79348527e-02
1.62659585e-01
1.72219783e-01
1.14211008e-01
4.17471118e-03
-1.96631667e-03
1.25640285e-02
-1.70021554e-03
1.30690442e-02
2.36003508e-03
3.32105868e-02
-8.62325123e-03
1.01498269e-01
1.52201040e-05
2.18725309e-03
-6.90809215e-05
-2.40803728e-04
5.69499563e-04
1.03655562e-03
2.12334231e-01
2.33975679e-01
1.82404712e-01
2.08565593e-01
-6.87814913e-05
-6.69409362e-04
0.00000000e+00
1.58537537e-01
1.54829085e-01
1.61911264e-01
1.62919760e-01
3.28941580e-02
3.45225977e-02
5.17954380e-04
1.69879335e-04
0.00000000e+00
</DataArray>
<DataArray type="Float32" Name="Stress_Mises" format="ascii">
1.86835371e+01
2.87480465e+01
6.17123003e+01
3.35472175e+01
2.33827659e+01
3.78805235e+01
4.18574791e+01
2.69097090e+01
5.86781123e+01
1.28994099e+02
1.17904816e+02
1.05413839e+02
1.70444942e+00
1.27717817e+00
2.09376645e+00
2.95659387e+00
8.15906346e-01
6.31383896e-01
1.05916786e+00
1.21405149e+00
2.83718376e+01
2.80413764e+01
2.30331230e+01
2.74229541e+01
2.31680460e+01
2.98286281e+01
2.76751915e+01
2.95997784e+01
2.27256734e+01
2.45580174e+01
2.96918058e+01
3.20785806e+01
2.27601125e+01
2.50792575e+01
2.66432164e+01
2.80553489e+01
2.05553726e+01
2.62547695e+01
2.30477185e+01
2.42859996e+01
1.65179234e+01
3.05630316e+01
1.50720510e+01
2.44294139e+01
1.43455446e+01
2.49302981e+01
1.66087708e+01
2.37118425e+01
2.56269602e+01
2.44442363e+01
3.71883801e+01
2.90037341e+01
4.32186782e+01
3.76040989e+01
1.16255968e+02
4.09957744e+01
8.67323895e+01
7.29162827e+01
6.70545826e+01
7.98587418e+01
5.71051292e+01
7.61206131e+01
2.57663070e+01
2.82652800e+01
4.16284446e+01
2.37495215e+01
1.42728153e+02
6.35798496e+01
8.16553497e+01
2.71055196e+01
2.54313158e+01
1.68252940e+01
2.80050701e+01
2.75291328e+01
2.24926939e+01
2.68431719e+01
3.71861944e+01
8.84081287e+01
1.48492058e+02
5.82401108e+01
3.67633018e+01
4.58162787e+01
4.41980743e+01
6.44502926e+01
1.24919966e+02
4.28117809e+01
2.57334614e+01
3.03614135e+01
3.02411445e+01
3.19170474e+01
3.53150158e+01
3.64021426e+01
3.67027884e+01
4.14635769e+01
3.39984050e+01
3.06123592e+01
2.36757600e+01
2.43320461e+01
2.68480811e+01
3.99376469e+01
4.80194437e+01
5.43952360e+01
4.15820642e+01
3.72406374e+01
3.85675526e+01
4.91918643e+01
5.42135042e+01
6.20529896e+01
6.61858362e+01
4.74124947e+01
3.46574999e+01
5.97123222e+01
2.11575455e+01
5.73989234e+01
4.21322670e+01
1.77394264e+02
7.36675460e+01
4.53961910e+01
2.27971749e+01
2.15540290e+01
7.13034306e+01
4.93690314e+01
6.23815022e+01
3.34574740e+01
4.64179420e+01
2.03697491e+01
2.72735510e+01
2.30310090e+01
4.16167974e+00
1.90675604e+00
3.20660138e+00
4.68662834e+00
1.32772102e+01
7.17291053e+00
5.24495459e+00
1.76162208e+01
2.95485058e+01
3.15003796e+01
2.98485649e+01
3.08032775e+01
3.83095093e+01
3.68558595e+01
4.10850611e+01
4.93408828e+01
4.02224112e+01
4.68209820e+01
3.71761684e+01
3.22384181e+01
5.18131104e+01
4.60978470e+01
4.88389187e+01
3.93384358e+01
4.55172720e+01
4.25617244e+01
2.49948738e+01
2.31572723e+01
3.10387383e+01
1.43409962e+02
1.53016830e+02
3.54544525e+01
2.29303530e+01
1.55378360e+01
2.29055209e+01
1.90049543e+01
2.70237551e+01
2.48249855e+01
6.20717773e+01
1.78948846e+01
4.97267036e+01
2.38428993e+01
1.89860514e+01
2.29632969e+01
1.86504986e+01
1.92797623e+01
1.99667482e+01
1.23427101e+02
1.87293747e+02
6.18585014e+01
3.50325441e+01
1.30884517e+01
2.30653343e+01
9.94659305e+00
2.57465115e+01
1.18342505e+01
3.34036779e+01
4.26060524e+01
3.57385769e+01
2.21509290e+01
1.71129575e+01
1.59731550e+01
5.37395144e+00
</DataArray>
<DataArray type="Float32" Name="Stress_Max_Principal" format="ascii">
1.96088889e+01
9.98789915e+00
8.46264839e+00
-1.07043815e+00
2.38042882e+01
4.12799835e+01
1.31130695e+00
1.56327838e+01
-1.53761531e+01
-7.90773869e+01
-5.90112602e+01
-5.12117431e+01
9.49221760e-01
6.91356122e-01
1.07957220e+00
1.75648022e+00
5.79400837e-01
5.01602232e-01
6.82987094e-01
8.17974925e-01
1.81460786e+00
2.45692010e+00
7.26344270e+00
3.15027541e+00
6.48106766e+00
5.36156118e-01
5.52469963e+00
1.23150666e+00
7.27765012e+00
7.96713932e+00
5.12934446e-01
8.89624059e-01
6.88240147e+00
1.47430063e+01
3.84415756e+00
5.40404940e+00
9.26687273e+00
5.82991236e+00
6.97196007e+00
2.06253602e+01
1.24424871e+01
1.43814703e+01
1.81797887e+01
9.57055482e+00
1.39552188e+01
2.40187975e+01
2.45681365e+01
1.65199500e+01
5.91291925e+00
7.23673701e+00
-4.08422926e+00
1.43919110e+00
2.91343232e+01
-3.96448308e+00
-6.92581894e+01
2.83389933e+01
-4.57750425e+01
-3.33023392e+01
-2.86653605e+01
-3.96688628e+01
-1.84172678e+01
-3.29338942e+01
6.04956996e+00
2.09974413e+01
-8.36295148e+00
6.45944436e+00
-8.62428951e+01
-1.79144852e+01
1.87404984e+02
1.37989521e+01
3.52758011e+01
1.57673002e+01
3.58261811e+01
1.33342993e+01
1.97202037e+01
3.22041302e+01
1.24847028e+01
-4.47832452e+01
-9.45286331e+01
1.58821972e+01
1.12394876e+01
1.18492603e+01
1.83259974e+01
-4.81827497e+00
-3.46538188e+01
5.32737207e+00
4.97255301e+00
4.48225737e-01
1.04793578e+00
1.67596936e-02
-3.39750820e+00
-3.79411156e+00
-4.74981499e+00
-6.72941351e+00
-1.71284977e+00
1.73738871e+00
6.78914922e+00
1.22514834e+01
5.08583331e+00
5.35547483e+00
-1.68136971e+00
8.84248447e+00
-3.82367432e+00
1.92489722e+01
2.89997658e+01
6.54474799e+00
9.45836735e+00
-2.28700310e+01
-2.82343890e+01
2.94007212e+01
5.71195564e+01
1.38186142e+02
2.82245514e+01
-1.90269228e+01
7.23655065e+00
-9.69855957e+01
-2.19796214e+01
-8.53351283e+00
2.39878434e+01
9.40123796e+00
-2.79756421e+01
-8.77966416e+00
2.30728273e+01
3.20263748e+01
1.11018471e+02
5.96728630e+01
2.67469997e+01
2.04923070e+01
2.57165956e+00
9.27704513e-01
1.88523483e+00
2.92164183e+00
9.26156300e+00
1.94505298e+00
1.38102588e+00
8.15984440e+00
2.00311923e+00
-3.27834845e-01
1.67683291e+00
1.19559002e+00
-5.86654282e+00
-3.70433818e+00
-7.07206678e+00
-1.20937935e+01
-5.66128135e+00
-9.65984637e+00
-2.93957990e+00
2.93701035e+00
-1.22661839e+01
-6.58115697e+00
1.25374459e+01
6.41336441e-02
-2.45555341e-01
2.59623637e+01
3.93281604e+01
2.53773766e+01
2.42354345e+01
-8.85383987e+01
-1.02729729e+02
4.46854866e+01
4.46473718e+01
3.89486771e+01
3.32132626e+01
3.23093624e+01
1.48625946e+01
3.65360537e+01
6.86614733e+01
4.22735691e+01
1.80089626e+01
3.54255244e+01
2.05448640e+01
1.83011952e+01
1.45624692e+01
9.05984449e+00
7.33212399e+00
-6.54657440e+01
-1.25476746e+02
2.61081707e+01
7.92642117e+00
7.75052524e+00
3.32682597e+01
3.77383113e+00
8.75272226e+00
1.84478951e+01
1.36914444e+00
-4.58091664e+00
1.93654900e+01
3.10475101e+01
3.23256021e+01
6.78198409e+00
8.82208169e-01
</DataArray>
<DataArray type="Float32" Name="Stress_Mid_Principal" format="ascii">
1.39858388e+01
8.56665015e-01
-1.06446228e+01
-3.32733238e+00
1.63307112e+01
2.20847097e+01
-1.32107347e+01
1.11988251e+01
-2.16916946e+01
-8.86273575e+01
-7.74817486e+01
-7.50802517e+01
-3.50612257e-01
-3.58453165e-01
-1.23398546e-01
-6.18763506e-01
4.27883230e-02
-5.36138602e-02
1.18577503e-01
2.41846126e-02
1.05016136e+00
9.75852460e-01
5.56116804e+00
1.38680976e+00
5.34562349e+00
-1.96271300e-01
3.29280150e+00
-4.80470598e-01
5.31431520e+00
4.89542786e+00
1.34787023e-01
-1.50456464e+00
5.60146779e+00
9.55684471e+00
2.02243476e+00
2.21349266e+00
7.18386170e+00
3.01555037e+00
5.06100702e+00
1.35248151e+01
1.07181226e+01
7.23855245e+00
1.60729983e+01
6.40240484e+00
1.30564804e+01
1.65931017e+01
1.90612574e+01
1.03169601e+01
1.80278522e+00
3.11052322e+00
-6.56594884e+00
5.72307825e-01
1.38540944e+01
-7.70621294e+00
-8.12450020e+01
1.32367810e+01
-5.14056149e+01
-3.83571442e+01
-3.48258886e+01
-4.54983912e+01
-2.83103857e+01
-4.64962463e+01
1.85083716e+00
1.25817471e+01
-1.01999700e+01
4.73148230e+00
-1.07854398e+02
-2.89058705e+01
1.12598938e+02
6.45616531e+00
2.34467679e+01
1.32983109e+01
2.16588701e+01
7.21241260e+00
1.44951970e+01
1.95371786e+01
1.65993261e+00
-5.41762821e+01
-1.06765892e+02
-6.43993597e+00
3.11789608e+00
-3.67330551e-01
2.89479828e+00
-2.72872467e+01
-6.41539942e+01
-1.17349866e+01
2.31778061e+00
-1.06270492e+00
-1.45616981e+00
-3.36450656e+00
-5.70873928e+00
-7.20355332e+00
-6.62057847e+00
-1.29926460e+01
-5.05600297e+00
-2.54369938e+00
4.11638641e+00
7.44694668e+00
3.93212795e-01
-4.18781620e+00
-1.10849187e+01
-5.53767014e+00
-1.10945444e+01
5.70686495e+00
1.22033072e+01
-9.34764862e+00
-1.00403824e+01
-3.20340777e+01
-3.35363547e+01
7.82539002e+00
3.25812747e+01
7.93763275e+01
1.50309824e+01
-2.49846729e+01
-1.09469541e+00
-1.54372860e+02
-3.21857358e+01
-1.32491881e+01
1.57118296e+01
7.43726730e+00
-4.08033506e+01
-2.21453138e+01
-7.04153562e+00
1.43133061e+01
6.88940353e+01
4.24687614e+01
4.53891602e+00
7.60880931e+00
-1.09236825e+00
-1.28306881e-01
-6.35415912e-01
-1.24168837e+00
-7.89782533e-01
-8.27131730e-01
5.82614332e-01
3.59044722e+00
-1.30974948e+00
-2.25920564e+00
-1.42464387e+00
-2.65228081e+00
-8.41795254e+00
-8.11959076e+00
-1.19959471e+01
-2.14395240e+01
-1.20155772e+01
-1.93777343e+01
-9.55343843e+00
-6.77623057e+00
-2.55721416e+01
-2.11581106e+01
-4.53351665e+00
-8.69184208e+00
-1.39620907e+01
8.51071215e+00
2.74388194e+01
1.87526207e+01
5.26186848e+00
-1.06154011e+02
-1.08224976e+02
2.09228535e+01
3.40665815e+01
2.86942018e+01
1.58141940e+01
2.02790958e+01
3.21163678e+00
2.94178355e+01
2.50223923e+01
2.85905123e+01
3.13444448e+00
1.58684855e+01
9.09682870e+00
3.10637748e+00
8.01751512e+00
4.50999883e+00
1.60743237e+00
-9.58116837e+01
-1.43661499e+02
5.90222359e+00
-2.67732143e+00
2.99749826e+00
2.17878980e+01
-3.03371215e+00
1.30055523e+00
1.39014301e+01
-4.58695412e+00
-1.72695222e+01
3.64973164e+00
1.44151618e+01
2.12978611e+01
3.48990211e+00
-9.59064160e-03
</DataArray>
<DataArray type="Float32" Name="Stress_Min_Principal" format="ascii">
-5.69980323e-01
-2.16210477e+01
-5.73933897e+01
-3.56098652e+01
-8.13003689e-01
3.80641937e-01
-4.56931202e+01
-1.19859552e+01
-7.69161916e+01
-2.12573784e+02
-1.84667470e+02
-1.66146627e+02
-9.80527729e-01
-7.14729339e-01
-1.33802703e+00
-1.51970601e+00
-3.59530807e-01
-1.85208693e-01
-5.38854837e-01
-5.79591811e-01
-2.69311566e+01
-2.62946529e+01
-1.65622814e+01
-2.51020225e+01
-1.72333779e+01
-2.96513393e+01
-2.27921739e+01
-2.91847799e+01
-1.63621580e+01
-1.76830668e+01
-2.93659561e+01
-3.21015978e+01
-1.64838390e+01
-1.11344832e+01
-2.36583729e+01
-2.37842890e+01
-1.22132864e+01
-2.15379890e+01
-1.69710465e+01
-4.71634340e+00
-4.86822677e+00
-1.74415531e+01
2.67407084e+00
-1.58114625e+01
-8.12470913e-01
-1.91407824e+00
7.18256187e+00
-8.77894759e+00
-2.14704320e+01
-1.89939948e+01
-4.23570964e+01
-2.79706888e+01
-1.61618283e+01
-4.30715749e+01
-1.90645264e+02
-1.52490545e+01
-1.35177855e+02
-1.08487112e+02
-9.85849533e+01
-1.22250067e+02
-7.98224773e+01
-1.14923866e+02
-2.14708348e+01
-8.38185096e+00
-5.08478069e+01
-1.80731518e+01
-2.38507992e+02
-8.58666886e+01
1.00296440e+02
-1.57186677e+01
9.07150875e+00
-1.70388889e+00
6.21766631e+00
-1.54871950e+01
-3.63713527e+00
3.23440712e+00
-2.74716549e+01
-1.37345527e+02
-2.48731163e+02
-4.70021309e+01
-2.69494953e+01
-3.63938999e+01
-2.85202312e+01
-7.61795597e+01
-1.68869731e+02
-4.22513914e+01
-2.19853606e+01
-3.06273718e+01
-3.03657911e+01
-3.34546008e+01
-3.98103299e+01
-4.17801360e+01
-4.23520527e+01
-5.09467733e+01
-3.72569447e+01
-3.07665248e+01
-1.81027732e+01
-1.34820813e+01
-2.37964420e+01
-3.74414411e+01
-5.26085088e+01
-4.79768105e+01
-4.82641791e+01
-2.09235624e+01
-1.22156660e+01
-4.70524851e+01
-5.02052167e+01
-8.88985558e+01
-9.68937562e+01
-2.25626128e+01
1.88639386e+01
7.76104813e+01
5.27631435e+00
-7.87290359e+01
-3.69554303e+01
-2.95596947e+02
-9.85032183e+01
-5.58239584e+01
-2.10910678e-01
-1.28872576e+01
-1.04775756e+02
-6.33092860e+01
-4.75102576e+01
-5.52874601e+00
6.12547836e+01
3.71804962e+01
-3.48697007e+00
-4.29409218e+00
-1.95307672e+00
-1.27342653e+00
-1.72392678e+00
-2.15409994e+00
-5.06967769e+00
-5.84210757e+00
-4.20522094e+00
-1.12182517e+01
-2.90622044e+01
-3.27426271e+01
-2.95952098e+01
-3.13497331e+01
-4.53733749e+01
-4.25406777e+01
-5.03958406e+01
-6.54069886e+01
-4.86518087e+01
-6.05704172e+01
-4.29787235e+01
-3.30014488e+01
-6.94346237e+01
-5.81895332e+01
-4.00766487e+01
-4.25548573e+01
-5.04496326e+01
-2.06336892e+01
1.21119967e+01
7.94393063e-01
-1.13232441e+01
-2.39847305e+02
-2.58420166e+02
5.55205536e+00
2.00617399e+01
2.12078362e+01
7.31507087e+00
1.10803902e+01
-1.55987468e+01
9.17499352e+00
-2.31073570e+00
2.20486965e+01
-3.74575195e+01
9.06721322e+00
-1.28282277e+00
-7.87949488e+00
-6.37121914e+00
-1.20681071e+01
-1.47294512e+01
-2.01235519e+02
-3.21199585e+02
-3.76499990e+01
-3.10960999e+01
-6.50873131e+00
7.25125853e+00
-7.58809948e+00
-1.96760759e+01
5.01461172e+00
-3.45949137e+01
-5.20890865e+01
-2.04414139e+01
5.92645359e+00
1.40497165e+01
-1.05370350e+01
-4.88185596e+00
</DataArray>
<DataArray type="Float32" Name="Stress_Pressure" format="ascii">
-1.10082491e+01
3.59216136e+00
1.98584547e+01
1.33358781e+01
-1.31073319e+01
-2.12484455e+01
1.91975168e+01
-4.94855142e+00
3.79946802e+01
1.26759506e+02
1.07053494e+02
9.74795408e+01
1.27306089e-01
1.27275467e-01
1.27284471e-01
1.27329756e-01
-8.75527784e-02
-8.75932202e-02
-8.75699222e-02
-8.75225738e-02
8.02212965e+00
7.62062657e+00
1.24589026e+00
6.85497934e+00
1.80222988e+00
9.77048464e+00
4.65822452e+00
9.47791481e+00
1.25673068e+00
1.60683304e+00
9.57274473e+00
1.09055132e+01
1.33332336e+00
-4.38845596e+00
5.93059349e+00
5.38891622e+00
-1.41248274e+00
4.23084229e+00
1.64602670e+00
-9.81127757e+00
-6.09746109e+00
-1.39282370e+00
-1.23089522e+01
-5.38321584e-02
-8.73307562e+00
-1.28992751e+01
-1.69373186e+01
-6.01932094e+00
4.58490928e+00
2.88224506e+00
1.76690917e+01
8.65306330e+00
-8.94219678e+00
1.82474237e+01
1.13716150e+02
-8.77557339e+00
7.74528370e+01
6.00488644e+01
5.40253992e+01
6.91391068e+01
4.21833763e+01
6.47846680e+01
4.52347633e+00
-8.39911211e+00
2.31369103e+01
2.29407501e+00
1.44201761e+02
4.42290140e+01
-1.33433456e+02
-1.51214918e+00
-2.25980253e+01
-9.12057447e+00
-2.12342386e+01
-1.68650627e+00
-1.01927551e+01
-1.83252388e+01
4.44233990e+00
7.87683499e+01
1.50008560e+02
1.25199562e+01
4.19737053e+00
8.30399132e+00
2.43314552e+00
3.60950279e+01
8.92258479e+01
1.62196681e+01
4.89834207e+00
1.04139503e+01
1.02580083e+01
1.22674489e+01
1.63055258e+01
1.75926007e+01
1.79074818e+01
2.35562776e+01
1.46752665e+01
1.05242796e+01
2.39907932e+00
-2.07211677e+00
6.10579872e+00
1.20912612e+01
2.17915993e+01
1.48906660e+01
2.10607988e+01
-1.34409153e+00
-9.66246946e+00
1.66184619e+01
1.69290771e+01
4.79342221e+01
5.28881666e+01
-4.88783328e+00
-3.61882566e+01
-9.83909836e+01
-1.61772829e+01
4.09135447e+01
1.02711932e+01
1.82318466e+02
5.08895248e+01
2.58688860e+01
-1.31629203e+01
-1.31708241e+00
5.78515801e+01
3.14114217e+01
1.04929891e+01
-1.36036453e+01
-8.03890991e+01
-4.64407082e+01
-9.26631494e+00
-7.93567471e+00
1.57928467e-01
1.58009619e-01
1.58035934e-01
1.58048823e-01
-1.13403428e+00
1.57472871e+00
7.47193612e-01
-1.77346572e-01
9.45627880e+00
1.17765551e+01
9.78100699e+00
1.09354763e+01
1.98859568e+01
1.81215348e+01
2.31546175e+01
3.29801009e+01
2.21095543e+01
2.98693329e+01
1.84905810e+01
1.22802224e+01
3.57576523e+01
2.86429329e+01
1.06909080e+01
1.70608549e+01
2.15524261e+01
-4.61312819e+00
-2.62929926e+01
-1.49747972e+01
-6.05801964e+00
1.44846569e+02
1.56458282e+02
-2.37201310e+01
-3.29252310e+01
-2.96169047e+01
-1.87808419e+01
-2.12229488e+01
-8.25161576e-01
-2.50429615e+01
-3.04577112e+01
-3.09709263e+01
5.43803740e+00
-2.01204077e+01
-9.45295652e+00
-4.50935918e+00
-5.40292168e+00
-5.00578642e-01
1.92996481e+00
1.20837646e+02
1.96779282e+02
1.87986755e+00
8.61566639e+00
-1.41309735e+00
-2.07691383e+01
2.28266019e+00
3.20760059e+00
-1.24546461e+01
1.26042409e+01
2.46465092e+01
-8.57934952e-01
-1.71297088e+01
-2.25577272e+01
8.83830190e-02
1.33641279e+00
</DataArray>
<DataArray type="Float32" Name="Stress_Tresca" format="ascii">
2.01788689e+01
3.16089472e+01
6.58560362e+01
3.45394282e+01
2.46172920e+01
4.08993419e+01
4.70044279e+01
2.76187396e+01
6.15400391e+01
1.33496399e+02
1.25656207e+02
1.14934885e+02
1.92974949e+00
1.40608543e+00
2.41759920e+00
3.27618623e+00
9.38931644e-01
6.86810911e-01
1.22184193e+00
1.39756680e+00
2.87457657e+01
2.87515736e+01
2.38257236e+01
2.82522984e+01
2.37144465e+01
3.01874943e+01
2.83168736e+01
3.04162872e+01
2.36398079e+01
2.56502063e+01
2.98788910e+01
3.29912214e+01
2.33662410e+01
2.58774898e+01
2.75025306e+01
2.91883392e+01
2.14801593e+01
2.73679011e+01
2.39430060e+01
2.53417037e+01
1.73107142e+01
3.18230231e+01
1.55057178e+01
2.53820173e+01
1.47676897e+01
2.59328752e+01
1.73855743e+01
2.52988977e+01
2.73833507e+01
2.62307324e+01
3.82728674e+01
2.94098792e+01
4.52961510e+01
3.91070926e+01
1.21387073e+02
4.35880476e+01
8.94028130e+01
7.51847710e+01
6.99195938e+01
8.25812035e+01
6.14052086e+01
8.19899712e+01
2.75204052e+01
2.93792930e+01
4.24848554e+01
2.45325959e+01
1.52265100e+02
6.79522041e+01
8.71085434e+01
2.95176185e+01
2.62042926e+01
1.74711895e+01
2.96085151e+01
2.88214946e+01
2.33573384e+01
2.89697227e+01
3.99563580e+01
9.25622849e+01
1.54202530e+02
6.28843285e+01
3.81889820e+01
4.82431602e+01
4.68462296e+01
7.13612843e+01
1.34215909e+02
4.75787621e+01
2.69579134e+01
3.10755973e+01
3.14137278e+01
3.34713607e+01
3.64128218e+01
3.79860241e+01
3.76022387e+01
4.42173600e+01
3.55440950e+01
3.25039136e+01
2.48919222e+01
2.57335651e+01
2.88822746e+01
4.27969160e+01
5.09271398e+01
5.68192940e+01
4.44405050e+01
4.01725357e+01
4.12154319e+01
5.35972322e+01
5.96635844e+01
6.60285250e+01
6.86593685e+01
5.19633341e+01
3.82556171e+01
6.05756607e+01
2.29482368e+01
5.97021122e+01
4.41919810e+01
1.98611351e+02
7.65235958e+01
4.72904449e+01
2.41987538e+01
2.22884951e+01
7.68001137e+01
5.45296226e+01
7.05830832e+01
3.75551200e+01
4.97636871e+01
2.24923668e+01
3.02339697e+01
2.47863998e+01
4.52473640e+00
2.20113111e+00
3.60916162e+00
5.07574177e+00
1.43312405e+01
7.78716056e+00
5.58624673e+00
1.93780959e+01
3.10653229e+01
3.24147921e+01
3.12720432e+01
3.25453234e+01
3.95068321e+01
3.88363390e+01
4.33237743e+01
5.33131957e+01
4.29905281e+01
5.09105721e+01
4.00391445e+01
3.59384589e+01
5.71684418e+01
5.16083755e+01
5.26140938e+01
4.26189899e+01
5.02040768e+01
4.65960519e+01
2.72161636e+01
2.45829830e+01
3.55586777e+01
1.51308910e+02
1.55690430e+02
3.91334311e+01
2.45856323e+01
1.77408409e+01
2.58981915e+01
2.12289720e+01
3.04613419e+01
2.73610601e+01
7.09722080e+01
2.02248726e+01
5.54664841e+01
2.63583113e+01
2.18276863e+01
2.61806896e+01
2.09336884e+01
2.11279516e+01
2.20615759e+01
1.35769775e+02
1.95722839e+02
6.37581685e+01
3.90225201e+01
1.42592566e+01
2.60170015e+01
1.13619308e+01
2.84287977e+01
1.34332829e+01
3.59640579e+01
4.75081711e+01
3.98069038e+01
2.51210575e+01
1.82758856e+01
1.73190184e+01
5.76406431e+00
</DataArray>
<DataArray type="Float32" Name="Stress_Third_Invariant" format="ascii">
-1.18953831e+01
-2.20043869e+01
-3.71630983e+01
-3.26136420e+01
-1.08004068e+01
-2.83641265e+00
-3.38859886e+01
-1.91195868e+01
-5.77792091e+01
-1.28172787e+02
-1.13112432e+02
-9.74766560e+01
1.40423739e+00
1.10278586e+00
-1.94080099e-01
2.50133729e+00
5.10303915e-01
5.99352717e-01
-5.38473070e-01
7.46901631e-01
-2.83469334e+01
-2.79501765e+01
-2.28519590e+01
-2.72650690e+01
-2.31039710e+01
-2.98065772e+01
-2.55781934e+01
-2.94810154e+01
-2.25217252e+01
-2.27480972e+01
-2.96858377e+01
-3.07126992e+01
-2.26567197e+01
-1.78548491e+01
-2.64877334e+01
-2.58214657e+01
-2.00447695e+01
-2.48710737e+01
-2.28663201e+01
-1.32818323e+01
-1.63081191e+01
-1.99118048e+01
-1.14072143e+01
-2.18046319e+01
-1.42633135e+01
-1.09611790e+01
-7.37359524e+00
-1.62496526e+01
-2.46878493e+01
-2.35932042e+01
-3.63525088e+01
-2.89190548e+01
-1.58873080e+01
-3.61103127e+01
-1.13581596e+02
-1.60548466e+01
-8.62963295e+01
-7.21222061e+01
-6.64051476e+01
-7.92780495e+01
-5.51271057e+01
-7.33273964e+01
-2.46650535e+01
-1.44738201e+01
-4.14249538e+01
-2.34862553e+01
-1.38856031e+02
-5.92766331e+01
7.95301285e+01
-2.01365693e+01
-2.80798115e+00
-1.39350222e+01
-2.08603547e+00
-1.98814039e+01
-1.31909304e+01
-6.63350759e+00
-2.45226398e+01
-8.67422433e+01
-1.47260414e+02
-3.03692905e+01
-2.49710550e+01
-2.84216690e+01
-2.31324577e+01
-4.63094831e+01
-1.02327617e+02
-2.54127534e+01
-2.54225597e+01
-3.02370486e+01
-3.00015942e+01
-3.15050031e+01
-3.51410770e+01
-3.60375159e+01
-3.65948071e+01
-4.03087583e+01
-3.36182251e+01
-2.98453712e+01
-2.33113191e+01
-1.97871711e+01
-2.58917818e+01
-3.08956356e+01
-3.92080211e+01
-3.36072721e+01
-3.83345140e+01
-1.91563857e+01
-1.31631438e+01
-3.31937281e+01
-3.38912506e+01
-6.01883322e+01
-6.56492062e+01
-1.60561849e+01
8.11997906e+00
5.96535339e+01
3.55601254e+00
-5.31369797e+01
-3.06366107e+01
-1.52506638e+02
-6.39093374e+01
-4.32833877e+01
-1.08741572e+01
-2.00076790e+01
-6.84699492e+01
-4.41788981e+01
-3.33174672e+01
-8.97835875e+00
4.49709435e+01
1.87296371e+01
2.36186886e+01
-3.75650406e+00
3.95391655e+00
-7.86009610e-01
2.74217486e+00
4.48021793e+00
5.41991367e+00
-3.69455222e+00
-5.06529164e+00
-1.59348512e+01
-2.91262913e+01
-3.13459177e+01
-2.94634851e+01
-3.02519760e+01
-3.80731068e+01
-3.61638582e+01
-4.04090014e+01
-4.71771903e+01
-3.89679689e+01
-4.44420786e+01
-3.58162794e+01
-2.84922268e+01
-4.77367973e+01
-4.03261070e+01
-2.87826929e+01
-3.43326126e+01
-3.63612537e+01
-1.71124085e+01
-3.95427823e+00
-1.11061795e+01
-4.10500002e+00
-1.40644680e+02
-1.52794556e+02
1.18165328e+01
-1.85503286e+00
3.81557858e+00
1.85406611e+01
4.72264695e+00
-5.60905600e+00
-2.11088543e+01
4.44357700e+01
1.47025590e+01
-4.42908478e+01
2.08228935e+01
-5.95339139e-02
6.86928332e+00
-1.50065384e+01
-1.79345655e+01
-1.72932820e+01
-1.14574043e+02
-1.85291977e+02
-2.35568237e+01
-3.04301012e+01
-6.57960355e+00
2.23771191e+00
6.34942222e+00
-2.08390491e+01
-9.54974365e+00
-3.21169424e+01
-3.79898357e+01
-1.86969461e+01
1.77853026e+01
1.89457703e+00
-1.50200610e+01
-5.20355320e+00
</DataArray>
<DataArray type="Float32" Name="Logarithmic_strain_Max_Principal" format="ascii">
4.10176967e-02
4.81330394e-02
5.50618088e-02
4.16195104e-02
4.56668586e-02
5.98064459e-02
8.09482541e-02
5.48828868e-02
5.64671168e-02
6.66524991e-02
9.01771958e-02
9.56320316e-02
2.43495633e-05
1.80785964e-05
2.76818246e-05
4.33473469e-05
1.31159013e-05
1.05255076e-05
1.49653024e-05
1.88664962e-05
5.18282205e-02
5.32108322e-02
5.60927149e-02
5.37449168e-02
6.30365238e-02
6.10816544e-02
6.25794576e-02
6.42624944e-02
5.69952819e-02
5.96280862e-02
5.75129343e-02
5.99274281e-02
5.82029112e-02
6.22170386e-02
5.67079559e-02
5.71350665e-02
6.09530332e-02
6.54686908e-02
5.41538168e-02
5.67315458e-02
5.86885223e-02
6.19693026e-02
4.81520565e-02
5.60818464e-02
5.68125024e-02
6.20585140e-02
4.99965232e-02
5.72458003e-02
6.37226235e-02
6.21093372e-02
6.72365418e-02
6.36857385e-02
5.86907816e-02
6.63678609e-02
7.98154309e-02
6.08148043e-02
7.64085241e-02
6.30446829e-02
7.33991787e-02
6.54594712e-02
7.45407641e-02
6.70615286e-02
6.24391873e-02
5.61321527e-02
7.40369952e-02
6.36012079e-02
8.87469277e-02
8.49533081e-02
1.39805883e-01
5.48015262e-02
4.51786225e-02
4.77179838e-02
6.54533890e-02
6.62454274e-02
4.57999120e-02
7.29778787e-02
7.70879984e-02
6.15943484e-02
8.92747752e-02
8.68473530e-02
5.06380089e-02
7.44230300e-02
7.92314336e-02
1.03136767e-01
1.00324385e-01
9.65683038e-02
7.69962370e-02
7.17182606e-02
7.67780012e-02
8.07679147e-02
6.50178641e-02
7.05873780e-02
6.15017898e-02
6.44615665e-02
5.72214657e-02
5.73139372e-02
5.43323606e-02
5.14849229e-02
5.71471993e-02
5.48388045e-02
8.88344795e-02
8.95480793e-02
7.55052036e-02
5.86287365e-02
4.80442297e-02
4.52880682e-02
4.69321894e-02
9.76601653e-02
9.78243276e-02
8.14956675e-02
4.95962802e-02
8.03287476e-02
2.17937338e-02
1.06070964e-01
1.11670077e-01
1.11758254e-01
1.06868791e-01
1.05460618e-01
1.04323255e-01
9.14325602e-02
1.04302226e-01
1.16486071e-01
8.42301166e-02
8.19151895e-02
1.36505619e-01
6.87848479e-02
5.03473356e-02
3.95048468e-02
6.32986194e-05
2.36710894e-05
4.70744999e-05
7.19210584e-05
1.98286508e-04
6.60435035e-05
4.11632936e-05
2.59440072e-04
8.20557326e-02
7.57355392e-02
8.37619342e-02
8.86786617e-02
6.80364184e-02
7.46704284e-02
6.93167150e-02
6.96405843e-02
6.65441900e-02
6.35290034e-02
6.28098324e-02
5.97820263e-02
7.00276718e-02
6.24679718e-02
9.62326732e-02
9.84639935e-02
8.43381323e-02
6.10391861e-02
4.12646472e-02
3.54863605e-02
3.47470250e-02
1.05239481e-01
1.10497944e-01
7.87146663e-02
3.33031747e-02
8.60164606e-03
1.55097828e-02
6.24385281e-03
1.51006739e-02
7.70840293e-03
5.83432866e-02
1.49952970e-02
7.38738626e-02
3.19880768e-03
2.41419435e-03
5.37577251e-04
2.82080695e-04
7.55097994e-04
8.89635936e-04
1.62681833e-01
1.45472363e-01
1.20545502e-01
1.39710717e-01
1.46031532e-04
1.48549422e-02
1.18490578e-04
1.23482998e-01
1.18074112e-01
1.04414061e-01
1.22992590e-01
5.81144746e-02
7.43634850e-02
1.96458728e-02
2.81417131e-04
3.57470963e-05
</DataArray>
<DataArray type="Float32" Name="Logarithmic_strain_Min_Principal" format="ascii">
-5.54093174e-02
-6.23351354e-02
-7.89096076e-02
-6.58707041e-02
-6.63384204e-02
-7.95165279e-02
-1.00624951e-01
-7.59941898e-02
-8.84394627e-02
-1.14978131e-01
-1.26499241e-01
-1.31630220e-01
-2.17865163e-05
-1.56478400e-05
-3.03354591e-05
-3.50962891e-05
-9.56583335e-06
-5.53981181e-06
-1.37612569e-05
-1.55146226e-05
-8.53443928e-02
-8.52544177e-02
-8.41491837e-02
-8.52078125e-02
-9.37093832e-02
-9.46800206e-02
-9.62882880e-02
-9.77786519e-02
-8.32892023e-02
-8.68377965e-02
-9.19919908e-02
-9.50345872e-02
-8.37165304e-02
-8.97448631e-02
-8.63828417e-02
-8.89382260e-02
-8.42093900e-02
-9.61832684e-02
-8.05788618e-02
-8.22241325e-02
-8.34081508e-02
-9.48267542e-02
-7.41327237e-02
-8.36079624e-02
-8.21830183e-02
-9.14714299e-02
-7.14816488e-02
-8.15859642e-02
-8.66297418e-02
-8.24288595e-02
-1.06270905e-01
-1.02561858e-01
-9.57930886e-02
-1.01151889e-01
-1.27716844e-01
-9.08754276e-02
-1.22710925e-01
-9.80372727e-02
-1.16940025e-01
-1.05634933e-01
-1.13141857e-01
-1.04448654e-01
-8.21234967e-02
-7.48781618e-02
-1.12981013e-01
-1.02185598e-01
-1.26030220e-01
-1.24055478e-01
-1.23804413e-01
-6.38505636e-02
-6.57143737e-02
-6.61944477e-02
-9.55704525e-02
-9.67976432e-02
-6.64953878e-02
-1.03168434e-01
-1.02415297e-01
-9.34410058e-02
-1.40493013e-01
-1.17068247e-01
-7.28486888e-02
-1.00075172e-01
-1.09272245e-01
-1.30539183e-01
-1.34454978e-01
-1.12270725e-01
-1.05813038e-01
-1.05314068e-01
-1.08750902e-01
-1.11460794e-01
-1.01457426e-01
-1.02105249e-01
-9.44054220e-02
-9.23992330e-02
-8.59932043e-02
-8.15132465e-02
-7.80738909e-02
-7.48024723e-02
-7.72592239e-02
-7.65366293e-02
-1.18583952e-01
-1.25663470e-01
-1.01296382e-01
-7.50709185e-02
-6.27606788e-02
-5.77226933e-02
-5.86632602e-02
-1.33214338e-01
-1.36256230e-01
-1.01090994e-01
-4.70345356e-02
-8.02413523e-02
-1.41846096e-02
-1.57225257e-01
-1.58355738e-01
-1.43084854e-01
-1.59490292e-01
-1.56120554e-01
-1.49128441e-01
-1.44646488e-01
-1.54319521e-01
-1.46764435e-01
-9.97848567e-02
-8.97983108e-02
-7.72549286e-02
-4.99961227e-02
-3.04189428e-02
-4.01947132e-02
-4.55187328e-05
-2.90194766e-05
-3.92887487e-05
-5.02424591e-05
-1.50071642e-04
-1.21061284e-04
-9.22063955e-05
-3.57529187e-04
-1.12211369e-01
-1.10536665e-01
-1.11803291e-01
-1.15897205e-01
-1.05802078e-01
-1.04158007e-01
-9.78177711e-02
-9.54378080e-02
-8.96857344e-02
-8.49841181e-02
-8.43989030e-02
-7.48918876e-02
-8.64104182e-02
-7.59223253e-02
-1.27873098e-01
-1.39279708e-01
-1.00281706e-01
-7.20626041e-02
-4.87143872e-02
-3.73111190e-02
-3.54484050e-02
-1.71744935e-01
-1.87657610e-01
-9.40802619e-02
-2.68118228e-02
-3.06261424e-03
-9.66978639e-03
-2.68651967e-03
-1.35453284e-02
-7.28801731e-03
-4.01510326e-02
-7.86669040e-03
-1.08171776e-01
-2.69537406e-03
-2.84929271e-03
-3.23144828e-04
-2.24681615e-04
-9.71314978e-04
-1.44908403e-03
-2.35878780e-01
-2.49171987e-01
-1.76320826e-01
-1.87010258e-01
-1.36291680e-04
-7.74525141e-03
-1.54144520e-04
-1.60706013e-01
-1.52388781e-01
-1.54600561e-01
-1.50904410e-01
-6.14559278e-02
-6.96147103e-02
-2.20596521e-02
-4.52853594e-04
-1.01821308e-04
</DataArray>
<DataArray type="Float32" Name="Plastic_strain_Max_Principal" format="ascii">
4.07273695e-02
4.86385757e-02
4.87089828e-02
4.16731248e-02
5.22120562e-02
5.73097133e-02
8.90046619e-02
6.54738881e-02
6.15668911e-02
7.13218190e-02
1.05401774e-01
9.13988203e-02
0.00000000e+00
0.00000000e+00
0.00000000e+00
0.00000000e+00
0.00000000e+00
0.00000000e+00
0.00000000e+00
0.00000000e+00
5.17949220e-02
5.29961111e-02
5.59637239e-02
5.34840692e-02
6.28007911e-02
6.09641830e-02
6.23729415e-02
6.41141087e-02
5.67585211e-02
5.93842315e-02
5.72879687e-02
5.98830516e-02
5.80466501e-02
5.77531434e-02
5.64690568e-02
5.68763134e-02
6.05549924e-02
6.62924689e-02
5.40073058e-02
5.53276092e-02
5.81998983e-02
6.15530596e-02
4.78370422e-02
5.59076630e-02
5.63213117e-02
6.14477964e-02
4.96615786e-02
5.66115649e-02
6.31791730e-02
6.20007189e-02
6.73263981e-02
6.35526236e-02
5.92517635e-02
6.61990396e-02
8.29730287e-02
6.44694498e-02
7.68352300e-02
6.40499987e-02
7.44480677e-02
6.62808660e-02
7.51549825e-02
6.77310154e-02
6.37540839e-02
5.53897787e-02
7.63625119e-02
6.33821180e-02
9.03127026e-02
8.64252329e-02
1.28172159e-01
8.26203724e-02
4.15828239e-02
4.94990973e-02
6.65978113e-02
5.78464121e-02
4.97474875e-02
8.75872507e-02
6.37551243e-02
6.39326321e-02
1.02982175e-01
9.07551631e-02
4.82825786e-02
5.94572122e-02
7.71893300e-02
1.07136955e-01
9.97154862e-02
9.61564705e-02
7.67388791e-02
7.15999231e-02
7.65386242e-02
8.06477945e-02
6.49392027e-02
7.04985838e-02
6.13752231e-02
6.41632737e-02
5.71313165e-02
5.83307547e-02
5.42307440e-02
5.24951741e-02
5.70666436e-02
5.42904707e-02
8.81824289e-02
8.43892805e-02
6.90998535e-02
5.77194609e-02
4.44592284e-02
3.82083611e-02
4.78892289e-02
1.04421036e-01
1.00550517e-01
8.13940838e-02
2.58605449e-02
7.47297034e-02
2.33932748e-02
1.27773993e-01
1.29560836e-01
1.13485441e-01
9.51923492e-02
8.78225574e-02
1.12077817e-01
9.05855671e-02
1.12243522e-01
1.18080905e-01
7.12781763e-02
6.56061959e-02
3.71707566e-02
2.63112579e-02
5.81431452e-02
3.30387583e-02
0.00000000e+00
0.00000000e+00
0.00000000e+00
0.00000000e+00
3.45072707e-05
0.00000000e+00
0.00000000e+00
6.84107460e-05
8.18826109e-02
7.55405612e-02
8.36698320e-02
8.85423273e-02
6.79821968e-02
7.45900739e-02
6.92351684e-02
6.89514093e-02
6.63877949e-02
6.60936516e-02
6.26778770e-02
6.56581121e-02
6.98172674e-02
6.78470004e-02
9.40856412e-02
1.07276108e-01
6.93618869e-02
6.32196655e-02
3.60189243e-02
2.22843422e-02
2.14654664e-02
1.06953915e-01
1.08289346e-01
9.95951543e-02
2.19059610e-02
8.45483135e-03
1.64700886e-02
5.32582761e-03
1.55224680e-02
3.86856397e-03
4.11931463e-02
2.84413346e-02
8.17164928e-02
2.74110884e-03
2.23786710e-03
1.91875546e-04
1.56441632e-04
5.45502931e-04
6.92106900e-04
1.52465180e-01
1.47034839e-01
1.26665796e-01
1.58714652e-01
5.85494158e-05
4.63563501e-03
0.00000000e+00
1.21496346e-01
1.17513590e-01
1.15104545e-01
1.33593202e-01
5.05253710e-02
4.80117174e-02
9.30641909e-03
1.32016416e-04
0.00000000e+00
</DataArray>
<DataArray type="Float32" Name="Plastic_strain_Min_Principal" format="ascii">
-5.55893518e-02
-5.81948040e-02
-6.76150993e-02
-6.52945302e-02
-5.80530742e-02
-6.80102500e-02
-1.17158672e-01
-9.53774424e-02
-9.38974470e-02
-1.16446093e-01
-1.48995558e-01
-1.16067957e-01
0.00000000e+00
0.00000000e+00
0.00000000e+00
0.00000000e+00
0.00000000e+00
0.00000000e+00
0.00000000e+00
0.00000000e+00
-8.50650892e-02
-8.46536662e-02
-8.41318686e-02
-8.45624357e-02
-9.34982188e-02
-9.41388104e-02
-9.59411291e-02
-9.72475894e-02
-8.31051860e-02
-8.65821149e-02
-9.12034586e-02
-9.44541227e-02
-8.36961847e-02
-8.19264292e-02
-8.59006513e-02
-8.85271616e-02
-8.39243568e-02
-9.79406536e-02
-8.05061534e-02
-8.06943113e-02
-8.31465945e-02
-9.44979824e-02
-7.44832233e-02
-8.35501980e-02
-8.20349194e-02
-9.13993381e-02
-7.20639750e-02
-8.11010972e-02
-8.58268859e-02
-8.24212488e-02
-1.05426658e-01
-1.02084484e-01
-9.54599285e-02
-9.85789420e-02
-1.25372556e-01
-9.61635570e-02
-1.18310086e-01
-9.71637323e-02
-1.15687896e-01
-1.02842223e-01
-1.11936621e-01
-1.02028769e-01
-8.46194465e-02
-7.42487889e-02
-1.16947289e-01
-1.01808790e-01
-1.22780137e-01
-1.23051527e-01
-1.50331959e-01
-8.06353713e-02
-6.06376066e-02
-7.00747063e-02
-7.25104703e-02
-7.22508309e-02
-7.40915071e-02
-1.32260901e-01
-7.76779358e-02
-9.33177853e-02
-1.57796752e-01
-1.20257798e-01
-6.88976385e-02
-5.79836687e-02
-1.07935239e-01
-1.35201888e-01
-1.32004437e-01
-1.14776070e-01
-1.05449725e-01
-1.04817739e-01
-1.08005175e-01
-1.10860534e-01
-1.00590287e-01
-1.01068083e-01
-9.32775903e-02
-9.08191027e-02
-8.51710867e-02
-8.26544063e-02
-7.79184364e-02
-7.66590806e-02
-7.68790096e-02
-7.55073912e-02
-1.10376847e-01
-1.14762712e-01
-8.98606001e-02
-7.33618614e-02
-5.79543056e-02
-4.78030515e-02
-5.99827381e-02
-1.40628858e-01
-1.37724822e-01
-9.93303408e-02
-2.07725847e-02
-8.94038379e-02
-1.25964765e-02
-1.93925016e-01
-1.88104165e-01
-1.36140645e-01
-1.26049284e-01
-1.20795341e-01
-1.66014049e-01
-1.43266305e-01
-1.60592176e-01
-1.46206457e-01
-8.09504328e-02
-6.89302548e-02
-3.15717869e-02
-1.30956490e-02
-3.40533913e-02
-3.11543830e-02
0.00000000e+00
0.00000000e+00
0.00000000e+00
0.00000000e+00
-5.26662108e-05
0.00000000e+00
0.00000000e+00
-9.15983110e-05
-1.11728400e-01
-1.09799433e-01
-1.11411804e-01
-1.15378976e-01
-1.04723830e-01
-1.03176938e-01
-9.65559408e-02
-9.26861931e-02
-8.83454122e-02
-8.71583186e-02
-8.32847580e-02
-8.15329030e-02
-8.43212679e-02
-8.21747743e-02
-1.21425085e-01
-1.54776774e-01
-7.72296018e-02
-7.48757059e-02
-4.12705856e-02
-2.03879084e-02
-1.84371513e-02
-1.63879469e-01
-1.70190036e-01
-1.21178446e-01
-1.53784272e-02
-4.71471075e-03
-1.09842190e-02
-3.17554336e-03
-1.39360332e-02
-5.07543713e-03
-2.94980919e-02
-1.81833762e-02
-1.17436044e-01
-2.70446457e-03
-2.86430011e-03
-1.44301610e-04
-1.55261178e-04
-6.80220488e-04
-1.12129177e-03
-2.05913872e-01
-2.32151553e-01
-1.86051091e-01
-2.15879172e-01
-4.43833304e-05
-2.87203256e-03
0.00000000e+00
-1.56135283e-01
-1.52352348e-01
-1.69992514e-01
-1.64154962e-01
-4.08056322e-02
-3.24573787e-02
-6.67671533e-03
-2.00401264e-04
0.00000000e+00
</DataArray>
</PointData>
<Cells>
<DataArray type="Int32" Name="connectivity" format="ascii">
0 1 2 3 4 5 6 7
1 8 9 2 5 10 11 6
12 13 14 15 16 17 18 19
20 21 22 23 24 25 26 27
21 28 29 22 25 30 31 26
28 32 33 29 30 34 35 31
32 36 37 33 34 38 39 35
36 40 41 37 38 42 43 39
40 44 45 41 42 46 47 43
23 22 48 49 27 26 50 51
22 29 52 48 26 31 53 50
29 33 54 52 31 35 55 53
33 37 56 54 35 39 57 55
37 41 58 56 39 43 59 57
41 45 60 58 43 47 61 59
49 48 62 63 51 50 64 65
48 52 66 62 50 53 67 64
52 54 68 66 53 55 69 67
63 62 70 71 65 64 72 73
71 70 4 74 73 72 75 76
70 77 5 4 72 78 79 75
74 4 7 80 76 75 81 82
4 5 6 7 75 79 83 81
5 10 11 6 79 84 85 83
24 25 26 27 86 87 88 89
25 30 31 26 87 90 91 88
30 34 35 31 90 92 93 91
34 38 39 35 92 94 95 93
38 42 43 39 94 96 97 95
42 46 47 43 96 98 99 97
27 26 50 51 89 88 100 101
26 31 53 50 88 91 102 100
31 35 55 53 91 93 103 102
35 39 57 55 93 95 104 103
39 43 59 57 95 97 105 104
43 47 61 59 97 99 106 105
51 50 64 65 101 100 107 108
50 53 67 64 100 102 109 107
53 55 69 67 102 103 110 109
55 57 111 69 103 104 112 110
65 64 72 73 108 107 113 114
64 67 78 72 107 109 115 113
73 72 75 76 114 113 116 117
76 75 81 82 117 116 118 119
75 79 83 81 116 120 121 118
79 84 85 83 120 122 123 121
84 124 125 85 122 126 127 123
128 129 130 131 132 133 134 135
86 87 88 89 136 137 138 139
87 90 91 88 137 140 141 138
90 92 93 91 140 142 143 141
92 94 95 93 142 144 145 143
94 96 97 95 144 146 147 145
96 98 99 97 146 148 149 147
89 88 100 101 139 138 150 151
88 91 102 100 138 141 152 150
91 93 103 102 141 143 153 152
93 95 104 103 143 145 154 153
95 97 105 104 145 147 155 154
97 99 106 105 147 149 156 155
101 100 107 108 151 150 157 158
100 102 109 107 150 152 159 157
102 103 110 109 152 153 160 159
103 104 112 110 153 154 161 160
104 105 162 112 154 155 163 161
105 106 164 162 155 156 165 163
109 110 166 115 159 160 167 168
110 112 169 166 160 161 170 167
112 162 171 169 161 163 172 170
162 164 173 171 163 165 174 172
114 113 116 117 175 176 177 178
169 171 132 126 170 172 179 180
171 173 133 132 172 174 181 179
117 116 118 119 178 177 182 183
116 120 121 118 177 184 185 182
120 122 123 121 184 186 187 185
122 126 127 123 186 180 188 187
126 132 135 127 180 179 189 188
132 133 134 135 179 181 190 189
</DataArray>
<DataArray type="Int32" Name="offsets" format="ascii">
8
16
24
32
40
48
56
64
72
80
88
96
104
112
120
128
136
144
152
160
168
176
184
192
200
208
216
224
232
240
248
256
264
272
280
288
296
304
312
320
328
336
344
352
360
368
376
384
392
400
408
416
424
432
440
448
456
464
472
480
488
496
504
512
520
528
536
544
552
560
568
576
584
592
600
608
616
624
632
</DataArray>
<DataArray type="UInt8" Name="types" format="ascii">
12
12
12
12
12
12
12
12
12
12
12
12
12
12
12
12
12
12
12
12
12
12
12
12
12
12
12
12
12
12
12
12
12
12
12
12
12
12
12
12
12
12
12
12
12
12
12
12
12
12
12
12
12
12
12
12
12
12
12
12
12
12
12
12
12
12
12
12
12
12
12
12
12
12
12
12
12
12
12
</DataArray>
</Cells>
</Piece>
</UnstructuredGrid>
</VTKFile>
