<VTKFile type="UnstructuredGrid" version="0.1" byte_order="LittleEndian">
<UnstructuredGrid>
<Piece NumberOfPoints="173" NumberOfCells="80">
<Points>
<DataArray type="Float64" NumberOfComponents="3" format="ascii">
 0.00000000e+00  0.00000000e+00  0.00000000e+00
 1.04681170e+00  0.00000000e+00  0.00000000e+00
 1.04990625e+00  1.08332479e+00  0.00000000e+00
 0.00000000e+00  1.08039069e+00  0.00000000e+00
 0.00000000e+00  0.00000000e+00  9.01545048e-01
 1.04592586e+00  0.00000000e+00  8.97838056e-01
 1.04693687e+00  1.07779169e+00  9.02533531e-01
 0.00000000e+00  1.07665396e+00  9.04277861e-01
 2.09796953e+00  0.00000000e+00  0.00000000e+00
 2.09924912e+00  1.08932388e+00  0.00000000e+00
 2.09548402e+00  0.00000000e+00  8.91384125e-01
 2.09793162e+00  1.08118534e+00  8.96746516e-01
 3.15025020e+00  0.00000000e+00  0.00000000e+00
 3.15516162e+00  1.09781504e+00  0.00000000e+00
 3.15610933e+00  0.00000000e+00  8.85667145e-01
 3.15016770e+00  1.08408833e+00  8.86039078e-01
 4.21953678e+00  0.00000000e+00  0.00000000e+00
 4.20648623e+00  1.10394466e+00  0.00000000e+00
 4.22366905e+00  0.00000000e+00  8.77107978e-01
 4.20903301e+00  1.08441687e+00  8.80160213e-01
 5.28622198e+00  0.00000000e+00  0.00000000e+00
 5.27098608e+00  1.11116278e+00  0.00000000e+00
 5.29255152e+00  0.00000000e+00  8.68863702e-01
 5.28108263e+00  1.08743715e+00  8.74173403e-01
 6.36099577e+00  0.00000000e+00  0.00000000e+00
 6.31804848e+00  1.13772559e+00  0.00000000e+00
 6.35754871e+00  0.00000000e+00  8.67819488e-01
 6.34697437e+00  1.11264217e+00  8.62110794e-01
 1.05422413e+00  2.14936972e+00  0.00000000e+00
 0.00000000e+00  2.14696741e+00  0.00000000e+00
 1.04997098e+00  2.14454746e+00  9.14232194e-01
 0.00000000e+00  2.14083409e+00  9.15040076e-01
 2.10776114e+00  2.16188288e+00  0.00000000e+00
 2.09896994e+00  2.15172434e+00  9.12846327e-01
 3.15144968e+00  2.17281842e+00  0.00000000e+00
 3.14456177e+00  2.16010785e+00  9.21469092e-01
 4.18787336e+00  2.19503284e+00  0.00000000e+00
 4.19077635e+00  2.15887594e+00  9.18483973e-01
 5.21194696e+00  2.19558501e+00  0.00000000e+00
 5.22866154e+00  2.16396332e+00  9.23280895e-01
 6.24652767e+00  2.23446369e+00  0.00000000e+00
 6.27422523e+00  2.19983172e+00  9.23664629e-01
 1.05786657e+00  3.19066739e+00  0.00000000e+00
 0.00000000e+00  3.18725681e+00  0.00000000e+00
 1.05208075e+00  3.19187737e+00  9.29274976e-01
 0.00000000e+00  3.18988371e+00  9.30670619e-01
 2.11645222e+00  3.19322681e+00  0.00000000e+00
 2.10623646e+00  3.19442487e+00  9.43661273e-01
 3.14887547e+00  3.20216274e+00  0.00000000e+00
 3.14199090e+00  3.19936085e+00  9.83701825e-01
 4.15577936e+00  3.20915484e+00  0.00000000e+00
 4.14683580e+00  3.19740486e+00  1.00658226e+00
 5.17218971e+00  3.20125866e+00  0.00000000e+00
 5.17436695e+00  3.17874360e+00  1.01588035e+00
 6.17471886e+00  3.24258804e+00  0.00000000e+00
 6.18192482e+00  3.23940897e+00  1.00498688e+00
 1.06049287e+00  4.21334696e+00  0.00000000e+00
 0.00000000e+00  4.21814537e+00  0.00000000e+00
 1.05293643e+00  4.21604395e+00  9.38356757e-01
 0.00000000e+00  4.22176170e+00  9.36515570e-01
 2.11592817e+00  4.20893335e+00  0.00000000e+00
 2.10363412e+00  4.20472622e+00  9.56530273e-01
 3.14389133e+00  4.20197058e+00  0.00000000e+00
 3.13499784e+00  4.20064497e+00  9.91788507e-01
 4.14043236e+00  4.20789719e+00  0.00000000e+00
 4.14005232e+00  4.20789242e+00  9.99960661e-01
 6.14034843e+00  4.21094084e+00  0.00000000e+00
 5.14040565e+00  4.20923996e+00  0.00000000e+00
 6.14047194e+00  4.21097326e+00  9.99726474e-01
 5.14046907e+00  4.20917654e+00  1.00001752e+00
 1.05831861e+00  5.23481178e+00  0.00000000e+00
 0.00000000e+00  5.24537086e+00  0.00000000e+00
 1.05496109e+00  5.24263573e+00  9.36065316e-01
 0.00000000e+00  5.24717093e+00  9.28542733e-01
 2.11390662e+00  5.21644592e+00  0.00000000e+00
 2.09725857e+00  5.22017050e+00  9.49709117e-01
 3.13513541e+00  5.20322657e+00  0.00000000e+00
 3.12820363e+00  5.20772362e+00  9.87329602e-01
 4.13905525e+00  5.20798779e+00  0.00000000e+00
 4.13881588e+00  5.20800257e+00  1.00024390e+00
 5.13890076e+00  5.20934629e+00  0.00000000e+00
 5.13899517e+00  5.20932579e+00  1.00002861e+00
 6.13901949e+00  5.21070004e+00  0.00000000e+00
 6.13903618e+00  5.21063519e+00  1.00000799e+00
 1.06588411e+00  6.27200031e+00  0.00000000e+00
 0.00000000e+00  6.27684784e+00  0.00000000e+00
 1.05924761e+00  6.27348089e+00  9.22418475e-01
 0.00000000e+00  6.28407812e+00  9.15959537e-01
 2.12246871e+00  6.24071550e+00  0.00000000e+00
 2.10070753e+00  6.26072788e+00  9.28248167e-01
 3.14153051e+00  6.21496725e+00  0.00000000e+00
 3.13389039e+00  6.23239470e+00  9.67227817e-01
 4.13872290e+00  6.20862341e+00  0.00000000e+00
 4.13805389e+00  6.20865250e+00  1.00053704e+00
 5.13771582e+00  6.20919895e+00  0.00000000e+00
 5.13782644e+00  6.20928431e+00  9.99966562e-01
 6.13768053e+00  6.21065855e+00  0.00000000e+00
 6.13770676e+00  6.21062994e+00  9.99995112e-01
 0.00000000e+00  0.00000000e+00  1.81104302e+00
 1.04616082e+00  0.00000000e+00  1.80363810e+00
 1.04557657e+00  1.06561053e+00  1.81133091e+00
 0.00000000e+00  1.06640255e+00  1.81217432e+00
 2.10291100e+00  0.00000000e+00  1.79420972e+00
 2.09243464e+00  1.05874360e+00  1.79898548e+00
 3.15958500e+00  0.00000000e+00  1.78220797e+00
 3.15957975e+00  1.05837464e+00  1.78114712e+00
 4.23268747e+00  0.00000000e+00  1.76328850e+00
 4.22682810e+00  1.05877459e+00  1.77519965e+00
 5.30797148e+00  0.00000000e+00  1.75042534e+00
 5.30035543e+00  1.06082392e+00  1.76377451e+00
 6.36804819e+00  0.00000000e+00  1.74519527e+00
 6.38063717e+00  1.06905460e+00  1.75297451e+00
 1.03988814e+00  2.12874079e+00  1.82869756e+00
 0.00000000e+00  2.13552427e+00  1.83378887e+00
 2.08959937e+00  2.12780333e+00  1.82198584e+00
 3.14386606e+00  2.13214040e+00  1.81732404e+00
 4.21630144e+00  2.14766383e+00  1.79873490e+00
 5.29110527e+00  2.15001774e+00  1.80508387e+00
 6.35612583e+00  2.16157413e+00  1.79277873e+00
 1.03515255e+00  3.18672085e+00  1.85778379e+00
 0.00000000e+00  3.18983364e+00  1.86278987e+00
 2.07616067e+00  3.18844771e+00  1.87184381e+00
 3.06773114e+00  3.16098619e+00  2.01119375e+00
 1.03754902e+00  4.23489952e+00  1.88381827e+00
 0.00000000e+00  4.22869873e+00  1.87418222e+00
 2.08304501e+00  4.21413231e+00  1.91449285e+00
 3.10652089e+00  4.18052197e+00  1.96236205e+00
 1.04666960e+00  5.25485039e+00  1.87460804e+00
 0.00000000e+00  5.26281738e+00  1.86714041e+00
 2.07761788e+00  5.24190187e+00  1.89737177e+00
 3.13130426e+00  5.22366810e+00  1.92088294e+00
 1.04126048e+00  6.29978085e+00  1.84300542e+00
 0.00000000e+00  6.29880047e+00  1.83706403e+00
 2.07939458e+00  6.30627441e+00  1.85187483e+00
 3.14250851e+00  6.29238367e+00  1.85534012e+00
 5.13903093e+00  5.20936918e+00  2.00003386e+00
 6.13903189e+00  5.21065140e+00  2.00003195e+00
 6.13774776e+00  6.21065998e+00  1.99998271e+00
 5.13772011e+00  6.20938396e+00  1.99996555e+00
 0.00000000e+00  0.00000000e+00  2.71846485e+00
 1.05360723e+00  0.00000000e+00  2.71648097e+00
 1.05689669e+00  1.05892682e+00  2.72235513e+00
 0.00000000e+00  1.05665541e+00  2.72762537e+00
 2.11905622e+00  0.00000000e+00  2.70202255e+00
 2.10643244e+00  1.05075729e+00  2.71112442e+00
 3.17712069e+00  0.00000000e+00  2.68613935e+00
 3.17832327e+00  1.04607677e+00  2.69009137e+00
 4.24702978e+00  0.00000000e+00  2.67249918e+00
 4.25006247e+00  1.04778600e+00  2.66749907e+00
 5.32092142e+00  0.00000000e+00  2.65580130e+00
 5.32124090e+00  1.05069244e+00  2.65808249e+00
 6.38936043e+00  0.00000000e+00  2.65060544e+00
 6.38872766e+00  1.05174720e+00  2.65209413e+00
 1.04044318e+00  2.11154151e+00  2.74384165e+00
 0.00000000e+00  2.12673712e+00  2.74731112e+00
 2.10656190e+00  2.11382556e+00  2.72203732e+00
 3.16754198e+00  2.12039232e+00  2.67855334e+00
 4.24486303e+00  2.13290310e+00  2.66724181e+00
 5.31487036e+00  2.12548113e+00  2.66981244e+00
 6.37496996e+00  2.13391638e+00  2.66422367e+00
 1.03644538e+00  3.19074583e+00  2.78896332e+00
 0.00000000e+00  3.18743396e+00  2.78505468e+00
 2.09582973e+00  3.16759682e+00  2.75746012e+00
 1.03702807e+00  4.23642683e+00  2.82245946e+00
 0.00000000e+00  4.24516106e+00  2.81451988e+00
 2.08618069e+00  4.23698330e+00  2.85812640e+00
 1.03790522e+00  5.29376554e+00  2.80779362e+00
 0.00000000e+00  5.28722286e+00  2.80332661e+00
 2.08297372e+00  5.28890753e+00  2.81904387e+00
 3.10079575e+00  4.29396868e+00  3.02228498e+00
 3.12547970e+00  5.27993870e+00  2.79594374e+00
 1.04146302e+00  6.33813667e+00  2.76982975e+00
 0.00000000e+00  6.34268665e+00  2.75821471e+00
</DataArray>
</Points>
<PointData Tensors="Stress_Components,Plastic_strain_components" Vevtors="Spatial_displacement,Reaction_force" Scalars="Equivalent_plastic_strain,Stress_Mises,Stress_Max_Principal,Stress_Mid_Principal,Stress_Min_Principal,Stress_Pressure,Stress_Tresca,Stress_Third_Invariant,Plastic_strain_Max_Principal,Plastic_strain_Min_Principal">
<DataArray type="Float32" Name="Stress_Components" NumberOfComponents="9" format="ascii">
-3.11596942e+00 -1.10292193e-02 -1.21325739e-02 -1.10292193e-02 3.55601609e-01 8.33874382e-03 -1.21325739e-02 8.33874382e-03 -3.27906227e+01
-9.19659334e+00 2.14759082e-01 -5.74392546e-03 2.14759082e-01 -4.91224670e+00 -2.52246439e-01 -5.74392546e-03 -2.52246439e-01 -4.50177288e+01
-4.34164035e+00 4.11661010e-01 -3.61275718e-01 4.11661010e-01 -1.79049385e+00 -3.15531854e-01 -3.61275718e-01 -3.15531854e-01 -3.65066322e+01
-5.66119051e+00 8.93059075e-02 -3.81380871e-01 8.93059075e-02 -3.33561492e+00 1.71760893e-02 -3.81380871e-01 1.71760893e-02 -3.96449366e+01
-1.04572690e+00 -6.81048539e-03 -8.99228193e-02 -6.81048539e-03 2.12780523e+00 -2.19760969e-01 -8.99228193e-02 -2.19760969e-01 -2.86560898e+01
-6.18068600e+00 1.27537083e-01 3.35926924e-01 1.27537083e-01 -2.40158999e+00 -5.58960240e-01 3.35926924e-01 -5.58960240e-01 -3.90595572e+01
-2.88054470e+00 3.04134768e-01 -1.43751910e-01 3.04134768e-01 -3.56925979e-01 -3.19313455e-01 -1.43751910e-01 -3.19313455e-01 -3.33819693e+01
-4.71308804e+00 9.79286106e-02 -2.77946286e-01 9.79286106e-02 -2.17233133e+00 1.85674593e-01 -2.77946286e-01 1.85674593e-01 -3.73327014e+01
-1.17802200e+01 1.89112909e-01 -1.75698670e-02 1.89112909e-01 -6.80346346e+00 -4.50378522e-01 -1.75698670e-02 -4.50378522e-01 -4.97927923e+01
-1.28728104e+01 9.09126045e-01 -6.26080833e-01 9.09126045e-01 -8.68488920e+00 -4.72721165e-01 -6.26080833e-01 -4.72721165e-01 -5.30506489e+01
-7.69549716e+00 1.44210462e-01 3.94976716e-01 1.44210462e-01 -4.38098657e+00 -6.48111664e-02 3.94976716e-01 -6.48111664e-02 -4.29469247e+01
-7.23790400e+00 2.58620093e-01 -7.66763225e-01 2.58620093e-01 -3.72465092e+00 -1.13132217e+00 -7.66763225e-01 -1.13132217e+00 -4.15943925e+01
-1.46107571e+01 5.51898956e-01 -7.02638822e-02 5.51898956e-01 -9.73034298e+00 4.18144301e-01 -7.02638822e-02 4.18144301e-01 -5.60868950e+01
-2.11708889e+01 5.94426692e-01 -1.28394465e+00 5.94426692e-01 -1.49471548e+01 -1.20359503e+00 -1.28394465e+00 -1.20359503e+00 -6.86422207e+01
-6.77647650e+00 -5.08781590e-01 -6.28929131e-01 -5.08781590e-01 -4.89321876e+00 -5.26023130e-02 -6.28929131e-01 -5.26023130e-02 -4.25875022e+01
-1.26612793e+01 -4.38033844e-01 -3.94848334e-01 -4.38033844e-01 -8.00647289e+00 -9.11767969e-01 -3.94848334e-01 -9.11767969e-01 -5.19992942e+01
-1.91913471e+01 -1.43110335e+00 -1.03847865e-01 -1.43110335e+00 -1.50187273e+01 1.33159816e-01 -1.03847865e-01 1.33159816e-01 -6.67983532e+01
-3.05080600e+01 -1.35979661e+00 -2.48210284e+00 -1.35979661e+00 -1.91852471e+01 -1.79044265e-01 -2.48210284e+00 -1.79044265e-01 -8.24994545e+01
-8.36639667e+00 -1.34843726e+00 -3.01573973e-01 -1.34843726e+00 -7.22313643e+00 -1.08859394e-01 -3.01573973e-01 -1.08859394e-01 -4.68035328e+01
3.52501929e-01 -1.00157174e+00 -5.49956569e-01 -1.00157174e+00 1.64704940e+00 2.92263494e-01 -5.49956569e-01 2.92263494e-01 -2.77804704e+01
-1.94778043e+01 -4.41192724e-01 -2.14842729e-01 -4.41192724e-01 -1.32189584e+01 1.16511187e+00 -2.14842729e-01 1.16511187e+00 -6.49814644e+01
-1.23645146e+01 -3.08333323e+00 -2.08751481e+00 -3.08333323e+00 -6.81404483e+00 4.73218583e-01 -2.08751481e+00 4.73218583e-01 -4.95676851e+01
-1.22405982e+00 -5.04310369e-01 -2.46639546e-01 -5.04310369e-01 -2.01629281e-01 1.21156191e+00 -2.46639546e-01 1.21156191e+00 -3.14734831e+01
3.94233130e+00 -1.75936841e+00 -2.94364788e-01 -1.75936841e+00 4.25521891e+00 2.70135839e-01 -2.94364788e-01 2.70135839e-01 -2.09303294e+01
-4.76091995e+01 -4.67638636e+00 -2.21126646e-01 -4.67638636e+00 -3.50788727e+01 5.16341209e-01 -2.21126646e-01 5.16341209e-01 -1.18110153e+02
-6.45985909e+01 -5.21020234e+00 -2.99525166e+00 -5.21020234e+00 -3.91035872e+01 5.31856060e+00 -2.99525166e+00 5.31856060e+00 -1.37090183e+02
-2.68191894e+01 -5.63566975e-01 -1.83123988e+00 -5.63566975e-01 -1.85320982e+01 2.85055283e+00 -1.83123988e+00 2.85055283e+00 -7.81225319e+01
-2.50339651e+01 -1.76566043e+00 -1.17709899e+00 -1.76566043e+00 -1.83960812e+01 2.89749749e+00 -1.17709899e+00 2.89749749e+00 -7.56853411e+01
-1.61013746e+00 8.49343631e-01 -5.15857954e-01 8.49343631e-01 -3.66707158e+00 -4.04166565e-01 -5.15857954e-01 -4.04166565e-01 -3.55701854e+01
4.41598892e-02 1.96275577e-01 -4.89723042e-01 1.96275577e-01 -1.97622919e+00 5.75292134e-03 -4.89723042e-01 5.75292134e-03 -3.19845319e+01
-1.45726553e+00 5.20031646e-01 3.01025799e-02 5.20031646e-01 -1.74997143e+00 -7.26926102e-01 3.01025799e-02 -7.26926102e-01 -3.34347568e+01
1.59845209e+00 1.81637149e-01 8.13796094e-01 1.81637149e-01 1.05801129e+00 5.36245555e-02 8.13796094e-01 5.36245555e-02 -2.71003560e+01
-6.43219066e+00 2.65854864e+00 -8.61250445e-01 2.65854864e+00 -9.07741284e+00 -1.16913122e+00 -8.61250445e-01 -1.16913122e+00 -4.61875098e+01
-4.64761582e+00 2.04318754e+00 1.78462229e+00 2.04318754e+00 -5.59676837e+00 -3.22316164e-01 1.78462229e+00 -3.22316164e-01 -4.00576380e+01
2.03010130e+01 1.33111739e+00 -1.63417470e+00 1.33111739e+00 1.86741018e+01 -5.17367974e-01 -1.63417470e+00 -5.17367974e-01 1.10322997e+01
5.84733800e+00 1.68015126e+00 3.79991882e+00 1.68015126e+00 6.95698581e+00 -2.92803258e-01 3.79991882e+00 -2.92803258e-01 -1.67471951e+01
3.04679325e+01 -8.02298389e-01 -4.59327270e+00 -8.02298389e-01 2.49442834e+01 -1.85734960e-01 -4.59327270e+00 -1.85734960e-01 2.89113497e+01
-1.51461450e+01 -6.85793956e+00 8.73142546e+00 -6.85793956e+00 -1.14779000e+01 5.22351761e-01 8.73142546e+00 5.22351761e-01 -5.34224774e+01
2.96786647e+01 1.08765557e+00 -3.88967919e+00 1.08765557e+00 2.88117126e+01 2.34143278e-01 -3.88967919e+00 2.34143278e-01 3.08284283e+01
-3.82704528e+00 -5.01678163e+00 9.31317220e+00 -5.01678163e+00 -9.08688752e+00 2.53624930e+00 9.31317220e+00 2.53624930e+00 -3.60577270e+01
1.73647175e+01 -5.01737797e+00 -6.95800042e+00 -5.01737797e+00 6.03555107e+00 1.78904694e+00 -6.95800042e+00 1.78904694e+00 -3.57612228e+00
-4.19393984e+01 -1.19654158e+01 1.22501363e+01 -1.19654158e+01 -3.31966667e+01 5.82046632e+00 1.22501363e+01 5.82046632e+00 -1.01133886e+02
-1.14515305e-01 6.28252633e-01 1.68194130e-01 6.28252633e-01 -9.28430462e+00 -8.24789062e-01 1.68194130e-01 -8.24789062e-01 -3.88686624e+01
7.22265863e+00 2.63265438e-01 2.86395520e-01 2.63265438e-01 2.70108557e+00 2.10351869e-03 2.86395520e-01 2.10351869e-03 -1.88554115e+01
2.75267597e+00 1.01403829e-01 1.00582902e+00 1.01403829e-01 -4.08373496e+00 -6.29835656e-01 1.00582902e+00 -6.29835656e-01 -3.06405953e+01
7.35782403e+00 9.21613816e-02 8.19714963e-01 9.21613816e-02 4.45782042e+00 -3.10115229e-01 8.19714963e-01 -3.10115229e-01 -1.69680194e+01
1.72138693e+01 -1.87628508e-01 -7.73554668e-02 -1.87628508e-01 9.70331353e+00 -1.13382437e+00 -7.73554668e-02 -1.13382437e+00 -2.42633343e-01
1.56512086e+01 -1.64735533e-01 1.05381041e+00 -1.64735533e-01 5.34855223e+00 1.59154200e+00 1.05381041e+00 1.59154200e+00 -6.75723326e+00
3.00882807e+01 -3.70827591e-01 9.79493558e-02 -3.70827591e-01 2.82162983e+01 -2.33340025e+00 9.79493558e-02 -2.33340025e+00 3.18481178e+01
2.90334996e+01 -1.85737241e+00 -3.37130358e-01 -1.85737241e+00 2.63314018e+01 2.86848352e+00 -3.37130358e-01 2.86848352e+00 3.12140659e+01
2.33781722e+01 -2.63904697e+00 -2.55236626e-01 -2.63904697e+00 2.16304590e+01 -2.50340219e+00 -2.55236626e-01 -2.50340219e+00 2.90906868e+01
3.22545013e+01 6.59592470e-01 -1.03819086e+01 6.59592470e-01 3.32809424e+01 3.77795078e+00 -1.03819086e+01 3.77795078e+00 5.22534571e+01
3.35027097e+01 -1.02912554e+00 3.48975897e+00 -1.02912554e+00 3.46015422e+01 -4.07481941e-01 3.48975897e+00 -4.07481941e-01 3.43154964e+01
2.68667091e+01 4.95347261e+00 -9.73191484e+00 4.95347261e+00 3.53399464e+01 -1.11185962e+00 -9.73191484e+00 -1.11185962e+00 4.44800464e+01
1.84072430e+01 3.36681235e+00 -5.48685551e-01 3.36681235e+00 8.33950710e+00 1.47050375e+00 -5.48685551e-01 1.47050375e+00 3.03725286e+01
4.39558239e+01 1.03069348e+01 -5.36161667e+00 1.03069348e+01 3.22762671e+01 -1.59274799e+00 -5.36161667e+00 -1.59274799e+00 6.07334394e+01
2.87680382e+00 -8.00392516e-01 2.01751230e-01 -8.00392516e-01 -8.57288629e+00 -1.19580065e+00 2.01751230e-01 -1.19580065e+00 -3.40298662e+01
2.75421512e+00 -8.19591343e-01 2.60406457e-01 -8.19591343e-01 -5.05377793e+00 -4.82400861e-02 2.60406457e-01 -4.82400861e-02 -3.14327641e+01
8.86874616e+00 -1.16791464e+00 1.32695300e+00 -1.16791464e+00 2.35468718e+00 4.22764029e-02 1.32695300e+00 4.22764029e-02 -1.65711379e+01
5.68749702e+00 -6.47246137e-01 2.51046062e-01 -6.47246137e-01 7.30864495e-01 -1.28856032e-01 2.51046062e-01 -1.28856032e-01 -2.25847453e+01
1.65607139e+01 -2.26193571e+00 -9.55003267e-01 -2.26193571e+00 1.13024424e+01 -2.16683866e+00 -9.55003267e-01 -2.16683866e+00 1.45363331e+00
1.84644898e+01 -1.02677541e+00 -7.96692781e-01 -1.02677541e+00 1.37238046e+01 2.86769950e+00 -7.96692781e-01 2.86769950e+00 7.21232438e+00
1.97557011e+01 -7.03785121e-02 5.61771953e-01 -7.03785121e-02 2.53521743e+01 -2.73040307e+00 5.61771953e-01 -2.73040307e+00 2.00600538e+01
2.82540722e+01 6.93602398e-01 -5.27953893e-01 6.93602398e-01 3.31580144e+01 -2.04397985e+00 -5.27953893e-01 -2.04397985e+00 3.35326765e+01
2.16449539e+01 1.33835735e+00 7.94526151e-01 1.33835735e+00 2.52958555e+01 -2.16960321e+00 7.94526151e-01 -2.16960321e+00 2.60668421e+01
1.41144009e+01 3.19210644e+00 3.34912221e-01 3.19210644e+00 1.08200091e+01 2.24833965e+00 3.34912221e-01 2.24833965e+00 4.20322102e+00
-1.07999499e+01 -7.70153260e+00 1.57964617e-01 -7.70153260e+00 -3.18030941e+01 1.45222947e+00 1.57964617e-01 1.45222947e+00 -1.51079292e+01
1.32987871e+01 2.48400545e+00 -7.52627701e-01 2.48400545e+00 1.90463134e+01 8.93829695e-01 -7.52627701e-01 8.93829695e-01 1.53715984e+01
7.47236013e-01 -5.90010428e+00 1.35408759e+00 -5.90010428e+00 -2.10089564e+01 -1.84776459e+00 1.35408759e+00 -1.84776459e+00 -5.06372428e+00
2.25521549e+00 -2.69850159e+00 -2.56451027e+00 -2.69850159e+00 8.99286290e+00 -7.61052305e-01 -2.56451027e+00 -7.61052305e-01 -3.09626148e+00
4.10571550e+00 -2.19823316e+00 1.11440561e+00 -2.19823316e+00 -5.01138273e+00 -4.23403710e-01 1.11440561e+00 -4.23403710e-01 -2.90925617e+01
1.67408037e+00 -1.53920940e+00 4.61961687e-01 -1.53920940e+00 -6.56252289e+00 -1.64085478e-02 4.61961687e-01 -1.64085478e-02 -3.40631431e+01
1.03655501e+01 -1.35810878e+00 8.33222274e-01 -1.35810878e+00 6.28226671e+00 2.70025712e-01 8.33222274e-01 2.70025712e-01 -1.12365754e+01
4.82029295e+00 -7.53982976e-01 -1.41848996e-03 -7.53982976e-01 -1.46479177e+00 7.88177446e-01 -1.41848996e-03 7.88177446e-01 -2.55221071e+01
1.57922187e+01 -2.22930927e+00 3.82744072e-01 -2.22930927e+00 1.02226924e+01 -2.57281831e+00 3.82744072e-01 -2.57281831e+00 -4.93252277e-02
9.87952024e+00 -2.32078484e+00 -7.23785963e-01 -2.32078484e+00 5.90621118e+00 2.66573949e+00 -7.23785963e-01 2.66573949e+00 -1.11432343e+01
1.52243930e+01 2.20565628e+00 2.82998904e+00 2.20565628e+00 1.39016718e+01 -1.63853909e+00 2.82998904e+00 -1.63853909e+00 1.88185120e+00
1.55337669e+01 -1.89093113e+00 -1.44931833e+00 -1.89093113e+00 1.32539438e+01 3.29896088e+00 -1.44931833e+00 3.29896088e+00 3.53997612e+00
1.35801552e+01 2.78558369e+00 -2.77836595e-01 2.78558369e+00 1.87305417e+01 -1.91132981e+00 -2.77836595e-01 -1.91132981e+00 2.00361090e+01
1.37174160e+01 3.07174805e+00 3.37247124e+00 3.07174805e+00 8.59160757e+00 -1.04330868e+00 3.37247124e+00 -1.04330868e+00 9.94503078e+00
-2.52347499e-01 7.50510335e-01 -3.49353764e-01 7.50510335e-01 2.55958939e+00 1.73220155e+00 -3.49353764e-01 1.73220155e+00 4.44488271e+00
3.38355815e+00 6.07566977e-01 -8.29337752e-01 6.07566977e-01 1.01647367e+00 -6.96393371e-01 -8.29337752e-01 -6.96393371e-01 2.65021515e-01
2.92992246e+00 4.22475219e-01 -1.35929269e+00 4.22475219e-01 -7.90916491e+00 3.48730266e-01 -1.35929269e+00 3.48730266e-01 -1.75436401e+00
9.69094316e-01 -1.15394525e+00 9.99141857e-01 -1.15394525e+00 -5.58499149e+00 -2.42517516e-01 9.99141857e-01 -2.42517516e-01 -2.21099337e-01
-2.26804800e+01 -2.88960110e+00 1.40308011e+00 -2.88960110e+00 -3.38312988e+01 -1.50871158e+00 1.40308011e+00 -1.50871158e+00 -8.95987473e+01
-2.02822914e+01 -1.30973041e+00 1.65753293e+00 -1.30973041e+00 -3.55597992e+01 -3.86981331e-02 1.65753293e+00 -3.86981331e-02 -8.84098587e+01
-1.02385633e+01 -1.60078941e+00 1.56913102e-02 -1.60078941e+00 -1.71747514e+01 -1.05092699e+00 1.56913102e-02 -1.05092699e+00 -5.89137611e+01
-2.09482088e+01 -1.54260921e+00 2.32062042e-01 -1.54260921e+00 -3.17728510e+01 9.60785657e-01 2.32062042e-01 9.60785657e-01 -8.59827499e+01
-3.24417167e+01 -6.93302679e+00 6.00533628e+00 -6.93302679e+00 -4.19947958e+01 -5.84431362e+00 6.00533628e+00 -5.84431362e+00 -1.07159924e+02
-1.73885955e+01 -4.48973734e+00 3.25784713e-01 -4.48973734e+00 -1.77307253e+01 2.18217999e-01 3.25784713e-01 2.18217999e-01 -6.70845776e+01
1.74848557e-01 1.98077917e-01 5.46884602e+00 1.98077917e-01 1.36635265e+01 -2.83333266e+00 5.46884602e+00 -2.83333266e+00 -1.35892258e+01
-3.91708031e+01 -9.61145945e+00 2.82308380e-01 -9.61145945e+00 -3.37780794e+01 1.28050286e+01 2.82308380e-01 1.28050286e+01 -1.03322649e+02
2.66114745e+01 3.50176364e+00 -1.25177845e+00 3.50176364e+00 3.62900233e+01 -6.07130122e+00 -1.25177845e+00 -6.07130122e+00 4.94552562e+01
-1.55203300e+01 -1.02208459e+01 2.16474444e+00 -1.02208459e+01 -1.53230944e+01 8.99687624e+00 2.16474444e+00 8.99687624e+00 -1.87808623e+01
-5.24377098e+00 -9.22599316e-01 1.30547333e+00 -9.22599316e-01 2.24316621e+00 1.78552592e+00 1.30547333e+00 1.78552592e+00 5.35448420e+00
-3.50611226e+00 -6.76541885e-01 6.52198901e-01 -6.76541885e-01 2.80711135e+00 -2.57372717e+00 6.52198901e-01 -2.57372717e+00 3.60361395e+00
-1.92619145e+00 2.50207973e+00 -5.95840693e-01 2.50207973e+00 -2.18546224e+00 5.50845265e-01 -5.95840693e-01 5.50845265e-01 -6.04065120e-01
-4.09227788e+00 3.26179892e-01 -1.96835995e-01 3.26179892e-01 6.77721739e-01 1.41078711e+00 -1.96835995e-01 1.41078711e+00 5.34972347e-01
-1.63288736e+00 3.23626166e-03 -2.00328827e-01 3.23626166e-03 1.15976191e+00 -3.84945989e-01 -2.00328827e-01 -3.84945989e-01 -3.03884697e+01
-2.26958454e-01 8.75317138e-02 4.29877341e-01 8.75317138e-02 1.51285368e+00 -3.94610777e-01 4.29877341e-01 -3.94610777e-01 -2.85418892e+01
2.80331215e+00 -1.74956072e-01 -3.90787846e-02 -1.74956072e-01 4.77963022e+00 2.18503905e-01 -3.90787846e-02 2.18503905e-01 -2.17081209e+01
-2.11275744e+00 7.60599226e-03 -2.49355644e-01 7.60599226e-03 8.50864142e-01 2.08254073e-01 -2.49355644e-01 2.08254073e-01 -3.12017922e+01
5.24813604e+00 -7.84313150e-01 4.57523540e-01 -7.84313150e-01 5.22111976e+00 3.25262301e-01 4.57523540e-01 3.25262301e-01 -1.86575084e+01
3.85667117e+00 -3.71141493e-01 -3.60752674e-01 -3.71141493e-01 4.97618745e+00 -7.79863626e-01 -3.60752674e-01 -7.79863626e-01 -2.02739695e+01
2.90089273e+00 -4.72349478e-02 -3.59412797e-01 -4.72349478e-02 2.64282203e+00 7.88263585e-02 -3.59412797e-01 7.88263585e-02 -2.39977567e+01
6.89598036e+00 -3.08871360e-01 -5.61090276e-01 -3.08871360e-01 6.31736261e+00 -4.16070567e-01 -5.61090276e-01 -4.16070567e-01 -1.56808211e+01
4.17093629e+00 -2.82871787e-01 7.06567587e-02 -2.82871787e-01 2.63922048e+00 -1.73056787e-01 7.06567587e-02 -1.73056787e-01 -2.26154810e+01
5.61209989e+00 -5.37751837e-01 -2.64778778e-01 -5.37751837e-01 5.37507272e+00 7.46081115e-01 -2.64778778e-01 7.46081115e-01 -1.80285408e+01
1.07962908e+01 -4.95142691e-01 2.98988558e-02 -4.95142691e-01 9.60876098e+00 5.57575688e-01 2.98988558e-02 5.57575688e-01 -7.86255121e+00
4.91448939e+00 -4.22664264e-01 -3.52166491e-02 -4.22664264e-01 3.91421250e+00 6.25799118e-01 -3.52166491e-02 6.25799118e-01 -2.04475716e+01
8.35595894e+00 4.13069978e-01 -2.89076135e-01 4.13069978e-01 9.22212696e+00 1.68405169e+00 -2.89076135e-01 1.68405169e+00 -1.07669358e+01
4.20151460e+00 2.60625541e-01 -1.00533262e+00 2.60625541e-01 3.49029207e+00 1.08009118e+00 -1.00533262e+00 1.08009118e+00 -2.15048692e+01
5.92053697e+00 -4.25478020e-01 2.53442097e-01 -4.25478020e-01 7.06081951e+00 -7.65288761e-01 2.53442097e-01 -7.65288761e-01 -1.58790157e+01
-1.33476718e+00 -5.06946884e-01 1.31647861e+00 -5.06946884e-01 9.35801327e-01 4.32401549e-02 1.31647861e+00 4.32401549e-02 -3.02052008e+01
-9.05629056e+00 -1.56835765e-01 -4.99702383e-01 -1.56835765e-01 -5.24009672e+00 -6.80152369e-02 -4.99702383e-01 -6.80152369e-02 -4.85788189e+01
-6.43896007e+01 -9.22262776e+00 1.87408346e+01 -9.22262776e+00 -6.55580684e+01 6.70288587e-01 1.87408346e+01 6.70288587e-01 -1.49182985e+02
-4.46246252e+01 -7.08234092e-01 6.88147418e-01 -7.08234092e-01 -4.02819090e+01 2.50955692e+00 6.88147418e-01 2.50955692e+00 -1.21640890e+02
-4.09191585e+01 -1.52159437e+00 2.57558060e+00 -1.52159437e+00 -3.39899228e+01 5.06942618e+00 2.57558060e+00 5.06942618e+00 -1.09601939e+02
-4.78163719e+01 -4.47319388e+00 2.32676226e+00 -4.47319388e+00 -3.70181980e+01 6.54937971e+00 2.32676226e+00 6.54937971e+00 -1.18939651e+02
1.44918003e+01 -4.76585208e-02 7.51285385e-01 -4.76585208e-02 1.58797269e+01 -9.42879731e-01 7.51285385e-01 -9.42879731e-01 2.67626727e+00
1.17479603e+01 -2.42569319e-01 9.66563039e-01 -2.42569319e-01 1.15139463e+01 8.56559929e-02 9.66563039e-01 8.56559929e-02 -4.73945332e+00
-3.71504243e+01 -2.08642418e+00 5.92042132e+00 -2.08642418e+00 -3.24258544e+01 1.32538212e+01 5.92042132e+00 1.32538212e+01 -8.80053055e+01
6.26045933e+01 6.50512683e+00 -1.52258787e+01 6.50512683e+00 6.18342514e+01 -6.84574485e+00 -1.52258787e+01 -6.84574485e+00 9.35259743e+01
1.55041739e+01 -4.57946803e-01 1.85572988e+00 -4.57946803e-01 1.36815280e+01 5.34333657e-01 1.85572988e+00 5.34333657e-01 2.55273274e+00
1.61748224e+01 8.50756496e-01 1.37816446e-01 8.50756496e-01 1.59872480e+01 4.65675844e-01 1.37816446e-01 4.65675844e-01 4.77895355e+00
3.20560885e+01 -1.55292461e+00 -4.42199511e-01 -1.55292461e+00 3.03898852e+01 -1.11118523e+00 -4.42199511e-01 -1.11118523e+00 3.43604568e+01
2.58896128e+01 -5.62166964e-01 -4.52893623e+00 -5.62166964e-01 2.73438714e+01 -1.65873667e-01 -4.52893623e+00 -1.65873667e-01 2.81363489e+01
1.77831765e+01 7.98178762e-02 1.73426416e-01 7.98178762e-02 1.48952231e+01 2.92975390e-02 1.73426416e-01 2.92975390e-02 5.51989126e+00
1.10668908e+01 -6.84635378e-01 4.81756438e-01 -6.84635378e-01 9.01402938e+00 4.11015358e-01 4.81756438e-01 4.11015358e-01 -8.14351797e+00
6.01953536e+00 -2.82860669e+00 8.99202337e-01 -2.82860669e+00 5.14568609e+00 2.50186623e+00 8.99202337e-01 2.50186623e+00 -1.54406684e+01
-2.24210238e+01 -2.05566174e+00 -1.10873818e-01 -2.05566174e+00 -2.03714688e+01 6.37016189e+00 -1.10873818e-01 6.37016189e+00 -7.86941310e+01
-3.15518290e+00 -9.21031117e-01 4.41120043e-02 -9.21031117e-01 -3.86180794e+00 -8.41887631e-02 4.41120043e-02 -8.41887631e-02 -3.76660924e+01
-5.60408163e+00 -6.47780031e-01 -3.05292070e-01 -6.47780031e-01 -8.94635010e+00 1.55189419e+00 -3.05292070e-01 1.55189419e+00 -4.55149593e+01
-1.31977911e+01 -4.43890207e-01 1.44376180e+00 -4.43890207e-01 -6.53168917e+00 -2.90848164e+00 1.44376180e+00 -2.90848164e+00 -5.06852512e+01
-9.13876648e+01 -4.37509680e+00 -6.72697639e+00 -4.37509680e+00 -8.58736076e+01 4.89819229e+00 -6.72697639e+00 4.89819229e+00 -2.21666428e+02
-2.26911649e-01 -5.98167628e-01 -2.75056854e-01 -5.98167628e-01 3.36980794e-01 2.70930432e-01 -2.75056854e-01 2.70930432e-01 -4.98456478e-01
-4.34883248e-01 -3.97415273e-02 -9.12078619e-02 -3.97415273e-02 -1.20962419e-01 -2.24268368e-01 -9.12078619e-02 -2.24268368e-01 1.67604424e-01
6.89149916e-01 -1.64668702e-01 -1.29523534e-01 -1.64668702e-01 -1.13899115e-01 5.72666466e-01 -1.29523534e-01 5.72666466e-01 -9.63561684e-01
3.67167056e-01 -7.23307729e-01 4.33373451e-02 -7.23307729e-01 -1.85877167e-01 -5.16129941e-01 4.33373451e-02 -5.16129941e-01 -5.69715694e-01
1.48492765e+00 4.04681545e-02 1.40177980e-01 4.04681545e-02 2.26056147e+00 -1.61022879e-04 1.40177980e-01 -1.61022879e-04 -2.59707003e+01
2.23795997e+00 4.68315311e-01 1.53448363e-02 4.68315311e-01 2.21715286e+00 2.68276237e-01 1.53448363e-02 2.68276237e-01 -2.51471974e+01
6.70768547e+00 -1.80068999e-01 1.09482687e-02 -1.80068999e-01 7.29622556e+00 4.50340861e-01 1.09482687e-02 4.50340861e-01 -1.48174915e+01
2.03128368e+00 1.83476081e-01 1.20508783e-01 1.83476081e-01 3.43195093e+00 -1.92809705e-01 1.20508783e-01 -1.92809705e-01 -2.40687460e+01
7.27760029e+00 -7.92413183e-01 1.62691824e-01 -7.92413183e-01 6.58175278e+00 -6.95697069e-02 1.62691824e-01 -6.95697069e-02 -1.49896445e+01
6.02283084e+00 -4.81508993e-01 8.28362186e-01 -4.81508993e-01 6.02774306e+00 8.89390499e-01 8.28362186e-01 8.89390499e-01 -1.67479757e+01
6.46006349e+00 1.25837350e-01 2.89115950e-01 1.25837350e-01 5.53968149e+00 6.43951416e-01 2.89115950e-01 6.43951416e-01 -1.69293113e+01
1.14281068e+01 -3.83410160e-02 5.32507738e-02 -3.83410160e-02 1.00380587e+01 -6.74682199e-02 5.32507738e-02 -6.74682199e-02 -6.78594793e+00
9.04875723e+00 8.29994539e-02 -1.90054077e-01 8.29994539e-02 7.16615143e+00 5.01711491e-01 -1.90054077e-01 5.01711491e-01 -1.23398595e+01
6.07249463e+00 -6.65774755e-03 -4.67814821e-01 -6.65774755e-03 4.00832689e+00 1.37165123e-01 -4.67814821e-01 1.37165123e-01 -1.90055295e+01
1.23318330e+01 -1.97926387e-01 -4.86486177e-02 -1.97926387e-01 1.08130749e+01 4.83523589e-02 -4.86486177e-02 4.83523589e-02 -4.88688800e+00
1.02001240e+01 6.54866460e-02 -3.08062784e-01 6.54866460e-02 7.64396155e+00 1.08228506e-01 -3.08062784e-01 1.08228506e-01 -1.06022637e+01
1.25017903e+01 -8.79356721e-02 -1.38986081e-01 -8.79356721e-02 1.18507762e+01 -2.46482402e-01 -1.38986081e-01 -2.46482402e-01 -3.53634834e+00
1.77587082e+01 3.64159187e-01 -4.27045548e-01 3.64159187e-01 1.57810616e+01 8.27137399e-02 -4.27045548e-01 8.27137399e-02 6.24376917e+00
2.40089369e+00 -7.40707600e-01 1.32196030e+00 -7.40707600e-01 4.65318865e+00 1.10758245e-02 1.32196030e+00 1.10758245e-02 -2.18774719e+01
3.81184888e+00 -1.05782198e+00 8.43167312e-01 -1.05782198e+00 7.05724138e+00 -2.50106726e-01 8.43167312e-01 -2.50106726e-01 -1.79228537e+01
1.78507351e+01 3.03389012e+00 4.35682692e+00 3.03389012e+00 1.63382925e+01 3.62718207e+00 4.35682692e+00 3.62718207e+00 -9.35459137e-02
-8.37446190e+01 -7.31970082e+00 -1.84291464e+01 -7.31970082e+00 -8.47590782e+01 -2.14571848e+00 -1.84291464e+01 -2.14571848e+00 -1.90951689e+02
-5.34368401e+01 -1.38755225e+00 -3.99694809e+00 -1.38755225e+00 -4.86640482e+01 1.06113715e+00 -3.99694809e+00 1.06113715e+00 -1.39974981e+02
-3.56702657e+01 -1.76207462e+00 -1.60974443e-01 -1.76207462e+00 -3.10448842e+01 1.59843104e+00 -1.60974443e-01 1.59843104e+00 -1.01911152e+02
-3.08388176e+01 -2.88485599e+00 -7.69082129e-01 -2.88485599e+00 -2.15601168e+01 3.59235674e-01 -7.69082129e-01 3.59235674e-01 -8.57671204e+01
3.63766507e+00 1.36407807e-01 2.63993201e+00 1.36407807e-01 6.15920336e+00 5.74318883e-01 2.63993201e+00 5.74318883e-01 -1.87125134e+01
1.29365118e+01 5.07928547e-02 1.09044762e+00 5.07928547e-02 1.38983612e+01 -2.26851866e-01 1.09044762e+00 -2.26851866e-01 -8.31918955e-01
-1.13561358e+02 -1.24759587e+01 8.95011717e+00 -1.24759587e+01 -1.03752931e+02 -1.58913062e+01 8.95011717e+00 -1.58913062e+01 -2.37076706e+02
2.48379989e+01 -6.28842158e-02 -2.45680664e+00 -6.28842158e-02 2.48728717e+01 2.06647720e-01 -2.45680664e+00 2.06647720e-01 2.29798202e+01
1.40934813e+01 -3.81349601e-01 1.19216088e+00 -3.81349601e-01 1.42908404e+01 6.62067171e-01 1.19216088e+00 6.62067171e-01 1.05884719e+00
-6.16426215e+01 2.09888518e+00 6.04910848e+00 2.09888518e+00 -5.77295063e+01 1.99219856e+01 6.04910848e+00 1.99219856e+01 -1.37376518e+02
1.63638740e+01 5.77364974e-02 8.52922534e-01 5.77364974e-02 1.69608419e+01 -3.25416442e-01 8.52922534e-01 -3.25416442e-01 5.98767257e+00
1.47820000e+01 -6.41416758e-02 7.22328844e-02 -6.41416758e-02 1.46626671e+01 2.54315764e-01 7.22328844e-02 2.54315764e-01 1.88867486e+00
2.36106420e+01 -2.47851031e+00 3.26876912e+00 -2.47851031e+00 2.61769524e+01 7.75360550e-02 3.26876912e+00 7.75360550e-02 1.92765410e+01
5.08164520e+01 -4.16889451e-02 1.22650156e+01 -4.16889451e-02 5.43110924e+01 2.29828143e+00 1.22650156e+01 2.29828143e+00 9.85259094e+01
-7.55238390e+01 9.14312792e+00 -2.82136852e+01 9.14312792e+00 -8.01256803e+01 -1.71637456e+00 -2.82136852e+01 -1.71637456e+00 -1.76559088e+02
1.23448874e+01 -2.96090864e-01 3.67346805e-01 -2.96090864e-01 1.09597633e+01 4.29673815e-01 3.67346805e-01 4.29673815e-01 -5.21948338e+00
4.44871998e+00 -4.32545215e-01 -3.06301832e-01 -4.32545215e-01 6.45722961e+00 7.61600181e-01 -3.06301832e-01 7.61600181e-01 -1.82102661e+01
</DataArray>
<DataArray type="Float32" Name="Logarithmic_strain_components" NumberOfComponents="9" format="ascii">
4.56655696e-02 -1.54614827e-06 1.36910455e-06 -1.54614827e-06 7.72427768e-02 -1.52465655e-05 1.36910455e-06 -1.52465655e-05 -1.03740901e-01
4.75844480e-02 2.94610648e-03 4.60389674e-06 2.94610648e-03 7.98010714e-02 -8.42611451e-04 4.60389674e-06 -8.42611451e-04 -1.08044337e-01
4.86519374e-02 7.68668554e-03 -5.11145988e-03 7.68668554e-03 7.22394437e-02 -2.79928464e-03 -5.11145988e-03 -2.79928464e-03 -1.02296460e-01
4.84304037e-02 2.73238553e-03 -3.46275268e-03 2.73238553e-03 7.06458576e-02 4.16204421e-06 -3.46275268e-03 4.16204421e-06 -1.00933731e-01
4.45876066e-02 4.38045845e-06 3.00222263e-03 4.38045845e-06 7.35524744e-02 -4.03861376e-03 3.00222263e-03 -4.03861376e-03 -9.95986946e-02
4.67813713e-02 9.74441136e-04 5.18499222e-03 9.74441136e-04 7.50564877e-02 -5.92611986e-03 5.18499222e-03 -5.92611986e-03 -1.03150064e-01
4.76583564e-02 4.05520538e-03 7.78256883e-04 4.05520538e-03 6.96739778e-02 -6.17862947e-03 7.78256883e-04 -6.17862947e-03 -9.92020685e-02
4.66234293e-02 1.06104423e-03 8.96135767e-04 1.06104423e-03 6.88020922e-02 -1.95944912e-03 8.96135767e-04 -1.95944912e-03 -9.77151990e-02
5.02374452e-02 1.21349428e-03 7.39402867e-06 1.21349428e-03 8.53715576e-02 -2.35993206e-03 7.39402867e-06 -2.35993206e-03 -1.15205251e-01
5.09399688e-02 1.13453986e-02 -7.48097070e-03 1.13453986e-02 7.75050409e-02 -1.20035053e-03 -7.48097070e-03 -1.20035053e-03 -1.09382316e-01
5.25043085e-02 2.31588882e-03 5.95816958e-03 2.31588882e-03 7.69572351e-02 -4.41543748e-03 5.95816958e-03 -4.41543748e-03 -1.09868556e-01
5.06950556e-02 4.61106779e-03 -2.29598030e-03 4.61106779e-03 7.36143431e-02 -1.23187245e-02 -2.29598030e-03 -1.23187245e-02 -1.05398392e-01
5.60704842e-02 4.62042028e-03 -1.34866568e-05 4.62042028e-03 9.04939994e-02 5.49310376e-03 -1.34866568e-05 5.49310376e-03 -1.24919955e-01
5.39555959e-02 7.30678590e-03 -1.25287743e-02 7.30678590e-03 8.45988430e-02 -4.65845817e-03 -1.25287743e-02 -4.65845817e-03 -1.18987421e-01
6.00185432e-02 -5.59636648e-03 3.96211923e-04 -5.59636648e-03 7.86574520e-02 -3.62746166e-03 3.96211923e-04 -3.62746166e-03 -1.17771460e-01
5.54837189e-02 -4.02410451e-03 1.74171373e-03 -4.02410451e-03 7.84908189e-02 -7.23943851e-03 1.74171373e-03 -7.23943851e-03 -1.13932212e-01
6.24376144e-02 -1.22650145e-02 2.34171139e-05 -1.22650145e-02 9.55830030e-02 3.84252809e-03 2.34171139e-05 3.84252809e-03 -1.35228604e-01
5.58842625e-02 -8.91600933e-03 -1.76483267e-02 -8.91600933e-03 9.26648844e-02 2.29474809e-03 -1.76483267e-02 2.29474809e-03 -1.28336854e-01
6.63776919e-02 -1.36867019e-02 3.41804296e-03 -1.36867019e-02 8.13029837e-02 -3.38282321e-03 3.41804296e-03 -3.38282321e-03 -1.25517607e-01
6.37242110e-02 -1.40829938e-02 2.35822343e-03 -1.40829938e-02 7.67403543e-02 2.52167002e-03 2.35822343e-03 2.52167002e-03 -1.18633521e-01
6.56107441e-02 -1.42279584e-02 5.67760289e-05 -1.42279584e-02 1.02659956e-01 5.83949243e-03 5.67760289e-05 5.83949243e-03 -1.43991329e-01
5.75507227e-02 -1.98033892e-02 -2.13093786e-02 -1.98033892e-02 9.59179811e-02 9.18596610e-03 -2.13093786e-02 9.18596610e-03 -1.31424315e-01
6.75147846e-02 -1.07193836e-02 6.07057684e-03 -1.07193836e-02 8.63592103e-02 4.78689733e-03 6.07057684e-03 4.78689733e-03 -1.30045850e-01
6.78795208e-02 -1.71226660e-02 7.35482364e-03 -1.71226660e-02 7.95580707e-02 2.41293139e-03 7.35482364e-03 2.41293139e-03 -1.24203361e-01
6.10139258e-02 -4.02416401e-02 -4.28155472e-05 -4.02416401e-02 1.17895484e-01 -3.33480584e-03 -4.28155472e-05 -3.33480584e-03 -1.55860588e-01
5.08469474e-02 -3.09285289e-02 -2.17431821e-02 -3.09285289e-02 1.14206109e-01 2.68764654e-02 -2.17431821e-02 2.68764654e-02 -1.44569568e-01
5.95667660e-02 -9.83658107e-03 -6.38290122e-03 -9.83658107e-03 1.03469215e-01 2.08053016e-03 -6.38290122e-03 2.08053016e-03 -1.40360437e-01
6.29554205e-02 -1.68583670e-02 2.75621656e-04 -1.68583670e-02 9.34246927e-02 1.37717996e-02 2.75621656e-04 1.37717996e-02 -1.33501545e-01
5.27800918e-02 1.08615581e-02 -4.54032002e-03 1.08615581e-02 5.25870342e-02 -3.99805920e-03 -4.54032002e-03 -3.99805920e-03 -8.93089045e-02
5.28154541e-02 2.28038838e-03 -5.80759626e-03 2.28038838e-03 5.20521402e-02 9.18861042e-06 -5.80759626e-03 9.18861042e-06 -8.87840651e-02
4.88527720e-02 7.68805679e-03 4.85932165e-03 7.68805679e-03 5.60567938e-02 -7.98078073e-03 4.85932165e-03 -7.98078073e-03 -8.88440851e-02
4.83922092e-02 3.50784650e-03 8.93931394e-03 3.50784650e-03 5.46927107e-02 -9.02917964e-04 8.93931394e-03 -9.02917964e-04 -8.71009436e-02
5.01734233e-02 1.93522838e-02 -9.53349168e-03 1.93522838e-02 5.33156050e-02 -8.23684898e-03 -9.53349168e-03 -8.23684898e-03 -8.80708005e-02
4.84908898e-02 1.14824914e-02 9.55486897e-03 1.14824914e-02 5.74111938e-02 -4.56890849e-03 9.55486897e-03 -4.56890849e-03 -9.03149461e-02
4.15453324e-02 1.27585392e-02 -1.20323920e-02 1.27585392e-02 5.31874308e-02 -6.54505182e-03 -1.20323920e-02 -6.54505182e-03 -7.92545117e-02
4.66467222e-02 -6.92533795e-05 3.31308642e-02 -6.92533795e-05 6.03200203e-02 8.29451518e-05 3.31308642e-02 8.29451518e-05 -9.06660355e-02
3.62210451e-02 -1.36337035e-02 -3.41637889e-02 -1.36337035e-02 5.74885020e-02 2.57929758e-03 -3.41637889e-02 2.57929758e-03 -7.84349293e-02
4.59943302e-02 -2.40371774e-02 3.36457007e-02 -2.40371774e-02 6.49007726e-02 9.71478517e-03 3.36457007e-02 9.71478517e-03 -9.22667980e-02
3.69169125e-02 -2.91629996e-02 -2.98296874e-02 -2.91629996e-02 5.11729647e-02 1.57056095e-02 -2.98296874e-02 1.57056095e-02 -7.22658923e-02
4.76403305e-02 -3.23808314e-02 4.50257237e-02 -3.23808314e-02 5.94549111e-02 3.03778273e-02 4.50257237e-02 3.03778273e-02 -8.71471701e-02
3.88286682e-02 -3.25748753e-02 -3.24317450e-02 -3.25748753e-02 5.40412664e-02 2.61777574e-02 -3.24317450e-02 2.61777574e-02 -7.70497397e-02
4.80410171e-02 -4.42402512e-02 4.20913274e-02 -4.42402512e-02 6.93557846e-02 3.90296634e-02 4.20913274e-02 3.90296634e-02 -9.72323492e-02
5.61065329e-02 5.86659194e-03 1.18483737e-03 5.86659194e-03 3.09651867e-02 -5.45842503e-03 1.18483737e-03 -5.45842503e-03 -7.39234388e-02
5.45242205e-02 3.29768762e-03 2.52981205e-03 3.29768762e-03 3.32107078e-02 -7.74629734e-06 2.52981205e-03 -7.74629734e-06 -7.38166645e-02
5.18585686e-02 3.65432422e-03 1.10905957e-02 3.65432422e-03 3.51347285e-02 -3.78052054e-03 1.10905957e-02 -3.78052054e-03 -7.36236097e-02
4.89914343e-02 1.91987003e-03 1.27764018e-02 1.91987003e-03 3.78162432e-02 -1.52031297e-03 1.27764018e-02 -1.52031297e-03 -7.30477814e-02
4.50501814e-02 9.57420218e-03 1.21232189e-03 9.57420218e-03 2.38025740e-02 -9.75958584e-03 1.21232189e-03 -9.75958584e-03 -5.74183743e-02
4.64121597e-02 5.89673588e-03 2.12062717e-02 5.89673588e-03 2.82126779e-02 9.84580634e-03 2.12062717e-02 9.84580634e-03 -6.32157014e-02
1.65973669e-02 4.28426341e-03 -2.75031326e-03 4.28426341e-03 1.15958834e-02 -6.79305010e-03 -2.75031326e-03 -6.79305010e-03 -1.94600034e-02
1.46111367e-02 -1.33194631e-03 2.14801019e-02 -1.33194631e-03 8.73207817e-03 6.24892147e-03 2.14801019e-02 6.24892147e-03 -1.22829241e-02
4.45469267e-03 -2.41932065e-02 -1.19247899e-02 -2.41932065e-02 3.19675092e-03 -9.00988715e-03 -1.19247899e-02 -9.00988715e-03 6.76014538e-04
-7.57185354e-04 -3.88390335e-02 4.53774830e-02 -3.88390335e-02 1.44919558e-02 8.49655078e-03 4.53774830e-02 8.49655078e-03 -5.08807768e-03
1.15839764e-04 -1.22129407e-02 -2.25671263e-02 -1.22129407e-02 -4.38114783e-04 2.16589387e-03 -2.25671263e-02 2.16589387e-03 8.13088411e-03
4.91085656e-04 -1.36536048e-02 3.33792853e-02 -1.36536048e-02 5.79377078e-03 -4.09571206e-03 3.33792853e-02 -4.09571206e-03 3.40577087e-03
6.93722488e-03 -1.11850407e-02 -3.27547221e-03 -1.11850407e-02 -8.16102186e-03 7.34064123e-03 -3.27547221e-03 7.34064123e-03 7.89928762e-03
5.48779056e-03 -6.13844115e-03 3.43913464e-02 -6.13844115e-03 1.72965415e-03 -6.53190364e-03 3.43913464e-02 -6.53190364e-03 1.40964286e-03
5.54926423e-02 -4.30721062e-03 2.63670192e-03 -4.30721062e-03 2.09395345e-02 -7.12575915e-03 2.63670192e-03 -7.12575915e-03 -6.46180455e-02
5.58250155e-02 -4.67639067e-03 3.51898547e-03 -4.67639067e-03 2.56604208e-02 7.84054646e-06 3.51898547e-03 7.84054646e-06 -6.88794143e-02
4.92786169e-02 -7.06983419e-03 1.40252288e-02 -7.06983419e-03 2.37922934e-02 -2.31595943e-04 1.40252288e-02 -2.31595943e-04 -6.12496794e-02
5.07683251e-02 -5.55063854e-03 3.99034901e-03 -5.55063854e-03 2.74153184e-02 1.97693519e-03 3.99034901e-03 1.97693519e-03 -6.58671670e-02
4.11985004e-02 -6.80085015e-03 -4.19196510e-03 -6.80085015e-03 1.18982709e-02 -1.18016354e-02 -4.19196510e-03 -1.18016354e-02 -4.41215159e-02
4.01761760e-02 -1.20259647e-02 5.61229649e-03 -1.20259647e-02 1.26701661e-02 1.20612758e-02 5.61229649e-03 1.20612758e-02 -4.33859965e-02
1.20631788e-02 -7.32030140e-03 -1.36980298e-03 -7.32030140e-03 4.30762826e-04 -8.80475156e-03 -1.36980298e-03 -8.80475156e-03 -8.36929790e-03
2.04092440e-02 -6.96249214e-03 -5.67041260e-03 -6.96249214e-03 2.23526950e-03 1.17567228e-02 -5.67041260e-03 1.17567228e-02 -1.70306122e-02
-1.08284436e-03 -1.65000970e-03 -1.05445997e-06 -1.65000970e-03 8.52115118e-04 -3.90289507e-04 -1.05445997e-06 -3.90289507e-04 1.17011251e-03
1.45659535e-03 2.16626100e-03 -1.99078598e-03 2.16626100e-03 1.53246183e-03 5.11811062e-03 -1.99078598e-03 5.11811062e-03 -2.07743224e-03
5.88966990e-03 -1.59379012e-02 4.28165440e-05 -1.59379012e-02 -1.03996988e-02 1.15084054e-04 4.28165440e-05 1.15084054e-04 5.48317053e-03
-5.59448769e-04 -1.00489715e-02 -5.02221786e-05 -1.00489715e-02 2.02024747e-03 3.64249645e-05 -5.02221786e-05 3.64249645e-05 -6.03963580e-04
5.53554710e-03 -1.94308400e-02 -2.37320515e-03 -1.94308400e-02 -9.42851521e-03 -1.17396004e-04 -2.37320515e-03 -1.17396004e-04 4.95433890e-03
-2.90823277e-03 -1.07914824e-02 -5.35003277e-03 -1.07914824e-02 6.86739141e-03 -5.91215430e-05 -5.35003277e-03 -5.91215430e-05 -3.16225411e-03
5.35590742e-02 -1.15395117e-02 7.57748890e-03 -1.15395117e-02 2.71157385e-02 -3.12634383e-03 7.57748890e-03 -3.12634383e-03 -6.81251176e-02
5.72532676e-02 -1.02556814e-02 1.73797429e-03 -1.02556814e-02 2.95657171e-02 9.00895429e-06 1.73797429e-03 9.00895429e-06 -7.34629072e-02
4.78233546e-02 -1.01519074e-02 1.09551323e-03 -1.01519074e-02 2.88197724e-02 5.69221174e-03 1.09551323e-03 5.69221174e-03 -6.42220741e-02
5.26524205e-02 -4.39948053e-03 -2.56122637e-03 -4.39948053e-03 2.98757856e-02 8.03706795e-03 -2.56122637e-03 8.03706795e-03 -6.96223900e-02
4.01646746e-02 -1.24281397e-02 3.56793113e-03 -1.24281397e-02 1.83728968e-02 -1.59976124e-02 3.56793113e-03 -1.59976124e-02 -4.89654997e-02
3.58829030e-02 -1.85936465e-02 -2.86606723e-03 -1.85936465e-02 2.76217023e-02 9.44642798e-03 -2.86606723e-03 9.44642798e-03 -5.23002665e-02
1.20310759e-02 -5.42279088e-03 4.47440613e-03 -5.42279088e-03 6.02515540e-03 -6.87593536e-03 4.47440613e-03 -6.87593536e-03 -1.32453437e-02
2.31274911e-02 -8.58650100e-03 -4.60094159e-03 -8.58650100e-03 1.53177159e-02 2.68414238e-02 -4.60094159e-03 2.68414238e-02 -3.12769148e-02
1.35917146e-03 2.20770356e-03 1.79125782e-05 2.20770356e-03 -1.54247358e-04 -2.42775339e-04 1.79125782e-05 -2.42775339e-04 -2.76578286e-04
3.67553020e-03 -1.92780479e-04 3.39724626e-04 -1.92780479e-04 -1.31607600e-03 6.13195615e-03 3.39724626e-04 6.13195615e-03 -1.44169665e-03
9.89224634e-06 1.10621804e-05 -2.05574752e-05 1.10621804e-05 6.59522220e-06 9.44632702e-05 -2.05574752e-05 9.44632702e-05 5.53239609e-05
6.34619926e-05 2.39853951e-05 -4.03937272e-05 2.39853951e-05 1.71162101e-06 -1.56530497e-05 -4.03937272e-05 -1.56530497e-05 -1.02291441e-05
9.69456014e-05 2.03499308e-05 -6.55715085e-05 2.03499308e-05 -1.63319462e-04 1.67094186e-05 -6.55715085e-05 1.67094186e-05 -1.52588282e-05
4.24931271e-05 -5.52068098e-05 4.70154770e-05 -5.52068098e-05 -1.14919923e-04 -1.09527855e-05 4.70154770e-05 -1.09527855e-05 1.36777556e-05
5.84749170e-02 -1.02884425e-02 1.34697970e-03 -1.02884425e-02 3.57221905e-02 -6.24051597e-03 1.34697970e-03 -6.24051597e-03 -8.18179436e-02
6.57253787e-02 -4.70705470e-03 6.97721262e-03 -4.70705470e-03 3.29991542e-02 2.68310105e-05 6.97721262e-03 2.68310105e-05 -8.55604932e-02
5.38011128e-02 -7.35959643e-03 -1.41519378e-03 -7.35959643e-03 3.52500156e-02 -5.10223099e-03 -1.41519378e-03 -5.10223099e-03 -7.63976257e-02
5.87067772e-02 -1.01938639e-02 -3.14390752e-03 -1.01938639e-02 3.75362858e-02 6.97509106e-03 -3.14390752e-03 6.97509106e-03 -8.35074559e-02
4.43686415e-02 -1.96758211e-02 1.91644020e-02 -1.96758211e-02 3.17059280e-02 -2.06748080e-02 1.91644020e-02 -2.06748080e-02 -6.65684659e-02
4.03225580e-02 -1.69682514e-02 7.83052144e-03 -1.69682514e-02 4.39792890e-02 3.36510572e-03 7.83052144e-03 3.36510572e-03 -7.23313708e-02
1.43096535e-02 -9.61989231e-03 1.71682732e-02 -9.61989231e-03 1.80745237e-02 -7.49961124e-03 1.71682732e-02 -7.49961124e-03 -2.69252751e-02
2.95015501e-02 -2.06041615e-02 8.74981408e-03 -2.06041615e-02 3.18982427e-02 3.68098530e-02 8.74981408e-03 3.68098530e-02 -5.33948193e-02
-1.23751239e-03 -3.20052887e-03 7.25388381e-05 -3.20052887e-03 1.28336801e-03 -6.74836076e-04 7.25388381e-05 -6.74836076e-04 1.19480598e-03
1.15343442e-03 -1.23096821e-02 2.56525353e-04 -1.23096821e-02 6.45697583e-05 1.57139272e-02 2.56525353e-04 1.57139272e-02 1.90692663e-05
-2.68890383e-04 -1.67726510e-04 8.48170930e-05 -1.67726510e-04 1.05223709e-04 1.10659235e-04 8.48170930e-05 1.10659235e-04 2.18773783e-04
-7.12105927e-05 -6.15362369e-05 2.77988808e-05 -6.15362369e-05 4.32321047e-05 -1.32656157e-04 2.77988808e-05 -1.32656157e-04 6.11749392e-05
-2.69848442e-05 1.20404271e-04 -2.85943024e-05 1.20404271e-04 -3.28852620e-05 2.68550612e-05 -2.85943024e-05 2.68550612e-05 2.65331983e-06
-8.57619161e-05 1.52677599e-05 -1.23505843e-05 1.52677599e-05 2.81940511e-05 6.17434780e-05 -1.23505843e-05 6.17434780e-05 2.39819956e-05
4.63684145e-02 3.85361864e-06 1.23994856e-03 3.85361864e-06 6.55218810e-02 -8.11764318e-03 1.23994856e-03 -8.11764318e-03 -9.45463702e-02
4.98000514e-02 -5.38149412e-04 8.42205947e-03 -5.38149412e-04 6.31633513e-02 -5.58510234e-03 8.42205947e-03 -5.58510234e-03 -9.54433400e-02
4.65277499e-02 -6.62257581e-03 4.90092800e-03 -6.62257581e-03 6.37300042e-02 -2.49327617e-03 4.90092800e-03 -2.49327617e-03 -9.27448478e-02
4.43280293e-02 -7.45992715e-04 3.10197705e-03 -7.45992715e-04 6.53432123e-02 -9.10051443e-04 3.10197705e-03 -9.10051443e-04 -9.26485565e-02
5.69796106e-02 -9.91475815e-03 5.24310186e-03 -9.91475815e-03 5.87798227e-02 -6.90628774e-04 5.24310186e-03 -6.90628774e-04 -9.73642319e-02
5.48941987e-02 -9.70883452e-03 1.01366450e-03 -9.70883452e-03 6.15047738e-02 -1.26274513e-02 1.01366450e-03 -1.26274513e-02 -9.78055354e-02
6.43363111e-02 -6.16506441e-07 -1.17197350e-03 -6.16506441e-07 5.81715805e-02 -7.24870758e-03 -1.17197350e-03 -7.24870758e-03 -1.03275372e-01
6.33320296e-02 -7.57290364e-03 1.69136003e-03 -7.57290364e-03 6.22259607e-02 -1.75075489e-04 1.69136003e-03 -1.75075489e-04 -1.04913062e-01
7.14085959e-02 -5.40620356e-03 1.31805639e-02 -5.40620356e-03 5.68513991e-02 -6.81715560e-03 1.31805639e-02 -6.81715560e-03 -1.08007310e-01
6.64023235e-02 -6.84615108e-03 2.82125862e-03 -6.84615108e-03 6.95380955e-02 9.26124101e-03 2.82125862e-03 9.26124101e-03 -1.14375256e-01
6.84603769e-02 -7.12528767e-03 1.48464460e-02 -7.12528767e-03 6.18969649e-02 3.07759867e-03 1.48464460e-02 3.07759867e-03 -1.09095542e-01
7.08778258e-02 -3.41026605e-03 1.35343288e-02 -3.41026605e-03 6.90159779e-02 5.94409322e-03 1.35343288e-02 5.94409322e-03 -1.17848999e-01
6.19440824e-02 1.18301515e-02 8.65385495e-03 1.18301515e-02 7.02069364e-02 9.11252433e-03 8.65385495e-03 9.11252433e-03 -1.10777456e-01
7.03068115e-02 1.50162214e-03 -1.55082718e-03 1.50162214e-03 7.08768051e-02 6.95227366e-03 -1.55082718e-03 6.95227366e-03 -1.19096072e-01
4.47166073e-02 -8.50517600e-03 9.73002962e-03 -8.50517600e-03 5.97748333e-02 -1.10203265e-02 9.73002962e-03 -1.10203265e-02 -8.77188072e-02
4.05099960e-02 -6.34081045e-03 2.08808382e-02 -6.34081045e-03 6.11845078e-02 -5.47059509e-03 2.08808382e-02 -5.47059509e-03 -8.57170690e-02
5.10242214e-02 -5.68584458e-03 1.95628288e-02 -5.68584458e-03 6.40607391e-02 -4.58192918e-03 1.95628288e-02 -4.58192918e-03 -9.86485811e-02
6.61795452e-02 -1.78633872e-02 5.47534062e-02 -1.78633872e-02 6.75013088e-02 -4.18586603e-03 5.47534062e-02 -4.18586603e-03 -1.15597710e-01
7.04590175e-02 -2.00239033e-03 1.48625174e-02 -2.00239033e-03 8.44128728e-02 1.78484667e-02 1.48625174e-02 1.78484667e-02 -1.34976462e-01
6.88577555e-02 -3.34036918e-03 2.93485331e-02 -3.34036918e-03 8.61898866e-02 3.63015782e-02 2.93485331e-02 3.63015782e-02 -1.34130131e-01
6.62407503e-02 -1.40420841e-02 1.54249291e-02 -1.40420841e-02 9.09219719e-02 3.19741908e-02 1.54249291e-02 3.19741908e-02 -1.35862872e-01
3.69726685e-02 -1.71913736e-03 2.89880633e-02 -1.71913736e-03 5.10542095e-02 -2.61240340e-03 2.89880633e-02 -2.61240340e-03 -7.30565768e-02
3.76936588e-02 -2.91522470e-03 2.04963218e-02 -2.91522470e-03 4.85281758e-02 -5.32645814e-03 2.04963218e-02 -5.32645814e-03 -7.19391610e-02
3.48874536e-02 -1.16107891e-02 3.90753504e-02 -1.16107891e-02 5.33786012e-02 4.62848457e-02 3.90753504e-02 4.62848457e-02 -7.45086999e-02
-1.68219758e-02 -4.42817276e-02 3.13393660e-02 -4.42817276e-02 1.02018509e-02 6.00941274e-02 3.13393660e-02 6.00941274e-02 2.96661081e-02
4.00858978e-02 -1.75016397e-03 1.86612627e-02 -1.75016397e-03 3.28635424e-02 1.37740191e-02 1.86612627e-02 1.37740191e-02 -6.00822191e-02
3.77372084e-02 5.92060608e-03 1.35777894e-02 5.92060608e-03 3.67451319e-02 1.02035245e-02 1.35777894e-02 1.02035245e-02 -6.19530771e-02
3.47034077e-02 -2.61214438e-02 2.28016268e-02 -2.61214438e-02 2.58940421e-02 3.02245001e-02 2.28016268e-02 3.02245001e-02 -4.93214189e-02
7.48214157e-03 -4.61473688e-03 -2.26449768e-02 -4.61473688e-03 2.03941840e-02 2.75877000e-02 -2.26449768e-02 2.75877000e-02 -1.59537562e-02
4.08283181e-02 -8.52011277e-03 2.78136384e-03 -8.52011277e-03 3.50043008e-02 7.90063576e-03 2.78136384e-03 7.90063576e-03 -6.28568726e-02
4.45723301e-02 -7.67744915e-03 -4.78814472e-04 -7.67744915e-03 3.35930679e-02 7.95097812e-03 -4.78814472e-04 7.95097812e-03 -6.55461196e-02
3.91749055e-02 -1.67920323e-02 -7.96052016e-04 -1.67920323e-02 4.33619113e-02 1.79447624e-02 -7.96052016e-04 1.79447624e-02 -6.92401878e-02
5.33224316e-02 2.10800907e-04 -2.55628004e-02 2.10800907e-04 5.64109720e-02 2.38689184e-02 -2.55628004e-02 2.38689184e-02 -9.77877174e-02
4.17646086e-02 -1.81604951e-03 -3.14277154e-03 -1.81604951e-03 4.71561160e-02 -3.46342218e-04 -3.14277154e-03 -3.46342218e-04 -7.56928660e-02
4.63354010e-02 9.65821004e-04 -4.28658305e-03 9.65821004e-04 4.17430736e-02 6.39323448e-03 -4.28658305e-03 6.39323448e-03 -7.49906413e-02
4.55782795e-02 -2.51377036e-03 2.43759865e-03 -2.51377036e-03 5.99023523e-02 -7.91702350e-03 2.43759865e-03 -7.91702350e-03 -8.93681925e-02
6.74602054e-02 -8.67180934e-04 -2.24320926e-02 -8.67180934e-04 7.38491714e-02 2.54376060e-02 -2.24320926e-02 2.54376060e-02 -1.26990903e-01
-4.39848424e-06 -2.89583268e-05 -1.54210825e-05 -2.89583268e-05 8.87492229e-06 9.10710696e-06 -1.54210825e-05 9.10710696e-06 -9.90192575e-06
-9.22382765e-06 -2.07250673e-06 -5.78637719e-06 -2.07250673e-06 -1.31578281e-06 -1.41364208e-05 -5.78637719e-06 -1.41364208e-05 5.14611838e-06
1.78325108e-05 -7.81362814e-06 -7.72844714e-06 -7.81362814e-06 -1.03427635e-06 2.43748941e-05 -7.72844714e-06 2.43748941e-05 -2.16082717e-05
1.14145346e-05 -3.45586086e-05 -3.48838512e-07 -3.45586086e-05 -2.73963082e-06 -2.75674356e-05 -3.48838512e-07 -2.75674356e-05 -1.34935681e-05
5.51692750e-02 8.49537037e-06 1.00430883e-02 8.49537037e-06 5.80319725e-02 -2.18029181e-03 1.00430883e-02 -2.18029181e-03 -9.55000296e-02
5.68997534e-02 3.09310376e-03 6.43153407e-03 3.09310376e-03 5.62606556e-02 3.13360730e-03 6.43153407e-03 3.13360730e-03 -9.54992324e-02
5.49739762e-02 -9.08286736e-03 1.19216436e-02 -9.08286736e-03 5.72278332e-02 4.31035768e-03 1.19216436e-02 4.31035768e-03 -9.41124689e-02
5.34828771e-02 2.14706926e-03 1.05578224e-02 2.14706926e-03 5.95889520e-02 -5.77680569e-03 1.05578224e-02 -5.77680569e-03 -9.54145584e-02
6.11089738e-02 -1.18903122e-02 9.97187989e-03 -1.18903122e-02 5.04872268e-02 4.73107750e-04 9.97187989e-03 4.73107750e-04 -9.36288778e-02
5.97433797e-02 -1.18916572e-02 1.28504292e-02 -1.18916572e-02 5.58664780e-02 5.77242322e-03 1.28504292e-02 5.77242322e-03 -9.70545085e-02
6.49565272e-02 1.12621841e-03 4.33193729e-03 1.12621841e-03 4.77720527e-02 6.45973995e-03 4.33193729e-03 6.45973995e-03 -9.45550799e-02
6.57124491e-02 -5.91953241e-03 -5.91053622e-03 -5.91953241e-03 5.45775476e-02 -4.72760657e-03 -5.91053622e-03 -4.72760657e-03 -1.00446935e-01
6.84156474e-02 2.84132874e-03 -5.49771590e-03 2.84132874e-03 4.54948805e-02 7.81838899e-05 -5.49771590e-03 7.81838899e-05 -9.54413209e-02
6.64295908e-02 1.02417939e-03 -8.99298684e-03 1.02417939e-03 6.15186719e-02 9.85040679e-05 -8.99298684e-03 9.85040679e-05 -1.07698129e-01
6.63800882e-02 3.06194059e-04 2.48132373e-03 3.06194059e-04 4.70111147e-02 -2.88872223e-03 2.48132373e-03 -2.88872223e-03 -9.48839784e-02
6.67169970e-02 -1.07964322e-03 3.64905602e-04 -1.07964322e-03 6.04478125e-02 3.56993255e-03 3.64905602e-04 3.56993255e-03 -1.06602668e-01
6.40516374e-02 -6.19553524e-04 1.61536672e-03 -6.19553524e-04 4.82133981e-02 -2.36576842e-03 1.61536672e-03 -2.36576842e-03 -9.38520394e-02
6.23465972e-02 -5.85386081e-03 -3.33614479e-03 -5.85386081e-03 6.18344545e-02 -2.04168037e-03 -3.33614479e-03 -2.04168037e-03 -1.03542157e-01
5.10473717e-02 -1.57650265e-02 3.19920084e-02 -1.57650265e-02 6.25717198e-02 2.07148565e-03 3.19920084e-02 2.07148565e-03 -9.50299753e-02
4.30798754e-02 -1.42128933e-02 2.36281098e-02 -1.42128933e-02 6.66637477e-02 -3.60621256e-03 2.36281098e-02 -3.60621256e-03 -9.18833427e-02
6.37070191e-02 -2.89700759e-04 2.46207123e-02 -2.89700759e-04 5.87120221e-02 -3.46204219e-03 2.46207123e-02 -3.46204219e-03 -1.05245912e-01
7.22402841e-02 -1.75634007e-02 -6.78430313e-02 -1.75634007e-02 6.54066633e-02 -1.35898665e-03 -6.78430313e-02 -1.35898665e-03 -1.22837859e-01
7.16965143e-02 -2.73356168e-03 -1.98972076e-02 -2.73356168e-03 8.23151395e-02 1.24516349e-02 -1.98972076e-02 1.24516349e-02 -1.35054674e-01
7.04720188e-02 -5.71479951e-03 -1.54458836e-03 -5.71479951e-03 7.95953497e-02 1.18273892e-02 -1.54458836e-03 1.18273892e-02 -1.29690921e-01
6.32283613e-02 -5.35816466e-03 -4.45196440e-03 -5.35816466e-03 8.38434175e-02 3.73975770e-03 -4.45196440e-03 3.73975770e-03 -1.26466356e-01
4.43291374e-02 -9.59537671e-03 4.48951625e-02 -9.59537671e-03 6.13607849e-02 2.38733486e-03 4.48951625e-02 2.38733486e-03 -8.82469692e-02
3.95037327e-02 3.07333813e-03 3.49805099e-02 3.07333813e-03 6.08726665e-02 4.20911121e-03 3.49805099e-02 4.20911121e-03 -8.31975155e-02
5.39233554e-02 -3.02503505e-02 5.84141053e-02 -3.02503505e-02 7.36619895e-02 -6.79460620e-02 5.84141053e-02 -6.79460620e-02 -1.09042637e-01
3.85300238e-02 -3.82758187e-03 1.65804498e-02 -3.82758187e-03 4.82601342e-02 2.92835222e-02 1.65804498e-02 2.92835222e-02 -7.09886593e-02
3.83670856e-02 -8.42354563e-03 2.83984851e-02 -8.42354563e-03 5.05735697e-02 8.61962466e-03 2.83984851e-02 8.61962466e-03 -7.38487132e-02
3.68170748e-02 9.63070555e-03 1.97623351e-02 9.63070555e-03 5.31826084e-02 8.48211898e-02 1.97623351e-02 8.48211898e-02 -7.80961905e-02
4.09233025e-02 2.97044609e-03 1.23068748e-02 2.97044609e-03 5.06399735e-02 1.02420361e-02 1.23068748e-02 1.02420361e-02 -7.52130309e-02
4.00345847e-02 6.25400513e-03 -3.64642171e-03 6.25400513e-03 5.06761102e-02 4.78544831e-03 -3.64642171e-03 4.78544831e-03 -7.59103764e-02
4.03444730e-02 -1.38609009e-02 -1.63494091e-02 -1.38609009e-02 6.47038110e-02 1.56161001e-02 -1.63494091e-02 1.56161001e-02 -8.74846141e-02
-6.45210408e-03 8.91324133e-02 -1.01250395e-01 8.91324133e-02 -2.62140911e-02 1.51508912e-01 -1.01250395e-01 1.51508912e-01 6.80756345e-02
7.17060616e-02 3.34634784e-02 -1.06028228e-01 3.34634784e-02 6.39215062e-02 -2.10205631e-02 -1.06028228e-01 -2.10205631e-02 -1.17076556e-01
4.55174884e-02 1.76402199e-02 5.55421726e-03 1.76402199e-02 5.58224032e-02 1.67069983e-02 5.55421726e-03 1.67069983e-02 -8.51667281e-02
4.18036561e-02 -4.33712197e-03 6.75170100e-03 -4.33712197e-03 5.67391440e-02 1.26489103e-02 6.75170100e-03 1.26489103e-02 -8.20368193e-02
</DataArray>
<DataArray type="Float32" Name="Plastic_strain_components" NumberOfComponents="9" format="ascii">
4.56065536e-02 -4.62125172e-07 3.99487590e-07 -4.62125172e-07 7.70979375e-02 -1.34274887e-06 3.99487590e-07 -1.34274887e-06 -1.03076138e-01
4.76610661e-02 2.93637498e-03 1.87351623e-06 2.93637498e-03 7.97723159e-02 -8.26116710e-04 1.87351623e-06 -8.26116710e-04 -1.07062861e-01
4.86438833e-02 7.67201628e-03 -5.10231918e-03 7.67201628e-03 7.21584689e-02 -2.78398284e-03 -5.10231918e-03 -2.78398284e-03 -1.01556288e-01
4.84320298e-02 2.72817386e-03 -3.44766746e-03 2.72817386e-03 7.05651343e-02 2.14065949e-06 -3.44766746e-03 2.14065949e-06 -1.00070685e-01
4.44767736e-02 4.85248074e-06 3.01889516e-03 4.85248074e-06 7.33594783e-02 -4.07331344e-03 3.01889516e-03 -4.07331344e-03 -9.90130268e-02
4.68056975e-02 9.69345143e-04 5.16961713e-03 9.69345143e-04 7.50001036e-02 -5.89718862e-03 5.16961713e-03 -5.89718862e-03 -1.02371302e-01
4.75990879e-02 4.04466485e-03 7.97120865e-04 4.04466485e-03 6.95479326e-02 -6.17240151e-03 7.97120865e-04 -6.17240151e-03 -9.85045396e-02
4.66384469e-02 1.05871211e-03 9.31251750e-04 1.05871211e-03 6.87654726e-02 -1.93731909e-03 9.31251750e-04 -1.93731909e-03 -9.70329829e-02
5.03950156e-02 1.20554643e-03 3.88755507e-06 1.20554643e-03 8.54052193e-02 -2.33013555e-03 3.88755507e-06 -2.33013555e-03 -1.14097677e-01
5.11219725e-02 1.13088969e-02 -7.46315147e-03 1.13088969e-02 7.75663052e-02 -1.17001563e-03 -7.46315147e-03 -1.17001563e-03 -1.08160838e-01
5.25096878e-02 2.31345365e-03 5.94382314e-03 2.31345365e-03 7.68790953e-02 -4.42736351e-03 5.94382314e-03 -4.42736351e-03 -1.08831739e-01
5.07599697e-02 4.60700606e-03 -2.22996529e-03 4.60700606e-03 7.36009059e-02 -1.22655032e-02 -2.22996529e-03 -1.22655032e-02 -1.04575133e-01
5.61831500e-02 4.58482234e-03 -5.31053229e-06 4.58482234e-03 9.04080719e-02 5.48505830e-03 -5.31053229e-06 5.48505830e-03 -1.23215511e-01
5.69688240e-02 8.00879684e-03 -1.32831344e-02 8.00879684e-03 8.99817385e-02 -5.03382087e-03 -1.32831344e-02 -5.03382087e-03 -1.24826057e-01
5.99612789e-02 -5.55805082e-03 4.66304889e-04 -5.55805082e-03 7.85362087e-02 -3.61359581e-03 4.66304889e-04 -3.61359581e-03 -1.16583310e-01
5.66432388e-02 -4.23673904e-03 2.14548025e-03 -4.23673904e-03 8.00840724e-02 -7.42713161e-03 2.14548025e-03 -7.42713161e-03 -1.15376372e-01
6.26760796e-02 -1.21530583e-02 3.08255703e-05 -1.21530583e-02 9.56259444e-02 3.84179316e-03 3.08255703e-05 3.84179316e-03 -1.33105561e-01
5.86020742e-02 -1.00675878e-02 -2.02596150e-02 -1.00675878e-02 9.97089129e-02 2.50802608e-03 -2.02596150e-02 2.50802608e-03 -1.34470291e-01
6.65024538e-02 -1.36268090e-02 3.44568084e-03 -1.36268090e-02 8.14282186e-02 -3.38768645e-03 3.44568084e-03 -3.38768645e-03 -1.24551751e-01
6.53789723e-02 -1.46609183e-02 1.94100267e-03 -1.46609183e-02 7.94212893e-02 2.63529015e-03 1.94100267e-03 2.63529015e-03 -1.22641660e-01
6.52283020e-02 -1.42860711e-02 3.00317774e-04 -1.42860711e-02 1.01687752e-01 5.62586170e-03 3.00317774e-04 5.62586170e-03 -1.40032470e-01
6.31174631e-02 -2.40571909e-02 -2.48640818e-02 -2.40571909e-02 1.07821051e-01 1.11361388e-02 -2.48640818e-02 1.11361388e-02 -1.46414224e-01
6.90349843e-02 -1.05628883e-02 5.69592172e-03 -1.05628883e-02 8.86325482e-02 4.91770310e-03 5.69592172e-03 4.91770310e-03 -1.33265255e-01
6.72022295e-02 -1.88305677e-02 8.67942104e-03 -1.88305677e-02 7.89331496e-02 2.64326637e-03 8.67942104e-03 2.64326637e-03 -1.22861317e-01
6.22345917e-02 -3.96373272e-02 -9.60628968e-05 -3.96373272e-02 1.18405685e-01 -3.34221707e-03 -9.60628968e-05 -3.34221707e-03 -1.51643813e-01
5.53496443e-02 -3.48255737e-02 -2.47806385e-02 -3.48255737e-02 1.25600226e-01 2.96682753e-02 -2.47806385e-02 2.96682753e-02 -1.53561264e-01
5.94307091e-02 -9.90821514e-03 -6.02062675e-03 -9.90821514e-03 1.02705851e-01 1.72303990e-03 -6.02062675e-03 1.72303990e-03 -1.35954589e-01
6.62524737e-02 -1.81677728e-02 5.27678523e-04 -1.81677728e-02 9.84920897e-02 1.47087991e-02 5.27678523e-04 1.47087991e-02 -1.39550639e-01
5.27252946e-02 1.08227597e-02 -4.51406860e-03 1.08227597e-02 5.25444793e-02 -3.98284255e-03 -4.51406860e-03 -3.98284255e-03 -8.85812920e-02
5.27138021e-02 2.27129436e-03 -5.78121888e-03 2.27129436e-03 5.19525893e-02 8.95337143e-06 -5.78121888e-03 8.95337143e-06 -8.81067850e-02
4.88063190e-02 7.66654435e-03 4.88356863e-03 7.66654435e-03 5.59996259e-02 -7.94811902e-03 4.88356863e-03 -7.94811902e-03 -8.81943675e-02
4.82330434e-02 3.49894201e-03 8.90933722e-03 3.49894201e-03 5.45282280e-02 -9.05771318e-04 8.90933722e-03 -9.05771318e-04 -8.65101591e-02
5.15712257e-02 1.98215824e-02 -9.25827329e-03 1.98215824e-02 5.46949496e-02 -8.05542897e-03 -9.25827329e-03 -8.05542897e-03 -8.96468945e-02
4.96175131e-02 1.13917697e-02 9.78168304e-03 1.13917697e-02 5.90830240e-02 -3.53172973e-03 9.78168304e-03 -3.53172973e-03 -9.17309141e-02
3.47705596e-02 1.10287552e-02 -8.68588737e-03 1.10287552e-02 3.80915405e-02 -5.64930553e-03 -8.68588737e-03 -5.64930553e-03 -5.81138497e-02
4.41332128e-02 1.80666352e-04 3.80972795e-02 1.80666352e-04 5.63786594e-02 1.90531346e-03 3.80972795e-02 1.90531346e-03 -8.38013033e-02
3.04733111e-02 -1.42239045e-02 -2.45655208e-02 -1.42239045e-02 3.48721356e-02 8.67733401e-04 -2.45655208e-02 8.67733401e-04 -5.08565591e-02
3.71161990e-02 -2.24195227e-02 3.93245063e-02 -2.24195227e-02 5.17296069e-02 9.26371344e-03 3.93245063e-02 9.26371344e-03 -7.03551067e-02
2.50123506e-02 -1.67551485e-02 -2.04919152e-02 -1.67551485e-02 1.71217925e-02 1.03341082e-02 -2.04919152e-02 1.03341082e-02 -2.74016419e-02
3.72392207e-02 -2.59578147e-02 4.67474200e-02 -2.59578147e-02 4.25353973e-02 2.65981707e-02 4.67474200e-02 2.65981707e-02 -6.10718414e-02
2.78992336e-02 -2.34177152e-02 -1.86900827e-02 -2.34177152e-02 1.49651587e-02 1.58924233e-02 -1.86900827e-02 1.58924233e-02 -2.73189554e-02
3.95098769e-02 -3.61782440e-02 4.04334900e-02 -3.61782440e-02 5.48110045e-02 3.38836722e-02 4.04334900e-02 3.38836722e-02 -7.39363357e-02
5.59911001e-02 5.82365657e-03 1.18175830e-03 5.82365657e-03 3.10434452e-02 -5.41871798e-03 1.18175830e-03 -5.41871798e-03 -7.30751976e-02
5.41809034e-02 3.27740901e-03 2.51751149e-03 3.27740901e-03 3.30081768e-02 -5.96982863e-06 2.51751149e-03 -5.96982863e-06 -7.32921064e-02
5.14914524e-02 3.69648894e-03 1.09496992e-02 3.69648894e-03 3.50649054e-02 -3.74056384e-03 1.09496992e-02 -3.74056384e-03 -7.26982309e-02
4.86795250e-02 1.91065311e-03 1.27037531e-02 1.91065311e-03 3.75695275e-02 -1.49136077e-03 1.27037531e-02 -1.49136077e-03 -7.25436006e-02
4.01295340e-02 7.69051950e-03 2.89611577e-04 7.69051950e-03 1.91883929e-02 -1.01861986e-02 2.89611577e-04 -1.01861986e-02 -4.83779553e-02
4.45700920e-02 5.84174663e-03 1.91567448e-02 5.84174663e-03 2.30430049e-02 5.97355620e-03 1.91567448e-02 5.97355620e-03 -5.58836542e-02
6.69780187e-03 -1.67581602e-05 -3.94120999e-03 -1.67581602e-05 -1.97659648e-03 -4.11951673e-03 -3.94120999e-03 -4.11951673e-03 1.94172096e-03
4.06950832e-03 1.20937615e-03 1.33498673e-03 1.20937615e-03 -7.75198103e-04 2.32791691e-03 1.33498673e-03 2.32791691e-03 4.63369590e-03
-3.08605136e-03 1.07485739e-03 -8.59332085e-03 1.07485739e-03 -5.66340998e-03 -3.80068717e-03 -8.59332085e-03 -3.80068717e-03 1.53465862e-02
-1.38576189e-03 -2.56767819e-02 2.00187669e-02 -2.56767819e-02 7.06811886e-03 6.02962309e-03 2.00187669e-02 6.02962309e-03 3.90912605e-04
-5.39002319e-03 8.24738519e-03 -4.60064949e-03 8.24738519e-03 -2.39829362e-03 -2.74956529e-03 -4.60064949e-03 -2.74956529e-03 1.42012571e-02
-3.34114364e-03 -5.78927109e-03 2.98186361e-03 -5.78927109e-03 2.49163853e-03 -3.04492532e-03 2.98186361e-03 -3.04492532e-03 7.21115827e-03
2.18817079e-03 9.21037188e-03 -9.31853754e-03 9.21037188e-03 -1.56103764e-02 2.26001069e-03 -9.31853754e-03 2.26001069e-03 1.89013779e-02
5.63449820e-03 -6.24495000e-03 2.89046350e-02 -6.24495000e-03 -2.04220787e-03 -5.57982491e-03 2.89046350e-02 -5.57982491e-03 9.28565860e-04
5.51979952e-02 -4.24780548e-03 2.61116272e-03 -4.24780548e-03 2.10120026e-02 -7.06497778e-03 2.61116272e-03 -7.06497778e-03 -6.37327619e-02
5.55025451e-02 -4.62341099e-03 3.49911256e-03 -4.62341099e-03 2.56124903e-02 1.10157271e-05 3.49911256e-03 1.10157271e-05 -6.79911375e-02
4.97509493e-02 -7.20361626e-03 1.43162662e-02 -7.20361626e-03 2.38494992e-02 -2.39688903e-04 1.43162662e-02 -2.39688903e-04 -6.18105084e-02
5.05272411e-02 -5.51796751e-03 3.97063114e-03 -5.51796751e-03 2.72993972e-02 1.98187356e-03 3.97063114e-03 1.98187356e-03 -6.53405208e-02
4.34542242e-02 -7.95498234e-03 -4.18731035e-03 -7.95498234e-03 1.14929969e-02 -1.19576813e-02 -4.18731035e-03 -1.19576813e-02 -4.63965777e-02
3.78671875e-02 -1.13947128e-02 3.75491988e-03 -1.13947128e-02 1.18522044e-02 1.28368789e-02 3.75491988e-03 1.28368789e-02 -4.08449760e-02
3.21509124e-03 -2.87188948e-03 -1.10340862e-03 -2.87188948e-03 1.07467012e-03 -7.69348512e-03 -1.10340862e-03 -7.69348512e-03 -1.18185452e-03
1.14062939e-02 -4.36668102e-03 -2.48493371e-03 -4.36668102e-03 -6.36841597e-04 5.06844605e-03 -2.48493371e-03 5.06844605e-03 -6.46246925e-03
-1.31126333e-03 -1.71563150e-03 -4.38600878e-05 -1.71563150e-03 5.34502331e-04 -2.81770890e-04 -4.38600878e-05 -2.81770890e-04 8.32425707e-04
1.24023683e-03 2.01104905e-03 -2.00629729e-03 2.01104905e-03 1.39112266e-03 5.00578388e-03 -2.00629729e-03 5.00578388e-03 -2.04933929e-03
6.25185855e-03 -1.57526676e-02 6.26328867e-04 -1.57526676e-02 -9.72144306e-03 -2.24388532e-06 6.26328867e-04 -2.24388532e-06 5.68680884e-03
-8.67182720e-04 -1.01064472e-02 -1.49387006e-03 -1.01064472e-02 1.70863526e-03 1.18936193e-04 -1.49387006e-03 1.18936193e-04 -3.03372594e-04
5.56718558e-03 -1.93145014e-02 -2.64099939e-03 -1.93145014e-02 -8.92827008e-03 -1.91329891e-05 -2.64099939e-03 -1.91329891e-05 5.18988119e-03
-2.75668446e-03 -1.05367537e-02 -4.81283801e-03 -1.05367537e-02 6.81256897e-03 -5.84677585e-05 -4.81283801e-03 -5.84677585e-05 -3.04305991e-03
5.32810930e-02 -1.14167936e-02 7.51902803e-03 -1.14167936e-02 2.70863101e-02 -3.11022892e-03 7.51902803e-03 -3.11022892e-03 -6.73682000e-02
5.71343973e-02 -1.01848664e-02 1.71726925e-03 -1.01848664e-02 2.96267476e-02 7.66496669e-06 1.71726925e-03 7.66496669e-06 -7.28033632e-02
4.75621037e-02 -1.01057687e-02 1.05576159e-03 -1.01057687e-02 2.86587691e-02 5.68898682e-03 1.05576159e-03 5.68898682e-03 -6.39946717e-02
5.24173146e-02 -4.35683562e-03 -2.56443460e-03 -4.35683562e-03 2.98041557e-02 7.99613423e-03 -2.56443460e-03 7.99613423e-03 -6.90222196e-02
4.21993732e-02 -1.38593965e-02 4.08774894e-03 -1.38593965e-02 1.93007926e-02 -1.62374135e-02 4.08774894e-03 -1.62374135e-02 -5.22212824e-02
3.07641514e-02 -1.64923944e-02 -2.69290128e-03 -1.64923944e-02 2.17645670e-02 6.75469740e-03 -2.69290128e-03 6.75469740e-03 -4.19214494e-02
3.34453769e-03 1.97147834e-04 2.28676340e-03 1.97147834e-04 1.89184761e-03 -5.35205286e-03 2.28676340e-03 -5.35205286e-03 -1.11077281e-03
2.39456700e-02 -9.30734002e-03 -3.64452562e-03 -9.30734002e-03 1.54971007e-02 2.55157519e-02 -3.64452562e-03 2.55157519e-02 -3.28476545e-02
7.52012379e-04 1.80679638e-03 -6.12004470e-05 1.80679638e-03 -5.89938703e-04 -4.46338766e-04 -6.12004470e-05 -4.46338766e-04 1.21151437e-04
3.59587313e-03 -2.65501556e-04 1.99732178e-04 -2.65501556e-04 -1.33611289e-03 6.24248175e-03 1.99732178e-04 6.24248175e-03 -1.73551186e-03
4.24933034e-05 -2.50104979e-05 -3.70853043e-06 -2.50104979e-05 -2.76600588e-05 1.16199126e-05 -3.70853043e-06 1.16199126e-05 -2.47564590e-05
7.50513209e-07 -5.11581320e-06 -5.31408683e-06 -5.11581320e-06 -4.02800781e-06 1.94153218e-05 -5.31408683e-06 1.94153218e-05 1.67489832e-06
0.00000000e+00 0.00000000e+00 0.00000000e+00 0.00000000e+00 0.00000000e+00 0.00000000e+00 0.00000000e+00 0.00000000e+00 0.00000000e+00
0.00000000e+00 0.00000000e+00 0.00000000e+00 0.00000000e+00 0.00000000e+00 0.00000000e+00 0.00000000e+00 0.00000000e+00 0.00000000e+00
5.87333478e-02 -1.01521858e-02 1.28815760e-03 -1.01521858e-02 3.62765547e-02 -6.16824394e-03 1.28815760e-03 -6.16824394e-03 -7.98039511e-02
6.61490932e-02 -4.65065334e-03 6.90502208e-03 -4.65065334e-03 3.37245762e-02 2.48729630e-05 6.90502208e-03 2.48729630e-05 -8.38047713e-02
5.41373715e-02 -7.32522761e-03 -1.42620481e-03 -7.32522761e-03 3.56897479e-02 -5.06600278e-03 -1.42620481e-03 -5.06600278e-03 -7.55022410e-02
5.90877812e-02 -1.01334741e-02 -3.16306468e-03 -1.01334741e-02 3.81497890e-02 6.95081335e-03 -3.16306468e-03 6.95081335e-03 -8.17456953e-02
4.64488044e-02 -2.03002505e-02 1.95822502e-02 -2.03002505e-02 3.34899239e-02 -2.06754236e-02 1.95822502e-02 -2.06754236e-02 -6.72430880e-02
4.26390748e-02 -1.76553102e-02 7.64508534e-03 -1.76553102e-02 4.69518611e-02 4.80961660e-03 7.64508534e-03 4.80961660e-03 -7.62497932e-02
8.82216287e-03 -6.59712835e-03 1.46671990e-02 -6.59712835e-03 1.42648001e-02 -6.72483537e-03 1.46671990e-02 -6.72483537e-03 -1.77702405e-02
3.20524050e-02 -2.12089295e-02 8.57927076e-03 -2.12089295e-02 3.35135137e-02 3.73528612e-02 8.57927076e-03 3.73528612e-02 -5.50626758e-02
-1.18937079e-03 -3.23549485e-03 1.74465332e-04 -3.23549485e-03 9.31625545e-04 -2.13084044e-04 1.74465332e-04 -2.13084044e-04 8.50014185e-05
1.23908883e-03 -1.18461335e-02 1.42830781e-04 -1.18461335e-02 1.80497125e-04 1.52253201e-02 1.42830781e-04 1.52253201e-02 3.51685354e-04
-1.32972418e-04 -1.23598657e-04 2.27000164e-05 -1.23598657e-04 6.16110920e-05 2.49792793e-05 2.27000164e-05 2.49792793e-05 9.66435691e-05
2.44794501e-05 -2.91675678e-05 -6.88923319e-06 -2.91675678e-05 -1.26827072e-05 -5.25541206e-06 -6.88923319e-06 -5.25541206e-06 -1.51347910e-05
0.00000000e+00 0.00000000e+00 0.00000000e+00 0.00000000e+00 0.00000000e+00 0.00000000e+00 0.00000000e+00 0.00000000e+00 0.00000000e+00
0.00000000e+00 0.00000000e+00 0.00000000e+00 0.00000000e+00 0.00000000e+00 0.00000000e+00 0.00000000e+00 0.00000000e+00 0.00000000e+00
4.63481024e-02 4.04077105e-06 1.25870272e-03 4.04077105e-06 6.54648170e-02 -8.10928643e-03 1.25870272e-03 -8.10928643e-03 -9.40682255e-02
4.96730013e-02 -5.37488639e-04 8.40984052e-03 -5.37488639e-04 6.30001081e-02 -5.56609486e-03 8.40984052e-03 -5.56609486e-03 -9.48349740e-02
4.63962895e-02 -6.61716396e-03 4.92693068e-03 -6.61716396e-03 6.35760007e-02 -2.52619322e-03 4.92693068e-03 -2.52619322e-03 -9.24875047e-02
4.42456668e-02 -7.45120866e-04 3.12474300e-03 -7.45120866e-04 6.51805345e-02 -9.38695695e-04 3.12474300e-03 -9.38695695e-04 -9.20039210e-02
5.68207428e-02 -9.88484221e-03 5.22902934e-03 -9.88484221e-03 5.86325936e-02 -7.24628393e-04 5.22902934e-03 -7.24628393e-04 -9.72470753e-02
5.46180219e-02 -9.69507283e-03 1.01767844e-03 -9.69507283e-03 6.12194100e-02 -1.26023979e-02 1.01767844e-03 -1.26023979e-02 -9.74003524e-02
6.42181104e-02 -3.44686168e-06 -1.15168380e-03 -3.44686168e-06 5.80875892e-02 -7.28632684e-03 -1.15168380e-03 -7.28632684e-03 -1.02997201e-01
5.74850847e-02 -6.53672248e-03 6.22210209e-04 -6.53672248e-03 5.61092661e-02 -1.00739230e-03 6.22210209e-04 -1.00739230e-03 -9.36734043e-02
7.11771566e-02 -5.39666950e-03 1.32181037e-02 -5.39666950e-03 5.66797154e-02 -6.84671573e-03 1.32181037e-02 -6.84671573e-03 -1.07602008e-01
6.74413163e-02 -7.07127576e-03 3.08558380e-03 -7.07127576e-03 7.06110555e-02 9.42974258e-03 3.08558380e-03 9.42974258e-03 -1.16727484e-01
6.82934383e-02 -7.11594406e-03 1.49348853e-02 -7.11594406e-03 6.17652955e-02 3.03008986e-03 1.49348853e-02 3.03008986e-03 -1.09435128e-01
7.04368185e-02 -3.36588445e-03 1.34361290e-02 -3.36588445e-03 6.85598860e-02 5.86343277e-03 1.34361290e-02 5.86343277e-03 -1.16974087e-01
6.18857816e-02 1.18440264e-02 8.70203925e-03 1.18440264e-02 7.01902583e-02 8.98069073e-03 8.70203925e-03 8.98069073e-03 -1.11148525e-01
6.96651228e-02 1.55571778e-03 -1.62208988e-03 1.55571778e-03 7.02108517e-02 6.81055943e-03 -1.62208988e-03 6.81055943e-03 -1.17645351e-01
4.54805368e-02 -8.62976187e-03 1.03053465e-02 -8.62976187e-03 6.08089706e-02 -1.09171326e-02 1.03053465e-02 -1.09171326e-02 -8.97487691e-02
4.04736800e-02 -6.32226921e-03 2.08856941e-02 -6.32226921e-03 6.11078255e-02 -5.49071329e-03 2.08856941e-02 -5.49071329e-03 -8.52459893e-02
5.06850971e-02 -5.65693318e-03 1.92202011e-02 -5.65693318e-03 6.33750691e-02 -5.02564785e-03 1.92202011e-02 -5.02564785e-03 -9.58473917e-02
6.95073083e-02 -1.77393283e-02 5.36679585e-02 -1.77393283e-02 7.08898135e-02 -3.62341651e-03 5.36679585e-02 -3.62341651e-03 -1.17464145e-01
7.07335137e-02 -1.81336910e-03 1.46785479e-02 -1.81336910e-03 8.45234171e-02 1.75894324e-02 1.46785479e-02 1.75894324e-02 -1.30367909e-01
6.98545445e-02 -3.23318035e-03 2.93111703e-02 -3.23318035e-03 8.70196465e-02 3.59810988e-02 2.93111703e-02 3.59810988e-02 -1.31668983e-01
6.73148558e-02 -1.38431005e-02 1.53490682e-02 -1.38431005e-02 9.17574205e-02 3.16207464e-02 1.53490682e-02 3.16207464e-02 -1.33514769e-01
3.44778916e-02 -1.68243075e-03 2.81919625e-02 -1.68243075e-03 4.73474683e-02 -1.96256970e-03 2.81919625e-02 -1.96256970e-03 -6.76812790e-02
3.74957426e-02 -2.90416431e-03 2.05241970e-02 -2.90416431e-03 4.83557880e-02 -5.34502498e-03 2.05241970e-02 -5.34502498e-03 -7.21079819e-02
3.75128497e-02 -1.14863728e-02 4.09306462e-02 -1.14863728e-02 5.76588307e-02 4.76956993e-02 4.09306462e-02 4.76956993e-02 -7.94004245e-02
-1.65309072e-02 -4.65715164e-02 3.64328548e-02 -4.65715164e-02 7.22637039e-03 5.82488310e-02 3.64328548e-02 5.82488310e-02 1.81044517e-02
3.39474465e-02 8.86411290e-05 1.36962297e-02 8.86411290e-05 2.73319789e-02 1.02234930e-02 1.36962297e-02 1.02234930e-02 -4.92733927e-02
3.74115594e-02 5.87695593e-03 1.35994374e-02 5.87695593e-03 3.64221614e-02 1.01970700e-02 1.35994374e-02 1.01970700e-02 -6.20983904e-02
3.15250878e-02 -2.32366168e-02 2.39010386e-02 -2.32366168e-02 2.13343251e-02 1.98286253e-02 2.39010386e-02 1.98286253e-02 -4.24017124e-02
1.11445636e-02 -8.22954330e-03 -3.70804512e-02 -8.22954330e-03 1.63685642e-02 2.73746128e-04 -3.70804512e-02 2.73746128e-04 -1.81774547e-02
4.03390320e-02 -8.46958503e-03 2.78733560e-03 -8.46958503e-03 3.44836155e-02 7.91487919e-03 2.78733560e-03 7.91487919e-03 -6.27236404e-02
4.42635361e-02 -7.64382177e-03 -4.99436399e-04 -7.64382177e-03 3.33448872e-02 7.92824873e-03 -4.99436399e-04 7.92824873e-03 -6.52723126e-02
3.45950807e-02 -1.62235719e-02 5.98099839e-04 -1.62235719e-02 3.73192576e-02 1.74511199e-02 5.98099839e-04 1.74511199e-02 -5.81345698e-02
5.71921589e-02 1.65955513e-04 -2.30940536e-02 1.65955513e-04 6.24437341e-02 3.11383815e-02 -2.30940536e-02 3.11383815e-02 -1.03357952e-01
4.19593044e-02 -1.81918965e-03 -3.16730520e-03 -1.81918965e-03 4.74305889e-02 -3.22908629e-04 -3.16730520e-03 -3.22908629e-04 -7.53353778e-02
4.65595759e-02 9.83522768e-04 -4.33297688e-03 9.83522768e-04 4.20185216e-02 6.35526376e-03 -4.33297688e-03 6.35526376e-03 -7.45635554e-02
3.68893845e-02 7.13863192e-04 1.70032261e-03 7.13863192e-04 5.09187602e-02 -5.83678845e-03 1.70032261e-03 -5.83678845e-03 -7.10687041e-02
7.40828179e-02 -2.23848957e-03 -2.20531002e-02 -2.23848957e-03 8.04160461e-02 2.40313173e-02 -2.20531002e-02 2.40313173e-02 -1.31666798e-01
0.00000000e+00 0.00000000e+00 0.00000000e+00 0.00000000e+00 0.00000000e+00 0.00000000e+00 0.00000000e+00 0.00000000e+00 0.00000000e+00
0.00000000e+00 0.00000000e+00 0.00000000e+00 0.00000000e+00 0.00000000e+00 0.00000000e+00 0.00000000e+00 0.00000000e+00 0.00000000e+00
0.00000000e+00 0.00000000e+00 0.00000000e+00 0.00000000e+00 0.00000000e+00 0.00000000e+00 0.00000000e+00 0.00000000e+00 0.00000000e+00
0.00000000e+00 0.00000000e+00 0.00000000e+00 0.00000000e+00 0.00000000e+00 0.00000000e+00 0.00000000e+00 0.00000000e+00 0.00000000e+00
5.51762376e-02 8.91494483e-06 1.00890519e-02 8.91494483e-06 5.80184218e-02 -2.19027163e-03 1.00890519e-02 -2.19027163e-03 -9.53215212e-02
5.66767696e-02 3.07424302e-03 6.43891736e-03 3.07424302e-03 5.60399601e-02 3.13509197e-03 6.43891736e-03 3.13509197e-03 -9.49064568e-02
5.48669919e-02 -9.09385405e-03 1.20001201e-02 -9.09385405e-03 5.71019286e-02 4.28157172e-03 1.20001201e-02 4.28157172e-03 -9.42108948e-02
5.32528628e-02 2.15160713e-03 1.05423128e-02 2.15160713e-03 5.92920426e-02 -5.77500183e-03 1.05423128e-02 -5.77500183e-03 -9.47478861e-02
6.08679457e-02 -1.18545985e-02 9.98707907e-03 -1.18545985e-02 5.02521368e-02 4.59840434e-04 9.98707907e-03 4.59840434e-04 -9.35107805e-02
5.95100792e-02 -1.18816746e-02 1.28317115e-02 -1.18816746e-02 5.56450118e-02 5.75971252e-03 1.28317115e-02 5.75971252e-03 -9.68282251e-02
6.48197271e-02 1.11652765e-03 4.33075277e-03 1.11652765e-03 4.76233298e-02 6.42293185e-03 4.33075277e-03 6.42293185e-03 -9.45998318e-02
5.99119151e-02 -5.44645049e-03 -4.65662451e-03 -5.44645049e-03 4.87587848e-02 -4.68206216e-03 -4.65662451e-03 -4.68206216e-03 -8.96578757e-02
6.79930262e-02 2.83156219e-03 -5.47708909e-03 2.83156219e-03 4.51428974e-02 3.59061232e-05 -5.47708909e-03 3.59061232e-05 -9.51425955e-02
6.81148833e-02 8.19071312e-04 -9.53970733e-03 8.19071312e-04 6.32242719e-02 9.07491485e-05 -9.53970733e-03 9.07491485e-05 -1.11253097e-01
6.58564828e-02 3.13012963e-04 2.50455883e-03 3.13012963e-04 4.65698736e-02 -2.90179485e-03 2.50455883e-03 -2.90179485e-03 -9.45933983e-02
6.61178296e-02 -1.04771658e-03 4.62440745e-04 -1.04771658e-03 5.98771991e-02 3.56084130e-03 4.62440745e-04 3.56084130e-03 -1.06015303e-01
6.35525528e-02 -6.22205465e-04 1.64573395e-03 -6.22205465e-04 4.77602407e-02 -2.32570944e-03 1.64573395e-03 -2.32570944e-03 -9.36252922e-02
6.16770303e-02 -5.83680107e-03 -3.30834568e-03 -5.83680107e-03 6.11625724e-02 -2.06760588e-03 -3.30834568e-03 -2.06760588e-03 -1.03389574e-01
5.05117173e-02 -1.57089095e-02 3.17760687e-02 -1.57089095e-02 6.18877648e-02 2.09822948e-03 3.17760687e-02 2.09822948e-03 -9.39568989e-02
4.30146744e-02 -1.41846901e-02 2.37442856e-02 -1.41846901e-02 6.65722862e-02 -3.60995467e-03 2.37442856e-02 -3.60995467e-03 -9.19770002e-02
6.44265121e-02 -3.83840475e-04 2.43259065e-02 -3.83840475e-04 5.93754356e-02 -3.55769614e-03 2.43259065e-02 -3.55769614e-03 -1.04958751e-01
7.66248360e-02 -1.75633481e-02 -6.67945096e-02 -1.75633481e-02 7.00287122e-02 -1.09964823e-03 -6.67945096e-02 -1.09964823e-03 -1.21953745e-01
7.18931165e-02 -2.53921957e-03 -1.93101347e-02 -2.53921957e-03 8.24033208e-02 1.24516907e-02 -1.93101347e-02 1.24516907e-02 -1.29475040e-01
7.18344748e-02 -5.68103351e-03 -1.56042539e-03 -5.68103351e-03 8.09282381e-02 1.18318233e-02 -1.56042539e-03 1.18318233e-02 -1.28649432e-01
6.41428698e-02 -5.26680984e-03 -4.40770655e-03 -5.26680984e-03 8.46232995e-02 3.72882769e-03 -4.40770655e-03 3.72882769e-03 -1.25183325e-01
4.62663631e-02 -9.75713900e-03 4.66252549e-02 -9.75713900e-03 6.36820548e-02 3.19468702e-03 4.66252549e-02 3.19468702e-03 -9.25400906e-02
3.85600645e-02 3.17370554e-03 3.43621513e-02 3.17370554e-03 5.99167366e-02 3.80374538e-03 3.43621513e-02 3.80374538e-03 -8.22167434e-02
5.41584536e-02 -3.00930925e-02 6.03485415e-02 -3.00930925e-02 7.43255112e-02 -6.86579500e-02 6.03485415e-02 -6.86579500e-02 -1.04426811e-01
3.40704261e-02 -3.60436969e-03 1.21005541e-02 -3.60436969e-03 4.32138415e-02 2.68721072e-02 1.21005541e-02 2.68721072e-02 -6.31275044e-02
4.07278780e-02 -8.79383436e-03 3.12632717e-02 -8.79383436e-03 5.31598423e-02 1.02256243e-02 3.12632717e-02 1.02256243e-02 -7.94716459e-02
3.99002931e-02 8.27451277e-03 1.87301345e-02 8.27451277e-03 5.66329062e-02 8.88643423e-02 1.87301345e-02 8.88643423e-02 -7.84677528e-02
2.21091600e-02 4.30539760e-04 1.49853516e-02 4.30539760e-04 2.81280533e-02 6.40958489e-04 1.49853516e-02 6.40958489e-04 -3.52445580e-02
4.23627663e-02 7.06937222e-03 -3.79192550e-03 7.06937222e-03 5.30581642e-02 5.96313935e-03 -3.79192550e-03 5.96313935e-03 -8.11020862e-02
2.68497072e-02 -9.45339658e-03 -6.90497541e-03 -9.45339658e-03 4.10775374e-02 2.47668057e-02 -6.90497541e-03 2.47668057e-02 -5.09924261e-02
-1.47998985e-02 8.98921341e-02 -8.91051739e-02 8.98921341e-02 -3.02822087e-02 1.73405364e-01 -8.91051739e-02 1.73405364e-01 5.64580336e-02
8.44363645e-02 3.11868756e-02 -1.15147594e-01 3.11868756e-02 8.27951251e-02 -2.78699541e-02 -1.15147594e-01 -2.78699541e-02 -1.43446331e-01
5.56259518e-02 1.92352750e-02 4.03207366e-03 1.92352750e-02 6.80986140e-02 2.20991471e-02 4.03207366e-03 2.20991471e-02 -1.07638521e-01
4.00504787e-02 -4.76338016e-03 6.88636815e-03 -4.76338016e-03 5.49978763e-02 1.19245276e-02 6.88636815e-03 1.19245276e-02 -7.94625506e-02
</DataArray>
<DataArray type="Float32" Name="Spatial_displacement" NumberOfComponents="3" format="ascii">
0.00000000e+00 0.00000000e+00 0.00000000e+00
4.68116850e-02 0.00000000e+00 0.00000000e+00
4.99062911e-02 8.33247751e-02 0.00000000e+00
0.00000000e+00 8.03907290e-02 0.00000000e+00
0.00000000e+00 0.00000000e+00 -9.84549522e-02
4.59258631e-02 0.00000000e+00 -1.02161929e-01
4.69369218e-02 7.77916834e-02 -9.74664688e-02
0.00000000e+00 7.66540095e-02 -9.57221538e-02
9.79696438e-02 0.00000000e+00 0.00000000e+00
9.92490202e-02 8.93239006e-02 0.00000000e+00
9.54840779e-02 0.00000000e+00 -1.08615905e-01
9.79316458e-02 8.11853334e-02 -1.03253514e-01
1.50250137e-01 0.00000000e+00 0.00000000e+00
1.55161649e-01 9.78150889e-02 0.00000000e+00
1.56109378e-01 0.00000000e+00 -1.14332840e-01
1.50167704e-01 8.40883330e-02 -1.13960937e-01
2.19536558e-01 0.00000000e+00 0.00000000e+00
2.06486315e-01 1.03944667e-01 0.00000000e+00
2.23668963e-01 0.00000000e+00 -1.22891992e-01
2.09032819e-01 8.44168589e-02 -1.19839773e-01
2.86222041e-01 0.00000000e+00 0.00000000e+00
2.70986289e-01 1.11162826e-01 0.00000000e+00
2.92551577e-01 0.00000000e+00 -1.31136268e-01
2.81082481e-01 8.74372125e-02 -1.25826582e-01
3.60995591e-01 0.00000000e+00 0.00000000e+00
3.18048298e-01 1.37725621e-01 0.00000000e+00
3.57548714e-01 0.00000000e+00 -1.32180497e-01
3.46974552e-01 1.12642199e-01 -1.37889192e-01
5.42240888e-02 1.49369717e-01 0.00000000e+00
0.00000000e+00 1.46967426e-01 0.00000000e+00
4.99709994e-02 1.44547552e-01 -8.57678056e-02
0.00000000e+00 1.40834004e-01 -8.49599391e-02
1.07761040e-01 1.61882952e-01 0.00000000e+00
9.89700407e-02 1.51724264e-01 -8.71536583e-02
1.51449800e-01 1.72818393e-01 0.00000000e+00
1.44561738e-01 1.60107777e-01 -7.85309076e-02
1.87873289e-01 1.95032865e-01 0.00000000e+00
1.90776363e-01 1.58876047e-01 -8.15160424e-02
2.11946875e-01 1.95585027e-01 0.00000000e+00
2.28661656e-01 1.63963407e-01 -7.67191201e-02
2.46527582e-01 2.34463811e-01 0.00000000e+00
2.74224997e-01 1.99831620e-01 -7.63353556e-02
5.78666255e-02 1.90667287e-01 0.00000000e+00
0.00000000e+00 1.87256858e-01 0.00000000e+00
5.20807356e-02 1.91877380e-01 -7.07250386e-02
0.00000000e+00 1.89883694e-01 -6.93294108e-02
1.16452336e-01 1.93226933e-01 0.00000000e+00
1.06236450e-01 1.94424972e-01 -5.63387126e-02
1.48875475e-01 2.02162832e-01 0.00000000e+00
1.41990840e-01 1.99360788e-01 -1.62982047e-02
1.55779436e-01 2.09154919e-01 0.00000000e+00
1.46835580e-01 1.97404921e-01 6.58226013e-03
1.72189862e-01 2.01258734e-01 0.00000000e+00
1.74367160e-01 1.78743526e-01 1.58802867e-02
1.74718753e-01 2.42587939e-01 0.00000000e+00
1.81924626e-01 2.39409089e-01 4.98685241e-03
6.04928583e-02 2.13346899e-01 0.00000000e+00
0.00000000e+00 2.18145415e-01 0.00000000e+00
5.29364645e-02 2.16043994e-01 -6.16432577e-02
0.00000000e+00 2.21761703e-01 -6.34844452e-02
1.15928203e-01 2.08933488e-01 0.00000000e+00
1.03634186e-01 2.04726085e-01 -4.34697419e-02
1.43891290e-01 2.01970503e-01 0.00000000e+00
1.34997919e-01 2.00644836e-01 -8.21149349e-03
1.40432507e-01 2.07897037e-01 0.00000000e+00
1.40052274e-01 2.07892314e-01 -3.93390656e-05
1.40348539e-01 2.10940719e-01 0.00000000e+00
1.40405864e-01 2.09240079e-01 0.00000000e+00
1.40471771e-01 2.10973144e-01 -2.73525715e-04
1.40469030e-01 2.09176764e-01 1.75535679e-05
5.83185703e-02 2.34811679e-01 0.00000000e+00
0.00000000e+00 2.45370671e-01 0.00000000e+00
5.49610853e-02 2.42635578e-01 -6.39346838e-02
0.00000000e+00 2.47170925e-01 -7.14572668e-02
1.13906570e-01 2.16445714e-01 0.00000000e+00
9.72584635e-02 2.20170617e-01 -5.02908975e-02
1.35135472e-01 2.03226656e-01 0.00000000e+00
1.28203705e-01 2.07723737e-01 -1.26703680e-02
1.39055207e-01 2.07987860e-01 0.00000000e+00
1.38815805e-01 2.08002448e-01 2.43902206e-04
1.38900623e-01 2.09346086e-01 0.00000000e+00
1.38995379e-01 2.09325671e-01 2.86698341e-05
1.39019713e-01 2.10700199e-01 0.00000000e+00
1.39036417e-01 2.10635036e-01 7.95722008e-06
6.58841282e-02 2.72000432e-01 0.00000000e+00
0.00000000e+00 2.76848078e-01 0.00000000e+00
5.92476055e-02 2.73480773e-01 -7.75815099e-02
0.00000000e+00 2.84078181e-01 -8.40404779e-02
1.22468680e-01 2.40715563e-01 0.00000000e+00
1.00707561e-01 2.60728121e-01 -7.17518330e-02
1.41530424e-01 2.14967191e-01 0.00000000e+00
1.33890420e-01 2.32394516e-01 -3.27721834e-02
1.38722852e-01 2.08623603e-01 0.00000000e+00
1.38054058e-01 2.08652690e-01 5.37067652e-04
1.37715772e-01 2.09199026e-01 0.00000000e+00
1.37826413e-01 2.09284410e-01 -3.34382057e-05
1.37680471e-01 2.10658491e-01 0.00000000e+00
1.37706861e-01 2.10629761e-01 -4.88758087e-06
0.00000000e+00 0.00000000e+00 -1.88956931e-01
4.61608544e-02 0.00000000e+00 -1.96361870e-01
4.55765426e-02 6.56104907e-02 -1.88669100e-01
0.00000000e+00 6.64026067e-02 -1.87825620e-01
1.02910995e-01 0.00000000e+00 -2.05790251e-01
9.24347341e-02 5.87435812e-02 -2.01014489e-01
1.59584954e-01 0.00000000e+00 -2.17792064e-01
1.59579694e-01 5.83745837e-02 -2.18852833e-01
2.32687667e-01 0.00000000e+00 -2.36711547e-01
2.26828128e-01 5.87745458e-02 -2.24800289e-01
3.07971507e-01 0.00000000e+00 -2.49574721e-01
3.00355494e-01 6.08239099e-02 -2.36225486e-01
3.68048191e-01 0.00000000e+00 -2.54804760e-01
3.80637199e-01 6.90546036e-02 -2.47025505e-01
3.98881584e-02 1.28740758e-01 -1.71302408e-01
0.00000000e+00 1.35524258e-01 -1.66211113e-01
8.95993486e-02 1.27803251e-01 -1.78014189e-01
1.43866092e-01 1.32140398e-01 -1.82676002e-01
2.16301441e-01 1.47663921e-01 -2.01265097e-01
2.91105330e-01 1.50017664e-01 -1.94916144e-01
3.56125891e-01 1.61574185e-01 -2.07221210e-01
3.51525843e-02 1.86720759e-01 -1.42216265e-01
0.00000000e+00 1.89833626e-01 -1.37210146e-01
7.61605874e-02 1.88447624e-01 -1.28156230e-01
6.77311495e-02 1.60986125e-01 1.11937523e-02
3.75489891e-02 2.34899312e-01 -1.16181716e-01
0.00000000e+00 2.28698641e-01 -1.25817716e-01
8.30450058e-02 2.14132190e-01 -8.55071545e-02
1.06520906e-01 1.80521771e-01 -3.76378894e-02
4.66696322e-02 2.54850507e-01 -1.25391975e-01
0.00000000e+00 2.62817472e-01 -1.32859588e-01
7.76179880e-02 2.41902053e-01 -1.02628171e-01
1.31304339e-01 2.23667860e-01 -7.91170597e-02
4.12605032e-02 2.99780786e-01 -1.56994626e-01
0.00000000e+00 2.98800260e-01 -1.62935972e-01
7.93946758e-02 3.06274354e-01 -1.48125201e-01
1.42508447e-01 2.92383879e-01 -1.44659877e-01
1.39030904e-01 2.09369346e-01 3.39150429e-05
1.39031738e-01 2.10651562e-01 3.19778919e-05
1.37747645e-01 2.10659981e-01 -1.73151493e-05
1.37719959e-01 2.09383741e-01 -3.44514847e-05
0.00000000e+00 0.00000000e+00 -2.81535059e-01
5.36071882e-02 0.00000000e+00 -2.83518970e-01
5.68966493e-02 5.89267761e-02 -2.77644813e-01
0.00000000e+00 5.66553473e-02 -2.72374719e-01
1.19056232e-01 0.00000000e+00 -2.97977418e-01
1.06432319e-01 5.07573411e-02 -2.88875490e-01
1.77120596e-01 0.00000000e+00 -3.13860685e-01
1.78323194e-01 4.60767969e-02 -3.09908569e-01
2.47029558e-01 0.00000000e+00 -3.27500850e-01
2.50062495e-01 4.77859378e-02 -3.32500964e-01
3.20921600e-01 0.00000000e+00 -3.44198793e-01
3.21241081e-01 5.06924242e-02 -3.41917545e-01
3.89360398e-01 0.00000000e+00 -3.49394590e-01
3.88727605e-01 5.17472327e-02 -3.47905874e-01
4.04432267e-02 1.11541480e-01 -2.56158322e-01
0.00000000e+00 1.26737013e-01 -2.52688855e-01
1.06561884e-01 1.13825485e-01 -2.77962744e-01
1.67542085e-01 1.20392263e-01 -3.21446687e-01
2.44862840e-01 1.32903159e-01 -3.32758248e-01
3.14870417e-01 1.25481099e-01 -3.30187619e-01
3.74969780e-01 1.33916304e-01 -3.35776389e-01
3.64453793e-02 1.90745741e-01 -2.11036652e-01
0.00000000e+00 1.87433943e-01 -2.14945406e-01
9.58297849e-02 1.67596772e-01 -2.42539778e-01
3.70280147e-02 2.36426800e-01 -1.77540541e-01
0.00000000e+00 2.45161235e-01 -1.85480133e-01
8.61807987e-02 2.36983061e-01 -1.41873583e-01
3.79051715e-02 2.93765664e-01 -1.92206293e-01
0.00000000e+00 2.87222862e-01 -1.96673274e-01
8.29737410e-02 2.88907409e-01 -1.80956125e-01
1.00795820e-01 2.93968737e-01 2.22851038e-02
1.25479594e-01 2.79938608e-01 -2.04056233e-01
4.14630249e-02 3.38136733e-01 -2.30170175e-01
0.00000000e+00 3.42686772e-01 -2.41785347e-01
</DataArray>
<DataArray type="Float32" Name="Spatial_acceleration" NumberOfComponents="3" format="ascii">
0.00000000e+00 0.00000000e+00 0.00000000e+00
1.85171753e-08 0.00000000e+00 0.00000000e+00
9.57647917e-09 1.30931532e-08 0.00000000e+00
0.00000000e+00 1.20401378e-08 0.00000000e+00
0.00000000e+00 0.00000000e+00 -7.62939401e-09
-8.26517699e-09 0.00000000e+00 3.49680569e-08
1.98930494e-09 1.51322848e-08 2.35239668e-08
0.00000000e+00 2.01861070e-08 2.28881838e-08
1.22388206e-08 0.00000000e+00 0.00000000e+00
3.41733286e-09 2.53717101e-08 0.00000000e+00
-2.22325323e-08 0.00000000e+00 -9.53674295e-09
3.05970516e-09 -8.74201433e-10 1.90734859e-08
-6.91413859e-09 0.00000000e+00 0.00000000e+00
-6.67571998e-09 1.52587880e-08 0.00000000e+00
1.73846875e-08 0.00000000e+00 1.33514400e-08
1.47422154e-08 7.03334813e-09 6.67571998e-09
-2.20388170e-08 0.00000000e+00 0.00000000e+00
5.04652675e-09 -9.93410687e-10 0.00000000e+00
1.82390210e-08 0.00000000e+00 2.54313157e-08
1.40666963e-08 1.30335485e-08 -9.53674251e-10
1.72754131e-08 0.00000000e+00 0.00000000e+00
2.03450519e-08 2.30471286e-08 0.00000000e+00
2.31266011e-08 0.00000000e+00 -1.62124625e-08
7.54992158e-09 5.88099169e-09 -8.58306848e-09
5.98033267e-09 0.00000000e+00 0.00000000e+00
3.60806780e-08 1.04904174e-08 0.00000000e+00
-1.66098282e-08 0.00000000e+00 -1.14440919e-08
3.11533590e-08 -1.52985251e-08 1.90734850e-09
2.51134242e-08 1.74840287e-09 0.00000000e+00
0.00000000e+00 -1.40567620e-08 0.00000000e+00
7.12772197e-09 1.98818739e-08 1.39872229e-08
0.00000000e+00 6.95387525e-10 -8.90095997e-09
3.33785999e-09 6.35782893e-09 0.00000000e+00
7.46051487e-09 3.57627872e-10 -3.17891435e-10
1.85171753e-08 4.12464125e-08 0.00000000e+00
1.52360826e-08 -2.08900097e-09 3.63304498e-10
1.70071921e-08 -7.94728550e-09 0.00000000e+00
2.42392222e-08 1.17090018e-08 7.62939489e-09
2.03450519e-08 1.19209287e-09 0.00000000e+00
1.53382622e-08 1.04109450e-08 -8.05324962e-09
3.52859502e-08 1.01725259e-08 0.00000000e+00
-2.11927631e-08 2.60670987e-08 7.62939489e-09
1.22388206e-08 -1.19209281e-10 0.00000000e+00
0.00000000e+00 1.34309133e-08 0.00000000e+00
2.26497643e-09 1.71264016e-08 -5.08626297e-09
0.00000000e+00 2.98023228e-09 -9.85463444e-09
-5.56310020e-09 -1.60137805e-08 0.00000000e+00
7.62939401e-09 2.75969505e-08 -6.19888318e-09
1.57356261e-08 1.35898590e-08 0.00000000e+00
9.54336610e-09 4.50346205e-10 4.87433560e-09
1.84377029e-08 5.40415446e-09 0.00000000e+00
8.90095997e-09 1.05963815e-08 -4.23855262e-09
4.66240779e-09 3.57627872e-10 0.00000000e+00
8.68903260e-09 -9.53674295e-09 -4.23855262e-09
-6.67571998e-09 2.38418583e-08 0.00000000e+00
1.65303540e-08 1.96198613e-08 1.58945710e-08
6.35782871e-10 5.78165027e-09 0.00000000e+00
0.00000000e+00 3.51270053e-08 0.00000000e+00
-2.78154999e-10 1.52985251e-08 -1.03314717e-08
0.00000000e+00 1.09771892e-09 9.53674251e-10
2.20139817e-08 -1.21407213e-08 0.00000000e+00
1.66892999e-09 3.31401822e-08 -1.41461687e-08
3.03387644e-08 1.29540760e-08 0.00000000e+00
6.99361191e-09 6.09291950e-09 4.23855256e-10
2.40537865e-08 1.29275852e-08 0.00000000e+00
2.67028817e-08 2.75505907e-09 1.37752956e-08
-4.52995286e-09 -2.63849884e-08 0.00000000e+00
-9.13937870e-10 3.69548792e-09 0.00000000e+00
-2.06629434e-08 -2.22523999e-09 2.71797180e-08
-8.21219537e-09 2.15073435e-08 4.82135354e-09
6.39756514e-09 1.27752617e-08 0.00000000e+00
0.00000000e+00 2.38219897e-08 0.00000000e+00
-3.53654217e-09 3.40342510e-08 -1.54177346e-08
0.00000000e+00 1.95503240e-08 -3.17891420e-08
-9.33806099e-09 9.33806099e-09 0.00000000e+00
1.45435335e-08 2.36829116e-08 2.38418574e-09
5.24520871e-09 -2.54313148e-09 0.00000000e+00
5.93397376e-09 1.14440919e-08 -1.52587898e-08
1.70866645e-08 1.85966496e-08 0.00000000e+00
1.62919356e-09 1.27156574e-09 -2.74181371e-08
2.15371454e-08 1.62919367e-08 0.00000000e+00
-2.26497643e-09 2.01185539e-08 1.07426201e-08
-7.86781307e-09 -1.16030376e-08 0.00000000e+00
-1.14176011e-08 1.26096937e-08 -1.23787256e-08
-1.11262000e-09 1.41461687e-08 0.00000000e+00
0.00000000e+00 5.00306498e-08 0.00000000e+00
1.50203707e-08 1.77621846e-08 -2.35239668e-08
0.00000000e+00 1.03587903e-08 -2.03450519e-08
3.08354693e-08 1.11262000e-09 0.00000000e+00
7.23203009e-09 1.19209291e-08 -2.28881838e-08
1.20004016e-08 1.95503240e-08 0.00000000e+00
-8.68903260e-09 3.64515529e-08 1.69542103e-09
2.19345093e-08 5.40415446e-09 0.00000000e+00
-3.17295381e-08 -1.23977664e-08 1.49408983e-08
-1.45435335e-08 2.28881838e-08 0.00000000e+00
-6.35782893e-09 3.74317182e-08 8.42019077e-09
1.65303540e-08 -2.17556950e-09 0.00000000e+00
-9.17911525e-09 1.12652776e-08 -1.93503986e-08
0.00000000e+00 0.00000000e+00 -1.14440919e-08
1.98880823e-08 0.00000000e+00 7.62939401e-09
2.96831129e-08 1.07785070e-09 -3.49680573e-09
0.00000000e+00 -5.76799097e-09 -2.22524008e-08
-2.84612178e-09 0.00000000e+00 3.17891435e-10
3.87032806e-08 6.19888318e-09 -3.17891435e-10
-1.68085101e-08 0.00000000e+00 7.62939401e-09
1.11262004e-08 -1.53183937e-08 2.24113457e-08
-5.36441780e-09 0.00000000e+00 -1.27156574e-09
6.00020078e-09 -1.67389711e-08 -7.94728550e-09
1.42852468e-08 0.00000000e+00 -8.26517699e-09
1.19209291e-08 3.85443366e-09 -2.57492054e-08
2.85307564e-08 0.00000000e+00 1.97092689e-08
3.05970502e-08 6.35782893e-09 -2.54313148e-09
-1.00930535e-08 1.19209287e-09 8.90095997e-09
0.00000000e+00 3.89416988e-09 -1.43051144e-08
-1.37601575e-08 1.88577740e-08 -9.08261200e-09
9.82284565e-09 -3.68754072e-09 -3.56038421e-09
-1.56561537e-08 2.96731795e-08 -1.65303540e-08
2.25702923e-08 -6.27835606e-09 -2.98817966e-08
6.19093541e-08 2.89777908e-08 -1.01725259e-08
-6.91413859e-09 7.90754928e-09 -3.01996863e-08
0.00000000e+00 2.55107881e-08 -5.08626314e-08
4.60942573e-09 1.26096937e-08 1.10202363e-08
-1.14440919e-08 -2.33650201e-08 3.85443357e-08
-9.57647917e-09 1.11063319e-08 -1.11262004e-08
0.00000000e+00 2.71797180e-08 -1.71661370e-08
6.56218768e-09 9.80922188e-09 -1.81652249e-09
9.74867120e-09 -3.76171556e-08 2.92460118e-08
3.97364294e-11 4.84784435e-09 -2.63849884e-08
0.00000000e+00 3.25093663e-09 2.22523999e-09
8.78175133e-09 7.15255721e-09 -1.08083089e-08
1.91529583e-08 -4.26173186e-09 2.22524008e-08
-5.56310020e-09 5.67436196e-08 3.17891446e-09
0.00000000e+00 1.23182931e-08 -1.39872229e-08
1.72456112e-08 4.21206137e-09 -5.08626297e-09
1.89542764e-08 2.92460118e-08 -2.03450519e-08
4.17629877e-08 2.77093299e-08 -2.03897557e-08
9.59634772e-09 1.09275179e-10 1.86761220e-08
2.62707474e-08 -2.93205176e-08 -1.29590427e-08
-1.87555944e-08 4.13457535e-08 1.57952300e-08
0.00000000e+00 0.00000000e+00 -3.81469700e-09
-1.91132230e-08 0.00000000e+00 -1.90734859e-08
1.47024792e-09 -4.76837125e-10 -6.51677423e-09
0.00000000e+00 -2.33650201e-08 6.99361147e-09
-1.39474867e-08 0.00000000e+00 -5.72204595e-09
1.30534170e-08 -9.27348953e-09 -1.01725259e-08
2.15818474e-08 0.00000000e+00 -1.46230059e-08
1.09672547e-08 2.90075941e-09 3.49680573e-09
2.58187445e-08 0.00000000e+00 -1.58945710e-08
-5.56310020e-09 -3.89416988e-09 -2.82923374e-08
2.58237129e-08 0.00000000e+00 8.58306848e-09
1.61727272e-08 -3.81966414e-09 -1.52587880e-08
3.04877759e-08 0.00000000e+00 2.67028799e-08
6.59624710e-09 5.06639486e-09 -1.17619834e-08
-1.50998432e-08 2.57492054e-08 -1.58945710e-08
0.00000000e+00 -2.07026805e-08 -1.93913774e-08
-4.40506698e-09 -6.49406795e-09 3.63304498e-10
-1.43686929e-08 7.62939489e-09 -4.57763694e-09
-3.69548792e-09 2.35637021e-08 -4.45047998e-09
3.71932991e-08 -7.15255744e-10 3.81469718e-08
2.00966994e-08 1.16427739e-08 1.39872229e-08
1.06720699e-09 7.08443793e-09 -1.59853979e-08
0.00000000e+00 1.65700911e-08 3.27428182e-08
2.57492054e-08 1.11262004e-08 8.90095997e-09
-4.03267997e-08 2.95184908e-08 -1.52587880e-08
0.00000000e+00 -1.41759715e-08 1.93913774e-08
6.19888318e-09 2.87691755e-08 -1.27156574e-09
-4.17232499e-10 2.87294384e-08 6.95387525e-09
0.00000000e+00 3.62793600e-08 -2.22523999e-09
2.31606609e-08 2.52496619e-08 1.30789619e-08
2.63849884e-08 -2.54313157e-08 -2.41597498e-08
1.19739108e-08 1.58945728e-08 5.08626297e-09
2.59081521e-08 4.88758101e-09 2.19345093e-08
0.00000000e+00 8.90095997e-09 1.39872229e-08
</DataArray>
<DataArray type="Float32" Name="Spatial_velocity" NumberOfComponents="3" format="ascii">
0.00000000e+00 0.00000000e+00 0.00000000e+00
-1.04829461e-08 0.00000000e+00 0.00000000e+00
-8.23092705e-10 1.87770954e-09 0.00000000e+00
0.00000000e+00 3.88147781e-09 0.00000000e+00
0.00000000e+00 0.00000000e+00 3.03101766e-09
-1.63766511e-09 0.00000000e+00 -8.56083426e-10
-2.09335349e-09 -8.06380207e-09 2.34994380e-09
0.00000000e+00 1.21118748e-09 3.00503689e-09
-1.35332971e-08 0.00000000e+00 0.00000000e+00
-4.08673007e-09 7.74783793e-10 0.00000000e+00
-9.32775723e-09 0.00000000e+00 2.85728952e-09
-8.33216429e-09 -4.90767926e-10 4.83133622e-09
-2.05709565e-08 0.00000000e+00 0.00000000e+00
-1.25045352e-08 -3.82241883e-09 0.00000000e+00
-1.15189263e-08 0.00000000e+00 3.39501893e-09
-1.19029560e-08 -6.04133543e-09 3.97936128e-09
-1.44871359e-08 0.00000000e+00 0.00000000e+00
-1.31837226e-08 -3.51338070e-09 0.00000000e+00
-1.71000707e-08 0.00000000e+00 2.66699240e-09
-1.18508492e-08 -7.89477483e-10 9.06746900e-10
-5.38067058e-09 0.00000000e+00 0.00000000e+00
-1.54311746e-08 -7.69549402e-09 0.00000000e+00
-1.60400457e-08 0.00000000e+00 3.82203336e-09
-1.47343195e-08 -2.84450263e-09 4.17764623e-09
-1.72678067e-08 0.00000000e+00 0.00000000e+00
-1.36749332e-08 -3.51779095e-09 0.00000000e+00
-1.30713920e-08 0.00000000e+00 1.84615223e-09
-1.41960008e-08 4.91120877e-09 1.33606959e-09
-3.40632944e-09 -8.38304270e-09 0.00000000e+00
0.00000000e+00 -5.04933073e-09 0.00000000e+00
-4.35300773e-09 -9.06242548e-09 5.38980682e-09
0.00000000e+00 -3.21382321e-09 3.64823105e-09
-3.48654505e-09 -3.71769260e-09 0.00000000e+00
-1.03796216e-08 -3.42648621e-09 -6.33884889e-10
-8.82465567e-09 -1.07735287e-08 0.00000000e+00
-6.62546196e-09 -7.07503034e-09 4.05661726e-09
-1.42417118e-08 -1.06718838e-08 0.00000000e+00
-9.44527478e-09 -5.22291899e-09 2.93080094e-09
-1.38893785e-08 -9.11971210e-09 0.00000000e+00
-1.37474006e-08 -5.46184387e-09 3.38266259e-09
-1.64779372e-08 -7.04763536e-09 0.00000000e+00
-1.73029431e-08 -5.36127986e-09 -2.93443225e-09
-5.33177669e-10 -8.96532626e-09 0.00000000e+00
0.00000000e+00 -1.60491087e-08 0.00000000e+00
-6.59819488e-09 -1.42024064e-08 5.96391825e-09
0.00000000e+00 -1.32589850e-08 5.22744337e-09
-6.78456757e-09 -8.23750845e-09 0.00000000e+00
-6.93845692e-09 -1.47208405e-08 5.20034016e-09
-1.56443640e-08 -1.25584139e-08 0.00000000e+00
-4.56316895e-09 -1.59277853e-08 1.94100047e-09
-1.46327706e-08 -1.04763807e-08 0.00000000e+00
-9.41110301e-09 -1.24284680e-08 1.49647572e-09
-1.86506792e-08 -9.37783007e-09 0.00000000e+00
-1.84340365e-08 -1.82455278e-08 1.09431242e-10
-1.01758291e-08 -1.83836750e-08 0.00000000e+00
-1.73995467e-08 -2.01198258e-08 6.00735639e-09
4.68565117e-12 -1.93871443e-08 0.00000000e+00
0.00000000e+00 -2.08539621e-08 0.00000000e+00
-4.37174830e-09 -1.64079434e-08 2.88150992e-09
0.00000000e+00 -1.47069548e-08 2.28888508e-09
-2.65762967e-09 -1.85256734e-08 0.00000000e+00
-5.62870461e-09 -1.74617956e-08 3.29132743e-09
-1.16873098e-08 -1.80716846e-08 0.00000000e+00
-7.89466803e-09 -1.43004355e-08 1.58504476e-09
-1.20613786e-08 -2.13483027e-08 0.00000000e+00
-1.43130610e-08 -2.11556550e-08 -4.54185134e-09
-1.87543634e-08 -2.76358794e-08 0.00000000e+00
-1.43896797e-08 -2.47462406e-08 0.00000000e+00
-1.33511211e-08 -2.43406735e-08 -1.34787959e-09
-1.76295263e-08 -2.59355648e-08 3.03968806e-09
-1.48703161e-10 -2.25037429e-08 0.00000000e+00
0.00000000e+00 -1.54821276e-08 0.00000000e+00
-2.76490653e-09 -1.98948094e-08 2.00016670e-09
0.00000000e+00 -1.77045383e-08 5.45811174e-10
-9.00473651e-09 -2.38501769e-08 0.00000000e+00
-4.88597163e-09 -1.89001881e-08 1.02868081e-09
-1.06795310e-08 -1.95768450e-08 0.00000000e+00
-7.19434423e-09 -1.91546707e-08 4.13649914e-09
-1.39388572e-08 -2.26404673e-08 0.00000000e+00
-1.07177573e-08 -2.16941327e-08 -1.62232605e-09
-1.24900241e-08 -2.79142096e-08 0.00000000e+00
-1.66573866e-08 -2.48373535e-08 -4.96125629e-09
-1.26433850e-08 -2.11653735e-08 0.00000000e+00
-1.55646163e-08 -3.45644082e-08 -1.81878201e-09
-1.59615721e-09 -1.22164749e-08 0.00000000e+00
0.00000000e+00 -3.21524105e-08 0.00000000e+00
-2.29266139e-09 -2.35239526e-08 2.48483945e-09
0.00000000e+00 -1.75642114e-08 1.49571366e-09
-7.97659894e-09 -2.52879779e-08 0.00000000e+00
-2.85974755e-09 -2.03901234e-08 -2.07208273e-09
-1.28645921e-08 -2.49767265e-08 0.00000000e+00
-7.95333577e-09 -1.57262559e-08 -4.04355571e-09
-1.49355941e-08 -1.88613800e-08 0.00000000e+00
-1.13523946e-08 -2.32293367e-08 -2.60628519e-09
-1.10653389e-08 -1.99107060e-08 0.00000000e+00
-1.26397923e-08 -3.14884581e-08 -3.16850102e-09
-5.50929657e-09 -2.73056155e-08 0.00000000e+00
-2.07568451e-08 -3.15995905e-08 1.58360915e-08
0.00000000e+00 0.00000000e+00 -4.42618475e-09
-1.03401945e-08 0.00000000e+00 1.28185695e-09
-9.44894385e-09 -3.72150555e-09 4.26458729e-10
0.00000000e+00 -4.71979833e-09 4.46486981e-09
-9.23197430e-09 0.00000000e+00 -3.69028097e-09
-8.59661142e-09 -2.34778641e-09 -1.16803667e-09
-1.44099213e-08 0.00000000e+00 -5.12501264e-10
-8.29367064e-09 1.56316315e-09 -1.58073898e-09
-1.68071086e-08 0.00000000e+00 -4.17284740e-09
-1.23734756e-08 -1.78631665e-10 -3.34090622e-09
-1.84536972e-08 0.00000000e+00 4.26353708e-09
-1.20074635e-08 -4.62538274e-09 1.35462730e-09
-5.65092595e-09 0.00000000e+00 -3.68440523e-09
-2.12463274e-08 2.70140288e-09 3.32414207e-09
-1.63621983e-09 -1.13260938e-08 6.45834164e-10
0.00000000e+00 -9.40837719e-09 -6.80971102e-09
-4.07382483e-09 -1.09939720e-08 -1.34399869e-09
-1.14494174e-08 -7.08962178e-09 -4.49331905e-10
-1.00783195e-08 6.09339956e-09 -2.64390243e-09
-8.69143335e-09 -3.54875640e-09 -5.06857667e-09
-1.41573393e-08 8.97896069e-09 -2.85442869e-09
-1.48731860e-09 -8.03755462e-09 7.53784146e-10
0.00000000e+00 -1.16910686e-08 1.96256345e-10
-5.60254554e-09 -1.34719293e-08 2.36359177e-09
-7.06796399e-09 -1.53927804e-08 2.11486295e-09
-5.76887160e-09 -1.62828186e-08 -2.73500278e-10
0.00000000e+00 -1.51567132e-08 -2.87794011e-09
-3.92651511e-09 -1.79440605e-08 4.05335676e-09
-7.34394157e-10 -2.41629134e-08 4.99702413e-09
1.34423195e-09 -1.97893684e-08 -4.25681268e-10
0.00000000e+00 -1.75621047e-08 8.60471361e-10
-1.66934344e-09 -2.41658604e-08 -9.30614918e-10
-2.27958719e-09 -2.03926778e-08 -2.66692979e-09
2.08672329e-10 -1.58281654e-08 1.78344906e-09
0.00000000e+00 -2.10765627e-08 -7.18060233e-09
-2.69619083e-09 -2.03073913e-08 -1.31242073e-09
-5.65875435e-09 -2.37330013e-08 8.83097151e-09
-4.17309316e-08 -5.08569258e-08 -3.01533483e-08
-4.38565984e-08 -4.29176197e-08 9.64252944e-09
-3.90501675e-08 -3.94015345e-08 1.20721539e-08
-4.36663896e-08 -5.04722166e-08 9.72229230e-09
0.00000000e+00 0.00000000e+00 -3.10964143e-09
6.88553614e-09 0.00000000e+00 -1.05959268e-08
-2.43321008e-09 -3.40673001e-09 -2.62716315e-09
0.00000000e+00 -6.56234311e-09 -6.43993348e-09
-1.25208750e-08 0.00000000e+00 -6.71248790e-09
-3.12360182e-09 -7.74261544e-09 -6.33594599e-09
-1.05763105e-08 0.00000000e+00 -1.09019123e-08
-8.03899614e-09 -4.34967706e-09 -5.08068521e-09
-1.61375677e-08 0.00000000e+00 -4.01257250e-09
-9.31352595e-09 4.07425566e-10 -4.44532411e-09
-1.21852262e-08 0.00000000e+00 -1.44684720e-09
-1.80554416e-08 -2.50162357e-09 -5.52378054e-09
-2.15256453e-08 0.00000000e+00 8.57831139e-10
-9.81146453e-09 -1.46996060e-09 5.64141089e-09
3.98590938e-09 -2.64347566e-09 -5.50594237e-09
0.00000000e+00 -7.65783170e-09 -8.85605278e-09
-4.16036494e-09 -6.89414570e-09 -2.72954104e-09
-6.28960217e-09 -1.64110503e-09 -2.73347833e-09
-1.40301468e-08 3.08898107e-09 -9.19381371e-09
-1.74618737e-08 1.48195012e-10 -2.53686805e-09
-1.68882117e-08 4.37764669e-09 5.23622745e-09
-1.05072306e-09 -1.35690890e-08 4.00752431e-10
0.00000000e+00 -1.68084995e-08 -4.13925072e-09
-2.19760743e-09 -6.53363674e-09 -3.11765591e-09
-5.20755217e-10 -1.82329902e-08 4.67091255e-09
0.00000000e+00 -1.94147987e-08 -3.44554119e-09
4.03556388e-09 -1.97941503e-08 -8.28353719e-10
-1.74133952e-09 -2.07411492e-08 -6.22649532e-09
0.00000000e+00 -2.22936727e-08 -5.26663069e-09
-2.43288145e-09 -2.33734561e-08 5.04366193e-09
-4.86356777e-09 -2.56714365e-08 7.21529814e-09
-2.00787942e-09 -2.60063775e-08 7.21435356e-09
-1.05537246e-09 -1.84222362e-08 2.92857516e-10
0.00000000e+00 -2.39912712e-08 2.69069678e-09
</DataArray>
<DataArray type="Float32" Name="Reaction_force" NumberOfComponents="3" format="ascii">
4.21628535e-01 -1.64695263e-01 8.90744877e+00
0.00000000e+00 -5.42412817e-01 1.82768955e+01
0.00000000e+00 0.00000000e+00 3.47795143e+01
4.03905332e-01 0.00000000e+00 1.76306076e+01
8.89073312e-01 -3.63401890e-01 0.00000000e+00
0.00000000e+00 -6.88446105e-01 0.00000000e+00
0.00000000e+00 0.00000000e+00 0.00000000e+00
8.58543158e-01 0.00000000e+00 0.00000000e+00
0.00000000e+00 -7.34498262e-01 1.83887215e+01
0.00000000e+00 0.00000000e+00 3.66032944e+01
0.00000000e+00 -4.20783073e-01 0.00000000e+00
0.00000000e+00 0.00000000e+00 0.00000000e+00
0.00000000e+00 -5.24581969e-01 1.94411469e+01
0.00000000e+00 0.00000000e+00 3.61361351e+01
0.00000000e+00 -1.23814926e-01 0.00000000e+00
0.00000000e+00 0.00000000e+00 0.00000000e+00
0.00000000e+00 -7.89698422e-01 1.91177902e+01
0.00000000e+00 0.00000000e+00 3.53393478e+01
0.00000000e+00 -4.23880994e-01 0.00000000e+00
0.00000000e+00 0.00000000e+00 0.00000000e+00
0.00000000e+00 -1.20630181e+00 1.68219051e+01
0.00000000e+00 0.00000000e+00 3.17435093e+01
0.00000000e+00 -1.56586266e+00 0.00000000e+00
0.00000000e+00 0.00000000e+00 0.00000000e+00
0.00000000e+00 -2.30297518e+00 1.07633438e+01
0.00000000e+00 0.00000000e+00 2.01531677e+01
0.00000000e+00 -3.14373112e+00 0.00000000e+00
0.00000000e+00 0.00000000e+00 0.00000000e+00
0.00000000e+00 0.00000000e+00 3.27495499e+01
-5.11975944e-01 0.00000000e+00 1.61542244e+01
0.00000000e+00 0.00000000e+00 0.00000000e+00
-4.53139395e-01 0.00000000e+00 0.00000000e+00
0.00000000e+00 0.00000000e+00 2.97868462e+01
0.00000000e+00 0.00000000e+00 0.00000000e+00
0.00000000e+00 0.00000000e+00 2.35793381e+01
0.00000000e+00 0.00000000e+00 0.00000000e+00
0.00000000e+00 0.00000000e+00 1.93248234e+01
0.00000000e+00 0.00000000e+00 0.00000000e+00
0.00000000e+00 0.00000000e+00 1.88110199e+01
0.00000000e+00 0.00000000e+00 0.00000000e+00
0.00000000e+00 0.00000000e+00 1.53546562e+01
0.00000000e+00 0.00000000e+00 0.00000000e+00
0.00000000e+00 0.00000000e+00 2.94788055e+01
-1.00344872e+00 0.00000000e+00 1.47379913e+01
0.00000000e+00 0.00000000e+00 0.00000000e+00
-1.48276782e+00 0.00000000e+00 0.00000000e+00
0.00000000e+00 0.00000000e+00 2.14329548e+01
0.00000000e+00 0.00000000e+00 0.00000000e+00
0.00000000e+00 0.00000000e+00 1.25886488e+01
0.00000000e+00 0.00000000e+00 0.00000000e+00
0.00000000e+00 0.00000000e+00 4.92661047e+00
0.00000000e+00 0.00000000e+00 0.00000000e+00
0.00000000e+00 0.00000000e+00 3.81396675e+00
0.00000000e+00 0.00000000e+00 0.00000000e+00
0.00000000e+00 0.00000000e+00 3.30692458e+00
0.00000000e+00 0.00000000e+00 0.00000000e+00
0.00000000e+00 0.00000000e+00 2.66606331e+01
-1.61553216e+00 0.00000000e+00 1.45876293e+01
0.00000000e+00 0.00000000e+00 0.00000000e+00
-2.44942617e+00 0.00000000e+00 0.00000000e+00
0.00000000e+00 0.00000000e+00 1.94513969e+01
0.00000000e+00 0.00000000e+00 0.00000000e+00
0.00000000e+00 0.00000000e+00 9.34717369e+00
0.00000000e+00 0.00000000e+00 0.00000000e+00
0.00000000e+00 0.00000000e+00 2.27198303e-01
0.00000000e+00 0.00000000e+00 0.00000000e+00
0.00000000e+00 0.00000000e+00 -2.40335178e+00
0.00000000e+00 0.00000000e+00 -3.24779391e+00
0.00000000e+00 0.00000000e+00 0.00000000e+00
0.00000000e+00 0.00000000e+00 0.00000000e+00
0.00000000e+00 0.00000000e+00 2.71100998e+01
-2.22879171e+00 0.00000000e+00 1.42957554e+01
0.00000000e+00 0.00000000e+00 0.00000000e+00
-3.19485569e+00 0.00000000e+00 0.00000000e+00
0.00000000e+00 0.00000000e+00 2.24924240e+01
0.00000000e+00 0.00000000e+00 0.00000000e+00
0.00000000e+00 0.00000000e+00 1.81312370e+01
0.00000000e+00 0.00000000e+00 0.00000000e+00
0.00000000e+00 0.00000000e+00 7.16897297e+00
0.00000000e+00 0.00000000e+00 0.00000000e+00
0.00000000e+00 0.00000000e+00 -4.23145866e+00
0.00000000e+00 0.00000000e+00 0.00000000e+00
0.00000000e+00 0.00000000e+00 1.81624699e+00
0.00000000e+00 0.00000000e+00 0.00000000e+00
0.00000000e+00 0.00000000e+00 1.85060215e+01
-2.20122981e+00 0.00000000e+00 9.18195629e+00
0.00000000e+00 0.00000000e+00 0.00000000e+00
-3.87109327e+00 0.00000000e+00 0.00000000e+00
0.00000000e+00 0.00000000e+00 1.91413765e+01
0.00000000e+00 0.00000000e+00 0.00000000e+00
0.00000000e+00 0.00000000e+00 1.48346024e+01
0.00000000e+00 0.00000000e+00 0.00000000e+00
0.00000000e+00 0.00000000e+00 6.33957767e+00
0.00000000e+00 0.00000000e+00 0.00000000e+00
0.00000000e+00 0.00000000e+00 -2.91938734e+00
0.00000000e+00 0.00000000e+00 0.00000000e+00
0.00000000e+00 0.00000000e+00 3.86163473e-01
0.00000000e+00 0.00000000e+00 0.00000000e+00
4.58185673e-01 -4.57903922e-01 0.00000000e+00
0.00000000e+00 3.55175793e-01 0.00000000e+00
0.00000000e+00 0.00000000e+00 0.00000000e+00
1.43689370e+00 0.00000000e+00 0.00000000e+00
0.00000000e+00 9.88488674e-01 0.00000000e+00
0.00000000e+00 0.00000000e+00 0.00000000e+00
0.00000000e+00 1.18671858e+00 0.00000000e+00
0.00000000e+00 0.00000000e+00 0.00000000e+00
0.00000000e+00 1.66708398e+00 0.00000000e+00
0.00000000e+00 0.00000000e+00 0.00000000e+00
0.00000000e+00 -1.46275938e-01 0.00000000e+00
0.00000000e+00 0.00000000e+00 0.00000000e+00
0.00000000e+00 -1.13599980e+00 0.00000000e+00
0.00000000e+00 0.00000000e+00 0.00000000e+00
0.00000000e+00 0.00000000e+00 0.00000000e+00
4.81290966e-01 0.00000000e+00 0.00000000e+00
0.00000000e+00 0.00000000e+00 0.00000000e+00
0.00000000e+00 0.00000000e+00 0.00000000e+00
0.00000000e+00 0.00000000e+00 0.00000000e+00
0.00000000e+00 0.00000000e+00 0.00000000e+00
0.00000000e+00 0.00000000e+00 0.00000000e+00
0.00000000e+00 0.00000000e+00 0.00000000e+00
-7.89891660e-01 0.00000000e+00 0.00000000e+00
0.00000000e+00 0.00000000e+00 0.00000000e+00
0.00000000e+00 0.00000000e+00 0.00000000e+00
0.00000000e+00 0.00000000e+00 0.00000000e+00
-2.41905972e-01 0.00000000e+00 0.00000000e+00
0.00000000e+00 0.00000000e+00 0.00000000e+00
0.00000000e+00 0.00000000e+00 0.00000000e+00
0.00000000e+00 0.00000000e+00 0.00000000e+00
-1.03154790e+00 0.00000000e+00 0.00000000e+00
0.00000000e+00 0.00000000e+00 0.00000000e+00
0.00000000e+00 0.00000000e+00 0.00000000e+00
0.00000000e+00 0.00000000e+00 0.00000000e+00
-2.18404675e+00 0.00000000e+00 0.00000000e+00
0.00000000e+00 0.00000000e+00 0.00000000e+00
0.00000000e+00 0.00000000e+00 0.00000000e+00
0.00000000e+00 0.00000000e+00 0.00000000e+00
0.00000000e+00 0.00000000e+00 0.00000000e+00
0.00000000e+00 0.00000000e+00 0.00000000e+00
0.00000000e+00 0.00000000e+00 0.00000000e+00
1.19945273e-01 -1.05215430e-01 0.00000000e+00
0.00000000e+00 1.02022243e+00 0.00000000e+00
0.00000000e+00 0.00000000e+00 0.00000000e+00
1.86078143e+00 0.00000000e+00 0.00000000e+00
0.00000000e+00 1.60087550e+00 0.00000000e+00
0.00000000e+00 0.00000000e+00 0.00000000e+00
0.00000000e+00 2.00971651e+00 0.00000000e+00
0.00000000e+00 0.00000000e+00 0.00000000e+00
0.00000000e+00 2.71042395e+00 0.00000000e+00
0.00000000e+00 0.00000000e+00 0.00000000e+00
0.00000000e+00 9.97423351e-01 0.00000000e+00
0.00000000e+00 0.00000000e+00 0.00000000e+00
0.00000000e+00 7.25273788e-03 0.00000000e+00
0.00000000e+00 0.00000000e+00 0.00000000e+00
0.00000000e+00 0.00000000e+00 0.00000000e+00
1.50656939e+00 0.00000000e+00 0.00000000e+00
0.00000000e+00 0.00000000e+00 0.00000000e+00
0.00000000e+00 0.00000000e+00 0.00000000e+00
0.00000000e+00 0.00000000e+00 0.00000000e+00
0.00000000e+00 0.00000000e+00 0.00000000e+00
0.00000000e+00 0.00000000e+00 0.00000000e+00
0.00000000e+00 0.00000000e+00 0.00000000e+00
3.96222994e-02 0.00000000e+00 0.00000000e+00
0.00000000e+00 0.00000000e+00 0.00000000e+00
0.00000000e+00 0.00000000e+00 0.00000000e+00
9.12158489e-01 0.00000000e+00 0.00000000e+00
0.00000000e+00 0.00000000e+00 0.00000000e+00
0.00000000e+00 0.00000000e+00 0.00000000e+00
4.52344477e-01 0.00000000e+00 0.00000000e+00
0.00000000e+00 0.00000000e+00 0.00000000e+00
0.00000000e+00 0.00000000e+00 0.00000000e+00
0.00000000e+00 0.00000000e+00 0.00000000e+00
0.00000000e+00 0.00000000e+00 0.00000000e+00
-6.84872150e-01 0.00000000e+00 0.00000000e+00
</DataArray>
<DataArray type="Float32" Name="Equivalent_plastic_strain" format="ascii">
1.04771890e-01
1.08742971e-01
1.02726780e-01
1.01030350e-01
1.00497846e-01
1.03754571e-01
9.95027218e-02
9.80497897e-02
1.15839146e-01
1.09561276e-01
1.09745054e-01
1.05619188e-01
1.24775797e-01
1.24143470e-01
1.16979066e-01
1.15921359e-01
1.34465359e-01
1.34074301e-01
1.24844860e-01
1.22133025e-01
1.41970083e-01
1.44899908e-01
1.32879563e-01
1.24314071e-01
1.55575007e-01
1.56836763e-01
1.38410389e-01
1.41042991e-01
8.90627839e-02
8.83690380e-02
8.86704149e-02
8.67455676e-02
9.04465895e-02
9.20706019e-02
6.34992714e-02
8.75659399e-02
5.92009607e-02
8.09392054e-02
4.31246902e-02
7.74012279e-02
4.48543783e-02
8.88123785e-02
7.45412614e-02
7.41853043e-02
7.37578068e-02
7.31584411e-02
5.18531417e-02
5.93720613e-02
8.06556857e-03
5.76602714e-03
-1.33634172e-03
2.14006472e-02
-3.51597082e-03
1.93665804e-02
5.00206510e-03
2.50280132e-02
6.65022824e-02
7.00220838e-02
6.37826719e-02
6.66522235e-02
4.87253852e-02
4.52839485e-02
6.28671935e-03
1.27415687e-02
2.97236851e-04
3.10734410e-03
1.14744809e-02
3.77184242e-03
9.85852443e-03
5.16540436e-03
6.93761799e-02
7.45129809e-02
6.52701128e-02
7.04558436e-02
5.35954190e-02
4.72956010e-02
7.22855597e-03
3.65153871e-02
1.58324701e-05
3.19896022e-03
-5.29726014e-05
-8.55357430e-06
0.00000000e+00
0.00000000e+00
8.11787657e-02
8.57233405e-02
7.64564127e-02
8.27229172e-02
6.95316233e-02
7.56493956e-02
2.15674080e-02
5.88387493e-02
-1.20026554e-04
9.23956052e-03
1.34947259e-04
-1.78233386e-05
0.00000000e+00
0.00000000e+00
9.47221443e-02
9.52355564e-02
9.33150304e-02
9.30083189e-02
9.71880872e-02
9.84142525e-02
1.03053387e-01
9.75798764e-02
1.08149765e-01
1.16191993e-01
1.10086985e-01
1.17554970e-01
1.11719880e-01
1.18660741e-01
9.00518829e-02
8.71931333e-02
9.59576017e-02
1.24690603e-01
1.31609235e-01
1.34549137e-01
1.36449233e-01
7.13940186e-02
7.33583886e-02
8.79569687e-02
6.74374457e-02
5.50300219e-02
6.26329659e-02
4.94528378e-02
2.21176830e-02
6.42436841e-02
6.58448357e-02
6.45411474e-02
9.95544232e-02
7.52011091e-02
7.48048052e-02
7.57636158e-02
1.28826469e-01
0.00000000e+00
0.00000000e+00
0.00000000e+00
0.00000000e+00
9.54136960e-02
9.50832702e-02
9.47854621e-02
9.50050913e-02
9.40067787e-02
9.78360334e-02
9.52894688e-02
9.32663321e-02
9.60369781e-02
1.10575842e-01
9.51880869e-02
1.06339562e-01
9.44165774e-02
1.03837341e-01
9.79854912e-02
9.39952582e-02
1.01150706e-01
1.33248252e-01
1.30688004e-01
1.28843471e-01
1.25871919e-01
9.67897070e-02
8.55778791e-02
1.24867918e-01
6.86318124e-02
8.14942960e-02
9.96562615e-02
4.70486053e-02
8.04917421e-02
5.97123975e-02
8.69450197e-02
1.47165559e-01
1.03481865e-01
8.09987895e-02
</DataArray>
<DataArray type="Float32" Name="Stress_Mises" format="ascii">
3.15540085e+01
3.81485310e+01
3.35396135e+01
3.52185545e+01
2.93291693e+01
3.49421487e+01
3.18600169e+01
3.39842992e+01
4.07387066e+01
4.24868815e+01
3.70381856e+01
3.68789495e+01
4.41523762e+01
5.09780149e+01
3.68246808e+01
4.19932673e+01
4.98980064e+01
5.87371421e+01
3.90981468e+01
2.89380075e+01
4.89947948e+01
4.35779176e+01
3.57619054e+01
3.20277690e+01
7.79573364e+01
8.92700844e+01
5.62454929e+01
5.51964691e+01
3.30632324e+01
3.11218367e+01
3.19028118e+01
2.84814801e+01
3.91728211e+01
3.80163833e+01
2.61995573e+01
3.98443089e+01
2.48923650e+01
5.61442909e+01
1.90479240e+01
4.70544848e+01
4.70799494e+01
9.05850601e+01
3.51653130e+01
2.41487176e+01
3.07599968e+01
2.30902601e+01
4.09319253e+01
3.20723317e+01
2.17360656e+01
2.18073409e+01
1.36035975e+01
3.43948002e+01
8.36393309e+00
2.75287393e+01
2.45034065e+01
3.59124126e+01
3.28274622e+01
3.10751362e+01
2.33956226e+01
2.62256808e+01
2.15739071e+01
2.60065251e+01
1.42176952e+01
2.22496664e+01
1.10251025e+01
2.01994543e+01
3.47084017e+01
1.02651590e+01
3.36937971e+01
2.21165895e+01
3.01484878e+01
3.25406513e+01
2.41942770e+01
2.78487144e+01
2.19967849e+01
2.92421501e+01
2.38395053e+01
4.35281375e+01
1.55027580e+01
2.41212995e+01
1.25679766e+01
8.62886820e+00
9.98883963e+00
7.65629752e+00
6.25704212e+01
6.20269394e+01
4.58823528e+01
6.04859734e+01
7.30946560e+01
5.71918466e+01
5.70090122e+01
7.52999016e+01
2.86053343e+01
4.00286779e+01
1.82533970e+01
1.44278072e+01
4.78692055e+00
5.45216465e+00
3.02582073e+01
2.92594476e+01
2.55844686e+01
3.07066703e+01
2.40391045e+01
2.54723602e+01
2.67985506e+01
2.87026188e+01
2.60657964e+01
2.59467722e+01
1.93168771e+01
2.58633476e+01
1.98355598e+01
2.56615682e+01
2.49972482e+01
3.01974983e+01
4.21314589e+01
1.01047211e+02
7.94721451e+01
7.33769312e+01
7.87272224e+01
3.03420379e+01
1.64964963e+01
6.81344067e+01
4.65996284e+01
1.72983849e+01
1.34612286e+01
2.19591178e+01
1.14876763e+01
1.88853283e+01
1.93335698e+01
2.95012260e+01
6.14828305e+01
3.49512823e+01
3.85617504e+01
6.38869238e+01
1.34262104e+02
1.72541136e+00
1.26075852e+00
2.08827835e+00
2.95649076e+00
2.78533974e+01
2.74333858e+01
2.30129770e+01
2.68689046e+01
2.19871957e+01
2.45196974e+01
2.30218184e+01
2.43993708e+01
2.10181261e+01
2.74969850e+01
1.65249586e+01
3.11997599e+01
1.58409443e+01
2.53432698e+01
2.59351005e+01
2.53871354e+01
4.51795860e+01
1.21128992e+02
8.94474792e+01
6.88805084e+01
6.03533363e+01
2.44903344e+01
2.93440944e+01
1.48233091e+02
2.72281720e+01
1.81143785e+01
9.37153893e+01
2.43787700e+01
2.24082832e+01
3.96371720e+01
5.08804550e+01
1.20604767e+02
2.88385340e+01
4.01874523e+01
</DataArray>
<DataArray type="Float32" Name="Stress_Max_Principal" format="ascii">
3.55641097e-01
-4.90144289e+00
-1.70638502e+00
-3.32752037e+00
2.12809122e+00
-2.39449936e+00
-3.05373639e-01
-2.15866041e+00
-6.79619741e+00
-8.44336724e+00
-4.36887205e+00
-3.40664354e+00
-9.65272593e+00
-1.48510410e+01
-4.75101447e+00
-7.89199995e+00
-1.45683662e+01
-1.88976047e+01
-6.31903982e+00
2.35773331e+00
-1.31572582e+01
-3.60791123e+00
2.65072531e+00
9.42495414e+00
-3.35244102e+01
-3.77807941e+01
-1.84235946e+01
-1.65824308e+01
-1.09710288e+00
3.13252449e-01
-8.18301499e-01
1.83725619e+00
-4.37503171e+00
-1.42713486e+00
2.98002717e+01
1.63018005e+01
4.11587503e+01
9.00388400e-01
3.98613093e+01
6.12380552e+00
3.26945095e+01
-1.35750020e+01
-4.30307388e-02
7.23861742e+00
2.81283146e+00
7.36472785e+00
3.08954496e+01
2.22137198e+01
4.31020353e+01
4.14692114e+01
3.18580195e+01
6.14937948e+01
3.92464339e+01
5.33211734e+01
3.21372809e+01
6.61125298e+01
2.97263287e+00
2.84183824e+00
9.18133557e+00
5.77417755e+00
2.14413137e+01
2.76305625e+01
2.90587921e+01
4.44091674e+01
2.94978120e+01
2.16005783e+01
-2.32423353e+00
2.20536306e+01
7.32579255e+00
1.69677825e+01
4.70299074e+00
1.95974731e+00
1.31727119e+01
4.93206179e+00
2.08504635e+01
1.59546940e+01
2.33032183e+01
3.50027795e+01
2.64000182e+01
2.48407850e+01
8.66854000e+00
6.67974808e+00
2.96561134e+00
1.46938397e+00
-2.13991365e+01
-2.01703510e+01
-9.63659076e+00
-2.07194691e+01
-2.75939374e+01
-9.43187809e+00
3.05704546e+01
-2.38804518e+01
5.27323809e+01
6.73136523e+00
8.62462306e+00
7.92171232e+00
4.49735880e-01
1.43179116e+00
1.16107273e+00
1.52440804e+00
4.82200407e+00
8.67242992e-01
6.04054165e+00
5.82553431e+00
3.19436824e+00
1.04154972e+01
4.22840112e+00
7.44225538e+00
1.16083879e+01
5.76170100e+00
9.57036877e+00
5.43057251e+00
8.50640449e+00
1.11481044e+00
-4.64462475e+00
-5.06967971e+01
-4.00825319e+01
-3.32847450e+01
-3.53537836e+01
2.48858471e+01
1.20821783e+01
-2.54491124e+01
1.03079060e+02
1.84903314e+01
1.78164926e+01
4.47990523e+01
3.43147933e+01
2.16403082e+01
1.17151804e+01
1.28878101e+01
-1.65859138e+01
-2.04635000e+00
-5.41483521e+00
5.62246799e+00
-8.28827801e+01
9.65439260e-01
6.78957880e-01
1.08096954e+00
1.76087189e+00
2.26414418e+00
2.97368687e+00
8.35252669e+00
3.58805263e+00
7.86692524e+00
7.96038297e+00
6.61145318e+00
1.48941474e+01
9.28173559e+00
7.76130986e+00
1.23664956e+01
1.57393711e+01
1.25902262e+01
2.45824876e+01
5.55198455e+00
8.26688516e+00
3.29136378e+01
-7.31245331e+01
-4.80043039e+01
-2.99843721e+01
-2.07246413e+01
6.99259890e+00
2.17213190e+01
-9.14111433e+01
3.80386868e+01
1.71561210e+01
-4.94065865e+01
2.42817739e+01
1.98810151e+01
4.41322877e+01
1.01796486e+02
-6.16037038e+01
1.78129840e+01
1.49699678e+01
</DataArray>
<DataArray type="Float32" Name="Stress_Mid_Principal" format="ascii">
-3.11600208e+00
-9.20562053e+00
-4.41896284e+00
-5.66526693e+00
-1.04398048e+00
-6.17458427e+00
-2.92430350e+00
-4.71628666e+00
-1.17819605e+01
-1.31000979e+01
-7.69952738e+00
-7.21000965e+00
-1.46839144e+01
-2.12058022e+01
-6.90311503e+00
-1.26967363e+01
-1.96410607e+01
-3.06962783e+01
-9.26696253e+00
-3.27357113e-01
-1.95071967e+01
-1.39740500e+01
-1.37620378e+00
2.37641215e+00
-4.91594582e+01
-6.54618168e+01
-2.67012269e+01
-2.64959495e+01
-4.16723800e+00
-2.23732901e+00
-2.36121324e+00
8.45829248e-01
-1.09257514e+01
-7.27625477e+00
1.84827383e+01
5.65093994e+00
2.89682488e+01
-1.97127380e+01
3.01376487e+01
-9.63458204e+00
7.99075127e+00
-4.79895007e+01
-9.33672750e+00
2.69048977e+00
-4.05709216e+00
4.49579608e+00
1.00917563e+01
5.76642555e+00
2.85303972e+01
2.76253446e+01
2.52512296e+01
3.27613303e+01
3.31663272e+01
3.03501053e+01
2.05365390e+01
4.52399158e+01
-8.62793219e+00
-5.13866711e+00
2.31517294e+00
6.80200681e-01
1.09882234e+01
1.37031977e+01
2.29550406e+01
3.14140205e+01
2.60926746e+01
9.04458729e+00
-1.52523661e+01
1.53721389e+01
-2.58605322e+00
-1.50554252e+00
-5.52444562e+00
-6.84028625e+00
5.69081450e+00
-1.52698541e+00
9.33509529e+00
4.87915827e+00
1.16309847e+01
1.05016400e+01
1.73514925e+01
9.58577430e+00
3.48905721e+00
8.39392962e-01
-1.33581251e+00
3.10687770e-01
-3.50464640e+01
-3.56198044e+01
-1.76873397e+01
-3.19507456e+01
-4.59268284e+01
-2.19572086e+01
2.70494270e+00
-4.53344994e+01
3.83076572e+01
-1.72212644e+01
4.55780500e+00
3.16243428e+00
-4.44287598e-01
2.12144643e-01
-1.62770319e+00
-2.22707003e-01
2.77549697e+00
-2.11143899e+00
4.49537450e+00
3.39740270e+00
2.36106956e+00
6.04167569e+00
2.58488861e+00
4.82136333e+00
9.48574006e+00
3.57060099e+00
8.16933990e+00
2.36367333e+00
5.79057460e+00
-1.44439051e+00
-9.37266646e+00
-6.93550494e+01
-4.47066755e+01
-4.10131981e+01
-4.85692387e+01
1.49001342e+01
1.12481130e+01
-3.45051625e+01
6.21816502e+01
1.35569309e+01
1.55488515e+01
3.06959973e+01
2.54343065e+01
1.53096718e+01
8.92287111e+00
2.41269326e+00
-2.36610254e+01
-4.54830480e+00
-9.00561953e+00
-1.34377460e+01
-9.37879105e+01
-3.71572409e-01
-3.69234196e-01
-1.39221031e-01
-6.37864172e-01
1.48204517e+00
1.49985805e+00
6.27956861e+00
1.88812143e+00
5.99504483e+00
4.96070471e+00
5.43054909e+00
1.00122272e+01
7.21011987e+00
4.15408540e+00
1.07828001e+01
8.20166802e+00
1.18353434e+01
1.69729537e+01
1.67022371e+00
3.54842341e+00
1.57909297e+01
-8.64229858e+01
-5.38479290e+01
-3.66772747e+01
-3.16478806e+01
3.17202044e+00
1.29151580e+01
-1.13559315e+02
2.46279052e+01
1.38776827e+01
-5.96940667e+01
1.63840352e+01
1.47695220e+01
2.35622272e+01
5.15783768e+01
-8.05317477e+01
1.21520042e+01
4.43805027e+00
</DataArray>
<DataArray type="Float32" Name="Stress_Min_Principal" format="ascii">
-3.27906303e+01
-4.50195065e+01
-3.65134188e+01
-3.96489553e+01
-2.86581221e+01
-3.90727499e+01
-3.33897629e+01
-3.73431735e+01
-4.97983189e+01
-5.30648834e+01
-4.29550092e+01
-4.19402936e+01
-5.60913544e+01
-6.87034237e+01
-4.26030674e+01
-5.20783097e+01
-6.67990026e+01
-8.25988781e+01
-4.68070631e+01
-2.78112943e+01
-6.50137730e+01
-5.11642823e+01
-3.41736937e+01
-2.45341469e+01
-1.18114357e+02
-1.37549747e+02
-7.83490019e+01
-7.60370071e+01
-3.55830531e+01
-3.19925246e+01
-3.34624797e+01
-2.71269784e+01
-4.63963292e+01
-4.15986327e+01
1.72440580e+00
-2.58956124e+01
1.41965666e+01
-6.12341745e+01
1.93198471e+01
-4.54608839e+01
-2.08611145e+01
-1.14705446e+02
-3.88877252e+01
-1.88607740e+01
-3.07273939e+01
-1.70128992e+01
-1.43126554e+01
-1.37376171e+01
1.85202622e+01
1.74844112e+01
1.69900678e+01
2.35337760e+01
3.00069879e+01
2.30154247e+01
4.44545841e+00
2.56130832e+01
-3.40706496e+01
-3.14354982e+01
-1.68442130e+01
-2.26207621e+01
-3.11274767e+00
-1.93314099e+00
1.31540956e+01
1.91215744e+01
1.74171656e+01
-1.50753466e+00
-4.01343722e+01
1.02909295e+01
-3.00651836e+01
-7.31042330e+00
-2.91767755e+01
-3.40710464e+01
-1.34522851e+01
-2.55716822e+01
-4.21997213e+00
-1.61913549e+01
-3.92628670e+00
-1.31767317e+01
8.59529507e+00
-2.17250627e+00
-5.40547259e+00
-2.85408770e+00
-8.36340499e+00
-6.61706841e+00
-8.96649246e+01
-8.84617920e+01
-5.90031471e+01
-8.60335960e+01
-1.08075672e+02
-7.08148146e+01
-3.30262489e+01
-1.07056579e+02
2.13167143e+01
-3.91343880e+01
-1.08285494e+01
-8.17953380e+00
-4.72116709e+00
-4.52351952e+00
-3.03949656e+01
-2.85576944e+01
-2.17226796e+01
-3.12194889e+01
-1.87241688e+01
-2.06640475e+01
-2.40094794e+01
-1.89246503e+01
-2.26186142e+01
-1.93049861e+01
-8.55162716e+00
-2.09511704e+01
-1.09285583e+01
-2.16073074e+01
-1.71946374e+01
-3.02745868e+01
-4.88579153e+01
-1.59078803e+02
-1.21758217e+02
-1.10213079e+02
-1.19851200e+02
-6.73818755e+00
-4.80783749e+00
-9.76273090e+01
5.27041054e+01
-3.08827847e-01
3.57567921e+00
2.13113811e+01
2.16207332e+01
1.24831069e+00
-8.70064878e+00
-1.95759490e+01
-8.12396823e+01
-3.80884295e+01
-4.56449375e+01
-6.25994539e+01
-2.22257004e+02
-9.82254237e-01
-6.97964922e-01
-1.33005938e+00
-1.51143348e+00
-2.59714012e+01
-2.51656294e+01
-1.54456757e+01
-2.40816859e+01
-1.49922612e+01
-1.76184890e+01
-1.69715679e+01
-1.02261563e+01
-1.26168064e+01
-2.08401031e+01
-4.89127558e+00
-1.66992180e+01
-3.60935068e+00
-1.77190161e+00
-2.20455981e+01
-1.88690715e+01
-1.46090858e+01
-1.99907864e+02
-1.40223637e+02
-1.01964657e+02
-8.57935295e+01
-1.90802647e+01
-8.63352299e+00
-2.49420528e+02
1.00240986e+01
-1.59063411e+00
-1.47647995e+02
-1.35342133e+00
-3.31719494e+00
1.36962046e+00
5.02785873e+01
-1.90073153e+02
-1.18798208e+01
-2.67123356e+01
</DataArray>
<DataArray type="Float32" Name="Stress_Pressure" format="ascii">
1.18503304e+01
1.97088561e+01
1.42129223e+01
1.62139144e+01
9.19133735e+00
1.58806114e+01
1.22064800e+01
1.47393731e+01
2.27921582e+01
2.48694496e+01
1.83411363e+01
1.75189824e+01
2.68093319e+01
3.49200876e+01
1.80857317e+01
2.42223493e+01
3.36694751e+01
4.40642544e+01
2.07976890e+01
8.59363970e+00
3.25594087e+01
2.29154154e+01
1.09663906e+01
4.24425974e+00
6.69327393e+01
8.02641182e+01
4.11579409e+01
3.97051282e+01
1.36157987e+01
1.13055336e+01
1.22139984e+01
8.14796400e+00
2.05657043e+01
1.67673407e+01
-1.66691382e+01
1.31428991e+00
-2.81078552e+01
2.66821743e+01
-2.97729354e+01
1.63238862e+01
-6.60804939e+00
5.87566477e+01
1.60891604e+01
2.97722244e+00
1.06572182e+01
1.71745849e+00
-8.89151621e+00
-4.74750906e+00
-3.00508990e+01
-2.88596560e+01
-2.46997728e+01
-3.92629670e+01
-3.41399161e+01
-3.55622340e+01
-1.90397601e+01
-4.56551766e+01
1.32419833e+01
1.12441087e+01
1.78256804e+00
5.38879463e+00
-9.77226353e+00
-1.31335400e+01
-2.17226429e+01
-3.16482544e+01
-2.43358836e+01
-9.71254365e+00
1.92369910e+01
-1.59055663e+01
8.44181478e+00
-2.71727228e+00
9.99940932e+00
1.29838624e+01
-1.80374736e+00
7.38886893e+00
-8.65519562e+00
-1.54749900e+00
-1.03359717e+01
-1.07758954e+01
-1.74489358e+01
-1.07513515e+01
-2.25070813e+00
-1.55501786e+00
2.24453551e+00
1.61233221e+00
4.87035065e+01
4.80839844e+01
2.87756920e+01
4.62346020e+01
6.05321445e+01
3.40679669e+01
-8.30497742e-02
5.87571761e+01
-3.74522526e+01
1.65414289e+01
-7.84626484e-01
-9.68204399e-01
1.57190633e+00
9.59861264e-01
1.02871982e+01
9.08533156e+00
4.70839295e+00
1.08212287e+01
2.72941750e+00
3.81370351e+00
6.15134728e+00
8.22492868e-01
5.26844132e+00
2.34712267e+00
-4.18083358e+00
3.87295663e+00
-2.27038336e+00
4.60435466e+00
9.65885997e-01
1.02013886e+01
2.09584020e+01
9.30435524e+01
6.88491430e+01
6.15036726e+01
6.79247398e+01
-1.10159316e+01
-6.17415112e+00
5.25271953e+01
-7.26549397e+01
-1.05794784e+01
-1.23136746e+01
-3.22688103e+01
-2.71232770e+01
-1.27327637e+01
-3.97913408e+00
1.42514956e+00
4.04955406e+01
1.48943610e+01
2.00217972e+01
2.34715767e+01
1.32975899e+02
1.29462447e-01
1.29413746e-01
1.29436962e-01
1.29475262e-01
7.40840387e+00
6.89736164e+00
2.71193534e-01
6.20183718e+00
3.76763910e-01
1.56580079e+00
1.64318883e+00
-4.89340582e+00
-1.29168296e+00
2.97490275e+00
-6.08600658e+00
-2.41394067e+00
-6.93873936e+00
-1.32611802e+01
4.94112992e+00
2.35125405e+00
-1.13651595e+01
1.19818462e+02
8.06919565e+01
5.62087660e+01
4.60553532e+01
2.97188159e+00
-8.66765070e+00
1.51463663e+02
-2.42302299e+01
-9.81439024e+00
8.55828843e+01
-1.31041293e+01
-1.04444477e+01
-2.30213789e+01
-6.78844833e+01
1.10736200e+02
-6.02838945e+00
2.43477249e+00
</DataArray>
<DataArray type="Float32" Name="Stress_Tresca" format="ascii">
3.31462708e+01
4.01180639e+01
3.48070335e+01
3.63214359e+01
3.07862129e+01
3.66782508e+01
3.30843892e+01
3.51845131e+01
4.30021210e+01
4.46215167e+01
3.85861368e+01
3.85336497e+01
4.64386272e+01
5.38523822e+01
3.78520525e+01
4.41863098e+01
5.22306366e+01
6.37012715e+01
4.04880242e+01
3.01690273e+01
5.18565159e+01
4.75563712e+01
3.68244190e+01
3.39591012e+01
8.45899506e+01
9.97689514e+01
5.99254074e+01
5.94545767e+01
3.44859507e+01
3.23057766e+01
3.26441789e+01
2.89642348e+01
4.20212984e+01
4.01714972e+01
2.80758662e+01
4.21974128e+01
2.69621835e+01
6.21345628e+01
2.05414619e+01
5.15846888e+01
5.35556259e+01
1.01130441e+02
3.88446946e+01
2.60993919e+01
3.35402249e+01
2.43776276e+01
4.52081041e+01
3.59513371e+01
2.45817728e+01
2.39848003e+01
1.48679517e+01
3.79600182e+01
9.23944600e+00
3.03057493e+01
2.76918221e+01
4.04994469e+01
3.70432820e+01
3.42773361e+01
2.60255491e+01
2.83949399e+01
2.45540609e+01
2.95637033e+01
1.59046965e+01
2.52875932e+01
1.20806462e+01
2.31081130e+01
3.78101387e+01
1.17627010e+01
3.73909769e+01
2.42782065e+01
3.38797665e+01
3.60307941e+01
2.66249970e+01
3.05037439e+01
2.50704350e+01
3.21460491e+01
2.72295046e+01
4.81795108e+01
1.78047228e+01
2.70132909e+01
1.40740130e+01
9.53383570e+00
1.13290162e+01
8.08645256e+00
6.82657890e+01
6.82914429e+01
4.93665562e+01
6.53141289e+01
8.04817352e+01
6.13829365e+01
6.35967026e+01
8.31761258e+01
3.14156666e+01
4.58657513e+01
1.94531727e+01
1.61012462e+01
5.17090321e+00
5.95531082e+00
3.15560389e+01
3.00821018e+01
2.65446835e+01
3.20867314e+01
2.47647104e+01
2.64895818e+01
2.72038472e+01
2.93401468e+01
2.68470156e+01
2.67472420e+01
2.01600156e+01
2.67128711e+01
2.04989271e+01
2.70378802e+01
2.57010416e+01
3.13893964e+01
4.42132913e+01
1.08382005e+02
8.16756840e+01
7.69283342e+01
8.44974174e+01
3.16240346e+01
1.68900156e+01
7.21781966e+01
5.03749542e+01
1.87991594e+01
1.42408130e+01
2.34876712e+01
1.26940600e+01
2.03919975e+01
2.04158292e+01
3.24637591e+01
6.46537693e+01
3.60420790e+01
4.02301025e+01
6.82219210e+01
1.39374222e+02
1.94769359e+00
1.37692279e+00
2.41102898e+00
3.27230537e+00
2.82355461e+01
2.81393166e+01
2.37982026e+01
2.76697378e+01
2.28591866e+01
2.55788717e+01
2.35830204e+01
2.51203040e+01
2.18985424e+01
2.86014137e+01
1.72577715e+01
3.24385889e+01
1.61995769e+01
2.63543887e+01
2.75975828e+01
2.71359563e+01
4.75227225e+01
1.26783328e+02
9.22193336e+01
7.19802876e+01
6.50688877e+01
2.60728640e+01
3.03548412e+01
1.58009386e+02
2.80145882e+01
1.87467551e+01
9.82414107e+01
2.56351953e+01
2.31982102e+01
4.27626678e+01
5.15178986e+01
1.28469449e+02
2.96928043e+01
4.16823044e+01
</DataArray>
<DataArray type="Float32" Name="Stress_Third_Invariant" format="ascii">
-3.11199932e+01
-3.75964022e+01
-3.32714469e+01
-3.50196409e+01
-2.89392967e+01
-3.44768453e+01
-3.16033429e+01
-3.37472801e+01
-4.00436735e+01
-4.19009767e+01
-3.66839018e+01
-3.59527028e+01
-4.34569721e+01
-5.00589767e+01
-3.66782913e+01
-4.13597046e+01
-4.92816277e+01
-5.58406544e+01
-3.88449439e+01
-2.85912583e+01
-4.80442781e+01
-3.83415425e+01
-3.08264799e+01
-2.45531320e+01
-7.43059235e+01
-7.84153366e+01
-5.48493071e+01
-5.30460334e+01
-3.27240176e+01
-3.08459845e+01
-3.18122981e+01
-2.84425738e+01
-3.78639946e+01
-3.47713083e+01
-8.43869662e+00
-2.26073563e+01
-2.51882648e+00
-3.88643640e+01
1.88297677e+00
-3.18253989e+01
-1.39667549e+01
-6.12068125e+01
-3.20907910e+01
-2.31555042e+01
-2.86832590e+01
-2.26431749e+01
-1.13982239e+01
-1.30616672e+01
4.19660068e+00
9.97389158e-01
-3.36875057e+00
3.09873365e+01
4.89034168e+00
2.45144310e+01
-6.58172989e+00
5.49420643e+00
-2.75629067e+01
-2.85911808e+01
-2.07518460e+01
-2.50620785e+01
-1.00641376e+01
-6.88366687e+00
-5.42251337e+00
1.52390409e+00
-6.84154367e+00
8.10360114e-01
-1.72270541e+01
3.38713074e+00
-2.93881721e+01
1.94551090e+01
-2.55230233e+01
-2.96617270e+01
-1.85358329e+01
-2.60567245e+01
-8.73983628e+00
-1.77694616e+01
-8.51346970e+00
-8.57305129e+00
1.16622174e+00
2.30613470e-01
-7.15696681e+00
3.13541069e+00
-4.09058237e+00
-6.45579501e+00
-5.90739040e+01
-5.74538040e+01
-4.42230377e+01
-5.80689602e+01
-6.74882908e+01
-4.86515443e+01
-1.91136827e+01
-6.44659679e+01
2.35288429e+00
1.07808065e+01
-1.06331882e+01
-1.19898512e+01
-4.59342194e+00
-5.11902928e+00
-2.99669714e+01
-2.91059375e+01
-2.53944778e+01
-3.03768063e+01
-2.38932990e+01
-2.46269967e+01
-2.67644541e+01
-2.22839154e+01
-2.59438152e+01
-2.35437151e+01
-1.80330703e+01
-2.47131601e+01
-1.97237682e+01
-2.51820318e+01
-2.23497819e+01
-2.99327128e+01
-4.10971774e+01
-9.45732761e+01
-7.91455784e+01
-7.24310331e+01
-7.61675491e+01
-1.25765696e+01
-1.64251820e+01
-6.66586062e+01
4.35292568e+01
-1.22286041e+01
-1.13184863e+01
4.67973573e+00
8.31082376e+00
-1.03102954e+01
-1.80205898e+01
-1.98146529e+01
-6.03636584e+01
-3.38783518e+01
-3.81784039e+01
-4.01401892e+01
-1.33235977e+02
1.45048064e+00
1.08531007e+00
1.49713159e-02
2.54280758e+00
-2.78266745e+01
-2.73402247e+01
-2.17702346e+01
-2.67208762e+01
-2.17940602e+01
-2.27278165e+01
-2.29338067e+01
-1.74668912e+01
-2.03210221e+01
-2.39714682e+01
-1.63466434e+01
-1.97386463e+01
-1.57842460e+01
-1.07078527e+01
-2.50189633e+01
-2.29019760e+01
-1.41231131e+01
-1.18036320e+02
-8.89961033e+01
-6.81358137e+01
-5.80662804e+01
-2.34206856e+01
-1.42897201e+01
-1.44270535e+02
-1.44547912e+00
-1.33719151e+01
-9.18113737e+01
-1.08078159e+01
-1.29975586e+01
-1.93180299e+00
5.08430824e+01
-1.15334485e+02
-1.86649117e+01
-2.35097113e+01
</DataArray>
<DataArray type="Float32" Name="Logarithmic_strain_Max_Principal" format="ascii">
7.72427768e-02
7.98685439e-02
7.30135199e-02
7.07548074e-02
7.35655017e-02
7.51011986e-02
6.99577453e-02
6.88594971e-02
8.53820369e-02
7.91412275e-02
7.70587679e-02
7.39737796e-02
9.06566940e-02
8.52747504e-02
7.90810753e-02
7.92473219e-02
9.66828763e-02
9.36669745e-02
8.39916002e-02
8.07103030e-02
1.03990439e-01
1.02512063e-01
8.78132731e-02
8.85149455e-02
1.24294102e-01
1.19975563e-01
1.04058269e-01
1.02822958e-01
6.09299829e-02
5.87999728e-02
5.89984083e-02
5.60047310e-02
6.58683907e-02
6.27929545e-02
6.09976053e-02
6.45628231e-02
6.95704445e-02
7.50778963e-02
7.04996791e-02
7.66844644e-02
7.57418387e-02
8.63127833e-02
5.65671753e-02
5.46566620e-02
5.24724233e-02
4.91743227e-02
4.77658343e-02
5.07012112e-02
2.30690094e-02
3.22300899e-02
1.76569705e-02
4.22927216e-02
2.10570252e-02
4.13442043e-02
1.83497062e-02
3.67192188e-02
5.57710156e-02
5.60058821e-02
5.00519495e-02
5.11048911e-02
4.21310356e-02
4.22377335e-02
1.53273033e-02
2.30778238e-02
2.50651376e-03
4.67103233e-03
9.28163042e-03
5.99338233e-03
1.05176639e-02
9.87842949e-03
5.49743427e-02
5.81767447e-02
5.04274839e-02
5.30166999e-02
4.33976599e-02
4.40714899e-02
1.68862625e-02
3.08119445e-02
2.17067830e-03
5.41730855e-03
1.59057505e-04
1.35159186e-04
9.78025600e-05
5.44716704e-05
6.13540597e-02
6.58941343e-02
5.49016660e-02
5.99688645e-02
5.34646921e-02
5.14094597e-02
2.62430646e-02
4.44030246e-02
2.31689756e-03
1.12081118e-02
2.92514698e-04
1.86996088e-04
3.03400684e-05
4.50773350e-05
6.55242912e-02
6.32857149e-02
6.46524709e-02
6.55626766e-02
6.29609050e-02
6.58686897e-02
6.52263323e-02
6.92021465e-02
7.20338654e-02
7.59554897e-02
7.08765667e-02
7.74712786e-02
7.34973922e-02
8.11738688e-02
6.12317817e-02
6.25377763e-02
6.62664691e-02
8.35000977e-02
8.52863938e-02
8.74584243e-02
9.30184759e-02
5.31753809e-02
4.99073965e-02
6.22178447e-02
8.43731314e-02
4.79029678e-02
4.13353620e-02
4.70133722e-02
4.55411387e-02
4.73213014e-02
4.59637502e-02
5.49709471e-02
6.37843283e-02
4.77259047e-02
4.64683585e-02
6.27776906e-02
7.47193135e-02
2.44035382e-05
1.80974466e-05
2.68930298e-05
4.40672611e-05
5.81963789e-02
5.98750552e-02
6.28859438e-02
6.04357477e-02
6.39084252e-02
6.66381028e-02
6.51110392e-02
6.93483204e-02
6.85255900e-02
7.30455397e-02
6.64692838e-02
6.97461274e-02
6.45024665e-02
7.04039298e-02
7.12625990e-02
6.97022490e-02
6.58780028e-02
8.83114472e-02
8.46070703e-02
8.21000747e-02
8.42883512e-02
6.97919652e-02
6.31280299e-02
9.80340783e-02
5.14137798e-02
5.43105137e-02
6.97370116e-02
5.22775548e-02
5.24488157e-02
6.78653786e-02
1.18371069e-01
1.00781391e-01
6.19357321e-02
5.74459024e-02
</DataArray>
<DataArray type="Float32" Name="Logarithmic_strain_Min_Principal" format="ascii">
-1.03740901e-01
-1.08045477e-01
-1.02345940e-01
-1.00951232e-01
-9.96400043e-02
-1.03250289e-01
-9.93128857e-02
-9.77659337e-02
-1.15213666e-01
-1.09458819e-01
-1.09978886e-01
-1.05773686e-01
-1.24961752e-01
-1.19209277e-01
-1.17795467e-01
-1.14618097e-01
-1.35247298e-01
-1.28694080e-01
-1.25552190e-01
-1.19227414e-01
-1.44032091e-01
-1.32016603e-01
-1.30165730e-01
-1.25080805e-01
-1.55873522e-01
-1.45861037e-01
-1.40460089e-01
-1.35505756e-01
-8.93713068e-02
-8.88445638e-02
-8.90701367e-02
-8.72604698e-02
-8.83395094e-02
-9.07683587e-02
-7.96098523e-02
-9.33057070e-02
-8.07573050e-02
-9.56002474e-02
-7.46062025e-02
-9.46787174e-02
-8.03050064e-02
-1.04071788e-01
-7.39848074e-02
-7.38316514e-02
-7.41656041e-02
-7.34641682e-02
-5.76635823e-02
-6.54191282e-02
-1.98802787e-02
-2.80170251e-02
-1.29509376e-02
-3.20909532e-02
-1.40524531e-02
-3.23234517e-02
-1.73157295e-02
-2.96511138e-02
-6.47420660e-02
-6.89121820e-02
-6.23360053e-02
-6.60655908e-02
-4.46370896e-02
-4.49771946e-02
-1.01263004e-02
-1.98618534e-02
-2.77989303e-03
-4.01347053e-03
-1.37885094e-02
-4.53319679e-03
-1.44813236e-02
-5.99328172e-03
-6.82913661e-02
-7.34702572e-02
-6.44528568e-02
-6.98951054e-02
-4.97296704e-02
-5.34822727e-02
-1.39932455e-02
-3.52947105e-02
-9.32542309e-04
-3.15853973e-03
-1.22307205e-04
-8.93508313e-05
-1.74258283e-04
-1.40333474e-04
-8.18902850e-02
-8.56631026e-02
-7.68186729e-02
-8.36363100e-02
-6.83071464e-02
-7.35285487e-02
-2.87582427e-02
-5.83799047e-02
-2.29865866e-03
-1.00397001e-02
-4.21569697e-04
-2.07799167e-04
-9.41820472e-05
-9.46893560e-05
-9.46655869e-02
-9.56287123e-02
-9.29848729e-02
-9.28627960e-02
-9.74395685e-02
-9.84431524e-02
-1.03437070e-01
-1.05706313e-01
-1.08354816e-01
-1.14652385e-01
-1.09463707e-01
-1.18519344e-01
-1.11044753e-01
-1.19987572e-01
-8.82156072e-02
-8.65519140e-02
-9.98422812e-02
-1.26589011e-01
-1.35865729e-01
-1.37311682e-01
-1.38423003e-01
-7.51724318e-02
-7.30056614e-02
-9.11498790e-02
-7.44229816e-02
-6.27992041e-02
-6.29302720e-02
-5.70818021e-02
-4.61552342e-02
-6.40019625e-02
-6.61112033e-02
-7.11236596e-02
-1.00829648e-01
-7.59486314e-02
-7.55302645e-02
-8.96956716e-02
-1.28623910e-01
-2.25300882e-05
-1.66481050e-05
-3.00208803e-05
-3.62237834e-05
-9.56719816e-02
-9.57050417e-02
-9.45542520e-02
-9.57188923e-02
-9.38098133e-02
-9.77451131e-02
-9.47184488e-02
-1.00809167e-01
-9.55166575e-02
-1.07953997e-01
-9.49829035e-02
-1.06749409e-01
-9.43011753e-02
-1.03678210e-01
-9.76389777e-02
-9.29401536e-02
-1.07150430e-01
-1.41197239e-01
-1.35900006e-01
-1.30034601e-01
-1.26632515e-01
-9.26940037e-02
-8.53478871e-02
-1.38942221e-01
-7.53070308e-02
-7.64027946e-02
-1.05694754e-01
-7.62407184e-02
-7.66717270e-02
-8.98069739e-02
-1.06617846e-01
-1.40643212e-01
-8.62655379e-02
-8.27927515e-02
</DataArray>
<DataArray type="Float32" Name="Plastic_strain_Max_Principal" format="ascii">
7.70979375e-02
7.98395649e-02
7.29318839e-02
7.06740730e-02
7.33727068e-02
7.50447158e-02
6.98313061e-02
6.88228291e-02
8.54155980e-02
7.91997798e-02
7.69807585e-02
7.39605930e-02
9.05691907e-02
9.07076821e-02
7.89557192e-02
8.08722377e-02
9.67124067e-02
1.00870166e-01
8.40970650e-02
8.33087033e-02
1.03053257e-01
1.15229297e-01
9.00131632e-02
8.81209010e-02
1.24694981e-01
1.31822556e-01
1.03306614e-01
1.08134059e-01
6.08457066e-02
5.86723778e-02
5.89260291e-02
5.58277834e-02
6.74304981e-02
6.41640048e-02
5.20950160e-02
6.08388436e-02
4.96944555e-02
6.27434409e-02
4.41957875e-02
6.09685049e-02
4.17667981e-02
7.01285799e-02
5.64486124e-02
5.43126017e-02
5.21087525e-02
4.88614794e-02
4.20201761e-02
5.11141599e-02
2.03958508e-02
2.95096893e-02
1.72641277e-02
2.52695071e-02
1.58396621e-02
2.73230126e-02
2.06126021e-02
3.13199153e-02
5.54737337e-02
5.56809586e-02
5.05313394e-02
5.08617833e-02
4.44875043e-02
3.99484127e-02
7.06323923e-03
1.34002649e-02
2.14925230e-03
4.27621334e-03
9.48608853e-03
5.70248053e-03
1.04588540e-02
9.52812051e-03
5.46810292e-02
5.80511000e-02
5.01564867e-02
5.27785765e-02
4.56628511e-02
4.26932755e-02
1.25481770e-02
3.13478511e-02
1.43634226e-03
5.08748923e-03
4.54839518e-05
1.24550786e-05
0.00000000e+00
0.00000000e+00
6.15838133e-02
6.63153678e-02
5.52334292e-02
6.03487678e-02
5.56166973e-02
5.44592738e-02
1.98967597e-02
4.68314843e-02
2.01698166e-03
1.08202861e-02
1.00220226e-04
2.95608188e-05
0.00000000e+00
0.00000000e+00
6.54673092e-02
6.31226515e-02
6.44986974e-02
6.54009040e-02
6.27943994e-02
6.55725934e-02
6.51141806e-02
6.28414857e-02
7.18041901e-02
7.70661021e-02
7.07137305e-02
7.69802202e-02
7.34771304e-02
8.04116353e-02
6.22974592e-02
6.24625692e-02
6.56520277e-02
8.64576340e-02
8.54125079e-02
8.82788356e-02
9.38205533e-02
4.96605423e-02
4.97316737e-02
6.64422431e-02
8.57922956e-02
4.34864915e-02
4.09949543e-02
4.58609480e-02
4.50077715e-02
4.67584855e-02
4.56504412e-02
5.57871815e-02
6.96827853e-02
4.79897922e-02
4.66944184e-02
5.25320699e-02
8.15441906e-02
0.00000000e+00
0.00000000e+00
0.00000000e+00
0.00000000e+00
5.81845473e-02
5.96362008e-02
6.27635461e-02
6.01403387e-02
6.36553541e-02
6.63899435e-02
6.49727406e-02
6.33006147e-02
6.81023765e-02
7.47621702e-02
6.59460006e-02
6.91389507e-02
6.40006345e-02
6.97084051e-02
7.05652973e-02
6.96141776e-02
6.65748758e-02
9.26595509e-02
8.46928526e-02
8.34248904e-02
8.50601457e-02
7.20898621e-02
6.21358883e-02
9.97614656e-02
4.67210902e-02
5.71467420e-02
7.25853238e-02
6.02450613e-02
5.49633084e-02
6.64760673e-02
1.15711480e-01
1.18817990e-01
7.42416000e-02
5.57892993e-02
</DataArray>
<DataArray type="Float32" Name="Plastic_strain_Min_Principal" format="ascii">
-1.03076138e-01
-1.07063964e-01
-1.01605732e-01
-1.00088134e-01
-9.90551673e-02
-1.02471299e-01
-9.86157097e-02
-9.70835984e-02
-1.14105929e-01
-1.08237375e-01
-1.08942488e-01
-1.04949458e-01
-1.23257540e-01
-1.25063792e-01
-1.16607213e-01
-1.16071730e-01
-1.33124433e-01
-1.34917751e-01
-1.24586780e-01
-1.23185833e-01
-1.40071385e-01
-1.47144899e-01
-1.33381136e-01
-1.23725115e-01
-1.51657015e-01
-1.55056581e-01
-1.36049949e-01
-1.41564174e-01
-8.86434112e-02
-8.81670564e-02
-8.84207040e-02
-8.66695475e-02
-8.98957066e-02
-9.21935420e-02
-6.59737181e-02
-8.74787617e-02
-5.63358424e-02
-7.51758904e-02
-3.82803398e-02
-7.22448158e-02
-3.65850607e-02
-8.13527002e-02
-7.31361639e-02
-7.33070523e-02
-7.32369553e-02
-7.29577746e-02
-4.87893862e-02
-6.22438728e-02
-1.18108816e-02
-1.86161884e-02
-9.58120233e-03
-1.83461175e-02
-8.81111560e-03
-1.97911489e-02
-1.83308306e-02
-2.82499092e-02
-6.38558473e-02
-6.80238605e-02
-6.29200665e-02
-6.55378774e-02
-4.68985057e-02
-4.23363266e-02
-5.13796712e-03
-1.02962385e-02
-2.92741002e-03
-3.84907326e-03
-1.29563771e-02
-4.83323623e-03
-1.38289258e-02
-5.54963697e-03
-6.75333124e-02
-7.28105791e-02
-6.42246148e-02
-6.92939293e-02
-5.29596256e-02
-4.85227350e-02
-8.73922789e-03
-3.63735744e-02
-1.12483237e-03
-3.23069104e-03
-3.02648357e-05
-9.13806678e-06
0.00000000e+00
0.00000000e+00
-7.98753351e-02
-8.39061439e-02
-7.59223383e-02
-8.18745941e-02
-6.89658560e-02
-7.74465837e-02
-1.96676324e-02
-5.99655174e-02
-2.27545341e-03
-9.31564384e-03
-1.51866479e-04
-2.07541210e-05
0.00000000e+00
0.00000000e+00
-9.41876918e-02
-9.50203668e-02
-9.27287433e-02
-9.22191590e-02
-9.73223522e-02
-9.80387731e-02
-1.03159692e-01
-9.46558150e-02
-1.07952816e-01
-1.17010233e-01
-1.09806534e-01
-1.17641743e-01
-1.11413062e-01
-1.18533421e-01
-9.02637439e-02
-8.60844087e-02
-9.70614574e-02
-1.28040826e-01
-1.31252337e-01
-1.34834316e-01
-1.36049762e-01
-7.01986250e-02
-7.31769986e-02
-9.53624795e-02
-8.45723767e-02
-5.43064947e-02
-6.30775886e-02
-5.51262836e-02
-4.80568366e-02
-6.38723536e-02
-6.58357255e-02
-6.70996092e-02
-1.07022224e-01
-7.55930655e-02
-7.51026571e-02
-7.14605628e-02
-1.33029949e-01
0.00000000e+00
0.00000000e+00
0.00000000e+00
0.00000000e+00
-9.54952687e-02
-9.51127056e-02
-9.46558537e-02
-9.50529780e-02
-9.36926268e-02
-9.75178685e-02
-9.47622284e-02
-9.00918255e-02
-9.52174943e-02
-1.11516310e-01
-9.46928617e-02
-1.06163881e-01
-9.40717533e-02
-1.03525111e-01
-9.65694869e-02
-9.30429138e-02
-1.06811709e-01
-1.40106238e-01
-1.30307386e-01
-1.28993642e-01
-1.25350326e-01
-9.71352735e-02
-8.43212679e-02
-1.35609237e-01
-6.79311975e-02
-8.23293347e-02
-1.05731662e-01
-6.69761095e-02
-8.18742644e-02
-7.75809949e-02
-1.17498979e-01
-1.68322225e-01
-1.08834725e-01
-8.02288279e-02
</DataArray>
</PointData>
<Cells>
<DataArray type="Int32" Name="connectivity" format="ascii">
0 1 2 3 4 5 6 7
1 8 9 2 5 10 11 6
8 12 13 9 10 14 15 11
12 16 17 13 14 18 19 15
16 20 21 17 18 22 23 19
20 24 25 21 22 26 27 23
3 2 28 29 7 6 30 31
2 9 32 28 6 11 33 30
9 13 34 32 11 15 35 33
13 17 36 34 15 19 37 35
17 21 38 36 19 23 39 37
21 25 40 38 23 27 41 39
29 28 42 43 31 30 44 45
28 32 46 42 30 33 47 44
32 34 48 46 33 35 49 47
34 36 50 48 35 37 51 49
36 38 52 50 37 39 53 51
38 40 54 52 39 41 55 53
43 42 56 57 45 44 58 59
42 46 60 56 44 47 61 58
46 48 62 60 47 49 63 61
48 50 64 62 49 51 65 63
52 54 66 67 53 55 68 69
57 56 70 71 59 58 72 73
56 60 74 70 58 61 75 72
60 62 76 74 61 63 77 75
62 64 78 76 63 65 79 77
64 67 80 78 65 69 81 79
67 66 82 80 69 68 83 81
71 70 84 85 73 72 86 87
70 74 88 84 72 75 89 86
74 76 90 88 75 77 91 89
76 78 92 90 77 79 93 91
78 80 94 92 79 81 95 93
80 82 96 94 81 83 97 95
4 5 6 7 98 99 100 101
5 10 11 6 99 102 103 100
10 14 15 11 102 104 105 103
14 18 19 15 104 106 107 105
18 22 23 19 106 108 109 107
22 26 27 23 108 110 111 109
7 6 30 31 101 100 112 113
6 11 33 30 100 103 114 112
11 15 35 33 103 105 115 114
15 19 37 35 105 107 116 115
19 23 39 37 107 109 117 116
23 27 41 39 109 111 118 117
31 30 44 45 113 112 119 120
30 33 47 44 112 114 121 119
33 35 49 47 114 115 122 121
45 44 58 59 120 119 123 124
44 47 61 58 119 121 125 123
47 49 63 61 121 122 126 125
59 58 72 73 124 123 127 128
58 61 75 72 123 125 129 127
61 63 77 75 125 126 130 129
73 72 86 87 128 127 131 132
72 75 89 86 127 129 133 131
75 77 91 89 129 130 134 133
81 83 97 95 135 136 137 138
98 99 100 101 139 140 141 142
99 102 103 100 140 143 144 141
102 104 105 103 143 145 146 144
104 106 107 105 145 147 148 146
106 108 109 107 147 149 150 148
108 110 111 109 149 151 152 150
101 100 112 113 142 141 153 154
100 103 114 112 141 144 155 153
103 105 115 114 144 146 156 155
105 107 116 115 146 148 157 156
107 109 117 116 148 150 158 157
109 111 118 117 150 152 159 158
113 112 119 120 154 153 160 161
112 114 121 119 153 155 162 160
120 119 123 124 161 160 163 164
119 121 125 123 160 162 165 163
124 123 127 128 164 163 166 167
123 125 129 127 163 165 168 166
125 126 130 129 165 169 170 168
128 127 131 132 167 166 171 172
</DataArray>
<DataArray type="Int32" Name="offsets" format="ascii">
8
16
24
32
40
48
56
64
72
80
88
96
104
112
120
128
136
144
152
160
168
176
184
192
200
208
216
224
232
240
248
256
264
272
280
288
296
304
312
320
328
336
344
352
360
368
376
384
392
400
408
416
424
432
440
448
456
464
472
480
488
496
504
512
520
528
536
544
552
560
568
576
584
592
600
608
616
624
632
640
</DataArray>
<DataArray type="UInt8" Name="types" format="ascii">
12
12
12
12
12
12
12
12
12
12
12
12
12
12
12
12
12
12
12
12
12
12
12
12
12
12
12
12
12
12
12
12
12
12
12
12
12
12
12
12
12
12
12
12
12
12
12
12
12
12
12
12
12
12
12
12
12
12
12
12
12
12
12
12
12
12
12
12
12
12
12
12
12
12
12
12
12
12
12
12
</DataArray>
</Cells>
</Piece>
</UnstructuredGrid>
</VTKFile>
