<VTKFile type="UnstructuredGrid" version="0.1" byte_order="LittleEndian">
<UnstructuredGrid>
<Piece NumberOfPoints="173" NumberOfCells="80">
<Points>
<DataArray type="Float64" NumberOfComponents="3" format="ascii">
 0.00000000e+00  0.00000000e+00  0.00000000e+00
 1.02852726e+00  0.00000000e+00  0.00000000e+00
 1.03084564e+00  1.05651307e+00  0.00000000e+00
 0.00000000e+00  1.05403757e+00  0.00000000e+00
 0.00000000e+00  0.00000000e+00  9.33712065e-01
 1.02834141e+00  0.00000000e+00  9.30916965e-01
 1.02892268e+00  1.05227864e+00  9.34364855e-01
 0.00000000e+00  1.05149209e+00  9.36654210e-01
 2.06105995e+00  0.00000000e+00  0.00000000e+00
 2.06183720e+00  1.06151795e+00  0.00000000e+00
 2.05968451e+00  0.00000000e+00  9.24721003e-01
 2.06150126e+00  1.05522549e+00  9.29072499e-01
 3.09495044e+00  0.00000000e+00  0.00000000e+00
 3.09818101e+00  1.06870675e+00  0.00000000e+00
 3.09946108e+00  0.00000000e+00  9.18595135e-01
 3.09555006e+00  1.05823541e+00  9.20773268e-01
 4.14095688e+00  0.00000000e+00  0.00000000e+00
 4.13222170e+00  1.07441819e+00  0.00000000e+00
 4.14445210e+00  0.00000000e+00  9.11302030e-01
 4.13471889e+00  1.05917287e+00  9.14901197e-01
 5.18812895e+00  0.00000000e+00  0.00000000e+00
 5.17556858e+00  1.08019161e+00  0.00000000e+00
 5.19206333e+00  0.00000000e+00  9.02809381e-01
 5.18316936e+00  1.06182754e+00  9.09259558e-01
 6.24115133e+00  0.00000000e+00  0.00000000e+00
 6.20915651e+00  1.10152638e+00  0.00000000e+00
 6.23743296e+00  0.00000000e+00  9.00095165e-01
 6.22962379e+00  1.08004487e+00  8.98528218e-01
 1.03407097e+00  2.09965420e+00  0.00000000e+00
 0.00000000e+00  2.09785008e+00  0.00000000e+00
 1.03097105e+00  2.09653306e+00  9.43859220e-01
 0.00000000e+00  2.09374022e+00  9.44783568e-01
 2.06797504e+00  2.10933399e+00  0.00000000e+00
 2.06204700e+00  2.10183978e+00  9.43496108e-01
 3.09517264e+00  2.11758828e+00  0.00000000e+00
 3.09074998e+00  2.10833192e+00  9.50340688e-01
 4.11814928e+00  2.13251209e+00  0.00000000e+00
 4.12069988e+00  2.10978699e+00  9.47802722e-01
 5.13387489e+00  2.13592482e+00  0.00000000e+00
 5.14571905e+00  2.11432004e+00  9.50851202e-01
 6.15691566e+00  2.16332102e+00  0.00000000e+00
 6.17708349e+00  2.14097452e+00  9.50644732e-01
 1.03654110e+00  3.12558627e+00  0.00000000e+00
 0.00000000e+00  3.12322712e+00  0.00000000e+00
 1.03261137e+00  3.12638879e+00  9.55385983e-01
 0.00000000e+00  3.12504864e+00  9.55365896e-01
 2.07222533e+00  3.12781453e+00  0.00000000e+00
 2.06508303e+00  3.12888527e+00  9.66422379e-01
 3.09162235e+00  3.13526011e+00  0.00000000e+00
 3.08739090e+00  3.13274693e+00  9.89016891e-01
 4.09586954e+00  3.14185929e+00  0.00000000e+00
 4.09059954e+00  3.13285136e+00  1.00359941e+00
 5.10737801e+00  3.13709450e+00  0.00000000e+00
 5.10814810e+00  3.12521553e+00  1.00957859e+00
 6.10986042e+00  3.16774344e+00  0.00000000e+00
 6.11368370e+00  3.16392684e+00  1.00336051e+00
 1.03798008e+00  4.13917255e+00  0.00000000e+00
 0.00000000e+00  4.14175510e+00  0.00000000e+00
 1.03301811e+00  4.14111423e+00  9.61473048e-01
 0.00000000e+00  4.14441156e+00  9.59515929e-01
 2.07088637e+00  4.13724518e+00  0.00000000e+00
 2.06352448e+00  4.13513708e+00  9.73762393e-01
 3.08691478e+00  4.13563490e+00  0.00000000e+00
 3.08091712e+00  4.13417530e+00  9.94692981e-01
 4.08487797e+00  4.14036369e+00  0.00000000e+00
 4.08449507e+00  4.14032316e+00  1.00002170e+00
 6.08482170e+00  4.14651442e+00  0.00000000e+00
 5.08485126e+00  4.14320993e+00  0.00000000e+00
 6.08493948e+00  4.14655495e+00  9.99759376e-01
 5.08493805e+00  4.14318419e+00  1.00001979e+00
 1.03607988e+00  5.15267754e+00  0.00000000e+00
 0.00000000e+00  5.15892220e+00  0.00000000e+00
 1.03341818e+00  5.15729332e+00  9.59569216e-01
 0.00000000e+00  5.15965796e+00  9.54348624e-01
 2.06882668e+00  5.14224100e+00  0.00000000e+00
 2.05844736e+00  5.14434767e+00  9.70498681e-01
 3.08071828e+00  5.13657188e+00  0.00000000e+00
 3.07632613e+00  5.13814068e+00  9.93723273e-01
 4.08192158e+00  5.14040279e+00  0.00000000e+00
 4.08174181e+00  5.14041233e+00  1.00027239e+00
 5.08179426e+00  5.14332199e+00  0.00000000e+00
 5.08189297e+00  5.14330149e+00  1.00002122e+00
 6.08190393e+00  5.14626312e+00  0.00000000e+00
 6.08192158e+00  5.14620113e+00  9.99998927e-01
 1.04045367e+00  6.17594624e+00  0.00000000e+00
 0.00000000e+00  6.17887402e+00  0.00000000e+00
 1.03609753e+00  6.17577505e+00  9.51515436e-01
 0.00000000e+00  6.18313646e+00  9.46518421e-01
 2.07468390e+00  6.15660143e+00  0.00000000e+00
 2.05989742e+00  6.16882753e+00  9.57079530e-01
 3.08210301e+00  6.14184713e+00  0.00000000e+00
 3.07877994e+00  6.15197039e+00  9.83793318e-01
 4.07991266e+00  6.14091873e+00  0.00000000e+00
 4.07935238e+00  6.14090157e+00  1.00049496e+00
 5.07902765e+00  6.14318705e+00  0.00000000e+00
 5.07914209e+00  6.14326811e+00  9.99971569e-01
 6.07899284e+00  6.14621639e+00  0.00000000e+00
 6.07902098e+00  6.14618206e+00  9.99997139e-01
 0.00000000e+00  0.00000000e+00  1.87330127e+00
 1.02965868e+00  0.00000000e+00  1.86740756e+00
 1.02880287e+00  1.04340994e+00  1.87342739e+00
 0.00000000e+00  1.04422832e+00  1.87480545e+00
 2.06620026e+00  0.00000000e+00  1.85936165e+00
 2.05897593e+00  1.03827810e+00  1.86213684e+00
 3.10333490e+00  0.00000000e+00  1.84771323e+00
 3.10352492e+00  1.03748024e+00  1.84805286e+00
 4.15261221e+00  0.00000000e+00  1.83108401e+00
 4.14857864e+00  1.03829873e+00  1.84244788e+00
 5.20289516e+00  0.00000000e+00  1.81880438e+00
 5.19797468e+00  1.04015017e+00  1.83199358e+00
 6.24290466e+00  0.00000000e+00  1.81189001e+00
 6.25216579e+00  1.04436886e+00  1.82200527e+00
 1.02381861e+00  2.08552647e+00  1.88735366e+00
 0.00000000e+00  2.09022212e+00  1.89239824e+00
 2.05551314e+00  2.08447099e+00  1.88235724e+00
 3.09250641e+00  2.08866024e+00  1.87894773e+00
 4.14125395e+00  2.09974885e+00  1.86276567e+00
 5.19322491e+00  2.10159516e+00  1.86629367e+00
 6.24022055e+00  2.10786486e+00  1.85451579e+00
 1.02038848e+00  3.12353349e+00  1.90912437e+00
 0.00000000e+00  3.12522292e+00  1.91367269e+00
 2.04654050e+00  3.12447858e+00  1.92178380e+00
 3.04229379e+00  3.11237407e+00  2.00632238e+00
 1.02261519e+00  4.15295506e+00  1.92762649e+00
 0.00000000e+00  4.14951038e+00  1.92082155e+00
 2.04868412e+00  4.14139605e+00  1.94931197e+00
 3.06266928e+00  4.12049389e+00  1.97856629e+00
 1.02702749e+00  5.16463280e+00  1.92234778e+00
 0.00000000e+00  5.16920853e+00  1.91708696e+00
 2.04594326e+00  5.15750313e+00  1.93884695e+00
 3.08005905e+00  5.14595461e+00  1.95139217e+00
 1.02272773e+00  6.19247675e+00  1.90092468e+00
 0.00000000e+00  6.19043922e+00  1.89888823e+00
 2.04637694e+00  6.19778204e+00  1.90963018e+00
 3.08683157e+00  6.19105434e+00  1.91083395e+00
 5.08192968e+00  5.14333963e+00  2.00002718e+00
 6.08192921e+00  5.14619827e+00  2.00002074e+00
 6.07906628e+00  6.14620543e+00  1.99998665e+00
 5.07904148e+00  6.14334965e+00  1.99997270e+00
 0.00000000e+00  0.00000000e+00  2.81006980e+00
 1.03584898e+00  0.00000000e+00  2.80820394e+00
 1.03732312e+00  1.03886759e+00  2.81387591e+00
 0.00000000e+00  1.03763080e+00  2.81832743e+00
 2.07919860e+00  0.00000000e+00  2.79652190e+00
 2.07026052e+00  1.03216791e+00  2.80464315e+00
 3.11790156e+00  0.00000000e+00  2.78375483e+00
 3.11864281e+00  1.02770996e+00  2.78662777e+00
 4.16455221e+00  0.00000000e+00  2.77194715e+00
 4.16669035e+00  1.02923965e+00  2.76773763e+00
 5.21240234e+00  0.00000000e+00  2.75701714e+00
 5.21359062e+00  1.03162134e+00  2.75953817e+00
 6.25586510e+00  0.00000000e+00  2.75110650e+00
 6.25665140e+00  1.03093255e+00  2.75393581e+00
 1.02542913e+00  2.07285094e+00  2.83189869e+00
 0.00000000e+00  2.08353615e+00  2.83462882e+00
 2.06812000e+00  2.07309771e+00  2.81195474e+00
 3.11053967e+00  2.07883048e+00  2.77695632e+00
 4.16469383e+00  2.08777881e+00  2.76896954e+00
 5.21289206e+00  2.08109713e+00  2.76919889e+00
 6.25418186e+00  2.08266020e+00  2.76492333e+00
 1.02081740e+00  3.12576365e+00  2.86706734e+00
 0.00000000e+00  3.12312531e+00  2.86289215e+00
 2.06083465e+00  3.11028647e+00  2.84010363e+00
 1.02045941e+00  4.15437603e+00  2.88952494e+00
 0.00000000e+00  4.16025877e+00  2.88601851e+00
 2.05145478e+00  4.15490866e+00  2.91599607e+00
 1.02197742e+00  5.18967199e+00  2.88200474e+00
 0.00000000e+00  5.18472433e+00  2.87957835e+00
 2.05007768e+00  5.18843412e+00  2.88660479e+00
 3.06127000e+00  4.18386316e+00  3.01349497e+00
 3.08092690e+00  5.18115044e+00  2.87150764e+00
 1.02389193e+00  6.21677065e+00  2.85819149e+00
 0.00000000e+00  6.21874475e+00  2.84877944e+00
</DataArray>
</Points>
<PointData Tensors="Stress_Components,Plastic_strain_components" Vevtors="Spatial_displacement,Reaction_force" Scalars="Equivalent_plastic_strain,Stress_Mises,Stress_Max_Principal,Stress_Mid_Principal,Stress_Min_Principal,Stress_Pressure,Stress_Tresca,Stress_Third_Invariant,Plastic_strain_Max_Principal,Plastic_strain_Min_Principal">
<DataArray type="Float32" Name="Stress_Components" NumberOfComponents="9" format="ascii">
-3.44178653e+00 -6.47321716e-03 -1.09533919e-02 -6.47321716e-03 9.82267439e-01 4.08646744e-03 -1.09533919e-02 4.08646744e-03 -3.23393250e+01
-7.22006839e+00 2.34971538e-01 -2.75727070e-03 2.34971538e-01 -2.20694339e+00 -2.13417985e-01 -2.75727070e-03 -2.13417985e-01 -3.98322525e+01
-4.00268310e+00 4.84305322e-01 -4.24401153e-01 4.84305322e-01 -7.36218989e-01 -3.29486653e-01 -4.24401153e-01 -3.29486653e-01 -3.49180062e+01
-3.33389020e+00 1.44263104e-01 -3.60601857e-01 1.44263104e-01 -3.49582672e-01 1.45937698e-02 -3.60601857e-01 1.45937698e-02 -3.38295841e+01
-1.73382974e+00 -3.89916217e-03 1.86107397e-02 -3.89916217e-03 2.37155640e+00 -3.05584952e-01 1.86107397e-02 -3.05584952e-01 -2.90173931e+01
-5.00841546e+00 1.13652233e-01 4.18692820e-01 1.13652233e-01 -5.31476289e-01 -5.49517788e-01 4.18692820e-01 -5.49517788e-01 -3.56636894e+01
-2.73318091e+00 3.24644824e-01 -8.30060349e-02 3.24644824e-01 4.62576061e-01 -4.22809169e-01 -8.30060349e-02 -4.22809169e-01 -3.22599836e+01
-3.55960596e+00 1.08494857e-01 -1.40387202e-01 1.08494857e-01 -3.81498218e-01 7.19776340e-02 -1.40387202e-01 7.19776340e-02 -3.40774603e+01
-1.03391806e+01 1.16295617e-01 -1.57455085e-02 1.16295617e-01 -4.64537024e+00 -4.42314133e-01 -1.57455085e-02 -4.42314133e-01 -4.57819452e+01
-1.14473584e+01 1.06296307e+00 -6.96205154e-01 1.06296307e+00 -6.68494749e+00 -3.80024813e-01 -6.96205154e-01 -3.80024813e-01 -4.92483215e+01
-5.83966738e+00 1.66748729e-01 4.01841424e-01 1.66748729e-01 -2.01743234e+00 -2.17441183e-01 4.01841424e-01 -2.17441183e-01 -3.83115933e+01
-7.02965242e+00 2.90120634e-01 -5.93328376e-01 2.90120634e-01 -3.07155228e+00 -1.20278510e+00 -5.93328376e-01 -1.20278510e+00 -4.06126882e+01
-1.46896770e+01 6.09981000e-01 -6.50608186e-02 6.09981000e-01 -8.57316899e+00 4.19487208e-01 -6.50608186e-02 4.19487208e-01 -5.47486115e+01
-1.80483497e+01 7.18626238e-01 -1.43349923e+00 7.18626238e-01 -1.16733842e+01 -1.06144804e+00 -1.43349923e+00 -1.06144804e+00 -6.16734569e+01
-6.46163976e+00 -4.70130645e-01 -3.84167828e-01 -4.70130645e-01 -3.92718807e+00 -2.23798519e-01 -3.84167828e-01 -2.23798519e-01 -4.11840360e+01
-1.11685501e+01 -4.51767214e-01 -5.29143028e-02 -4.51767214e-01 -6.47029771e+00 -8.93538555e-01 -5.29143028e-02 -8.93538555e-01 -4.86739455e+01
-1.79312007e+01 -1.40230173e+00 -8.94835703e-02 -1.40230173e+00 -1.26102019e+01 2.06276394e-01 -8.94835703e-02 2.06276394e-01 -6.27131138e+01
-2.57549849e+01 -1.18597722e+00 -2.52310410e+00 -1.18597722e+00 -1.47305830e+01 -3.90737541e-02 -2.52310410e+00 -3.90737541e-02 -7.25373435e+01
-8.48268843e+00 -1.40902749e+00 -1.10926080e-01 -1.40902749e+00 -6.68260777e+00 -1.50191048e-01 -1.10926080e-01 -1.50191048e-01 -4.63334785e+01
-2.53446817e+00 -1.08062790e+00 -2.97512358e-01 -1.08062790e+00 -6.17937058e-01 2.49610117e-01 -2.97512358e-01 2.49610117e-01 -3.33234102e+01
-1.96410477e+01 -7.55363170e-01 -2.04482578e-01 -7.55363170e-01 -1.22772917e+01 1.02793694e+00 -2.04482578e-01 1.02793694e+00 -6.39753532e+01
-1.33848157e+01 -3.22004926e+00 -2.40688172e+00 -3.22004926e+00 -6.55888918e+00 7.58354127e-01 -2.40688172e+00 7.58354127e-01 -5.01198359e+01
-3.93500781e+00 -6.47130400e-01 -1.40702834e-01 -6.47130400e-01 -2.08499110e+00 1.12608707e+00 -1.40702834e-01 1.12608707e+00 -3.64310369e+01
7.32316077e-01 -2.01240934e+00 1.92552937e-01 -2.01240934e+00 1.58583771e+00 3.73715511e-01 1.92552937e-01 3.73715511e-01 -2.72194375e+01
-4.66573143e+01 -4.73296261e+00 -1.94126859e-01 -4.73296261e+00 -3.16627522e+01 5.26270032e-01 -1.94126859e-01 5.26270032e-01 -1.12820618e+02
-5.31994877e+01 -4.83075601e+00 -3.39134884e+00 -4.83075601e+00 -3.06308413e+01 4.80423284e+00 -3.39134884e+00 4.80423284e+00 -1.15947800e+02
-2.50542588e+01 -6.89147517e-01 -1.44405207e+00 -6.89147517e-01 -1.60121865e+01 2.15771893e+00 -1.44405207e+00 2.15771893e+00 -7.35273647e+01
-2.30672359e+01 -1.98426050e+00 -4.61833581e-01 -1.98426050e+00 -1.62068747e+01 2.67317864e+00 -4.61833581e-01 2.67317864e+00 -7.09971339e+01
-6.79573059e-01 8.56283627e-01 -5.20966168e-01 8.56283627e-01 -2.53265786e+00 -4.03802756e-01 -5.20966168e-01 -4.03802756e-01 -3.33173923e+01
1.06916523e+00 1.53461907e-01 -6.67401776e-01 1.53461907e-01 -4.65473652e-01 4.97958180e-03 -6.67401776e-01 4.97958180e-03 -2.92332172e+01
-1.07014561e+00 6.13630306e-01 2.13858480e-01 6.13630306e-01 -7.81764597e-01 -8.36469719e-01 2.13858480e-01 -8.36469719e-01 -3.19390108e+01
2.60109460e+00 2.89939329e-01 9.14185081e-01 2.89939329e-01 2.65448523e+00 -5.06895259e-02 9.14185081e-01 -5.06895259e-02 -2.42857118e+01
-3.51306581e+00 2.26460392e+00 -9.76341680e-01 2.26460392e+00 -5.94985914e+00 -1.25878747e+00 -9.76341680e-01 -1.25878747e+00 -3.96634276e+01
-2.42921761e+00 1.50313686e+00 1.62061614e+00 1.50313686e+00 -2.49060053e+00 -4.77478342e-01 1.62061614e+00 -4.77478342e-01 -3.46783503e+01
1.47166396e+01 1.26357703e+00 -1.37316566e+00 1.26357703e+00 1.32687028e+01 -7.35537544e-01 -1.37316566e+00 -7.35537544e-01 -6.14768028e-01
3.46716894e+00 8.32945973e-01 4.08689126e+00 8.32945973e-01 4.79945867e+00 -6.81401672e-02 4.08689126e+00 -6.81401672e-02 -2.08267704e+01
2.17254086e+01 -1.72100937e+00 -4.54744710e+00 -1.72100937e+00 1.56565905e+01 -1.65534826e-01 -4.54744710e+00 -1.65534826e-01 9.78663635e+00
-9.63695006e+00 -6.22936493e+00 8.12267737e+00 -6.22936493e+00 -6.30947256e+00 8.91870574e-01 8.12267737e+00 8.91870574e-01 -4.20089353e+01
2.38561200e+01 -9.01048277e-02 -4.38442987e+00 -9.01048277e-02 1.89883597e+01 1.00752078e+00 -4.38442987e+00 1.00752078e+00 1.52967938e+01
-3.52688750e+00 -4.77148741e+00 9.30826529e+00 -4.77148741e+00 -7.24176494e+00 3.21177448e+00 9.30826529e+00 3.21177448e+00 -3.38574384e+01
1.17475510e+01 -5.19695342e+00 -5.80879152e+00 -5.19695342e+00 2.36163712e+00 3.08519429e+00 -5.80879152e+00 3.08519429e+00 -1.25996246e+01
-2.89802119e+01 -9.75552336e+00 9.63124533e+00 -9.75552336e+00 -2.28558553e+01 6.30328278e+00 9.63124533e+00 6.30328278e+00 -7.82151693e+01
2.22085792e+00 5.94094150e-01 2.94130236e-01 5.94094150e-01 -5.83000231e+00 -7.14745902e-01 2.94130236e-01 -7.14745902e-01 -3.27975506e+01
5.32389092e+00 2.74540596e-01 3.51770356e-01 2.74540596e-01 3.07644844e-01 -8.28881934e-03 3.51770356e-01 -8.28881934e-03 -2.34444184e+01
3.28593388e+00 2.10762320e-01 1.22025485e+00 2.10762320e-01 -2.75455719e+00 -6.10438939e-01 1.22025485e+00 -6.10438939e-01 -2.86755130e+01
6.81210260e+00 1.32595296e-01 9.61141407e-01 1.32595296e-01 4.07197845e+00 -3.60116014e-01 9.61141407e-01 -3.60116014e-01 -1.79699105e+01
1.83799849e+01 -1.32223815e-01 -1.53549239e-02 -1.32223815e-01 1.31077142e+01 -1.29564799e+00 -1.53549239e-02 -1.29564799e+00 4.35567760e+00
1.24637291e+01 2.24229828e-01 1.26940247e+00 2.24229828e-01 3.77885640e+00 1.29069919e+00 1.26940247e+00 1.29069919e+00 -1.16549963e+01
2.73326585e+01 -1.37847967e-01 2.79725544e-01 -1.37847967e-01 2.26293037e+01 -1.20155171e+00 2.79725544e-01 -1.20155171e+00 2.30437255e+01
3.18101820e+01 -9.85539441e-01 -4.41237330e-01 -9.85539441e-01 2.86546033e+01 2.62852007e+00 -4.41237330e-01 2.62852007e+00 3.48245287e+01
2.65205847e+01 -2.67194794e+00 3.09528510e-01 -2.67194794e+00 2.38426632e+01 -3.66723642e+00 3.09528510e-01 -3.66723642e+00 3.32101885e+01
2.94023711e+01 8.19796085e-01 -9.01671394e+00 8.19796085e-01 3.10311605e+01 4.67301088e+00 -9.01671394e+00 4.67301088e+00 4.63581946e+01
3.51636848e+01 -9.28651740e-02 3.26256231e+00 -9.28651740e-02 3.83016586e+01 -5.44599921e-01 3.26256231e+00 -5.44599921e-01 3.96950467e+01
3.05858062e+01 4.82959501e+00 -8.95412747e+00 4.82959501e+00 3.72403062e+01 -1.61334709e+00 -8.95412747e+00 -1.61334709e+00 4.75286980e+01
1.99883239e+01 5.21017480e+00 -1.66093075e+00 5.21017480e+00 6.52135658e+00 1.11023247e+00 -1.66093075e+00 1.11023247e+00 3.31873143e+01
2.69710741e+01 6.41469204e+00 -1.39823534e+00 6.41469204e+00 1.64861617e+01 -2.47254169e+00 -1.39823534e+00 -2.47254169e+00 3.60740561e+01
3.90930367e+00 -7.42264949e-01 1.73168480e-01 -7.42264949e-01 -6.31566215e+00 -1.11254908e+00 1.73168480e-01 -1.11254908e+00 -3.08164620e+01
2.75270820e+00 -7.09057122e-01 4.58038613e-01 -7.09057122e-01 -5.37288165e+00 -3.35705150e-02 4.58038613e-01 -3.35705150e-02 -3.17043409e+01
6.78796512e+00 -1.07440861e+00 1.67663435e+00 -1.07440861e+00 2.47836113e-04 -8.04752703e-02 1.67663435e+00 -8.04752703e-02 -2.13690491e+01
4.70292014e+00 -8.25997174e-01 4.68581107e-01 -8.25997174e-01 -1.04118399e+00 4.01373513e-02 4.68581107e-01 4.01373513e-02 -2.54244621e+01
1.12005699e+01 -2.09726205e+00 -8.20677944e-01 -2.09726205e+00 2.41775846e+00 -2.06570631e+00 -8.20677944e-01 -2.06570631e+00 -1.32202220e+01
1.49713069e+01 -1.32494878e+00 -3.88973139e-01 -1.32494878e+00 9.12313771e+00 2.65991541e+00 -3.88973139e-01 2.65991541e+00 -1.63396865e+00
1.98829668e+01 -7.37567365e-01 -6.68391436e-02 -7.37567365e-01 2.63436402e+01 -4.62306863e+00 -6.68391436e-02 -4.62306863e+00 2.19109823e+01
2.60977492e+01 -3.47669224e-02 -3.15139902e-02 -3.47669224e-02 2.59560901e+01 -1.45326093e+00 -3.15139902e-02 -1.45326093e+00 2.47741146e+01
1.33066672e+01 1.27532625e+00 2.41100391e-02 1.27532625e+00 2.13186264e+01 -3.05153173e+00 2.41100391e-02 -3.05153173e+00 1.76206287e+01
1.42870522e+01 3.07094542e+00 -6.13174429e-01 3.07094542e+00 5.69468943e+00 3.49579700e+00 -6.13174429e-01 3.49579700e+00 -9.03300444e-02
-4.70302355e+00 -5.70864630e+00 4.41530205e-01 -5.70864630e+00 -2.48743033e+01 1.27189144e+00 4.41530205e-01 1.27189144e+00 -9.52855802e+00
7.09536791e+00 -2.35921542e-01 -7.98751990e-01 -2.35921542e-01 1.36233480e+01 1.26001851e+00 -7.98751990e-01 1.26001851e+00 9.10522747e+00
2.04389656e+00 -5.17930722e+00 1.55046952e+00 -5.17930722e+00 -1.78019156e+01 -1.55280284e+00 1.55046952e+00 -1.55280284e+00 -3.21092993e+00
3.94576653e+00 -2.26704129e+00 -2.33700770e+00 -2.26704129e+00 8.18846810e+00 -6.97642614e-01 -2.33700770e+00 -6.97642614e-01 -2.05158170e+00
3.15725058e+00 -1.92070614e+00 1.21218957e+00 -1.92070614e+00 -5.45719063e+00 -3.62251449e-01 1.21218957e+00 -3.62251449e-01 -3.08601279e+01
1.72497582e+00 -1.46554244e+00 3.05741847e-01 -1.46554244e+00 -6.03160214e+00 -6.04563660e-03 3.05741847e-01 -6.04563660e-03 -3.35835905e+01
8.06956862e+00 -1.42220573e+00 5.03318491e-01 -1.42220573e+00 3.73717743e+00 4.92656304e-01 5.03318491e-01 4.92656304e-01 -1.65276839e+01
4.34701085e+00 -5.02907284e-01 -4.50812373e-02 -5.02907284e-01 -1.89413249e+00 7.40719296e-01 -4.50812373e-02 7.40719296e-01 -2.65050988e+01
9.73117006e+00 -2.35667074e+00 4.31387706e-01 -2.35667074e+00 3.61721003e+00 -2.74498749e+00 4.31387706e-01 -2.74498749e+00 -1.39089949e+01
1.01245304e+01 -2.27718912e+00 -6.45276977e-01 -2.27718912e+00 6.68093710e+00 1.96782705e+00 -6.45276977e-01 1.96782705e+00 -1.02412515e+01
1.63389918e+01 1.58840370e+00 2.16856067e+00 1.58840370e+00 1.84800404e+01 -2.28462541e+00 2.16856067e+00 -2.28462541e+00 8.44024038e+00
1.06471741e+01 -1.68601463e+00 -1.29771443e+00 -1.68601463e+00 8.44403283e+00 3.49952837e+00 -1.29771443e+00 3.49952837e+00 -7.06908751e+00
1.21675415e+01 4.32696564e+00 2.23208655e-01 4.32696564e+00 1.37124686e+01 -1.29468493e+00 2.23208655e-01 -1.29468493e+00 1.34827162e+01
8.67528099e+00 2.35882762e+00 2.56461710e+00 2.35882762e+00 3.60934412e+00 8.94965172e-01 2.56461710e+00 8.94965172e-01 3.48939538e+00
4.25816000e-01 7.59187758e-01 -3.75174902e-01 7.59187758e-01 2.23539042e+00 1.85853267e+00 -3.75174902e-01 1.85853267e+00 3.41467592e+00
3.10642861e+00 6.41786051e-01 -7.65242255e-01 6.41786051e-01 8.57273477e-01 -6.93122739e-01 -7.65242255e-01 -6.93122739e-01 2.12467277e-01
2.89981604e+00 5.72637081e-01 -1.29657358e+00 5.72637081e-01 -7.87537909e+00 3.66891995e-01 -1.29657358e+00 3.66891995e-01 -1.88459158e+00
9.30562188e-01 -8.27690837e-01 7.50826557e-01 -8.27690837e-01 -5.70564322e+00 -1.66160914e-01 7.50826557e-01 -1.66160914e-01 -1.67368968e-01
-1.35207140e+01 -2.25604081e+00 5.59711635e-01 -2.25604081e+00 -2.24792686e+01 -1.11168277e+00 5.59711635e-01 -1.11168277e+00 -6.77954521e+01
-1.13802471e+01 -7.51480520e-01 1.43328941e+00 -7.51480520e-01 -2.34909439e+01 -2.65876055e-02 1.43328941e+00 -2.65876055e-02 -6.61956635e+01
-5.66055566e+00 -1.10528900e+00 5.61299920e-02 -1.10528900e+00 -1.21193278e+01 -1.00707898e+00 5.61299920e-02 -1.00707898e+00 -4.85581226e+01
-1.20450578e+01 -1.56299949e+00 -1.55568451e-01 -1.56299949e+00 -1.99002886e+01 8.49910557e-01 -1.55568451e-01 8.49910557e-01 -6.38698959e+01
-2.03316588e+01 -4.85852373e+00 5.41730702e+00 -4.85852373e+00 -2.72632942e+01 -5.35582232e+00 5.41730702e+00 -5.35582232e+00 -7.85971184e+01
-1.16803113e+01 -3.53156814e+00 6.81102812e-01 -3.53156814e+00 -1.05711749e+01 4.43005651e-01 6.81102812e-01 4.43005651e-01 -5.34951687e+01
8.16106606e+00 9.20093194e-01 4.83924913e+00 9.20093194e-01 1.72710013e+01 -2.73853340e+00 4.83924913e+00 -2.73853340e+00 -1.57286835e+00
-2.96055050e+01 -7.43032265e+00 1.72492250e+00 -7.43032265e+00 -2.40541678e+01 1.10634181e+01 1.72492250e+00 1.10634181e+01 -8.35499636e+01
6.04478645e+00 -2.13842517e+00 -7.00944364e-02 -2.13842517e+00 1.95360808e+01 -2.35381620e+00 -7.00944364e-02 -2.35381620e+00 1.66039662e+01
-1.24470780e+01 -8.52852210e+00 1.05426168e+00 -8.52852210e+00 -9.81145787e+00 6.64509821e+00 1.05426168e+00 6.64509821e+00 -9.74642277e+00
-6.19560967e+00 -6.55605316e-01 1.35914159e+00 -6.55605316e-01 2.44076657e+00 2.08063871e+00 1.35914159e+00 2.08063871e+00 5.78552269e+00
-4.07307601e+00 -2.79136260e-01 8.29982022e-01 -2.79136260e-01 2.96443831e+00 -3.03013452e+00 8.29982022e-01 -3.03013452e+00 3.57278212e+00
-1.82151341e+00 2.46545434e+00 -7.14924037e-01 2.46545434e+00 -2.31433821e+00 5.87633133e-01 -7.14924037e-01 5.87633133e-01 -6.65589631e-01
-3.93501019e+00 2.76659787e-01 -1.51254714e-01 2.76659787e-01 3.21664631e-01 1.29933447e+00 -1.51254714e-01 1.29933447e+00 6.58735178e-01
-2.21049571e+00 2.07881210e-04 -4.71302513e-02 2.07881210e-04 1.07168984e+00 -5.29417306e-01 -4.71302513e-02 -5.29417306e-01 -3.10632052e+01
-1.01850332e+00 3.82109901e-02 5.63894413e-01 3.82109901e-02 1.17378020e+00 -4.52931265e-01 5.63894413e-01 -4.52931265e-01 -2.97298808e+01
1.48777192e+00 -3.63779383e-01 1.41740627e-01 -3.63779383e-01 3.98805259e+00 1.08128991e-01 1.41740627e-01 1.08128991e-01 -2.39363618e+01
-2.74395883e+00 -3.37338042e-02 1.64920688e-02 -3.37338042e-02 9.54879493e-01 5.38025931e-02 1.64920688e-02 5.38025931e-02 -3.16886690e+01
4.11187640e+00 -8.10182445e-01 5.99216715e-01 -8.10182445e-01 4.29360953e+00 2.67213836e-01 5.99216715e-01 2.67213836e-01 -2.08918016e+01
3.64405265e+00 -5.59665667e-01 -2.77692898e-01 -5.59665667e-01 4.87751818e+00 -9.16351678e-01 -2.77692898e-01 -9.16351678e-01 -2.05760792e+01
4.10889763e+00 -1.32355052e-02 -1.00972177e-01 -1.32355052e-02 3.47965437e+00 -2.54585594e-02 -1.00972177e-01 -2.54585594e-02 -2.17865932e+01
6.25034717e+00 -4.11817929e-01 -5.48817687e-01 -4.11817929e-01 5.68549880e+00 -4.45538968e-01 -5.48817687e-01 -4.45538968e-01 -1.70373917e+01
4.17523050e+00 -2.94620335e-01 2.81033555e-01 -2.94620335e-01 2.11089391e+00 -3.38108681e-01 2.81033555e-01 -3.38108681e-01 -2.31627824e+01
3.35204673e+00 -5.57194056e-01 -1.81530588e-01 -5.57194056e-01 3.12504816e+00 7.98983664e-01 -1.81530588e-01 7.98983664e-01 -2.28982566e+01
8.61670911e+00 -5.46389401e-01 3.55519895e-01 -5.46389401e-01 7.31765193e+00 4.52346288e-01 3.55519895e-01 4.52346288e-01 -1.27097325e+01
3.93097594e+00 -3.69053582e-01 2.58431590e-01 -3.69053582e-01 2.87526844e+00 6.02185532e-01 2.58431590e-01 6.02185532e-01 -2.26310138e+01
8.67867327e+00 5.43452293e-01 5.37423138e-02 5.43452293e-01 9.38047791e+00 1.47941196e+00 5.37423138e-02 1.47941196e+00 -1.03725491e+01
5.88119054e+00 2.97702700e-01 -7.19448250e-01 2.97702700e-01 4.98119259e+00 5.99940996e-01 -7.19448250e-01 5.99940996e-01 -1.81859028e+01
4.35062522e+00 -6.10974322e-01 4.97029795e-01 -6.10974322e-01 6.32256860e+00 -9.57750751e-01 4.97029795e-01 -9.57750751e-01 -1.82730911e+01
-1.34426072e+00 -6.56260192e-01 1.68644939e+00 -6.56260192e-01 1.85240337e+00 -1.72698518e-01 1.68644939e+00 -1.72698518e-01 -2.90379431e+01
-1.09395969e+01 -5.67885783e-01 9.39410241e-01 -5.67885783e-01 -7.08949535e+00 -3.33799409e-01 9.39410241e-01 -3.33799409e-01 -5.10719956e+01
-5.14305856e+01 -6.34442245e+00 1.45054453e+01 -6.34442245e+00 -5.12703249e+01 6.38140643e-01 1.45054453e+01 6.38140643e-01 -1.27459392e+02
-3.61771827e+01 -5.73656220e-01 1.33111462e+00 -5.73656220e-01 -3.19396644e+01 2.55421126e+00 1.33111462e+00 2.55421126e+00 -1.03384008e+02
-3.58462014e+01 -9.21604067e-01 3.21339667e+00 -9.21604067e-01 -2.97977571e+01 5.21310830e+00 3.21339667e+00 5.21310830e+00 -9.94397039e+01
-4.03134060e+01 -3.49044609e+00 2.32693952e+00 -3.49044609e+00 -3.08144140e+01 6.32233346e+00 2.32693952e+00 6.32233346e+00 -1.04322109e+02
1.20774095e+01 2.71478859e-02 1.23039360e+00 2.71478859e-02 1.38532177e+01 -1.00961654e+00 1.23039360e+00 -1.00961654e+00 -1.91047221e+00
8.99684834e+00 -2.39664244e-01 1.33407892e+00 -2.39664244e-01 9.72235906e+00 -2.71823015e-02 1.33407892e+00 -2.71823015e-02 -9.57985783e+00
-2.91356684e+01 -1.68874001e+00 6.25882526e+00 -1.68874001e+00 -2.43565200e+01 1.11796816e+01 6.25882526e+00 1.11796816e+01 -7.67857865e+01
2.25401058e+01 -2.34404564e-01 -6.52390826e+00 -2.34404564e-01 2.55497408e+01 1.66383553e+00 -6.52390826e+00 1.66383553e+00 4.43322201e+01
1.26756332e+01 -1.14347573e-01 1.85386704e+00 -1.14347573e-01 1.09035772e+01 6.74297981e-01 1.85386704e+00 6.74297981e-01 -3.46541727e+00
1.27566708e+01 7.37864748e-01 5.69532666e-01 7.37864748e-01 1.25676588e+01 5.92454877e-01 5.69532666e-01 5.92454877e-01 -2.59755301e+00
2.58429055e+01 -2.03985631e+00 6.23620851e-01 -2.03985631e+00 2.39446967e+01 -2.62873352e-01 6.23620851e-01 -2.62873352e-01 2.27764138e+01
2.23705977e+01 -1.11610623e+00 -5.73771345e+00 -1.11610623e+00 2.32316936e+01 -4.46932395e-01 -5.73771345e+00 -4.46932395e-01 1.72451223e+01
1.33508004e+01 -2.67035356e-01 3.29577947e-01 -2.67035356e-01 1.07246658e+01 2.24355713e-01 3.29577947e-01 2.24355713e-01 -3.62228215e+00
1.05328216e+01 -7.82566734e-01 3.98008704e-01 -7.82566734e-01 8.27345362e+00 5.43936111e-01 3.98008704e-01 5.43936111e-01 -9.43738794e+00
1.16159540e+00 -2.63684682e+00 6.94785699e-01 -2.63684682e+00 8.52416515e-01 2.33010442e+00 6.94785699e-01 2.33010442e+00 -2.57764426e+01
-1.56135788e+01 -1.02362339e+00 -8.61172862e-01 -1.02362339e+00 -1.44447281e+01 5.55609752e+00 -8.61172862e-01 5.55609752e+00 -6.36273870e+01
-3.71194988e-01 -6.10486545e-01 -3.41241959e-01 -6.10486545e-01 1.22190595e-01 -1.72381178e-01 -3.41241959e-01 -1.72381178e-01 -3.03917770e+01
-2.40188622e+00 -2.95919359e-01 -3.36006641e-01 -2.95919359e-01 -4.33363666e+00 1.33013237e+00 -3.36006641e-01 1.33013237e+00 -3.71095810e+01
-4.58482170e+00 1.45664573e-01 1.16234963e+00 1.45664573e-01 1.32156610e+00 -1.84572575e+00 1.16234963e+00 -1.84572575e+00 -3.30615616e+01
-7.56738052e+01 -2.40548575e+00 -4.23117566e+00 -2.40548575e+00 -7.10625153e+01 4.78497422e+00 -4.23117566e+00 4.78497422e+00 -1.89108101e+02
-1.74115531e-01 -6.18767112e-01 -2.28898082e-01 -6.18767112e-01 2.43557524e-01 1.97841763e-01 -2.28898082e-01 1.97841763e-01 -4.81628060e-01
-3.95025965e-01 -1.00713275e-01 -1.18138850e-01 -1.00713275e-01 -7.58871362e-02 -2.12064586e-01 -1.18138850e-01 -2.12064586e-01 5.87219731e-02
6.48621544e-01 -1.49928868e-01 -5.46370260e-02 -1.49928868e-01 -6.83916286e-02 5.62184028e-01 -5.46370260e-02 5.62184028e-01 -9.92385060e-01
3.85176316e-01 -6.68136448e-01 -2.17747092e-02 -6.68136448e-01 -2.33335353e-01 -5.04669219e-01 -2.17747092e-02 -5.04669219e-01 -5.64132735e-01
2.29098558e-01 2.68564709e-02 3.90629128e-01 2.68564709e-02 9.30831671e-01 -1.00860439e-01 3.90629128e-01 -1.00860439e-01 -2.87749991e+01
7.55301185e-01 4.06353734e-01 2.32521463e-01 4.06353734e-01 7.07622558e-01 3.49266037e-01 2.32521463e-01 3.49266037e-01 -2.83861897e+01
4.38245640e+00 -4.44308132e-01 3.97926137e-01 -4.44308132e-01 5.01871038e+00 4.98641384e-01 3.97926137e-01 4.98641384e-01 -1.97605792e+01
5.53715527e-01 2.01918183e-01 4.77966726e-01 2.01918183e-01 2.07495874e+00 -2.98259407e-01 4.77966726e-01 -2.98259407e-01 -2.71245668e+01
5.35772282e+00 -9.14373368e-01 2.39946200e-01 -9.14373368e-01 4.20061642e+00 7.46373888e-02 2.39946200e-01 7.46373888e-02 -1.96204627e+01
5.75548933e+00 -7.16931310e-01 9.72844880e-01 -7.16931310e-01 5.44704662e+00 9.31592750e-01 9.72844880e-01 9.31592750e-01 -1.75859522e+01
6.91135716e+00 1.21554578e-01 1.63834941e-01 1.21554578e-01 5.27070695e+00 6.22023137e-01 1.63834941e-01 6.22023137e-01 -1.67020540e+01
1.05526336e+01 -1.64507485e-01 6.44109435e-02 -1.64507485e-01 8.61787346e+00 1.48963975e-02 6.44109435e-02 1.48963975e-02 -9.19701836e+00
9.18763366e+00 2.12539293e-01 -1.07324260e-01 2.12539293e-01 6.74672957e+00 3.45079530e-01 -1.07324260e-01 3.45079530e-01 -1.25958751e+01
3.60655543e+00 1.59789057e-01 -5.95002478e-01 1.59789057e-01 1.21534377e+00 6.75303089e-02 -5.95002478e-01 6.75303089e-02 -2.46418553e+01
1.24554991e+01 -1.27570170e-01 6.46113893e-02 -1.27570170e-01 1.03767893e+01 -1.18275095e-01 6.46113893e-02 -1.18275095e-01 -5.18184280e+00
7.68337464e+00 8.76661378e-03 -3.45652094e-01 8.76661378e-03 5.15988004e+00 3.58603122e-02 -3.45652094e-01 3.58603122e-02 -1.59834371e+01
1.60765734e+01 -1.57302801e-01 3.67919803e-02 -1.57302801e-01 1.49959435e+01 -4.46202904e-01 3.67919803e-02 -4.46202904e-01 3.77588320e+00
1.64505684e+01 -2.38951482e-02 -4.70387083e-01 -2.38951482e-02 1.45336326e+01 -6.80017397e-02 -4.70387083e-01 -6.80017397e-02 3.53969765e+00
2.49144483e+00 -1.02995642e+00 1.77554658e+00 -1.02995642e+00 5.26843733e+00 1.34464938e-01 1.77554658e+00 1.34464938e-01 -2.08305172e+01
2.15143275e+00 -1.16436791e+00 1.38579807e+00 -1.16436791e+00 6.09272361e+00 -3.02840330e-01 1.38579807e+00 -3.02840330e-01 -2.05813175e+01
1.18284586e+01 1.80793492e+00 3.63289002e+00 1.80793492e+00 1.02413920e+01 2.76544127e+00 3.63289002e+00 2.76544127e+00 -1.13027671e+01
-6.70850121e+01 -4.73170156e+00 -1.41618211e+01 -4.73170156e+00 -6.74672504e+01 -1.84765800e+00 -1.41618211e+01 -1.84765800e+00 -1.61492650e+02
-4.52143350e+01 -1.02031568e+00 -4.11655891e+00 -1.02031568e+00 -4.09975352e+01 1.58434865e+00 -4.11655891e+00 1.58434865e+00 -1.22713184e+02
-2.93029938e+01 -1.12551446e+00 -9.21642408e-02 -1.12551446e+00 -2.58441758e+01 1.65888058e+00 -9.21642408e-02 1.65888058e+00 -8.95113697e+01
-2.05376091e+01 -1.44344771e+00 -6.58632845e-01 -1.44344771e+00 -1.35649133e+01 3.38889226e-01 -6.58632845e-01 3.38889226e-01 -6.63943138e+01
-5.12208802e-01 -1.36901176e-01 3.63232497e+00 -1.36901176e-01 2.98609095e+00 7.77862327e-01 3.63232497e+00 7.77862327e-01 -2.60263392e+01
1.14654030e+01 2.44520389e-01 1.44732576e+00 2.44520389e-01 1.33460960e+01 -4.86179722e-01 1.44732576e+00 -4.86179722e-01 -2.88511777e+00
-9.30522871e+01 -1.02490683e+01 1.09317717e+01 -1.02490683e+01 -8.45183258e+01 -1.43162296e+01 1.09317717e+01 -1.43162296e+01 -2.00223568e+02
2.04021288e+01 -7.24647742e-02 -1.75916065e+00 -7.24647742e-02 2.10663528e+01 5.23881763e-01 -1.75916065e+00 5.23881763e-01 1.41916605e+01
1.15919802e+01 -4.53255797e-01 1.61644671e+00 -4.53255797e-01 1.26533961e+01 7.80363832e-01 1.61644671e+00 7.80363832e-01 -3.17351079e+00
-4.40006128e+01 1.08112713e+00 5.80146730e+00 1.08112713e+00 -4.07884250e+01 1.63815604e+01 5.80146730e+00 1.63815604e+01 -1.07030993e+02
1.62832548e+01 1.32110494e-01 1.13498613e+00 1.32110494e-01 1.73436767e+01 -3.20933543e-01 1.13498613e+00 -3.20933543e-01 6.38685787e+00
1.34676790e+01 6.63318988e-02 1.12778420e-01 6.63318988e-02 1.39998441e+01 3.65551867e-01 1.12778420e-01 3.65551867e-01 -1.92026377e-01
1.99018879e+01 -1.76352184e+00 2.52073929e+00 -1.76352184e+00 2.24660345e+01 1.13933558e+00 2.52073929e+00 1.13933558e+00 1.28999543e+01
1.01043940e+01 5.68879032e+00 1.11183107e+00 5.68879032e+00 1.04479513e+01 1.81429119e+01 1.11183107e+00 1.81429119e+01 4.56889610e+01
-6.54265887e+01 7.08255625e+00 -2.43746863e+01 7.08255625e+00 -6.80449249e+01 -3.13463942e+00 -2.43746863e+01 -3.13463942e+00 -1.60733505e+02
8.79096660e+00 2.14205404e-01 5.22499166e-01 2.14205404e-01 8.29801106e+00 1.27664182e+00 5.22499166e-01 1.27664182e+00 -1.15820379e+01
3.63450050e-01 -4.04438034e-01 -2.22882263e-01 -4.04438034e-01 2.84080029e+00 1.02165607e+00 -2.22882263e-01 1.02165607e+00 -2.65037699e+01
</DataArray>
<DataArray type="Float32" Name="Logarithmic_strain_components" NumberOfComponents="9" format="ascii">
2.82492563e-02 -9.89944965e-07 9.50728008e-07 -9.89944965e-07 5.27476445e-02 -1.31574197e-05 9.50728008e-07 -1.31574197e-05 -6.84525147e-02
2.98720459e-02 2.24695087e-03 2.26225302e-06 2.24695087e-03 5.47763873e-02 -1.80427611e-04 2.26225302e-06 -1.80427611e-04 -7.18077384e-02
3.07677104e-02 6.24884362e-03 -4.01871221e-03 6.24884362e-03 4.89368178e-02 -1.85001793e-03 -4.01871221e-03 -1.85001793e-03 -6.75382465e-02
3.01005309e-02 2.35939072e-03 -2.42122775e-03 2.35939072e-03 4.74925209e-02 2.32823368e-06 -2.42122775e-03 2.32823368e-06 -6.57489486e-02
2.77492506e-02 4.13173075e-06 3.13427602e-03 4.13173075e-06 5.00156935e-02 -2.95357779e-03 3.13427602e-03 -2.95357779e-03 -6.56560585e-02
2.95828590e-02 5.69026699e-04 3.68627685e-03 5.69026699e-04 5.11329435e-02 -4.24690486e-03 3.68627685e-03 -4.24690486e-03 -6.83842991e-02
3.02038039e-02 3.06094709e-03 6.48965757e-04 3.06094709e-03 4.70783832e-02 -5.02938771e-03 6.48965757e-04 -5.02938771e-03 -6.54347492e-02
2.91025974e-02 7.51446147e-04 1.21045270e-03 7.51446147e-04 4.63947933e-02 -2.45916785e-03 1.21045270e-03 -2.45916785e-03 -6.39730245e-02
3.25697977e-02 7.49904808e-04 3.12525481e-06 7.49904808e-04 5.95991835e-02 -1.33338623e-03 3.12525481e-06 -1.33338623e-03 -7.83781558e-02
3.30804382e-02 9.11579037e-03 -5.94912679e-03 9.11579037e-03 5.32051828e-02 -2.94989790e-04 -5.94912679e-03 -2.94989790e-04 -7.35973567e-02
3.40837068e-02 1.75402351e-03 4.67530184e-03 1.75402351e-03 5.29083498e-02 -4.13534850e-03 4.67530184e-03 -4.13534850e-03 -7.38448221e-02
3.32101204e-02 3.98377332e-03 -9.95548311e-04 3.98377332e-03 5.01762116e-02 -8.64261173e-03 -9.95548311e-04 -8.64261173e-03 -7.08624339e-02
3.72954290e-02 3.09904397e-03 -5.29165754e-06 3.09904397e-03 6.46272898e-02 4.31166915e-03 -5.29165754e-06 4.31166915e-03 -8.70292895e-02
3.59206125e-02 6.19660353e-03 -9.84800630e-03 6.19660353e-03 5.84656475e-02 -2.49759643e-03 -9.84800630e-03 -2.49759643e-03 -8.10653493e-02
3.99944941e-02 -3.75498278e-03 2.34269421e-03 -3.75498278e-03 5.50973341e-02 -3.24723613e-03 2.34269421e-03 -3.24723613e-03 -8.08817856e-02
3.71124973e-02 -2.37250990e-03 2.29753455e-03 -2.37250990e-03 5.39488336e-02 -5.12278486e-03 2.29753455e-03 -5.12278486e-03 -7.75286769e-02
4.28640172e-02 -8.37226445e-03 1.51974182e-05 -8.37226445e-03 6.91366754e-02 3.33002640e-03 1.51974182e-05 3.33002640e-03 -9.59681571e-02
3.82973021e-02 -5.61316352e-03 -1.42365808e-02 -5.61316352e-03 6.44875020e-02 2.34622718e-03 -1.42365808e-02 2.34622718e-03 -8.86758622e-02
4.55242218e-02 -9.29417717e-03 3.90665611e-03 -9.29417717e-03 5.76836606e-02 -3.06471909e-03 3.90665611e-03 -3.06471909e-03 -8.79313424e-02
4.30175015e-02 -9.81272652e-03 2.66059639e-03 -9.81272652e-03 5.35792345e-02 1.37547666e-03 2.66059639e-03 1.37547666e-03 -8.17210730e-02
4.68843598e-02 -1.19651314e-02 3.56818528e-05 -1.19651314e-02 7.51153603e-02 3.70692625e-03 3.56818528e-05 3.70692625e-03 -1.04602747e-01
4.03018063e-02 -1.34386057e-02 -1.70571748e-02 -1.34386057e-02 6.79774042e-02 7.12202967e-03 -1.70571748e-02 7.12202967e-03 -9.26918630e-02
4.74266009e-02 -8.47833836e-03 7.07992422e-03 -8.47833836e-03 6.18651258e-02 8.45024173e-04 7.07992422e-03 8.45024173e-04 -9.26972888e-02
4.69821263e-02 -1.24346305e-02 7.13127421e-03 -1.24346305e-02 5.59969363e-02 1.10182659e-03 7.13127421e-03 1.10182659e-03 -8.68936591e-02
4.34535705e-02 -3.05388886e-02 -3.75129894e-05 -3.05388886e-02 8.84561613e-02 -3.62790190e-03 -3.75129894e-05 -3.62790190e-03 -1.15044661e-01
3.69860698e-02 -2.10558041e-02 -1.95192499e-02 -2.10558041e-02 8.16397183e-02 1.93934254e-02 -1.95192499e-02 1.93934254e-02 -1.03603292e-01
4.22918219e-02 -7.41523504e-03 -1.66515290e-03 -7.41523504e-03 7.49955140e-02 -2.19222251e-03 -1.66515290e-03 -2.19222251e-03 -1.01113718e-01
4.42538830e-02 -1.22446974e-02 7.81316310e-04 -1.22446974e-02 6.65457789e-02 7.66883313e-03 7.81316310e-04 7.66883313e-03 -9.46438946e-02
3.36214257e-02 8.30773427e-03 -3.00063280e-03 8.30773427e-03 3.41592398e-02 -2.98193604e-03 -3.00063280e-03 -2.98193604e-03 -5.75506287e-02
3.33543643e-02 1.74387859e-03 -3.96925118e-03 1.74387859e-03 3.38543495e-02 4.49254730e-06 -3.96925118e-03 4.49254730e-06 -5.69658596e-02
3.09575482e-02 5.73952904e-03 4.32621968e-03 5.73952904e-03 3.68016576e-02 -5.63307863e-03 4.32621968e-03 -5.63307863e-03 -5.74902538e-02
3.01242219e-02 2.69076187e-03 6.19624543e-03 2.69076187e-03 3.57391443e-02 -9.88252083e-04 6.19624543e-03 -9.88252083e-04 -5.56727266e-02
3.18319616e-02 1.37288924e-02 -7.20049022e-03 1.37288924e-02 3.43438387e-02 -5.68270404e-03 -7.20049022e-03 -5.68270404e-03 -5.62574686e-02
3.10882800e-02 7.50739587e-03 7.82792801e-03 7.50739587e-03 3.78424725e-02 -2.56500155e-03 7.82792801e-03 -2.56500155e-03 -5.86589924e-02
2.58440226e-02 8.03671847e-03 -8.94878409e-03 8.03671847e-03 3.38384332e-02 -4.28013038e-03 -8.94878409e-03 -4.28013038e-03 -4.98093907e-02
3.00734863e-02 1.00327988e-04 2.22932897e-02 1.00327988e-04 3.96174940e-02 1.26385330e-03 2.22932897e-02 1.26385330e-03 -5.89344283e-02
2.29504285e-02 -8.90856222e-03 -2.19238116e-02 -8.90856222e-03 3.68452366e-02 2.40291498e-03 -2.19238116e-02 2.40291498e-03 -4.98243496e-02
3.01182612e-02 -1.61062391e-02 2.52199972e-02 -1.61062391e-02 4.33036306e-02 7.92825781e-03 2.52199972e-02 7.92825781e-03 -6.14173121e-02
2.39881743e-02 -1.85216705e-02 -2.08443170e-02 -1.85216705e-02 3.24132591e-02 1.13923240e-02 -2.08443170e-02 1.13923240e-02 -4.59387703e-02
3.13862696e-02 -2.20098682e-02 3.23051938e-02 -2.20098682e-02 4.06142313e-02 2.29773545e-02 3.23051938e-02 2.29773545e-02 -5.90056765e-02
2.54390296e-02 -2.21740687e-02 -2.14244146e-02 -2.21740687e-02 3.43258805e-02 1.94798112e-02 -2.14244146e-02 1.94798112e-02 -4.92137410e-02
3.24901752e-02 -3.02335142e-02 3.15319827e-02 -3.02335142e-02 4.71853397e-02 3.05134896e-02 3.15319827e-02 3.05134896e-02 -6.63653985e-02
3.50828534e-02 4.14326979e-03 7.93601605e-04 4.14326979e-03 1.91580120e-02 -3.79131589e-03 7.93601605e-04 -3.79131589e-03 -4.60741157e-02
3.48143708e-02 2.31085031e-03 1.78024330e-03 2.31085031e-03 2.06282185e-02 -3.45054286e-06 1.78024330e-03 -3.45054286e-06 -4.68273312e-02
3.22723722e-02 2.88998081e-03 8.23451410e-03 2.88998081e-03 2.22468025e-02 -2.02843999e-03 8.23451410e-03 -2.02843999e-03 -4.62187100e-02
3.06512401e-02 1.30449983e-03 8.68285447e-03 1.30449983e-03 2.35453835e-02 1.02473778e-05 8.68285447e-03 1.02473778e-05 -4.56632236e-02
2.71857567e-02 6.20908219e-03 1.07377183e-03 6.20908219e-03 1.38827108e-02 -6.95352838e-03 1.07377183e-03 -6.95352838e-03 -3.41519099e-02
2.81893483e-02 3.87568651e-03 1.42036601e-02 3.87568651e-03 1.75056960e-02 5.02013392e-03 1.42036601e-02 5.02013392e-03 -3.85379053e-02
1.01937078e-02 2.93201391e-03 -2.48662912e-03 2.93201391e-03 7.43401429e-03 -4.19849821e-03 -2.48662912e-03 -4.19849821e-03 -1.26631819e-02
8.96747212e-03 -1.98498664e-03 1.41013123e-02 -1.98498664e-03 5.67520726e-03 2.51006552e-03 1.41013123e-02 2.51006552e-03 -8.46484432e-03
3.02899734e-03 -1.55792446e-02 -9.06776916e-03 -1.55792446e-02 2.00603910e-03 -5.30267584e-03 -9.06776916e-03 -5.30267584e-03 -1.87102434e-04
-1.24794780e-04 -2.44985099e-02 2.73080074e-02 -2.44985099e-02 9.12733811e-03 5.98535336e-03 2.73080074e-02 5.98535336e-03 -3.94539283e-03
1.14816963e-03 -6.29647231e-03 -1.19334205e-02 -6.29647231e-03 -1.42223508e-03 7.97038801e-04 -1.19334205e-02 7.97038801e-04 4.94189343e-03
5.14540899e-04 -9.65110147e-03 2.39175291e-02 -9.65110147e-03 3.89785471e-03 -2.31689028e-03 2.39175291e-02 -2.31689028e-03 9.35892031e-04
4.96684166e-03 -5.08142472e-03 -3.87340074e-03 -5.08142472e-03 -6.17563166e-03 3.88763996e-03 -3.87340074e-03 3.88763996e-03 5.15948341e-03
3.73879500e-03 -7.28687830e-03 2.05804822e-02 -7.28687830e-03 1.58099923e-04 -3.62444820e-03 2.05804822e-02 -3.62444820e-03 8.36270628e-04
3.42583545e-02 -2.45390451e-03 1.91562955e-03 -2.45390451e-03 1.28666230e-02 -4.78780363e-03 1.91562955e-03 -4.78780363e-03 -3.99174904e-02
3.53809316e-02 -2.54209014e-03 2.61321198e-03 -2.54209014e-03 1.57629601e-02 3.67852044e-06 2.61321198e-03 3.67852044e-06 -4.33757640e-02
3.04162961e-02 -4.23414196e-03 8.92753661e-03 -4.23414196e-03 1.44611206e-02 -3.83059378e-05 8.92753661e-03 -3.83059378e-05 -3.77762867e-02
3.19110597e-02 -3.24072491e-03 3.28159830e-03 -3.24072491e-03 1.65784189e-02 2.04471539e-03 3.28159830e-03 2.04471539e-03 -4.10014959e-02
2.43326351e-02 -3.40210338e-03 -2.10047042e-03 -3.40210338e-03 7.34467787e-03 -7.18636718e-03 -2.10047042e-03 -7.18636718e-03 -2.64418209e-02
2.36012542e-02 -6.73611870e-03 4.12756731e-03 -6.73611870e-03 7.57733290e-03 6.18500680e-03 4.12756731e-03 6.18500680e-03 -2.56373610e-02
6.97892316e-03 -3.85575868e-03 -1.47340476e-03 -3.85575868e-03 6.58407691e-04 -5.96225960e-03 -1.47340476e-03 -5.96225960e-03 -5.33025793e-03
1.15980118e-02 -4.01160876e-03 -3.09973524e-03 -4.01160876e-03 1.56630988e-03 5.97756316e-03 -3.09973524e-03 5.97756316e-03 -9.96990013e-03
-5.43832027e-04 -1.53921782e-03 -3.97456509e-05 -1.53921782e-03 3.37927840e-04 -3.87723470e-04 -3.97456509e-05 -3.87723470e-04 8.28613125e-04
1.03300303e-03 1.17688675e-03 -1.04745815e-03 1.17688675e-03 1.05653453e-03 3.18361921e-03 -1.04745815e-03 3.18361921e-03 -1.47852318e-03
3.98218765e-03 -1.05575104e-02 4.56319467e-05 -1.05575104e-02 -6.93179369e-03 1.12915419e-04 4.56319467e-05 1.12915419e-04 3.65727410e-03
-4.70100341e-04 -6.41724958e-03 -2.14631352e-05 -6.41724958e-03 1.57325019e-03 7.77166836e-05 -2.14631352e-05 7.77166836e-05 -4.87619163e-04
3.42251726e-03 -1.24070363e-02 -1.61028720e-03 -1.24070363e-02 -5.69747650e-03 -1.18306882e-04 -1.61028720e-03 -1.18306882e-04 3.02753176e-03
-1.66327521e-03 -6.63094184e-03 -3.21505358e-03 -6.63094184e-03 4.11867159e-03 -5.78123412e-05 -3.21505358e-03 -5.78123412e-05 -1.86150882e-03
3.27857896e-02 -7.00998591e-03 4.52315575e-03 -7.00998591e-03 1.71832789e-02 -2.55443074e-03 4.52315575e-03 -2.55443074e-03 -4.23988858e-02
3.57909258e-02 -6.13064831e-03 7.18144613e-04 -6.13064831e-03 1.87595068e-02 2.52184509e-06 7.18144613e-04 2.52184509e-06 -4.63415235e-02
2.91014984e-02 -6.04816064e-03 6.35430741e-04 -6.04816064e-03 1.75371054e-02 3.98657183e-03 6.35430741e-04 3.98657183e-03 -3.92201291e-02
3.22379423e-02 -2.32023030e-03 -1.73838207e-03 -2.32023030e-03 1.85577236e-02 5.44207497e-03 -1.73838207e-03 5.44207497e-03 -4.29928554e-02
2.32981574e-02 -6.13547635e-03 2.05957243e-03 -6.13547635e-03 1.08862737e-02 -1.01472940e-02 2.05957243e-03 -1.01472940e-02 -2.86906459e-02
2.10297836e-02 -1.12721297e-02 -1.22029251e-03 -1.12721297e-02 1.65203504e-02 6.40366846e-03 -1.22029251e-03 6.40366846e-03 -3.10864665e-02
6.23036185e-03 -3.32233601e-03 1.56547310e-03 -3.32233601e-03 2.80365546e-03 -4.37619176e-03 1.56547310e-03 -4.37619176e-03 -6.60397345e-03
1.35017690e-02 -4.38616704e-03 -1.94908425e-03 -4.38616704e-03 8.84960476e-03 1.63600640e-02 -1.94908425e-03 1.63600640e-02 -1.83982106e-02
3.23553666e-04 8.93185964e-04 1.03338907e-05 8.93185964e-04 6.58649315e-05 -1.80804298e-04 1.03338907e-05 -1.80804298e-04 5.55217521e-05
1.81182678e-03 1.54076170e-05 2.61834837e-04 1.54076170e-05 -6.76078196e-04 2.97493001e-03 2.61834837e-04 2.97493001e-03 -6.92942293e-04
1.45040303e-05 1.86404159e-05 -2.05249503e-05 1.86404159e-05 1.17550890e-05 9.87550666e-05 -2.05249503e-05 9.87550666e-05 4.01458832e-05
5.46933980e-05 2.68314587e-05 -3.82770559e-05 2.68314587e-05 4.21749901e-06 -2.73625843e-05 -3.82770559e-05 -2.73625843e-05 -9.01351450e-06
9.72087037e-05 2.79065698e-05 -6.25269458e-05 2.79065698e-05 -1.61431359e-04 1.73492663e-05 -6.25269458e-05 1.73492663e-05 -1.75478517e-05
4.18429336e-05 -3.96889670e-05 3.59378203e-05 -3.96889670e-05 -1.17052730e-04 -8.32055760e-06 3.59378203e-05 -8.32055760e-06 1.56965713e-05
3.58956922e-02 -6.66603982e-03 -2.02332551e-04 -6.66603982e-03 2.22984487e-02 -4.19792579e-03 -2.02332551e-04 -4.19792579e-03 -5.05162701e-02
4.08991203e-02 -2.87522585e-03 4.17026598e-03 -2.87522585e-03 2.10296940e-02 1.07919186e-05 4.17026598e-03 1.07919186e-05 -5.36050089e-02
3.29574370e-02 -4.47732897e-03 -4.03397949e-04 -4.47732897e-03 2.18297406e-02 -3.06995143e-03 -4.03397949e-04 -3.06995143e-03 -4.70756590e-02
3.57921887e-02 -7.18052033e-03 -2.61502393e-03 -7.18052033e-03 2.35858392e-02 5.23876725e-03 -2.61502393e-03 5.23876725e-03 -5.14557343e-02
2.53518745e-02 -1.11162835e-02 1.19095244e-02 -1.11162835e-02 1.91669017e-02 -1.43817314e-02 1.19095244e-02 -1.43817314e-02 -3.89095787e-02
2.36177114e-02 -1.04357017e-02 5.84475236e-03 -1.04357017e-02 2.68817064e-02 3.02976684e-03 5.84475236e-03 3.02976684e-03 -4.33610277e-02
6.30266126e-03 -6.44098163e-03 1.00528281e-02 -6.44098163e-03 9.01110005e-03 -3.29285965e-03 1.00528281e-02 -3.29285965e-03 -1.25906155e-02
1.69732730e-02 -1.23042166e-02 8.93185484e-03 -1.23042166e-02 1.85165905e-02 2.45907558e-02 8.93185484e-03 2.45907558e-02 -3.10407362e-02
-1.19007210e-03 -1.33874724e-03 -5.01889826e-06 -1.33874724e-03 8.53841455e-04 -5.61568711e-04 -5.01889826e-06 -5.61568711e-04 8.37056577e-04
-8.32124206e-05 -6.73795248e-03 2.02665004e-04 -6.73795248e-03 2.73019687e-04 7.53102178e-03 2.02665004e-04 7.53102178e-03 3.04783563e-04
-2.37782712e-04 -1.18287964e-04 8.07853357e-05 -1.18287964e-04 8.71378070e-05 1.14653114e-04 8.07853357e-05 1.14653114e-04 1.90331685e-04
-7.44961726e-05 -1.97445333e-05 3.15656798e-05 -1.97445333e-05 4.25760642e-05 -1.14467444e-04 3.15656798e-05 -1.14467444e-04 5.43817080e-05
-2.46420277e-05 1.18837728e-04 -3.44943728e-05 1.18837728e-04 -3.62487881e-05 2.86891427e-05 -3.44943728e-05 2.86891427e-05 3.63282493e-06
-8.26012765e-05 1.32492187e-05 -7.27072074e-06 1.32492187e-05 1.96376673e-05 6.20984447e-05 -7.27072074e-06 6.20984447e-05 2.72958723e-05
3.00784428e-02 5.15459942e-06 1.59904233e-03 5.15459942e-06 4.41268049e-02 -6.28016610e-03 1.59904233e-03 -6.28016610e-03 -6.28625862e-02
3.24676842e-02 -8.18761633e-04 6.39828935e-03 -8.18761633e-04 4.23861193e-02 -3.78864442e-03 6.39828935e-03 -3.78864442e-03 -6.33975985e-02
2.98709529e-02 -5.70544737e-03 4.18385913e-03 -5.70544737e-03 4.26826868e-02 -2.67410296e-03 4.18385913e-03 -2.67410296e-03 -6.11713110e-02
2.82212603e-02 -7.83541793e-04 3.51387751e-03 -7.83541793e-04 4.39542988e-02 -1.43215462e-03 3.51387751e-03 -1.43215462e-03 -6.11130754e-02
3.76603035e-02 -6.96699030e-03 2.95213907e-03 -6.96699030e-03 3.89767271e-02 -1.11312164e-03 2.95213907e-03 -1.11312164e-03 -6.46011829e-02
3.61115066e-02 -8.01665813e-03 1.20828903e-03 -8.01665813e-03 4.08500596e-02 -9.33533076e-03 1.20828903e-03 -9.33533076e-03 -6.47090804e-02
4.33927681e-02 1.85625795e-04 3.60384263e-04 1.85625795e-04 3.78624434e-02 -6.29204433e-03 3.60384263e-04 -6.29204433e-03 -6.85078744e-02
4.24825763e-02 -5.32457831e-03 2.16488156e-03 -5.32457831e-03 4.20013093e-02 3.91429385e-04 2.16488156e-03 3.91429385e-04 -7.07792854e-02
4.84314179e-02 -3.80753767e-03 1.21728969e-02 -3.80753767e-03 3.73561252e-02 -5.96738467e-03 1.21728969e-02 -5.96738467e-03 -7.23033119e-02
4.49129120e-02 -4.37385449e-03 2.86190433e-03 -4.37385449e-03 4.74043763e-02 6.50070360e-03 2.86190433e-03 6.50070360e-03 -7.77929528e-02
4.61784713e-02 -4.68777260e-03 1.41689044e-02 -4.68777260e-03 4.13029483e-02 -6.53342868e-04 1.41689044e-02 -6.53342868e-04 -7.33633433e-02
4.80958507e-02 -1.93632209e-03 1.12965889e-02 -1.93632209e-03 4.71035945e-02 3.30961731e-03 1.12965889e-02 3.30961731e-03 -8.02490329e-02
4.21490613e-02 8.89592618e-03 1.08959731e-02 8.89592618e-03 4.62356582e-02 1.43349194e-03 1.08959731e-02 1.43349194e-03 -7.41203465e-02
4.77950685e-02 2.40795733e-03 -2.94895639e-04 2.40795733e-03 4.77231983e-02 1.97145634e-03 -2.94895639e-04 1.97145634e-03 -8.04333389e-02
2.78739710e-02 -6.79837581e-03 7.47519440e-03 -6.79837581e-03 3.98241119e-02 -8.03064290e-03 7.47519440e-03 -8.03064290e-03 -5.69015690e-02
2.46849800e-02 -4.47559531e-03 1.56258612e-02 -4.47559531e-03 4.07882910e-02 -5.29439608e-03 1.56258612e-02 -5.29439608e-03 -5.52470116e-02
3.40825575e-02 -4.44024060e-03 1.61631707e-02 -4.44024060e-03 4.32935304e-02 -3.03320613e-03 1.61631707e-02 -3.03320613e-03 -6.63702600e-02
4.52419750e-02 -1.14875935e-02 3.89190350e-02 -1.14875935e-02 4.83177319e-02 -1.99178292e-03 3.89190350e-02 -1.99178292e-03 -8.12988296e-02
4.87852888e-02 -1.16576545e-03 1.18802453e-02 -1.16576545e-03 5.91705060e-02 1.38233583e-02 1.18802453e-02 1.38233583e-02 -9.40624792e-02
4.89663379e-02 -1.41706681e-03 2.19440944e-02 -1.41706681e-03 5.99926952e-02 2.72513689e-02 2.19440944e-02 2.72513689e-02 -9.44574829e-02
4.76291850e-02 -6.59294007e-03 8.34312243e-03 -6.59294007e-03 6.29742034e-02 2.33886566e-02 8.34312243e-03 2.33886566e-02 -9.58068036e-02
2.24934765e-02 -9.23345404e-04 2.07225766e-02 -9.23345404e-04 3.25119148e-02 -1.48359999e-03 2.07225766e-02 -1.48359999e-03 -4.56309500e-02
2.23894794e-02 -1.60455945e-03 1.39249279e-02 -1.60455945e-03 3.13430494e-02 -4.73714992e-03 1.39249279e-02 -4.73714992e-03 -4.49061077e-02
2.30036638e-02 -7.03250531e-03 2.77131723e-02 -7.03250531e-03 3.52559931e-02 3.06591326e-02 2.77131723e-02 3.06591326e-02 -4.97058751e-02
-1.06801814e-02 -2.66787722e-02 2.88276412e-02 -2.66787722e-02 7.02063495e-03 3.75988260e-02 2.88276412e-02 3.75988260e-02 1.50384670e-02
2.40056182e-02 -8.43742164e-04 1.33062027e-02 -8.43742164e-04 2.02611746e-02 8.66051318e-03 1.33062027e-02 8.66051318e-03 -3.65547938e-02
2.26108241e-02 3.33845231e-03 9.52004752e-03 3.33845231e-03 2.20164815e-02 7.04749115e-03 9.52004752e-03 7.04749115e-03 -3.71758211e-02
2.01272764e-02 -1.61199849e-02 1.48710745e-02 -1.61199849e-02 1.57998211e-02 1.86276774e-02 1.48710745e-02 1.86276774e-02 -2.88984909e-02
4.62792845e-03 -2.60589718e-03 -1.64322431e-02 -2.60589718e-03 1.07184586e-02 1.67797105e-02 -1.64322431e-02 1.67797105e-02 -8.55245348e-03
2.42367897e-02 -5.76416085e-03 1.91805541e-03 -5.76416085e-03 2.12185711e-02 5.73186902e-03 1.91805541e-03 5.73186902e-03 -3.77657963e-02
2.61602090e-02 -4.47724748e-03 8.80379870e-04 -4.47724748e-03 1.98250338e-02 5.46478666e-03 8.80379870e-04 5.46478666e-03 -3.85500584e-02
2.50631102e-02 -1.02586731e-02 6.61805869e-04 -1.02586731e-02 2.69473665e-02 1.11042676e-02 6.61805869e-04 1.11042676e-02 -4.37171089e-02
3.42053124e-02 7.57317059e-04 -1.55030016e-02 7.57317059e-04 3.57035268e-02 1.53218429e-02 -1.55030016e-02 1.53218429e-02 -6.17925767e-02
2.45844787e-02 -7.12725916e-04 -2.45676425e-03 -7.12725916e-04 2.92686704e-02 -2.29594065e-04 -2.45676425e-03 -2.29594065e-04 -4.58031548e-02
2.70282086e-02 1.99478329e-03 -1.67434802e-03 1.99478329e-03 2.57504284e-02 2.13019352e-03 -1.67434802e-03 2.13019352e-03 -4.50491961e-02
2.93084923e-02 -5.43931965e-04 3.77706537e-03 -5.43931965e-04 3.78226172e-02 -3.56967089e-03 3.77706537e-03 -3.56967089e-03 -5.70746465e-02
4.53175306e-02 9.21174738e-04 -7.43996259e-03 9.21174738e-04 5.03188241e-02 1.94160230e-02 -7.43996259e-03 1.94160230e-02 -8.61424841e-02
-2.57254146e-06 -2.94905085e-05 -1.11627685e-05 -2.94905085e-05 7.26194452e-06 9.50105641e-06 -1.11627685e-05 9.50105641e-06 -9.63106709e-06
-8.02868544e-06 -4.63904757e-06 -5.62048535e-06 -4.63904757e-06 -2.41120915e-07 -9.62777131e-06 -5.62048535e-06 -9.62777131e-06 2.96969870e-06
1.71859829e-05 -7.25969244e-06 -2.85343049e-06 -7.25969244e-06 -1.25721158e-07 2.68991023e-05 -2.85343049e-06 2.68991023e-05 -2.19418816e-05
1.10987280e-05 -3.21081388e-05 -5.25975338e-07 -3.21081388e-05 -3.58217824e-06 -2.38953908e-05 -5.25975338e-07 -2.38953908e-05 -1.17722063e-05
3.70705202e-02 7.62454511e-06 8.79132096e-03 7.62454511e-06 3.87704819e-02 -1.98990037e-03 8.79132096e-03 -1.98990037e-03 -6.42011762e-02
3.81236756e-02 1.41005602e-03 6.03350240e-03 1.41005602e-03 3.73750106e-02 2.05501076e-03 6.03350240e-03 2.05501076e-03 -6.39153589e-02
3.66883050e-02 -7.69384304e-03 1.01508532e-02 -7.69384304e-03 3.78385847e-02 2.92727581e-03 1.01508532e-02 2.92727581e-03 -6.27131439e-02
3.54997041e-02 1.19847318e-03 9.10703704e-03 1.19847318e-03 3.97705836e-02 -4.73563944e-03 9.10703704e-03 -4.73563944e-03 -6.36839438e-02
4.11395095e-02 -8.58736434e-03 8.63511954e-03 -8.58736434e-03 3.24644493e-02 6.93542594e-04 8.63511954e-03 6.93542594e-04 -6.19240170e-02
4.03063889e-02 -1.06692450e-02 9.19198044e-03 -1.06692450e-02 3.61814012e-02 3.70900721e-03 9.19198044e-03 3.70900721e-03 -6.42645354e-02
4.39769281e-02 7.08525200e-04 3.05173488e-03 7.08525200e-04 2.93886806e-02 4.91770099e-03 3.05173488e-03 4.91770099e-03 -6.15703203e-02
4.43011923e-02 -4.94727705e-03 -4.71997904e-03 -4.94727705e-03 3.57141139e-02 -3.83728676e-03 -4.71997904e-03 -3.83728676e-03 -6.69109868e-02
4.54262374e-02 2.04518181e-03 -4.48021991e-03 2.04518181e-03 2.79733711e-02 -7.82097530e-04 -4.48021991e-03 -7.82097530e-04 -6.14700690e-02
4.44850931e-02 1.86541349e-03 -6.13941425e-03 1.86541349e-03 4.09177404e-02 -3.75975796e-05 -6.13941425e-03 -3.75975796e-05 -7.20136529e-02
4.26849397e-02 1.14204088e-03 2.66222359e-03 1.14204088e-03 2.91306823e-02 -3.65678153e-03 2.66222359e-03 -3.65678153e-03 -6.00017840e-02
4.40814504e-02 9.72766215e-04 2.88699463e-04 9.72766215e-04 3.97909642e-02 2.24106223e-03 2.88699463e-04 2.24106223e-03 -7.04665836e-02
4.07221131e-02 7.45987287e-04 2.98288930e-03 7.45987287e-04 2.86014229e-02 -3.81469424e-03 2.98288930e-03 -3.81469424e-03 -5.76047320e-02
4.08610869e-02 -1.51063338e-03 -1.43441692e-03 -1.51063338e-03 3.92241944e-02 -3.05664295e-03 -1.43441692e-03 -3.05664295e-03 -6.66606668e-02
3.28121686e-02 -1.29817831e-02 2.47931423e-02 -1.29817831e-02 4.16154610e-02 3.95863375e-04 2.47931423e-02 3.95863375e-04 -6.21873168e-02
2.76336381e-02 -1.02139628e-02 1.79985445e-02 -1.02139628e-02 4.43169959e-02 -2.79351627e-03 1.79985445e-02 -2.79351627e-03 -6.03850009e-02
4.32054283e-02 -1.60772763e-03 1.77070017e-02 -1.60772763e-03 3.97949884e-02 -3.82323087e-03 1.77070017e-02 -3.82323087e-03 -7.10798119e-02
5.11127025e-02 -1.12795442e-02 -4.90982410e-02 -1.12795442e-02 4.67947513e-02 -8.74622352e-04 -4.90982410e-02 -8.74622352e-04 -8.72177377e-02
5.03188539e-02 -9.94065194e-04 -1.42847989e-02 -9.94065194e-04 5.73061490e-02 1.04258742e-02 -1.42847989e-02 1.04258742e-02 -9.45466030e-02
4.92868396e-02 -3.25907487e-03 -1.96815957e-03 -3.25907487e-03 5.38401511e-02 8.78340696e-03 -1.96815957e-03 8.78340696e-03 -8.93399902e-02
4.44383509e-02 -1.02770282e-03 -3.78152309e-03 -1.02770282e-03 5.44976257e-02 3.23006359e-03 -3.78152309e-03 3.23006359e-03 -8.49520303e-02
2.78541676e-02 -7.68047202e-03 3.18754597e-02 -7.68047202e-03 4.05541179e-02 9.34486810e-04 3.18754597e-02 9.34486810e-04 -5.72086158e-02
2.31402833e-02 2.49074749e-03 2.54152995e-02 2.49074749e-03 3.99867520e-02 4.38646472e-03 2.54152995e-02 4.38646472e-03 -5.22445068e-02
3.93728809e-02 -2.09192121e-02 4.44110888e-02 -2.09192121e-02 5.16108656e-02 -4.97502317e-02 4.44110888e-02 -4.97502317e-02 -7.87319802e-02
2.29720354e-02 -2.36366825e-03 1.29430613e-02 -2.36366825e-03 3.02574145e-02 1.87732838e-02 1.29430613e-02 1.87732838e-02 -4.35469486e-02
2.16259966e-02 -5.74371836e-03 2.07534294e-02 -5.74371836e-03 3.16121159e-02 3.70494585e-03 2.07534294e-02 3.70494585e-03 -4.40210532e-02
2.38506853e-02 4.25107250e-03 1.21742107e-02 4.25107250e-03 3.45109953e-02 5.60420691e-02 1.21742107e-02 5.60420691e-02 -5.02507845e-02
2.47338891e-02 3.52081900e-03 1.05759905e-02 3.52081900e-03 3.10454632e-02 6.42711437e-03 1.05759905e-02 6.42711437e-03 -4.57133865e-02
2.37748697e-02 4.81137272e-03 -1.31464284e-03 4.81137272e-03 3.09684211e-02 2.51961662e-03 -1.31464284e-03 2.51961662e-03 -4.56777625e-02
2.71339786e-02 -8.49000246e-03 -1.04401041e-02 -8.49000246e-03 4.17339099e-02 1.14620426e-02 -1.04401041e-02 1.14620426e-02 -5.72653881e-02
-3.28783691e-03 5.19363321e-02 -7.55547956e-02 5.19363321e-02 -1.33568542e-02 9.38978866e-02 -7.55547956e-02 9.38978866e-02 3.28689776e-02
4.85710750e-02 2.21968358e-02 -7.27098311e-02 2.21968358e-02 4.71612513e-02 -7.45850646e-03 -7.27098311e-02 -7.45850646e-03 -8.38379885e-02
2.88383486e-02 1.28993237e-02 8.69740726e-03 1.28993237e-02 3.56073929e-02 1.21307648e-02 8.69740726e-03 1.21307648e-02 -5.42466044e-02
2.57691760e-02 -1.93173811e-03 7.70367961e-03 -1.93173811e-03 3.64256389e-02 9.94566735e-03 7.70367961e-03 9.94566735e-03 -5.21184187e-02
</DataArray>
<DataArray type="Float32" Name="Plastic_strain_components" NumberOfComponents="9" format="ascii">
2.82031037e-02 -4.38623829e-07 5.28720193e-07 -4.38623829e-07 5.25978059e-02 -7.33620254e-07 5.28720193e-07 -7.33620254e-07 -6.78190142e-02
2.98864022e-02 2.23625405e-03 5.50982350e-07 2.23625405e-03 5.46680354e-02 -1.69231702e-04 5.50982350e-07 -1.69231702e-04 -7.09861219e-02
3.07400427e-02 6.22980553e-03 -4.00153908e-03 6.22980553e-03 4.88260891e-02 -1.83473920e-03 -4.00153908e-03 -1.83473920e-03 -6.68513682e-02
3.00422451e-02 2.35205714e-03 -2.40580377e-03 2.35205714e-03 4.73467261e-02 8.61189619e-07 -2.40580377e-03 8.61189619e-07 -6.50450364e-02
2.76667057e-02 4.32776142e-06 3.13685287e-03 4.32776142e-06 4.98322956e-02 -2.96611735e-03 3.13685287e-03 -2.96611735e-03 -6.50714636e-02
2.95681213e-02 5.64043963e-04 3.66567727e-03 5.64043963e-04 5.10160197e-02 -4.23282417e-03 3.66567727e-03 -4.23282417e-03 -6.76862244e-02
3.01417748e-02 3.04732178e-03 6.58041277e-04 3.04732178e-03 4.69351127e-02 -5.00131739e-03 6.58041277e-04 -5.00131739e-03 -6.47810278e-02
2.90700728e-02 7.47505619e-04 1.22584401e-03 7.47505619e-04 4.62908503e-02 -2.44512426e-03 1.22584401e-03 -2.44512426e-03 -6.33316990e-02
3.26583087e-02 7.45349069e-04 1.93854157e-06 7.45349069e-04 5.95471598e-02 -1.30838389e-03 1.93854157e-06 -1.30838389e-03 -7.74253421e-02
3.31912241e-02 9.07137175e-03 -5.92226814e-03 9.07137175e-03 5.31944865e-02 -2.75141727e-04 -5.92226814e-03 -2.75141727e-04 -7.25694373e-02
3.40516702e-02 1.74843112e-03 4.65799018e-03 1.74843112e-03 5.27811479e-02 -4.12787901e-03 4.65799018e-03 -4.12787901e-03 -7.30088651e-02
3.32410815e-02 3.97493839e-03 -9.53019582e-04 3.97493839e-03 5.01170307e-02 -8.58598953e-03 -9.53019582e-04 -8.58598953e-03 -7.00737750e-02
3.74227259e-02 3.06658377e-03 -1.57416798e-06 3.06658377e-03 6.45687170e-02 4.30977647e-03 -1.57416798e-06 4.30977647e-03 -8.56824405e-02
3.75218950e-02 6.47240761e-03 -1.02794678e-02 6.47240761e-03 6.13442436e-02 -2.66911573e-03 -1.02794678e-02 -2.66911573e-03 -8.37826878e-02
3.99553180e-02 -3.72577453e-03 2.37363070e-03 -3.72577453e-03 5.49856769e-02 -3.22864368e-03 2.37363070e-03 -3.22864368e-03 -7.99070075e-02
3.75370798e-02 -2.45839523e-03 2.47508241e-03 -2.45839523e-03 5.44304820e-02 -5.16533722e-03 2.47508241e-03 -5.16533722e-03 -7.74436165e-02
4.30513322e-02 -8.28172546e-03 1.90016362e-05 -8.28172546e-03 6.91342764e-02 3.31788335e-03 1.90016362e-05 3.31788335e-03 -9.43019465e-02
3.92695609e-02 -6.32077566e-03 -1.50007717e-02 -6.32077566e-03 6.66963253e-02 2.51546584e-03 -1.50007717e-02 2.51546584e-03 -8.94680414e-02
4.55956673e-02 -9.22916108e-03 3.90924129e-03 -9.22916108e-03 5.77321388e-02 -3.05800957e-03 3.90924129e-03 -3.05800957e-03 -8.69941059e-02
4.33987337e-02 -9.95723606e-03 2.65387725e-03 -9.95723606e-03 5.42529006e-02 1.45711214e-03 2.65387725e-03 1.45711214e-03 -8.23680349e-02
4.71929424e-02 -1.19225974e-02 4.15941140e-05 -1.19225974e-02 7.52108544e-02 3.64854466e-03 4.15941140e-05 3.64854466e-03 -1.02899142e-01
4.24822560e-02 -1.54963089e-02 -1.86566594e-02 -1.54963089e-02 7.29301162e-02 8.09237955e-03 -1.86566594e-02 8.09237955e-03 -9.81061682e-02
4.75181472e-02 -8.46248609e-03 7.09732273e-03 -8.46248609e-03 6.19651461e-02 7.69030376e-04 7.09732273e-03 7.69030376e-04 -9.21464730e-02
4.77428385e-02 -1.29420648e-02 7.53747718e-03 -1.29420648e-02 5.73269366e-02 1.40868674e-03 7.53747718e-03 1.40868674e-03 -8.87930645e-02
4.42329049e-02 -3.01275533e-02 -4.07046173e-07 -3.01275533e-02 8.85277092e-02 -3.66278761e-03 -4.07046173e-07 -3.66278761e-03 -1.11279979e-01
4.00290042e-02 -2.31276737e-02 -2.10390715e-02 -2.31276737e-02 8.82084817e-02 2.10298905e-02 -2.10390715e-02 2.10298905e-02 -1.08634051e-01
4.27735075e-02 -7.39459042e-03 -1.60267140e-03 -7.39459042e-03 7.52494149e-02 -2.32430850e-03 -1.60267140e-03 -2.32430850e-03 -9.91804637e-02
4.49227085e-02 -1.26794735e-02 1.25510944e-03 -1.26794735e-02 6.74244445e-02 7.84004549e-03 1.25510944e-03 7.84004549e-03 -9.44584962e-02
3.35223558e-02 8.26730230e-03 -2.97496101e-03 8.26730230e-03 3.40857501e-02 -2.96431384e-03 -2.97496101e-03 -2.96431384e-03 -5.68794571e-02
3.32195573e-02 1.73642638e-03 -3.93502088e-03 1.73642638e-03 3.37324021e-02 4.50577500e-06 -3.93502088e-03 4.50577500e-06 -5.63553032e-02
3.08803080e-02 5.71202330e-03 4.32512241e-03 5.71202330e-03 3.67072620e-02 -5.59369382e-03 4.32512241e-03 -5.59369382e-03 -5.68583379e-02
2.99606039e-02 2.67620146e-03 6.15329668e-03 2.67620146e-03 3.55625236e-02 -9.83873208e-04 6.15329668e-03 -9.83873208e-04 -5.51538570e-02
3.15141608e-02 1.35413446e-02 -7.21503736e-03 1.35413446e-02 3.40732001e-02 -5.59949933e-03 -7.21503736e-03 -5.59949933e-03 -5.49270120e-02
3.16372258e-02 7.52035633e-03 7.92705017e-03 7.52035633e-03 3.86066679e-02 -2.10402609e-03 7.92705017e-03 -2.10402609e-03 -5.92457713e-02
2.23042621e-02 7.38550280e-03 -6.51646400e-03 7.38550280e-03 2.55578675e-02 -3.61921854e-03 -6.51646400e-03 -3.61921854e-03 -3.85193089e-02
2.90777896e-02 3.11850745e-05 2.40486470e-02 3.11850745e-05 3.81330151e-02 1.64070328e-03 2.40486470e-02 1.64070328e-03 -5.62942757e-02
2.17123762e-02 -9.18956407e-03 -1.82800936e-02 -9.18956407e-03 3.05190433e-02 1.35360243e-03 -1.82800936e-02 1.35360243e-03 -4.29166277e-02
2.75137639e-02 -1.44182005e-02 2.52615497e-02 -1.44182005e-02 3.89985191e-02 7.47171521e-03 2.52615497e-02 7.47171521e-03 -5.43413588e-02
1.79353252e-02 -1.29291864e-02 -1.49834185e-02 -1.29291864e-02 1.47965026e-02 8.24649070e-03 -1.49834185e-02 8.24649070e-03 -2.31782771e-02
2.64933774e-02 -1.85294851e-02 3.09991492e-02 -1.85294851e-02 3.31472320e-02 2.09976496e-02 3.09991492e-02 2.09976496e-02 -4.70521854e-02
1.92461084e-02 -1.64667256e-02 -1.42976763e-02 -1.64667256e-02 1.37728006e-02 1.32443018e-02 -1.42976763e-02 1.32443018e-02 -2.27678397e-02
2.97472160e-02 -2.67139003e-02 2.87566669e-02 -2.67139003e-02 4.20973127e-02 2.84231910e-02 2.87566669e-02 2.84231910e-02 -5.80628850e-02
3.48976785e-02 4.11026430e-03 7.79867711e-04 4.11026430e-03 1.91617261e-02 -3.75726959e-03 7.79867711e-04 -3.75726959e-03 -4.53799078e-02
3.45666613e-02 2.29429174e-03 1.76392490e-03 2.29429174e-03 2.05140300e-02 -2.52973041e-06 1.76392490e-03 -2.52973041e-06 -4.62900102e-02
3.21014333e-02 2.87734822e-03 8.17831204e-03 2.87734822e-03 2.22052496e-02 -1.99656460e-03 8.17831204e-03 -1.99656460e-03 -4.56327475e-02
3.03976340e-02 1.29563385e-03 8.61886004e-03 1.29563385e-03 2.33552600e-02 3.35399645e-05 8.61886004e-03 3.35399645e-05 -4.52069649e-02
2.80047646e-02 6.57037071e-03 1.29156443e-03 6.57037071e-03 1.47243568e-02 -7.01395026e-03 1.29156443e-03 -7.01395026e-03 -3.63839474e-02
2.64268517e-02 3.56423517e-03 1.30012564e-02 3.56423517e-03 1.45931244e-02 3.36939830e-03 1.30012564e-02 3.36939830e-03 -3.38045964e-02
4.13348456e-03 8.99277264e-04 -4.52481932e-03 8.99277264e-04 -5.56426181e-04 -3.38818284e-03 -4.52481932e-03 -3.38818284e-03 1.39442738e-04
4.23565111e-03 2.17414199e-04 6.28313461e-03 2.17414199e-04 2.73093325e-03 2.02189370e-03 6.28313461e-03 2.02189370e-03 -2.71076399e-03
-1.28412972e-03 2.35728376e-04 -1.00790896e-02 2.35728376e-04 -4.18797322e-03 -2.81204916e-03 -1.00790896e-02 -2.81204916e-03 8.99126516e-03
4.12714124e-04 -2.77966027e-02 2.66575028e-02 -2.77966027e-02 9.66565257e-03 5.01407283e-03 2.66575028e-02 5.01407283e-03 -6.83785471e-03
-3.68119497e-03 5.76386352e-03 -9.21900291e-03 5.76386352e-03 -2.28261691e-03 -1.91983390e-03 -9.21900291e-03 -1.91983390e-03 9.21163529e-03
6.10959561e-04 -1.22956598e-02 1.75150906e-02 -1.22956598e-02 2.17525742e-03 -1.01554953e-03 1.75150906e-02 -1.01554953e-03 4.35301607e-04
2.53309449e-03 4.61019110e-03 -6.57505193e-03 4.61019110e-03 -1.03381441e-02 1.20792619e-03 -6.57505193e-03 1.20792619e-03 1.07569289e-02
3.80094035e-03 -1.03818062e-02 2.35620695e-02 -1.03818062e-02 1.23151112e-03 -3.00265860e-03 2.35620695e-02 -3.00265860e-03 -2.31874245e-03
3.40349674e-02 -2.41688755e-03 1.90543884e-03 -2.41688755e-03 1.29007255e-02 -4.73295571e-03 1.90543884e-03 -4.73295571e-03 -3.92598324e-02
3.51338983e-02 -2.50333699e-03 2.58740596e-03 -2.50333699e-03 1.57475686e-02 5.19662717e-06 2.58740596e-03 5.19662717e-06 -4.26388364e-02
3.01598362e-02 -4.18065154e-03 8.84062812e-03 -4.18065154e-03 1.43818699e-02 -3.19223036e-05 8.84062812e-03 -3.19223036e-05 -3.72933964e-02
3.16977631e-02 -3.20032734e-03 3.25463167e-03 -3.20032734e-03 1.65068761e-02 2.04033387e-03 3.25463167e-03 2.04033387e-03 -4.04533958e-02
2.40504243e-02 -3.30598949e-03 -2.06359761e-03 -3.30598949e-03 7.27497053e-03 -7.08788249e-03 -2.06359761e-03 -7.08788249e-03 -2.61317044e-02
2.32802297e-02 -6.68467191e-03 4.25725602e-03 -6.68467191e-03 7.46183319e-03 6.10204565e-03 4.25725602e-03 6.10204565e-03 -2.55506269e-02
6.70202498e-03 -3.80443563e-03 -1.46999428e-03 -3.80443563e-03 2.77855550e-04 -5.73506835e-03 -1.46999428e-03 -5.73506835e-03 -5.57047577e-03
1.12875064e-02 -3.92853476e-03 -3.65219684e-03 -3.92853476e-03 1.01456128e-03 5.86287662e-03 -3.65219684e-03 5.86287662e-03 -1.01163983e-02
-6.55027566e-04 -1.60152684e-03 -4.29016687e-05 -1.60152684e-03 3.41621215e-05 -2.38983825e-04 -4.29016687e-05 -2.38983825e-04 6.12875121e-04
7.71391997e-04 1.02946678e-03 -1.01661604e-03 1.02946678e-03 9.99446072e-04 3.01275546e-03 -1.01661604e-03 3.01275546e-03 -1.39060072e-03
4.04167641e-03 -1.03602223e-02 2.40251829e-05 -1.03602223e-02 -6.45232899e-03 5.24587958e-05 2.40251829e-05 5.24587958e-05 3.83089972e-03
-4.87615102e-04 -6.38945140e-03 1.23916381e-05 -6.38945140e-03 1.41238404e-03 1.74526052e-05 1.23916381e-05 1.74526052e-05 -5.51425045e-04
3.37287923e-03 -1.22244265e-02 -1.70297024e-03 -1.22244265e-02 -5.29555092e-03 -4.43377503e-05 -1.70297024e-03 -4.43377503e-05 3.10133398e-03
-1.67048530e-03 -6.47283021e-03 -3.09442855e-03 -6.47283021e-03 4.00341260e-03 -2.53095647e-05 -3.09442855e-03 -2.53095647e-05 -1.72269286e-03
3.25656985e-02 -6.91275814e-03 4.46332002e-03 -6.91275814e-03 1.71794978e-02 -2.53921165e-03 4.46332002e-03 -2.53921165e-03 -4.17180331e-02
3.56369168e-02 -6.06138539e-03 7.05025537e-04 -6.06138539e-03 1.87848555e-02 1.55818816e-06 7.05025537e-04 1.55818816e-06 -4.56777904e-02
2.88770595e-02 -5.98820062e-03 6.10769537e-04 -5.98820062e-03 1.74169651e-02 3.96816802e-03 6.10769537e-04 3.96816802e-03 -3.88692957e-02
3.20273479e-02 -2.29343405e-03 -1.73788649e-03 -2.29343405e-03 1.85015169e-02 5.40413079e-03 -1.73788649e-03 5.40413079e-03 -4.24177786e-02
2.36485647e-02 -6.32890587e-03 2.12945748e-03 -6.32890587e-03 1.11993505e-02 -1.00757175e-02 2.12945748e-03 -1.00757175e-02 -2.93638827e-02
1.94872983e-02 -1.06477452e-02 -1.14588744e-03 -1.06477452e-02 1.48260347e-02 5.58858884e-03 -1.14588744e-03 5.58858884e-03 -2.81664975e-02
3.78267438e-03 -2.26686605e-03 1.09322272e-03 -2.26686605e-03 1.00319614e-03 -4.02995746e-03 1.09322272e-03 -4.02995746e-03 -2.98015086e-03
1.41202814e-02 -4.67672172e-03 -1.85967668e-03 -4.67672172e-03 9.47900477e-03 1.64358393e-02 -1.85967668e-03 1.64358393e-02 -1.98309224e-02
1.87681780e-04 6.85387766e-04 -3.22380586e-07 6.85387766e-04 -1.08122966e-04 -1.17420845e-04 -3.22380586e-07 -1.17420845e-04 -1.12218752e-04
1.66321849e-03 -9.66385091e-05 1.38016673e-04 -9.66385091e-05 -6.98554694e-04 2.92656324e-03 1.38016673e-04 2.92656324e-03 -7.14271271e-04
2.84421087e-05 -1.79023760e-05 -2.49274130e-06 -1.79023760e-05 -1.77056965e-05 9.55760387e-06 -2.49274130e-06 9.55760387e-06 -1.75055234e-05
-3.03155871e-06 -3.94541626e-06 -1.62376301e-06 -3.94541626e-06 2.76508217e-07 5.90179714e-06 -1.62376301e-06 5.90179714e-06 2.89519319e-06
0.00000000e+00 0.00000000e+00 0.00000000e+00 0.00000000e+00 0.00000000e+00 0.00000000e+00 0.00000000e+00 0.00000000e+00 0.00000000e+00
0.00000000e+00 0.00000000e+00 0.00000000e+00 0.00000000e+00 0.00000000e+00 0.00000000e+00 0.00000000e+00 0.00000000e+00 0.00000000e+00
3.59212980e-02 -6.55834388e-03 -2.23525101e-04 -6.55834388e-03 2.25509424e-02 -4.14644880e-03 -2.23525101e-04 -4.14644880e-03 -4.91198413e-02
4.09744792e-02 -2.84164422e-03 4.10345336e-03 -2.84164422e-03 2.13710945e-02 9.93004505e-06 4.10345336e-03 9.93004505e-06 -5.23311719e-02
3.30155781e-02 -4.44174535e-03 -4.06291219e-04 -4.44174535e-03 2.20164191e-02 -3.02789154e-03 -4.06291219e-04 -3.02789154e-03 -4.62575983e-02
3.58566120e-02 -7.10993586e-03 -2.60873279e-03 -7.10993586e-03 2.38317456e-02 5.20638493e-03 -2.60873279e-03 5.20638493e-03 -5.01818601e-02
2.52075195e-02 -1.07643120e-02 1.16362632e-02 -1.07643120e-02 1.93021712e-02 -1.41360974e-02 1.16362632e-02 -1.41360974e-02 -3.70624624e-02
2.42930148e-02 -1.05676847e-02 5.78150799e-03 -1.05676847e-02 2.76627806e-02 3.40323779e-03 5.78150799e-03 3.40323779e-03 -4.39500678e-02
7.36119621e-03 -7.10726148e-03 1.00322394e-02 -7.10726148e-03 9.48374113e-03 -3.26694909e-03 1.00322394e-02 -3.26694909e-03 -1.44880186e-02
1.69323664e-02 -1.17891757e-02 8.90406123e-03 -1.17891757e-02 1.83640774e-02 2.40950321e-02 8.90406123e-03 2.40950321e-02 -2.89763026e-02
-1.17231609e-03 -1.23835995e-03 -4.31580384e-06 -1.23835995e-03 5.46252879e-04 -4.46391176e-04 -4.31580384e-06 -4.46391176e-04 6.06768284e-04
8.57442355e-05 -6.32668819e-03 1.52795626e-04 -6.32668819e-03 3.75914075e-04 7.21020458e-03 1.52795626e-04 7.21020458e-03 4.09386885e-04
-8.07145843e-05 -8.72831370e-05 1.57544855e-05 -8.72831370e-05 3.67177199e-05 1.47555011e-05 1.57544855e-05 1.47555011e-05 5.95624952e-05
3.30092444e-05 -6.20377917e-06 -8.71893947e-06 -6.20377917e-06 -1.85758351e-05 3.10539278e-05 -8.71893947e-06 3.10539278e-05 -2.18083393e-05
0.00000000e+00 0.00000000e+00 0.00000000e+00 0.00000000e+00 0.00000000e+00 0.00000000e+00 0.00000000e+00 0.00000000e+00 0.00000000e+00
0.00000000e+00 0.00000000e+00 0.00000000e+00 0.00000000e+00 0.00000000e+00 0.00000000e+00 0.00000000e+00 0.00000000e+00 0.00000000e+00
3.00391382e-02 5.14561088e-06 1.60543207e-03 5.14561088e-06 4.40221466e-02 -6.24699891e-03 1.60543207e-03 -6.24699891e-03 -6.22899123e-02
3.23725613e-02 -8.18571294e-04 6.37449033e-03 -8.18571294e-04 4.22433726e-02 -3.76558241e-03 6.37449033e-03 -3.76558241e-03 -6.27925796e-02
2.97528321e-02 -5.68919293e-03 4.18526950e-03 -5.68919293e-03 4.25164215e-02 -2.68388126e-03 4.18526950e-03 -2.68388126e-03 -6.07565520e-02
2.81571327e-02 -7.81179697e-04 3.51358776e-03 -7.81179697e-04 4.37971167e-02 -1.46652924e-03 3.51358776e-03 -1.46652924e-03 -6.04707031e-02
3.75105394e-02 -6.93358667e-03 2.92674795e-03 -6.93358667e-03 3.88297606e-02 -1.13268001e-03 2.92674795e-03 -1.13268001e-03 -6.43053278e-02
3.58868625e-02 -7.98958237e-03 1.20661015e-03 -7.98958237e-03 4.06041984e-02 -9.29751781e-03 1.20661015e-03 -9.29751781e-03 -6.42865123e-02
4.32262029e-02 1.83449891e-04 3.66030719e-04 1.83449891e-04 3.77280694e-02 -6.30874067e-03 3.66030719e-04 -6.30874067e-03 -6.81740120e-02
4.10951057e-02 -5.10814979e-03 1.94268802e-03 -5.10814979e-03 4.05513528e-02 2.50435696e-04 1.94268802e-03 2.50435696e-04 -6.83044838e-02
4.82192459e-02 -3.79631604e-03 1.21730703e-02 -3.79631604e-03 3.72087099e-02 -5.96606528e-03 1.21730703e-02 -5.96606528e-03 -7.18705840e-02
4.49139965e-02 -4.38782986e-03 2.90360462e-03 -4.38782986e-03 4.74000834e-02 6.49389595e-03 2.90360462e-03 6.49389595e-03 -7.78086437e-02
4.60043009e-02 -4.67103289e-03 1.41916082e-02 -4.67103289e-03 4.11655232e-02 -6.82232174e-04 1.41916082e-02 -6.82232174e-04 -7.33267888e-02
4.77796411e-02 -1.90933817e-03 1.12182046e-02 -1.90933817e-03 4.67924727e-02 3.25865950e-03 1.12182046e-02 3.25865950e-03 -7.95822786e-02
4.20364775e-02 8.88652913e-03 1.09093017e-02 8.88652913e-03 4.61447891e-02 1.33633090e-03 1.09093017e-02 1.33633090e-03 -7.42234364e-02
4.73529659e-02 2.41773564e-03 -3.36449535e-04 2.41773564e-03 4.72847577e-02 1.92283536e-03 -3.36449535e-04 1.92283536e-03 -7.96134416e-02
2.77000428e-02 -6.77202636e-03 7.46479802e-03 -6.77202636e-03 3.96138849e-02 -7.99257969e-03 7.46479802e-03 -7.99257969e-03 -5.65701495e-02
2.46284450e-02 -4.44790628e-03 1.55738716e-02 -4.44790628e-03 4.06655902e-02 -5.29382960e-03 1.55738716e-02 -5.29382960e-03 -5.47342040e-02
3.40723560e-02 -4.43605287e-03 1.60528560e-02 -4.43605287e-03 4.31220798e-02 -3.17803710e-03 1.60528560e-02 -3.17803710e-03 -6.49208118e-02
4.62930240e-02 -1.11629109e-02 3.78118986e-02 -1.11629109e-02 4.93340734e-02 -1.82135102e-03 3.78118986e-02 -1.82135102e-03 -7.97521688e-02
4.92560053e-02 -1.10445096e-03 1.17715704e-02 -1.10445096e-03 5.95209841e-02 1.36619694e-02 1.17715704e-02 1.36619694e-02 -9.14629716e-02
4.95934095e-02 -1.35276957e-03 2.18154024e-02 -1.35276957e-03 6.04716549e-02 2.69513362e-02 2.18154024e-02 2.69513362e-02 -9.23629515e-02
4.82829865e-02 -6.42510154e-03 8.23814305e-03 -6.42510154e-03 6.34046216e-02 2.30733255e-02 8.23814305e-03 2.30733255e-02 -9.37643163e-02
2.24175458e-02 -9.91774003e-04 2.08584336e-02 -9.91774003e-04 3.23819239e-02 -1.30372794e-03 2.08584336e-02 -1.30372794e-03 -4.59465804e-02
2.22111517e-02 -1.59282226e-03 1.38922019e-02 -1.59282226e-03 3.11589106e-02 -4.74125566e-03 1.38922019e-02 -4.74125566e-03 -4.47957125e-02
2.39173959e-02 -6.88121658e-03 2.81152663e-02 -6.88121658e-03 3.65823995e-02 3.09574966e-02 2.81152663e-02 3.09574966e-02 -5.01993246e-02
-9.39888228e-03 -2.81416979e-02 3.31336074e-02 -2.81416979e-02 6.83694668e-03 3.64116970e-02 3.31336074e-02 3.64116970e-02 8.46709311e-03
2.29054375e-02 -5.83316432e-04 1.24363896e-02 -5.83316432e-04 1.92258258e-02 8.06054051e-03 1.24363896e-02 8.06054051e-03 -3.48720006e-02
2.23478926e-02 3.30130052e-03 9.50027790e-03 3.30130052e-03 2.17559650e-02 7.02370005e-03 9.50027790e-03 7.02370005e-03 -3.70835764e-02
1.77579960e-02 -1.44360294e-02 1.47039897e-02 -1.44360294e-02 1.32508986e-02 1.44647303e-02 1.47039897e-02 1.44647303e-02 -2.48540108e-02
3.17168764e-03 -4.18232203e-03 -2.05388243e-02 -4.18232203e-03 7.21200819e-03 -1.36846739e-03 -2.05388243e-02 -1.36846739e-03 -5.02509748e-03
2.39713127e-02 -5.75311334e-03 1.92710508e-03 -5.75311334e-03 2.10054331e-02 5.73754582e-03 1.92710508e-03 5.73754582e-03 -3.77168311e-02
2.59041856e-02 -4.44028387e-03 8.60410393e-04 -4.44028387e-03 1.96264195e-02 5.43815491e-03 8.60410393e-04 5.43815491e-03 -3.82916983e-02
2.09053945e-02 -9.34912213e-03 1.00875042e-03 -9.34912213e-03 2.18092274e-02 1.04673160e-02 1.00875042e-03 1.04673160e-02 -3.39772885e-02
3.72183532e-02 4.99292859e-04 -1.45529917e-02 4.99292859e-04 3.96977696e-02 1.95410983e-02 -1.45529917e-02 1.95410983e-02 -6.65476695e-02
2.45244773e-02 -6.89483466e-04 -2.45677884e-03 -6.89483466e-04 2.92061414e-02 -2.24570045e-04 -2.45677884e-03 -2.24570045e-04 -4.52589421e-02
2.70596966e-02 2.00653356e-03 -1.67406024e-03 2.00653356e-03 2.58210823e-02 2.08048953e-03 -1.67406024e-03 2.08048953e-03 -4.45229169e-02
3.06889042e-02 -8.90404219e-04 3.51572008e-03 -8.90404219e-04 3.95356733e-02 -2.65309976e-03 3.51572008e-03 -2.65309976e-03 -5.98662039e-02
4.59029414e-02 1.26312704e-03 -7.27036456e-03 1.26312704e-03 5.05468473e-02 1.87636856e-02 -7.27036456e-03 1.87636856e-02 -8.09511431e-02
0.00000000e+00 0.00000000e+00 0.00000000e+00 0.00000000e+00 0.00000000e+00 0.00000000e+00 0.00000000e+00 0.00000000e+00 0.00000000e+00
0.00000000e+00 0.00000000e+00 0.00000000e+00 0.00000000e+00 0.00000000e+00 0.00000000e+00 0.00000000e+00 0.00000000e+00 0.00000000e+00
0.00000000e+00 0.00000000e+00 0.00000000e+00 0.00000000e+00 0.00000000e+00 0.00000000e+00 0.00000000e+00 0.00000000e+00 0.00000000e+00
0.00000000e+00 0.00000000e+00 0.00000000e+00 0.00000000e+00 0.00000000e+00 0.00000000e+00 0.00000000e+00 0.00000000e+00 0.00000000e+00
3.70191149e-02 7.16585055e-06 8.79489258e-03 7.16585055e-06 3.86996884e-02 -1.98887370e-03 8.79489258e-03 -1.98887370e-03 -6.37569875e-02
3.79642043e-02 1.39334923e-03 6.02196006e-03 1.39334923e-03 3.72175490e-02 2.04565279e-03 6.02196006e-03 2.04565279e-03 -6.32974794e-02
3.65754501e-02 -7.68440595e-03 1.01684365e-02 -7.68440595e-03 3.77058391e-02 2.90189726e-03 1.01684365e-02 2.90189726e-03 -6.24811570e-02
3.53492601e-02 1.19592180e-03 9.07467585e-03 1.19592180e-03 3.95704573e-02 -4.72390896e-03 9.07467585e-03 -4.72390896e-03 -6.30624229e-02
4.09460599e-02 -8.54556495e-03 8.63268203e-03 -8.54556495e-03 3.22910561e-02 6.81735462e-04 8.63268203e-03 6.81735462e-04 -6.16109399e-02
4.00948357e-02 -1.06406954e-02 9.15630674e-03 -1.06406954e-02 3.59848104e-02 3.68752205e-03 9.15630674e-03 3.68752205e-03 -6.39463728e-02
4.37998418e-02 7.00686112e-04 3.05048347e-03 7.00686112e-04 2.92277006e-02 4.88912000e-03 3.05048347e-03 4.88912000e-03 -6.14073360e-02
4.31357445e-02 -4.87351979e-03 -4.47964910e-03 -4.87351979e-03 3.45757636e-02 -3.82784269e-03 -4.47964910e-03 -3.82784269e-03 -6.51173242e-02
4.50853696e-02 2.03134149e-03 -4.46407916e-03 2.03134149e-03 2.77058277e-02 -8.05693475e-04 -4.46407916e-03 -8.05693475e-04 -6.11901209e-02
4.43806993e-02 1.85219510e-03 -6.15509299e-03 1.85219510e-03 4.08354804e-02 -3.72538343e-05 -6.15509299e-03 -3.72538343e-05 -7.17642093e-02
4.22721012e-02 1.14456157e-03 2.66963715e-03 1.14456157e-03 2.87956912e-02 -3.64707116e-03 2.66963715e-03 -3.64707116e-03 -5.97858205e-02
4.37981235e-02 9.74275070e-04 3.12414282e-04 9.74275070e-04 3.95522451e-02 2.24023355e-03 3.12414282e-04 2.24023355e-03 -7.01777320e-02
4.02784124e-02 7.50172447e-04 2.99095514e-03 7.50172447e-04 2.82063130e-02 -3.76825244e-03 2.99095514e-03 -3.76825244e-03 -5.75843845e-02
4.04026350e-02 -1.50367043e-03 -1.40847500e-03 -1.50367043e-03 3.87890507e-02 -3.06261389e-03 -1.40847500e-03 -3.06261389e-03 -6.66599972e-02
3.26034569e-02 -1.29370865e-02 2.46974149e-02 -1.29370865e-02 4.13251810e-02 4.22115481e-04 2.46974149e-02 4.22115481e-04 -6.17582179e-02
2.75597973e-02 -1.01715159e-02 1.80058521e-02 -1.01715159e-02 4.41753520e-02 -2.78567703e-03 1.80058521e-02 -2.78567703e-03 -6.01734342e-02
4.34514550e-02 -1.68510036e-03 1.73586011e-02 -1.68510036e-03 4.00145240e-02 -3.95116982e-03 1.73586011e-02 -3.95116982e-03 -7.07052925e-02
5.25492936e-02 -1.10606920e-02 -4.75964608e-02 -1.10606920e-02 4.84007999e-02 -5.37225790e-04 -4.75964608e-02 -5.37225790e-04 -8.36052798e-02
5.10460055e-02 -9.33945528e-04 -1.40068675e-02 -9.33945528e-04 5.79438964e-02 1.03697972e-02 -1.40068675e-02 1.03697972e-02 -9.16944165e-02
4.99950163e-02 -3.21722237e-03 -1.96499075e-03 -3.21722237e-03 5.44975474e-02 8.75370487e-03 -1.96499075e-03 8.75370487e-03 -8.79822802e-02
4.48865257e-02 -9.68992477e-04 -3.75154964e-03 -9.68992477e-04 5.48197012e-02 3.21654230e-03 -3.75154964e-03 3.21654230e-03 -8.39291997e-02
2.76794541e-02 -7.61284816e-03 3.16067559e-02 -7.61284816e-03 4.02901034e-02 9.31123205e-04 3.16067559e-02 9.31123205e-04 -5.65216685e-02
2.28960016e-02 2.48294283e-03 2.54363916e-02 2.48294283e-03 3.97340395e-02 4.40623879e-03 2.54363916e-02 4.40623879e-03 -5.23597151e-02
3.98785991e-02 -2.05674456e-02 4.57200874e-02 -2.05674456e-02 5.23272911e-02 -4.95907462e-02 4.57200874e-02 -4.95907462e-02 -7.52879381e-02
2.27828476e-02 -2.44371864e-03 1.32937266e-02 -2.44371864e-03 3.00447111e-02 1.88702279e-02 1.32937266e-02 1.88702279e-02 -4.41926223e-02
2.14096503e-02 -5.73138567e-03 2.06930114e-02 -5.73138567e-03 3.13776620e-02 3.68441019e-03 2.06930114e-02 3.68441019e-03 -4.40219948e-02
2.55583706e-02 3.51780831e-03 1.17096107e-02 3.51780831e-03 3.62200914e-02 5.72965634e-02 1.17096107e-02 5.72965634e-02 -5.00643272e-02
1.43317545e-02 2.00441566e-03 1.16024061e-02 2.00441566e-03 1.84783204e-02 5.97822796e-04 1.16024061e-02 5.97822796e-04 -2.36383640e-02
2.52215737e-02 5.23362204e-03 -1.34767988e-03 5.23362204e-03 3.27237006e-02 3.22855520e-03 -1.34767988e-03 3.22855520e-03 -4.93126353e-02
2.09920845e-02 -6.42813228e-03 -5.98798556e-03 -6.42813228e-03 3.12075006e-02 1.60793780e-02 -5.98798556e-03 1.60793780e-02 -4.13320690e-02
-5.26462123e-03 5.24966232e-02 -7.07889050e-02 5.24966232e-02 -1.34489099e-02 1.06890939e-01 -7.07889050e-02 1.06890939e-01 2.65203044e-02
5.49479301e-02 2.10282837e-02 -7.62003126e-02 2.10282837e-02 5.63419800e-02 -1.07197072e-02 -7.62003126e-02 -1.07197072e-02 -9.46482259e-02
3.43261277e-02 1.38074813e-02 8.14240437e-03 1.38074813e-02 4.23268834e-02 1.53555177e-02 8.14240437e-03 1.53555177e-02 -6.63960315e-02
2.46832408e-02 -2.14613089e-03 7.76107796e-03 -2.14613089e-03 3.51713579e-02 9.48681962e-03 7.76107796e-03 9.48681962e-03 -4.99599315e-02
</DataArray>
<DataArray type="Float32" Name="Spatial_displacement" NumberOfComponents="3" format="ascii">
0.00000000e+00 0.00000000e+00 0.00000000e+00
2.85272449e-02 0.00000000e+00 0.00000000e+00
3.08456346e-02 5.65130524e-02 0.00000000e+00
0.00000000e+00 5.40376231e-02 0.00000000e+00
0.00000000e+00 0.00000000e+00 -6.62879497e-02
2.83414498e-02 0.00000000e+00 -6.90830275e-02
2.89226547e-02 5.22786304e-02 -6.56351373e-02
0.00000000e+00 5.14920540e-02 -6.33457899e-02
6.10598996e-02 0.00000000e+00 0.00000000e+00
6.18372187e-02 6.15179203e-02 0.00000000e+00
5.96845970e-02 0.00000000e+00 -7.52790123e-02
6.15013726e-02 5.52255325e-02 -7.09274709e-02
9.49504599e-02 0.00000000e+00 0.00000000e+00
9.81811211e-02 6.87067658e-02 0.00000000e+00
9.94610563e-02 0.00000000e+00 -8.14048797e-02
9.55501646e-02 5.82354590e-02 -7.92267174e-02
1.40956700e-01 0.00000000e+00 0.00000000e+00
1.32221729e-01 7.44182020e-02 0.00000000e+00
1.44451901e-01 0.00000000e+00 -8.86979476e-02
1.34719059e-01 5.91728464e-02 -8.50987807e-02
1.88128769e-01 0.00000000e+00 0.00000000e+00
1.75568521e-01 8.01916420e-02 0.00000000e+00
1.92063570e-01 0.00000000e+00 -9.71906334e-02
1.83169201e-01 6.18275255e-02 -9.07404125e-02
2.41151214e-01 0.00000000e+00 0.00000000e+00
2.09156394e-01 1.01526342e-01 0.00000000e+00
2.37432778e-01 0.00000000e+00 -9.99048278e-02
2.29623914e-01 8.00448284e-02 -1.01471782e-01
3.40709165e-02 9.96541828e-02 0.00000000e+00
0.00000000e+00 9.78500322e-02 0.00000000e+00
3.09711024e-02 9.65331495e-02 -5.61407804e-02
0.00000000e+00 9.37403291e-02 -5.52164614e-02
6.79750293e-02 1.09333962e-01 0.00000000e+00
6.20469600e-02 1.01839796e-01 -5.65039217e-02
9.51725915e-02 1.17588267e-01 0.00000000e+00
9.07500386e-02 1.08332001e-01 -4.96593118e-02
1.18149385e-01 1.32512137e-01 0.00000000e+00
1.20699860e-01 1.09786920e-01 -5.21972775e-02
1.33875012e-01 1.35924846e-01 0.00000000e+00
1.45719200e-01 1.14319928e-01 -4.91488278e-02
1.56915605e-01 1.63321018e-01 0.00000000e+00
1.77083582e-01 1.40974507e-01 -4.93552536e-02
3.65411267e-02 1.25586167e-01 0.00000000e+00
0.00000000e+00 1.23227000e-01 0.00000000e+00
3.26113924e-02 1.26388758e-01 -4.46140021e-02
0.00000000e+00 1.25048608e-01 -4.46340889e-02
7.22252578e-02 1.27814636e-01 0.00000000e+00
6.50830567e-02 1.28885269e-01 -3.35776210e-02
9.16224122e-02 1.35260165e-01 0.00000000e+00
8.73909071e-02 1.32747009e-01 -1.09831095e-02
9.58694145e-02 1.41859382e-01 0.00000000e+00
9.05994475e-02 1.32851303e-01 3.59943509e-03
1.07378021e-01 1.37094483e-01 0.00000000e+00
1.08148016e-01 1.25215620e-01 9.57857072e-03
1.09860308e-01 1.67743385e-01 0.00000000e+00
1.13683596e-01 1.63926914e-01 3.36056948e-03
3.79800200e-02 1.39172465e-01 0.00000000e+00
0.00000000e+00 1.41755044e-01 0.00000000e+00
3.30181718e-02 1.41114011e-01 -3.85269523e-02
0.00000000e+00 1.44411519e-01 -4.04840559e-02
7.08863735e-02 1.37245223e-01 0.00000000e+00
6.35245144e-02 1.35137200e-01 -2.62376368e-02
8.69147256e-02 1.35634929e-01 0.00000000e+00
8.09172317e-02 1.34175465e-01 -5.30701876e-03
8.48778710e-02 1.40363529e-01 0.00000000e+00
8.44951570e-02 1.40323147e-01 2.16662884e-05
8.48217160e-02 1.46514401e-01 0.00000000e+00
8.48510936e-02 1.43210143e-01 0.00000000e+00
8.49394649e-02 1.46554753e-01 -2.40623951e-04
8.49382281e-02 1.43184096e-01 1.97291374e-05
3.60799432e-02 1.52677447e-01 0.00000000e+00
0.00000000e+00 1.58922166e-01 0.00000000e+00
3.34182158e-02 1.57293200e-01 -4.04307693e-02
0.00000000e+00 1.59658059e-01 -4.56513613e-02
6.88265711e-02 1.42240793e-01 0.00000000e+00
5.84473982e-02 1.44347847e-01 -2.95013189e-02
8.07181969e-02 1.36572093e-01 0.00000000e+00
7.63261765e-02 1.38140529e-01 -6.27669692e-03
8.19214508e-02 1.40402585e-01 0.00000000e+00
8.17417651e-02 1.40412450e-01 2.72437930e-04
8.17940980e-02 1.43322065e-01 0.00000000e+00
8.18928778e-02 1.43301547e-01 2.11596489e-05
8.19037855e-02 1.46263346e-01 0.00000000e+00
8.19213763e-02 1.46201164e-01 -1.10268593e-06
4.04537171e-02 1.75946161e-01 0.00000000e+00
0.00000000e+00 1.78874135e-01 0.00000000e+00
3.60975489e-02 1.75774962e-01 -4.84845787e-02
0.00000000e+00 1.83136478e-01 -5.34815788e-02
7.46838897e-02 1.56601220e-01 0.00000000e+00
5.98974191e-02 1.68827593e-01 -4.29204553e-02
8.21029767e-02 1.41846910e-01 0.00000000e+00
7.87799209e-02 1.51970223e-01 -1.62066966e-02
7.99125731e-02 1.40918761e-01 0.00000000e+00
7.93526098e-02 1.40901431e-01 4.94927168e-04
7.90274590e-02 1.43186837e-01 0.00000000e+00
7.91420639e-02 1.43267930e-01 -2.84314156e-05
7.89926797e-02 1.46216333e-01 0.00000000e+00
7.90208578e-02 1.46182001e-01 -2.86102295e-06
0.00000000e+00 0.00000000e+00 -1.26698777e-01
2.96586528e-02 0.00000000e+00 -1.32592469e-01
2.88028345e-02 4.34098952e-02 -1.26572609e-01
0.00000000e+00 4.42282893e-02 -1.25194579e-01
6.62002861e-02 0.00000000e+00 -1.40638381e-01
5.89758828e-02 3.82781252e-02 -1.37863174e-01
1.03334941e-01 0.00000000e+00 -1.52286783e-01
1.03524886e-01 3.74802724e-02 -1.51947141e-01
1.52612239e-01 0.00000000e+00 -1.68915957e-01
1.48578674e-01 3.82987112e-02 -1.57552078e-01
2.02894926e-01 0.00000000e+00 -1.81195617e-01
1.97974831e-01 4.01501656e-02 -1.68006405e-01
2.42904514e-01 0.00000000e+00 -1.88110009e-01
2.52165884e-01 4.43688333e-02 -1.77994668e-01
2.38185599e-02 8.55264664e-02 -1.12646289e-01
0.00000000e+00 9.02222171e-02 -1.07601754e-01
5.55130504e-02 8.44709575e-02 -1.17642790e-01
9.25064385e-02 8.86601508e-02 -1.21052250e-01
1.41253859e-01 9.97488797e-02 -1.37234285e-01
1.93224818e-01 1.01595201e-01 -1.33706391e-01
2.40220755e-01 1.07864887e-01 -1.45484224e-01
2.03884691e-02 1.23533383e-01 -9.08756852e-02
0.00000000e+00 1.25222832e-01 -8.63273442e-02
4.65405211e-02 1.24478549e-01 -7.82161653e-02
4.22937125e-02 1.12374164e-01 6.32242858e-03
2.26152167e-02 1.52954876e-01 -7.23735020e-02
0.00000000e+00 1.49510205e-01 -7.91784450e-02
4.86842245e-02 1.41395822e-01 -5.06879687e-02
6.26691654e-02 1.20493986e-01 -2.14336962e-02
2.70275399e-02 1.64633006e-01 -7.76522309e-02
0.00000000e+00 1.69208705e-01 -8.29129890e-02
4.59433496e-02 1.57503232e-01 -6.11530542e-02
8.00589472e-02 1.45954490e-01 -4.86078113e-02
2.27276981e-02 1.92476720e-01 -9.90753099e-02
0.00000000e+00 1.90439299e-01 -1.01111747e-01
4.63769510e-02 1.97781816e-01 -9.03698653e-02
8.68315101e-02 1.91054225e-01 -8.91660377e-02
8.19295049e-02 1.43339708e-01 2.71052122e-05
8.19292516e-02 1.46198139e-01 2.06679106e-05
7.90660456e-02 1.46205515e-01 -1.33365393e-05
7.90414065e-02 1.43349499e-01 -2.72989273e-05
0.00000000e+00 0.00000000e+00 -1.89930111e-01
3.58489603e-02 0.00000000e+00 -1.91796079e-01
3.73230651e-02 3.88675481e-02 -1.86123997e-01
0.00000000e+00 3.76307368e-02 -1.81672543e-01
7.91986957e-02 0.00000000e+00 -2.03478187e-01
7.02604949e-02 3.21679488e-02 -1.95356816e-01
1.17901452e-01 0.00000000e+00 -2.16245055e-01
1.18642874e-01 2.77099088e-02 -2.13372111e-01
1.64552420e-01 0.00000000e+00 -2.28052795e-01
1.66690424e-01 2.92396918e-02 -2.32262403e-01
2.12402254e-01 0.00000000e+00 -2.42982969e-01
2.13590562e-01 3.16212848e-02 -2.40461916e-01
2.55864948e-01 0.00000000e+00 -2.48893544e-01
2.56651551e-01 3.09325680e-02 -2.46064067e-01
2.54291520e-02 7.28509575e-02 -1.68101355e-01
0.00000000e+00 8.35360363e-02 -1.65371239e-01
6.81200773e-02 7.30978176e-02 -1.88045159e-01
1.10539593e-01 7.88304880e-02 -2.23043576e-01
1.64693907e-01 8.77787396e-02 -2.31030434e-01
2.12892145e-01 8.10970366e-02 -2.30801046e-01
2.54181862e-01 8.26602578e-02 -2.35076576e-01
2.08174363e-02 1.25763625e-01 -1.32932663e-01
0.00000000e+00 1.23125389e-01 -1.37107775e-01
6.08347543e-02 1.10286489e-01 -1.59896299e-01
2.04594359e-02 1.54375941e-01 -1.10475183e-01
0.00000000e+00 1.60258889e-01 -1.13981523e-01
5.14547862e-02 1.54908687e-01 -8.40038657e-02
2.19774693e-02 1.89671785e-01 -1.17995314e-01
0.00000000e+00 1.84724301e-01 -1.20421760e-01
5.00776768e-02 1.88434035e-01 -1.13395117e-01
6.12699836e-02 1.83863297e-01 1.34950876e-02
8.09268057e-02 1.81150228e-01 -1.28492296e-01
2.38918886e-02 2.16770560e-01 -1.41808406e-01
0.00000000e+00 2.18744576e-01 -1.51220664e-01
</DataArray>
<DataArray type="Float32" Name="Spatial_acceleration" NumberOfComponents="3" format="ascii">
0.00000000e+00 0.00000000e+00 0.00000000e+00
-1.65224080e-07 0.00000000e+00 0.00000000e+00
-8.97049901e-08 -2.48511640e-07 0.00000000e+00
0.00000000e+00 -2.39133840e-07 0.00000000e+00
0.00000000e+00 0.00000000e+00 2.09808348e-07
-8.09828435e-08 0.00000000e+00 2.99453745e-07
-4.55975524e-09 -2.22658116e-07 2.48273210e-07
0.00000000e+00 -2.19742461e-07 2.18073524e-07
-1.54932337e-07 0.00000000e+00 0.00000000e+00
-2.58326537e-07 -2.57770211e-07 0.00000000e+00
-1.52389205e-07 0.00000000e+00 2.89281218e-07
-2.43246546e-07 -2.48054647e-07 2.83559160e-07
-3.07838121e-07 0.00000000e+00 0.00000000e+00
-3.29573936e-07 -3.44912195e-07 0.00000000e+00
-3.64050265e-07 0.00000000e+00 3.76383468e-07
-3.30209730e-07 -2.59439162e-07 3.51270046e-07
-5.81741347e-07 0.00000000e+00 0.00000000e+00
-4.95155632e-07 -3.89566026e-07 0.00000000e+00
-5.37514666e-07 0.00000000e+00 3.98635848e-07
-5.08149469e-07 -2.64286996e-07 4.08490507e-07
-7.15229646e-07 0.00000000e+00 0.00000000e+00
-6.22272466e-07 -3.18924577e-07 0.00000000e+00
-6.91334378e-07 0.00000000e+00 4.22477711e-07
-6.00059820e-07 -2.84552584e-07 3.62396236e-07
-8.59141323e-07 0.00000000e+00 0.00000000e+00
-6.61214187e-07 -4.36464944e-07 0.00000000e+00
-8.36928677e-07 0.00000000e+00 4.80651863e-07
-8.13166309e-07 -3.81191569e-07 3.99907435e-07
-1.52905784e-07 -4.28438170e-07 0.00000000e+00
0.00000000e+00 -3.02433961e-07 0.00000000e+00
-7.54818288e-08 -3.95764914e-07 2.31107080e-07
0.00000000e+00 -2.40743162e-07 1.67210899e-07
-1.67051951e-07 -4.59035221e-07 0.00000000e+00
-1.71517328e-07 -4.24027434e-07 2.08059944e-07
-4.83274448e-07 -3.62952534e-07 0.00000000e+00
-3.72548897e-07 -4.41233311e-07 2.04722085e-07
-2.89599086e-07 -6.39994937e-07 0.00000000e+00
-3.15507265e-07 -4.52783382e-07 1.52587887e-07
-2.52167382e-07 -4.85261296e-07 0.00000000e+00
-4.71512493e-07 -4.24914901e-07 1.21222598e-07
-4.61419432e-07 -6.62167849e-07 0.00000000e+00
-6.33663603e-07 -5.78138554e-07 2.79744455e-07
-4.32332357e-08 -4.70171358e-07 0.00000000e+00
0.00000000e+00 -6.20444609e-07 0.00000000e+00
-9.04401105e-08 -4.76658329e-07 1.69912965e-07
0.00000000e+00 -5.10712482e-07 1.15394592e-07
-8.67843610e-08 -3.17891448e-07 0.00000000e+00
-8.52743796e-08 -4.20808789e-07 -4.56174227e-08
-2.83718094e-07 -4.50054813e-07 0.00000000e+00
-8.08338356e-08 -5.14533781e-07 1.00241770e-07
-3.84436731e-07 -2.13729010e-07 0.00000000e+00
-5.34057634e-08 -3.07295068e-07 -1.14440923e-07
-3.36753004e-07 -5.99596262e-07 0.00000000e+00
-2.96804643e-07 -5.92973493e-07 -2.20404726e-08
-4.20888256e-07 -7.63734192e-07 0.00000000e+00
-2.29199728e-07 -6.34441790e-07 3.35057564e-07
-7.23997715e-08 -4.86731551e-07 0.00000000e+00
0.00000000e+00 -3.97046392e-07 0.00000000e+00
-1.76429751e-08 -4.81804193e-07 2.52723691e-08
0.00000000e+00 -4.18260697e-07 1.71025590e-07
1.66813535e-07 -6.68197856e-07 0.00000000e+00
-1.67886412e-07 -5.55038469e-07 -6.83466572e-09
-6.25729569e-07 -7.45375928e-07 0.00000000e+00
-1.74840298e-09 -6.63227524e-07 1.32878625e-07
-3.75588741e-07 -3.55296663e-07 0.00000000e+00
-1.88615587e-07 -3.77972924e-07 -2.54737017e-07
-1.63237246e-07 -5.65846733e-07 0.00000000e+00
-1.22229252e-07 -4.33471484e-07 0.00000000e+00
-4.33524434e-07 -7.55310055e-07 5.94456999e-08
-2.19133170e-07 -6.16384909e-07 -1.38918566e-07
-1.83184934e-08 -5.08109736e-07 0.00000000e+00
0.00000000e+00 -5.06520280e-07 0.00000000e+00
-3.49034863e-08 -5.90125694e-07 1.39077500e-07
0.00000000e+00 -5.55475538e-07 1.67210899e-07
-1.48375833e-07 -6.00695614e-07 0.00000000e+00
-9.73542527e-08 -5.64893071e-07 8.67843610e-08
-9.30229831e-08 -7.57257112e-07 0.00000000e+00
-2.38736476e-07 -4.68148130e-07 8.51949054e-08
-2.68538798e-07 -5.06877882e-07 0.00000000e+00
-2.63214105e-07 -5.87145507e-07 4.45047998e-09
-2.22444527e-07 -7.72992735e-07 0.00000000e+00
-2.40008035e-07 -5.57851820e-07 1.31534534e-07
-4.06901037e-08 -4.82877113e-07 0.00000000e+00
-8.74466366e-08 -5.71197916e-07 -5.17707726e-08
-1.33196508e-07 -5.25077155e-07 0.00000000e+00
0.00000000e+00 -5.92698655e-07 0.00000000e+00
-1.23421344e-07 -5.56866325e-07 1.92324322e-07
0.00000000e+00 -7.26928306e-07 2.33968095e-07
-2.12669377e-07 -5.99225359e-07 0.00000000e+00
-1.33792554e-07 -5.41369104e-07 1.76111854e-07
-2.08099678e-07 -4.68095152e-07 0.00000000e+00
-2.37994726e-07 -4.80016070e-07 1.45806212e-07
-2.51134225e-07 -6.14960982e-07 0.00000000e+00
-2.01066328e-08 -5.88099169e-07 1.44958491e-07
-7.69297301e-08 -6.29584008e-07 0.00000000e+00
-2.04934011e-07 -5.61290335e-07 -2.47601832e-07
3.52263463e-08 -6.68565406e-07 0.00000000e+00
-2.99890843e-07 -7.46428952e-07 4.88509713e-08
0.00000000e+00 0.00000000e+00 5.00996919e-07
-9.11752380e-08 0.00000000e+00 5.88099169e-07
-7.86980010e-08 -1.44372379e-07 5.57263661e-07
0.00000000e+00 -1.52558087e-07 5.23885092e-07
-2.39580856e-07 0.00000000e+00 6.34829178e-07
-1.88032786e-07 -1.32004416e-07 6.28471355e-07
-2.89400418e-07 0.00000000e+00 7.36872323e-07
-3.24249271e-07 -1.71343487e-07 6.94910682e-07
-5.81940014e-07 0.00000000e+00 7.55627923e-07
-5.41607506e-07 -1.56352911e-07 7.83125529e-07
-7.46111084e-07 0.00000000e+00 7.64846789e-07
-7.27216388e-07 -1.62700815e-07 7.27971383e-07
-9.00665896e-07 0.00000000e+00 8.63393154e-07
-1.03569027e-06 -2.05437345e-07 7.61032084e-07
-3.81469700e-09 -2.97307963e-07 4.18663006e-07
0.00000000e+00 -3.13043586e-07 3.65257250e-07
-1.54858540e-07 -3.34013066e-07 5.20615345e-07
-2.33427684e-07 -3.60043856e-07 5.10152177e-07
-4.78744482e-07 -3.83188336e-07 6.49134336e-07
-7.13984150e-07 -3.92079357e-07 6.02086402e-07
-9.07262176e-07 -3.77039100e-07 6.54856365e-07
-6.12338411e-08 -4.46518271e-07 3.87509658e-07
0.00000000e+00 -4.46160641e-07 2.21888229e-07
-1.26414832e-07 -4.51511823e-07 1.41143801e-07
-3.92913819e-07 -4.93208574e-07 3.09626245e-07
-9.34004802e-08 -5.34385435e-07 2.65677755e-07
0.00000000e+00 -5.17904766e-07 2.64167795e-07
-6.32490398e-08 -4.25520398e-07 9.08261244e-11
-2.37358947e-07 -3.87403702e-07 9.40958671e-08
-7.24395122e-08 -5.73039074e-07 2.43822740e-07
0.00000000e+00 -6.33807247e-07 2.64485664e-07
-1.66495639e-07 -5.11169446e-07 2.56220488e-07
-2.45094299e-07 -4.70722711e-07 2.68300369e-07
-7.74860354e-08 -6.45160696e-07 4.46955369e-07
0.00000000e+00 -6.36935226e-07 4.36147047e-07
-1.16626417e-07 -6.13609927e-07 3.38872269e-07
-3.07897722e-07 -5.33580760e-07 4.11987287e-07
-7.09717440e-08 -6.04240142e-07 -4.46692098e-07
-3.44693660e-07 -3.13649565e-07 4.16025529e-07
-3.48885862e-08 -4.54684084e-07 -4.50998527e-07
-6.48299832e-08 -5.86768010e-07 4.10705809e-07
0.00000000e+00 0.00000000e+00 7.97907489e-07
-1.78992750e-07 0.00000000e+00 7.94092784e-07
-1.54187276e-07 -1.23341877e-07 7.86622365e-07
0.00000000e+00 -1.66634720e-07 7.27335589e-07
-2.69889824e-07 0.00000000e+00 9.01540091e-07
-2.11318337e-07 -1.02472804e-07 8.68002587e-07
-3.87430191e-07 0.00000000e+00 9.75290959e-07
-4.01099527e-07 -7.47839621e-08 1.00326542e-06
-6.17583567e-07 0.00000000e+00 1.05158483e-06
-5.86628914e-07 -1.18394695e-07 1.04459127e-06
-7.93926404e-07 0.00000000e+00 1.07510880e-06
-8.05934235e-07 -8.67148202e-08 1.09100336e-06
-1.03630623e-06 0.00000000e+00 1.12787882e-06
-9.60389798e-07 -8.50061568e-08 1.18160244e-06
-1.00453697e-07 -2.71479280e-07 6.87281272e-07
0.00000000e+00 -3.48647433e-07 7.14619944e-07
-2.16801965e-07 -2.20571238e-07 8.16345221e-07
-4.37037158e-07 -2.84576430e-07 1.00453701e-06
-6.19530681e-07 -3.61561774e-07 1.11389159e-06
-8.43485168e-07 -2.94049585e-07 9.61303726e-07
-1.02223953e-06 -2.35994648e-07 1.01343790e-06
-7.24338323e-09 -4.84602765e-07 4.57763662e-07
0.00000000e+00 -4.49021655e-07 5.45183809e-07
-1.06970468e-07 -3.86079137e-07 6.58671070e-07
-1.16711574e-08 -5.41596194e-07 3.82559648e-07
0.00000000e+00 -5.77057392e-07 3.49998459e-07
-6.31014530e-08 -5.99304826e-07 2.58127841e-07
-8.43604369e-08 -6.24020913e-07 3.87469925e-07
0.00000000e+00 -6.21577101e-07 4.48862693e-07
-1.69481552e-07 -6.83012445e-07 4.06174422e-07
-3.15388036e-07 -4.33127070e-07 1.52270005e-07
-2.97228496e-07 -6.55704071e-07 4.52677426e-07
-9.63211022e-08 -7.40726762e-07 5.37236531e-07
0.00000000e+00 -7.46726982e-07 6.23067194e-07
</DataArray>
<DataArray type="Float32" Name="Spatial_velocity" NumberOfComponents="3" format="ascii">
0.00000000e+00 0.00000000e+00 0.00000000e+00
9.35300777e-05 0.00000000e+00 0.00000000e+00
9.79362667e-05 1.43878453e-04 0.00000000e+00
0.00000000e+00 1.40695367e-04 0.00000000e+00
0.00000000e+00 0.00000000e+00 -1.73955152e-04
9.00273590e-05 0.00000000e+00 -1.79623195e-04
9.22170293e-05 1.36273986e-04 -1.72077693e-04
0.00000000e+00 1.34350616e-04 -1.73874156e-04
1.90745763e-04 0.00000000e+00 0.00000000e+00
1.92759195e-04 1.49996835e-04 0.00000000e+00
1.84582561e-04 0.00000000e+00 -1.82819684e-04
1.88182545e-04 1.39460986e-04 -1.77255773e-04
2.86424154e-04 0.00000000e+00 0.00000000e+00
2.96089478e-04 1.59199932e-04 0.00000000e+00
2.94197496e-04 0.00000000e+00 -1.83176831e-04
2.83684669e-04 1.40316522e-04 -1.90661667e-04
4.10123612e-04 0.00000000e+00 0.00000000e+00
3.86311120e-04 1.63226054e-04 0.00000000e+00
4.14181239e-04 0.00000000e+00 -1.92221982e-04
3.87264881e-04 1.38046817e-04 -1.92987180e-04
5.15840016e-04 0.00000000e+00 0.00000000e+00
4.98573470e-04 1.72834276e-04 0.00000000e+00
5.28900709e-04 0.00000000e+00 -1.93631320e-04
5.13510429e-04 1.41396886e-04 -1.97545625e-04
6.33638061e-04 0.00000000e+00 0.00000000e+00
5.71989163e-04 2.05466102e-04 0.00000000e+00
6.35417993e-04 0.00000000e+00 -1.87088895e-04
6.19084109e-04 1.81404452e-04 -2.07777441e-04
1.03665196e-04 2.64375558e-04 0.00000000e+00
0.00000000e+00 2.61574372e-04 0.00000000e+00
9.72783455e-05 2.55283754e-04 -1.57922739e-04
0.00000000e+00 2.49381148e-04 -1.57221613e-04
2.06263838e-04 2.81554967e-04 0.00000000e+00
1.89853454e-04 2.65295675e-04 -1.62893368e-04
2.90867494e-04 2.95724720e-04 0.00000000e+00
2.76959909e-04 2.75507366e-04 -1.50554362e-04
3.59328929e-04 3.36139958e-04 0.00000000e+00
3.63645784e-04 2.65581213e-04 -1.55160189e-04
4.01039404e-04 3.27435991e-04 0.00000000e+00
4.30194399e-04 2.70275923e-04 -1.43961021e-04
4.61869175e-04 3.87433363e-04 0.00000000e+00
5.06740413e-04 3.24005116e-04 -1.42170597e-04
1.08868495e-04 3.42734420e-04 0.00000000e+00
0.00000000e+00 3.37662350e-04 0.00000000e+00
9.98264150e-05 3.45853419e-04 -1.36133458e-04
0.00000000e+00 3.42331070e-04 -1.28468673e-04
2.26687436e-04 3.44816974e-04 0.00000000e+00
2.07393285e-04 3.47386085e-04 -1.15076109e-04
2.89857009e-04 3.55756900e-04 0.00000000e+00
2.77664425e-04 3.54384305e-04 -3.06130169e-05
3.06260801e-04 3.58102028e-04 0.00000000e+00
2.83526053e-04 3.47734953e-04 1.62354390e-05
3.32392665e-04 3.39950231e-04 0.00000000e+00
3.38100217e-04 2.95305421e-04 3.50277842e-05
3.33336648e-04 4.09410306e-04 0.00000000e+00
3.51238967e-04 4.08082735e-04 7.43549117e-06
1.15341456e-04 3.89295019e-04 0.00000000e+00
0.00000000e+00 3.99507146e-04 0.00000000e+00
1.01866775e-04 3.92723945e-04 -1.19151511e-04
0.00000000e+00 4.05849802e-04 -1.20089870e-04
2.26456003e-04 3.77737364e-04 0.00000000e+00
2.03040196e-04 3.68527137e-04 -8.83587636e-05
2.88250856e-04 3.54520045e-04 0.00000000e+00
2.70413351e-04 3.54227464e-04 -1.60478321e-05
2.80736625e-04 3.60841223e-04 0.00000000e+00
2.80179316e-04 3.61109182e-04 -1.38837436e-07
2.79558502e-04 3.50662478e-04 0.00000000e+00
2.79946515e-04 3.56431352e-04 0.00000000e+00
2.79643544e-04 3.50234535e-04 -6.26604844e-07
2.80056382e-04 3.56082019e-04 -1.85048350e-07
1.12088310e-04 4.30061773e-04 0.00000000e+00
0.00000000e+00 4.51557833e-04 0.00000000e+00
1.08536056e-04 4.46985534e-04 -1.22555895e-04
0.00000000e+00 4.55755711e-04 -1.33746304e-04
2.27228316e-04 3.92367656e-04 0.00000000e+00
1.95380853e-04 3.99109122e-04 -1.05173989e-04
2.74668622e-04 3.55887576e-04 0.00000000e+00
2.59781926e-04 3.68922978e-04 -3.14032804e-05
2.85190355e-04 3.61496117e-04 0.00000000e+00
2.85047572e-04 3.61685408e-04 5.29794129e-08
2.85227696e-04 3.56280740e-04 0.00000000e+00
2.85242393e-04 3.56179982e-04 7.65511601e-08
2.85413465e-04 3.50779796e-04 0.00000000e+00
2.85447575e-04 3.50715389e-04 1.12745951e-07
1.28554195e-04 5.02739626e-04 0.00000000e+00
0.00000000e+00 5.10642363e-04 0.00000000e+00
1.17661126e-04 5.07706893e-04 -1.51351647e-04
0.00000000e+00 5.26694232e-04 -1.59616073e-04
2.44746945e-04 4.40374395e-04 0.00000000e+00
2.04462427e-04 4.82301170e-04 -1.48842344e-04
2.95779959e-04 3.86433094e-04 0.00000000e+00
2.76332052e-04 4.25100210e-04 -8.02193390e-05
2.92383949e-04 3.62995372e-04 0.00000000e+00
2.91024044e-04 3.62974097e-04 7.92373100e-07
2.90627446e-04 3.56011849e-04 0.00000000e+00
2.90694123e-04 3.56162578e-04 -1.36180617e-07
2.90699740e-04 3.50783317e-04 0.00000000e+00
2.90547003e-04 3.50861461e-04 2.41596751e-08
0.00000000e+00 0.00000000e+00 -3.35841236e-04
8.57117848e-05 0.00000000e+00 -3.45151406e-04
8.66088085e-05 1.17077980e-04 -3.35049612e-04
0.00000000e+00 1.17283242e-04 -3.36378318e-04
1.90306862e-04 0.00000000e+00 -3.55723110e-04
1.73161723e-04 1.07608976e-04 -3.43734078e-04
2.93142628e-04 0.00000000e+00 -3.62163380e-04
2.92345183e-04 1.08992797e-04 -3.66109831e-04
4.21053381e-04 0.00000000e+00 -3.78240511e-04
4.11630259e-04 1.07695385e-04 -3.72362760e-04
5.55761042e-04 0.00000000e+00 -3.87147156e-04
5.40592533e-04 1.10033616e-04 -3.80262500e-04
6.62952720e-04 0.00000000e+00 -3.82652535e-04
6.82001002e-04 1.30529050e-04 -3.88715998e-04
8.05810923e-05 2.28284844e-04 -3.12327786e-04
0.00000000e+00 2.40623005e-04 -3.09885974e-04
1.73338951e-04 2.28676727e-04 -3.23001586e-04
2.66593153e-04 2.31608807e-04 -3.30588518e-04
3.93294293e-04 2.57066276e-04 -3.47845780e-04
5.18894405e-04 2.60354806e-04 -3.32613999e-04
6.18404360e-04 2.88037525e-04 -3.39434249e-04
7.28165396e-05 3.34212382e-04 -2.68520758e-04
0.00000000e+00 3.40906176e-04 -2.64562463e-04
1.49305066e-04 3.37618723e-04 -2.56944215e-04
1.34411006e-04 2.68711185e-04 2.18227742e-05
7.45140569e-05 4.30385204e-04 -2.26457894e-04
0.00000000e+00 4.17126517e-04 -2.40457550e-04
1.68755912e-04 3.85532447e-04 -1.73743407e-04
2.21423878e-04 3.18599486e-04 -8.42966328e-05
9.80856639e-05 4.70581406e-04 -2.45028554e-04
0.00000000e+00 4.87626850e-04 -2.57111882e-04
1.58693787e-04 4.43980127e-04 -2.12016486e-04
2.61729845e-04 4.09429136e-04 -1.61024116e-04
9.08612710e-05 5.60119457e-04 -3.04050453e-04
0.00000000e+00 5.63520123e-04 -3.22705368e-04
1.64351979e-04 5.69672848e-04 -2.98630417e-04
2.85027141e-04 5.36368927e-04 -2.90099211e-04
2.85292452e-04 3.56167118e-04 -1.21571929e-07
2.85196147e-04 3.51007737e-04 2.29957379e-07
2.90634547e-04 3.50963237e-04 -1.39340415e-07
2.90514407e-04 3.56198638e-04 1.02828594e-07
0.00000000e+00 0.00000000e+00 -4.94441134e-04
9.41264516e-05 0.00000000e+00 -4.96070716e-04
1.02662532e-04 1.05514824e-04 -4.92682913e-04
0.00000000e+00 1.00192112e-04 -4.87250683e-04
2.10223836e-04 0.00000000e+00 -5.12718048e-04
1.90160557e-04 9.58852615e-05 -5.06472599e-04
3.13326658e-04 0.00000000e+00 -5.32936363e-04
3.15429934e-04 9.26802240e-05 -5.28925273e-04
4.36525646e-04 0.00000000e+00 -5.48891025e-04
4.43017605e-04 9.49914465e-05 -5.52696059e-04
5.74723643e-04 0.00000000e+00 -5.64013259e-04
5.71716635e-04 9.86881278e-05 -5.63536538e-04
7.08527514e-04 0.00000000e+00 -5.65215596e-04
6.99550495e-04 1.06356638e-04 -5.68343734e-04
7.66747689e-05 2.02929979e-04 -4.68240876e-04
0.00000000e+00 2.27558427e-04 -4.63930162e-04
1.98513997e-04 2.12107843e-04 -4.84607968e-04
3.00643849e-04 2.18954025e-04 -5.39314293e-04
4.26779792e-04 2.38852488e-04 -5.60747692e-04
5.45677787e-04 2.33703642e-04 -5.48423326e-04
6.49632711e-04 2.67329917e-04 -5.56854066e-04
7.68173559e-05 3.43734573e-04 -4.08431137e-04
0.00000000e+00 3.38651909e-04 -4.05533065e-04
1.79522744e-04 3.00766289e-04 -4.39416908e-04
8.10982892e-05 4.31785884e-04 -3.45691486e-04
0.00000000e+00 4.46037302e-04 -3.67432687e-04
1.78470960e-04 4.33747249e-04 -2.95486680e-04
8.02466093e-05 5.47217147e-04 -3.81111575e-04
0.00000000e+00 5.38470922e-04 -3.93663882e-04
1.68062572e-04 5.31157828e-04 -3.51467374e-04
2.08324011e-04 5.64129499e-04 4.11912260e-05
2.34365638e-04 5.22078131e-04 -3.99464770e-04
8.95052435e-05 6.36919576e-04 -4.60175128e-04
0.00000000e+00 6.48770889e-04 -4.75107721e-04
</DataArray>
<DataArray type="Float32" Name="Reaction_force" NumberOfComponents="3" format="ascii">
5.61042607e-01 -3.10057580e-01 8.45307350e+00
0.00000000e+00 -7.81989813e-01 1.71641426e+01
0.00000000e+00 0.00000000e+00 3.30696945e+01
6.83910131e-01 0.00000000e+00 1.65688400e+01
1.08229089e+00 -6.58829868e-01 0.00000000e+00
0.00000000e+00 -1.20068955e+00 0.00000000e+00
0.00000000e+00 0.00000000e+00 0.00000000e+00
1.25632608e+00 0.00000000e+00 0.00000000e+00
0.00000000e+00 -9.48103368e-01 1.73938065e+01
0.00000000e+00 0.00000000e+00 3.43294525e+01
0.00000000e+00 -8.22948158e-01 0.00000000e+00
0.00000000e+00 0.00000000e+00 0.00000000e+00
0.00000000e+00 -6.86288476e-01 1.84609375e+01
0.00000000e+00 0.00000000e+00 3.39618187e+01
0.00000000e+00 -3.30320239e-01 0.00000000e+00
0.00000000e+00 0.00000000e+00 0.00000000e+00
0.00000000e+00 -8.93088758e-01 1.83135185e+01
0.00000000e+00 0.00000000e+00 3.35520134e+01
0.00000000e+00 -5.93021631e-01 0.00000000e+00
0.00000000e+00 0.00000000e+00 0.00000000e+00
0.00000000e+00 -1.45188212e+00 1.64436989e+01
0.00000000e+00 0.00000000e+00 3.04929657e+01
0.00000000e+00 -1.99275589e+00 0.00000000e+00
0.00000000e+00 0.00000000e+00 0.00000000e+00
0.00000000e+00 -2.36567736e+00 1.00135765e+01
0.00000000e+00 0.00000000e+00 1.84964409e+01
0.00000000e+00 -3.16647029e+00 0.00000000e+00
0.00000000e+00 0.00000000e+00 0.00000000e+00
0.00000000e+00 0.00000000e+00 3.08303108e+01
-3.60865235e-01 0.00000000e+00 1.53271294e+01
0.00000000e+00 0.00000000e+00 0.00000000e+00
-2.78464183e-02 0.00000000e+00 0.00000000e+00
0.00000000e+00 0.00000000e+00 2.79708500e+01
0.00000000e+00 0.00000000e+00 0.00000000e+00
0.00000000e+00 0.00000000e+00 2.28406754e+01
0.00000000e+00 0.00000000e+00 0.00000000e+00
0.00000000e+00 0.00000000e+00 1.83927345e+01
0.00000000e+00 0.00000000e+00 0.00000000e+00
0.00000000e+00 0.00000000e+00 1.85647812e+01
0.00000000e+00 0.00000000e+00 0.00000000e+00
0.00000000e+00 0.00000000e+00 1.47580662e+01
0.00000000e+00 0.00000000e+00 0.00000000e+00
0.00000000e+00 0.00000000e+00 2.77359886e+01
-1.14703381e+00 0.00000000e+00 1.43861818e+01
0.00000000e+00 0.00000000e+00 0.00000000e+00
-1.49214935e+00 0.00000000e+00 0.00000000e+00
0.00000000e+00 0.00000000e+00 2.08298397e+01
0.00000000e+00 0.00000000e+00 0.00000000e+00
0.00000000e+00 0.00000000e+00 1.23350525e+01
0.00000000e+00 0.00000000e+00 0.00000000e+00
0.00000000e+00 0.00000000e+00 4.47879553e+00
0.00000000e+00 0.00000000e+00 0.00000000e+00
0.00000000e+00 0.00000000e+00 3.85341263e+00
0.00000000e+00 0.00000000e+00 0.00000000e+00
0.00000000e+00 0.00000000e+00 3.37581730e+00
0.00000000e+00 0.00000000e+00 0.00000000e+00
0.00000000e+00 0.00000000e+00 2.62400723e+01
-1.85028124e+00 0.00000000e+00 1.42657413e+01
0.00000000e+00 0.00000000e+00 0.00000000e+00
-3.21253443e+00 0.00000000e+00 0.00000000e+00
0.00000000e+00 0.00000000e+00 1.98116379e+01
0.00000000e+00 0.00000000e+00 0.00000000e+00
0.00000000e+00 0.00000000e+00 1.07729874e+01
0.00000000e+00 0.00000000e+00 0.00000000e+00
0.00000000e+00 0.00000000e+00 2.55968809e-01
0.00000000e+00 0.00000000e+00 0.00000000e+00
0.00000000e+00 0.00000000e+00 -2.26324511e+00
0.00000000e+00 0.00000000e+00 -3.56710505e+00
0.00000000e+00 0.00000000e+00 0.00000000e+00
0.00000000e+00 0.00000000e+00 0.00000000e+00
0.00000000e+00 0.00000000e+00 2.72497101e+01
-2.41116714e+00 0.00000000e+00 1.39319115e+01
0.00000000e+00 0.00000000e+00 0.00000000e+00
-3.55476093e+00 0.00000000e+00 0.00000000e+00
0.00000000e+00 0.00000000e+00 2.29111633e+01
0.00000000e+00 0.00000000e+00 0.00000000e+00
0.00000000e+00 0.00000000e+00 1.74315720e+01
0.00000000e+00 0.00000000e+00 0.00000000e+00
0.00000000e+00 0.00000000e+00 6.75172663e+00
0.00000000e+00 0.00000000e+00 0.00000000e+00
0.00000000e+00 0.00000000e+00 -4.28333950e+00
0.00000000e+00 0.00000000e+00 0.00000000e+00
0.00000000e+00 0.00000000e+00 1.86254752e+00
0.00000000e+00 0.00000000e+00 0.00000000e+00
0.00000000e+00 0.00000000e+00 1.66944256e+01
-1.84494078e+00 0.00000000e+00 8.11272335e+00
0.00000000e+00 0.00000000e+00 0.00000000e+00
-3.18115520e+00 0.00000000e+00 0.00000000e+00
0.00000000e+00 0.00000000e+00 1.72723408e+01
0.00000000e+00 0.00000000e+00 0.00000000e+00
0.00000000e+00 0.00000000e+00 1.34267254e+01
0.00000000e+00 0.00000000e+00 0.00000000e+00
0.00000000e+00 0.00000000e+00 6.36823845e+00
0.00000000e+00 0.00000000e+00 0.00000000e+00
0.00000000e+00 0.00000000e+00 -3.02095628e+00
0.00000000e+00 0.00000000e+00 0.00000000e+00
0.00000000e+00 0.00000000e+00 4.11383778e-01
0.00000000e+00 0.00000000e+00 0.00000000e+00
4.32152212e-01 -7.60146260e-01 0.00000000e+00
0.00000000e+00 -3.02289426e-01 0.00000000e+00
0.00000000e+00 0.00000000e+00 0.00000000e+00
1.58827615e+00 0.00000000e+00 0.00000000e+00
0.00000000e+00 5.82071900e-01 0.00000000e+00
0.00000000e+00 0.00000000e+00 0.00000000e+00
0.00000000e+00 1.29968715e+00 0.00000000e+00
0.00000000e+00 0.00000000e+00 0.00000000e+00
0.00000000e+00 1.91269493e+00 0.00000000e+00
0.00000000e+00 0.00000000e+00 0.00000000e+00
0.00000000e+00 -4.88542318e-02 0.00000000e+00
0.00000000e+00 0.00000000e+00 0.00000000e+00
0.00000000e+00 -8.88384461e-01 0.00000000e+00
0.00000000e+00 0.00000000e+00 0.00000000e+00
0.00000000e+00 0.00000000e+00 0.00000000e+00
6.98105335e-01 0.00000000e+00 0.00000000e+00
0.00000000e+00 0.00000000e+00 0.00000000e+00
0.00000000e+00 0.00000000e+00 0.00000000e+00
0.00000000e+00 0.00000000e+00 0.00000000e+00
0.00000000e+00 0.00000000e+00 0.00000000e+00
0.00000000e+00 0.00000000e+00 0.00000000e+00
0.00000000e+00 0.00000000e+00 0.00000000e+00
-7.54813850e-01 0.00000000e+00 0.00000000e+00
0.00000000e+00 0.00000000e+00 0.00000000e+00
0.00000000e+00 0.00000000e+00 0.00000000e+00
0.00000000e+00 0.00000000e+00 0.00000000e+00
-1.18752861e+00 0.00000000e+00 0.00000000e+00
0.00000000e+00 0.00000000e+00 0.00000000e+00
0.00000000e+00 0.00000000e+00 0.00000000e+00
0.00000000e+00 0.00000000e+00 0.00000000e+00
-1.42249370e+00 0.00000000e+00 0.00000000e+00
0.00000000e+00 0.00000000e+00 0.00000000e+00
0.00000000e+00 0.00000000e+00 0.00000000e+00
0.00000000e+00 0.00000000e+00 0.00000000e+00
-1.69195724e+00 0.00000000e+00 0.00000000e+00
0.00000000e+00 0.00000000e+00 0.00000000e+00
0.00000000e+00 0.00000000e+00 0.00000000e+00
0.00000000e+00 0.00000000e+00 0.00000000e+00
0.00000000e+00 0.00000000e+00 0.00000000e+00
0.00000000e+00 0.00000000e+00 0.00000000e+00
0.00000000e+00 0.00000000e+00 0.00000000e+00
-6.57828897e-02 -2.95584977e-01 0.00000000e+00
0.00000000e+00 6.94599867e-01 0.00000000e+00
0.00000000e+00 0.00000000e+00 0.00000000e+00
1.56849194e+00 0.00000000e+00 0.00000000e+00
0.00000000e+00 1.46588624e+00 0.00000000e+00
0.00000000e+00 0.00000000e+00 0.00000000e+00
0.00000000e+00 2.13276863e+00 0.00000000e+00
0.00000000e+00 0.00000000e+00 0.00000000e+00
0.00000000e+00 3.16172361e+00 0.00000000e+00
0.00000000e+00 0.00000000e+00 0.00000000e+00
0.00000000e+00 1.79461813e+00 0.00000000e+00
0.00000000e+00 0.00000000e+00 0.00000000e+00
0.00000000e+00 5.25513053e-01 0.00000000e+00
0.00000000e+00 0.00000000e+00 0.00000000e+00
0.00000000e+00 0.00000000e+00 0.00000000e+00
1.47391331e+00 0.00000000e+00 0.00000000e+00
0.00000000e+00 0.00000000e+00 0.00000000e+00
0.00000000e+00 0.00000000e+00 0.00000000e+00
0.00000000e+00 0.00000000e+00 0.00000000e+00
0.00000000e+00 0.00000000e+00 0.00000000e+00
0.00000000e+00 0.00000000e+00 0.00000000e+00
0.00000000e+00 0.00000000e+00 0.00000000e+00
6.83139563e-02 0.00000000e+00 0.00000000e+00
0.00000000e+00 0.00000000e+00 0.00000000e+00
0.00000000e+00 0.00000000e+00 0.00000000e+00
7.03077376e-01 0.00000000e+00 0.00000000e+00
0.00000000e+00 0.00000000e+00 0.00000000e+00
0.00000000e+00 0.00000000e+00 0.00000000e+00
5.58771968e-01 0.00000000e+00 0.00000000e+00
0.00000000e+00 0.00000000e+00 0.00000000e+00
0.00000000e+00 0.00000000e+00 0.00000000e+00
0.00000000e+00 0.00000000e+00 0.00000000e+00
0.00000000e+00 0.00000000e+00 0.00000000e+00
-5.27333617e-01 0.00000000e+00 0.00000000e+00
</DataArray>
<DataArray type="Float32" Name="Equivalent_plastic_strain" format="ascii">
6.92928806e-02
7.24317655e-02
6.78622294e-02
6.58895522e-02
6.63528331e-02
6.88522421e-02
6.56350181e-02
6.42130170e-02
7.88873658e-02
7.37501252e-02
7.38068260e-02
7.09015662e-02
8.70460942e-02
8.37978069e-02
8.02618731e-02
7.81735182e-02
9.54371989e-02
9.01304260e-02
8.72178171e-02
8.27073753e-02
1.04040544e-01
9.83617604e-02
9.25525837e-02
8.91106892e-02
1.14710063e-01
1.11233488e-01
1.00558672e-01
9.67358667e-02
5.72687089e-02
5.65552004e-02
5.72654186e-02
5.53503251e-02
5.62299294e-02
5.95812136e-02
4.16571482e-02
5.80475426e-02
4.60622851e-02
5.87278046e-02
3.26857725e-02
5.60751967e-02
3.35219447e-02
6.63899879e-02
4.63351673e-02
4.69210688e-02
4.63041584e-02
4.56175832e-02
3.63688967e-02
3.60052171e-02
4.82951204e-03
7.98971501e-03
-1.68778530e-03
2.18849921e-02
-2.26982318e-03
1.76706476e-02
2.87265447e-03
1.98593056e-02
4.09718296e-02
4.39835507e-02
3.86849958e-02
4.13853396e-02
2.77344133e-02
2.76332644e-02
7.49117910e-03
1.20642387e-02
-4.26889422e-05
2.02981490e-03
7.58126937e-03
1.99287769e-03
6.29137829e-03
3.25742026e-03
4.28487295e-02
4.66814414e-02
3.96314785e-02
4.32915892e-02
3.04280268e-02
3.02899387e-02
5.31666508e-03
2.17325032e-02
-1.74363041e-04
1.33661763e-03
-3.61337253e-05
7.48577440e-07
0.00000000e+00
0.00000000e+00
4.99269348e-02
5.34411892e-02
4.68399329e-02
5.07411063e-02
3.91331241e-02
4.40852530e-02
1.48967179e-02
3.28689205e-02
-1.02873193e-04
4.64941451e-03
8.30907957e-05
-3.93694742e-05
0.00000000e+00
0.00000000e+00
6.28240053e-02
6.31124126e-02
6.14591474e-02
6.13000495e-02
6.42361846e-02
6.51427656e-02
6.82144947e-02
6.95339139e-02
7.23744724e-02
7.78785357e-02
7.38876984e-02
8.00195513e-02
7.45203383e-02
8.01970139e-02
5.73454783e-02
5.63728735e-02
6.52266884e-02
8.45638469e-02
9.21936762e-02
9.44920667e-02
9.56819281e-02
4.76225680e-02
4.57703108e-02
5.58449278e-02
4.28623213e-02
3.73900421e-02
3.74682331e-02
2.94551518e-02
9.22857287e-03
3.87548953e-02
3.86406900e-02
3.87097339e-02
6.39323704e-02
4.52225218e-02
4.46132254e-02
5.84483352e-02
8.10340047e-02
0.00000000e+00
0.00000000e+00
0.00000000e+00
0.00000000e+00
6.38649166e-02
6.34414833e-02
6.29855599e-02
6.32879194e-02
6.20670943e-02
6.47654585e-02
6.20401660e-02
6.60978006e-02
6.19310560e-02
7.21074091e-02
6.02246532e-02
7.03140711e-02
5.81831262e-02
6.68904874e-02
6.49668546e-02
6.17163498e-02
6.84432861e-02
9.13982764e-02
9.21453610e-02
8.81365370e-02
8.42256024e-02
6.09918455e-02
5.48252137e-02
8.82676598e-02
4.65090067e-02
4.67883935e-02
6.41328916e-02
3.03455684e-02
4.89216624e-02
4.47750642e-02
5.70779145e-02
9.81071815e-02
6.47263443e-02
5.12968153e-02
</DataArray>
<DataArray type="Float32" Name="Stress_Mises" format="ascii">
3.13446140e+01
3.53908710e+01
3.27090960e+01
3.21082544e+01
2.95558023e+01
3.31446681e+01
3.12791892e+01
3.22530437e+01
3.86142864e+01
4.04749012e+01
3.45656910e+01
3.58424473e+01
4.34825382e+01
4.72697439e+01
3.60829983e+01
4.02326897e+01
4.77353916e+01
5.34074240e+01
3.88626707e+01
3.19367206e+01
4.84993801e+01
4.19698506e+01
3.40598421e+01
3.33879905e+01
7.52506256e+01
7.78511200e+01
5.37918835e+01
5.27569678e+01
3.18643093e+01
2.96532831e+01
3.11170412e+01
2.69810011e+01
3.54628239e+01
3.27652653e+01
2.89282346e+01
3.42152799e+01
3.01471081e+01
5.14445079e+01
2.51390951e+01
4.72464018e+01
4.72337599e+01
7.78271440e+01
3.18564084e+01
2.66344314e+01
2.96864606e+01
2.36497397e+01
3.17245409e+01
2.78153020e+01
1.57154269e+01
2.32741041e+01
1.73086710e+01
3.04383100e+01
9.51186291e+00
2.56673374e+01
2.84143381e+01
2.50990391e+01
3.10039721e+01
3.12392044e+01
2.59314685e+01
2.78015075e+01
2.22808565e+01
2.04783379e+01
1.89525425e+01
1.77435424e+01
1.61807359e+01
2.33909276e+01
3.14789524e+01
9.45308654e+00
3.06413546e+01
2.07627093e+01
3.09892919e+01
3.22507334e+01
2.30852576e+01
2.83728428e+01
2.28047047e+01
2.53701425e+01
2.22831161e+01
3.20032420e+01
1.61243210e+01
2.35567441e+01
1.08656499e+01
8.27853403e+00
9.96192122e+00
7.29858573e+00
5.07602119e+01
4.99540329e+01
4.03403811e+01
4.85046329e+01
5.75957203e+01
4.34161441e+01
3.90985250e+01
6.31482080e+01
1.68111553e+01
3.51835260e+01
1.86990919e+01
1.43791645e+01
4.79096937e+00
5.12235761e+00
3.06399593e+01
2.99127741e+01
2.68033254e+01
3.09971499e+01
2.51739912e+01
2.51799258e+01
2.56206737e+01
3.04069365e+01
2.63873286e+01
2.67194349e+01
2.07851775e+01
2.61888357e+01
1.96390638e+01
2.38815229e+01
2.38998918e+01
2.96287363e+01
4.24887502e+01
8.74618813e+01
6.96830759e+01
6.79661760e+01
7.08142433e+01
2.78035616e+01
1.91307921e+01
6.09581865e+01
2.89365597e+01
1.74099303e+01
1.55181101e+01
1.81923095e+01
1.95089137e+01
1.82291392e+01
1.91442506e+01
2.82122257e+01
5.16998613e+01
3.06051650e+01
3.40212231e+01
5.65840416e+01
1.16484512e+02
1.59770811e+00
1.36710382e+00
2.03764021e+00
2.90998888e+00
2.93699799e+01
2.91787114e+01
2.45924121e+01
2.85339017e+01
2.44856336e+01
2.45575939e+01
2.29048381e+01
2.65865897e+01
2.07200366e+01
2.72116921e+01
1.67073584e+01
2.93451685e+01
1.19569626e+01
2.33378875e+01
2.54320248e+01
2.52118033e+01
3.88606591e+01
1.04300499e+02
8.01935816e+01
6.21904392e+01
4.98138027e+01
2.85353870e+01
2.59255422e+01
1.28824659e+02
2.22698135e+01
1.57857333e+01
7.68215361e+01
2.11079867e+01
2.16886592e+01
3.78058261e+01
4.83988152e+01
1.10840352e+02
2.34625583e+01
2.94486690e+01
</DataArray>
<DataArray type="Float32" Name="Stress_Max_Principal" format="ascii">
9.82280493e-01
-2.19579291e+00
-6.46030635e-01
-3.38065624e-01
2.37158319e+00
-5.23887694e-01
5.10612071e-01
-3.66341889e-01
-4.64285564e+00
-6.38323653e+00
-2.00391698e+00
-3.02016130e+00
-8.49982750e+00
-1.15405881e+01
-3.83706048e+00
-6.34635618e+00
-1.22614173e+01
-1.44882312e+01
-5.90595436e+00
2.50219405e-02
-1.21823801e+01
-4.38815355e+00
-1.54194129e+00
5.78874132e+00
-3.02924557e+01
-2.91499281e+01
-1.59144251e+01
-1.42846823e+01
4.11638021e-02
1.63267446e+00
-1.66534036e-02
3.11693907e+00
-1.60659266e+00
-5.31787694e-01
2.26557789e+01
1.03934898e+01
3.11214647e+01
6.30717913e+00
3.21266975e+01
7.34758417e+00
2.63675299e+01
-4.81354650e+00
2.28456971e+00
5.33969760e+00
3.36411440e+00
6.82509679e+00
2.85784004e+01
1.58801460e+01
3.32614963e+01
4.56001716e+01
3.80437457e+01
5.50940475e+01
4.37948456e+01
5.51559874e+01
3.44117106e+01
4.03104610e+01
4.00459164e+00
2.81510687e+00
7.03300363e+00
4.82295752e+00
1.18846579e+01
1.83054364e+01
3.24899201e+01
3.50053938e+01
2.63266776e+01
2.00640532e+01
2.55290842e+00
1.56840656e+01
8.25575161e+00
1.67637067e+01
3.59330004e+00
1.99628425e+00
8.83059669e+00
4.40608278e+00
1.11196046e+01
1.45350297e+01
2.65192528e+01
2.14092419e+01
2.29441547e+01
1.89506867e+01
7.78081977e+00
6.31265233e+00
2.95658243e+00
1.21248986e+00
-1.24414585e+01
-1.13335533e+01
-5.35238492e+00
-1.17308865e+01
-1.63742340e+01
-7.29088324e+00
2.88860078e+01
-1.69658918e+01
2.15737004e+01
9.17989612e+00
8.64639211e+00
7.78439943e+00
4.11954612e-01
1.35484308e+00
1.07176924e+00
1.18481153e+00
4.07374865e+00
9.77602035e-01
5.03730072e+00
5.51590428e+00
4.30791432e+00
1.03934291e+01
4.22525048e+00
4.48631775e+00
8.97511297e+00
4.37722226e+00
9.86638832e+00
6.98116064e+00
6.58555448e+00
2.09544733e+00
-6.65061907e+00
-4.12029152e+01
-3.17186732e+01
-2.92899052e+01
-2.96210270e+01
2.03963992e+01
9.94358492e+00
-1.98909242e+01
4.91627178e+01
1.45020042e+01
1.35078317e+01
3.41360737e+01
3.10796019e+01
1.46946509e+01
1.07991155e+01
4.82217985e+00
-1.16970749e+01
9.33181107e-01
-2.29889745e+00
1.44057045e+01
-6.97275982e+01
8.75296742e-01
7.38218307e-01
1.01698801e+00
1.71435893e+00
9.37558413e-01
1.44776556e+00
5.71223005e+00
2.24760059e+00
5.89938152e+00
7.47000834e+00
6.97365860e+00
1.45489807e+01
9.22795248e+00
3.85724452e+00
1.24703087e+01
1.10777720e+01
1.61933012e+01
2.17741214e+01
6.30248958e+00
6.51610625e+00
2.06594557e+01
-5.95827793e+01
-4.03687062e+01
-2.50409617e+01
-1.32669735e+01
4.09564887e+00
1.88959274e+01
-7.32932005e+01
2.91703066e+01
1.30451155e+01
-3.46170135e+01
2.29863946e+01
1.82452649e+01
3.81608347e+01
5.35521774e+01
-5.31111562e+01
1.06085357e+01
3.43684387e+00
</DataArray>
<DataArray type="Float32" Name="Stress_Mid_Principal" format="ascii">
-3.44179535e+00
-7.22982150e+00
-4.08418965e+00
-3.34150887e+00
-1.73039907e+00
-5.00100648e+00
-2.76885628e+00
-3.56383598e+00
-1.03359947e+01
-1.17340560e+01
-5.84279609e+00
-7.00799334e+00
-1.47584481e+01
-1.81146563e+01
-6.54238296e+00
-1.11872284e+01
-1.82788322e+01
-2.58857738e+01
-9.25720930e+00
-3.13512623e+00
-1.97105272e+01
-1.51231453e+01
-4.10515547e+00
-9.20020580e-01
-4.80231247e+01
-5.42062607e+01
-2.50065258e+01
-2.45740066e+01
-3.23990655e+00
-1.01349926e+00
-1.79545907e+00
2.17385328e+00
-7.78607666e+00
-4.13048944e+00
1.28288772e+01
2.77733162e+00
1.79708385e+01
-1.36567542e+01
2.15085981e+01
-7.80965400e+00
2.48352432e+00
-3.38639793e+01
-5.87538505e+00
2.97305584e-01
-2.70821157e+00
4.12065589e+00
1.33885474e+01
4.02083963e+00
2.40075339e+01
2.92859820e+01
2.69969120e+01
3.06581860e+01
3.61263084e+01
3.30121503e+01
2.25550346e+01
2.71886964e+01
-6.37413766e+00
-5.42728496e+00
4.55792546e-02
-1.12495276e+00
2.04505038e+00
9.04943120e+00
2.43858517e+01
2.63306459e+01
1.80163628e+01
5.91992267e+00
-9.73051524e+00
9.24976746e+00
-1.32149404e+00
-6.96637869e-01
-5.83230239e+00
-6.29941368e+00
3.03927433e+00
-1.89481866e+00
2.76094997e+00
5.52607419e+00
1.53598901e+01
5.06836494e+00
1.15107663e+01
3.95600271e+00
2.85776690e+00
7.36321780e-01
-1.46783859e+00
3.16436907e-01
-2.35298471e+01
-2.34895859e+01
-1.22991965e+01
-2.01799440e+01
-3.02526217e+01
-1.46329697e+01
9.62575817e+00
-3.38793058e+01
1.69288759e+01
-1.01683257e+01
4.61016107e+00
2.96258247e+00
-4.58743632e-01
-2.17735767e-03
-2.20072341e+00
-1.00744316e+00
1.42191096e+00
-2.74437594e+00
3.39293963e+00
3.16220857e+00
3.29233027e+00
5.28813635e+00
2.06969327e+00
2.28292567e+00
6.98005556e+00
2.47162744e+00
8.32011604e+00
3.94552994e+00
4.19469798e+00
-1.47940859e+00
-1.12196798e+01
-5.47785744e+01
-3.62342215e+01
-3.56116292e+01
-4.05624275e+01
1.24688410e+01
8.87733030e+00
-2.65155059e+01
2.67075109e+01
1.00616052e+01
1.19164728e+01
2.40914241e+01
2.24258356e+01
1.07357984e+01
8.11117914e+00
-2.35708290e+00
-1.64296136e+01
-1.09279245e+00
-4.27969560e+00
-4.77825117e+00
-7.66181183e+01
-3.58301423e-01
-3.70319050e-01
-9.46056694e-02
-6.04666993e-01
2.27861166e-01
3.85208279e-02
3.72478534e+00
4.06299606e-01
3.66273639e+00
4.41592715e+00
5.24425018e+00
8.50564373e+00
6.72802283e+00
9.93840218e-01
1.03677956e+01
5.34569085e+00
1.49744687e+01
1.52817150e+01
1.70050955e+00
1.84191799e+00
9.67871942e+00
-6.86263321e+01
-4.55412745e+01
-3.00391412e+01
-2.08084316e+01
-1.05470177e+00
1.15127529e+01
-9.34989004e+01
2.04614972e+01
1.14862804e+01
-4.23352985e+01
1.63269385e+01
1.34610893e+01
1.96795989e+01
1.25059080e+01
-6.99280726e+01
8.25372288e+00
5.23051262e-01
</DataArray>
<DataArray type="Float32" Name="Stress_Min_Principal" format="ascii">
-3.23393288e+01
-3.98336496e+01
-3.49266883e+01
-3.38334827e+01
-2.90208502e+01
-3.56786866e+01
-3.22723442e+01
-3.40883868e+01
-4.57876444e+01
-4.92633358e+01
-3.83219793e+01
-4.06857377e+01
-5.47531796e+01
-6.17399464e+01
-4.11934202e+01
-4.87792082e+01
-6.27142658e+01
-7.26489058e+01
-4.63356109e+01
-3.33657117e+01
-6.40007839e+01
-5.05522404e+01
-3.68039389e+01
-2.97700044e+01
-1.12825104e+02
-1.16421944e+02
-7.36728573e+01
-7.14125548e+01
-3.33308812e+01
-2.92487006e+01
-3.19788085e+01
-2.43209244e+01
-3.97336848e+01
-3.49358908e+01
-8.11408091e+00
-2.57309645e+01
-1.92366743e+00
-5.06057828e+01
4.50597841e+00
-4.41640215e+01
-2.73414879e+01
-9.13737106e+01
-3.28158799e+01
-2.34498847e+01
-2.88000394e+01
-1.80315821e+01
-6.12357092e+00
-1.53133960e+01
1.57366581e+01
2.04031609e+01
1.85327778e+01
2.10394955e+01
3.32392362e+01
2.71866725e+01
2.73024940e+00
1.20321326e+01
-3.08532751e+01
-3.17123356e+01
-2.16594191e+01
-2.54607306e+01
-1.35316019e+01
-4.89439138e+00
1.12618179e+01
1.54919140e+01
7.90288174e+00
-6.09256426e+00
-3.19282770e+01
4.89011010e+00
-2.59032068e+01
-5.98441626e+00
-3.09210657e+01
-3.35870857e+01
-1.65908086e+01
-2.65634844e+01
-1.44411693e+01
-1.34968874e+01
1.38012981e+00
-1.44554884e+01
4.90780535e+00
-7.13266939e+00
-4.56270441e+00
-2.87280483e+00
-8.34889865e+00
-6.47137686e+00
-6.78241291e+01
-6.62437134e+01
-4.86864243e+01
-6.39044113e+01
-7.95652161e+01
-5.38228011e+01
-1.46525669e+01
-8.63644371e+01
3.68225718e+00
-3.10165305e+01
-1.12258735e+01
-8.28283755e+00
-4.75465202e+00
-4.30727613e+00
-3.10730562e+01
-2.97519722e+01
-2.39561970e+01
-3.17109740e+01
-2.09165559e+01
-2.07326216e+01
-2.17982860e+01
-2.07831119e+01
-2.31716019e+01
-2.31904050e+01
-1.27305405e+01
-2.26736196e+01
-1.04999027e+01
-1.82502096e+01
-1.83801501e+01
-2.91458386e+01
-5.12307884e+01
-1.34178811e+02
-1.03547960e+02
-1.00182131e+02
-1.05266476e+02
-8.84508473e+00
-9.68156552e+00
-8.38715447e+01
1.65518374e+01
-4.44981605e+00
-2.69752720e+00
1.43365181e+01
9.34197648e+00
-4.97726518e+00
-9.54140782e+00
-2.62275271e+01
-6.55590038e+01
-3.04811702e+01
-3.72665100e+01
-4.59522686e+01
-1.89498703e+02
-9.29181457e-01
-7.80090392e-01
-1.33453745e+00
-1.52198365e+00
-2.87804890e+01
-2.84095521e+01
-1.97964280e+01
-2.71497924e+01
-1.96242415e+01
-1.82693518e+01
-1.67378994e+01
-1.30811357e+01
-1.26174874e+01
-2.46710402e+01
-5.18765825e+00
-1.95636451e+01
3.68063045e+00
-2.53193760e+00
-2.10736343e+01
-2.06951848e+01
-1.95710929e+01
-1.67835797e+02
-1.23015072e+02
-8.95784378e+01
-6.64214306e+01
-2.65934047e+01
-8.48229814e+00
-2.11002087e+02
6.02833843e+00
-3.45953023e+00
-1.14867719e+02
7.00456500e-01
-4.43085742e+00
-2.57255667e+00
1.83219686e-01
-1.71165789e+02
-1.33553190e+01
-2.72594156e+01
</DataArray>
<DataArray type="Float32" Name="Stress_Pressure" format="ascii">
1.15996151e+01
1.64197543e+01
1.32189695e+01
1.25043519e+01
9.45988894e+00
1.37345271e+01
1.15101962e+01
1.26728548e+01
2.02554979e+01
2.24602095e+01
1.53895642e+01
1.69046307e+01
2.60038185e+01
3.04650636e+01
1.71909541e+01
2.21042643e+01
3.10848389e+01
3.76743034e+01
2.04995916e+01
1.21586051e+01
3.19645648e+01
2.33545136e+01
1.41503458e+01
8.30042817e+00
6.37135620e+01
6.65927105e+01
3.81979361e+01
3.67570806e+01
1.21765414e+01
9.54317522e+00
1.12636404e+01
6.34337759e+00
1.63754506e+01
1.31993892e+01
-9.12352467e+00
4.18671363e+00
-1.57228777e+01
1.93184534e+01
-1.93804243e+01
1.48753627e+01
-5.03187180e-01
4.33504117e+01
1.21355656e+01
5.93762779e+00
9.38137890e+00
2.36194313e+00
-1.19477932e+01
-1.52919638e+00
-2.43352290e+01
-3.17631049e+01
-2.78578116e+01
-3.55972412e+01
-3.77201290e+01
-3.84516026e+01
-1.98989978e+01
-2.65104299e+01
1.10742734e+01
1.14415050e+01
4.86027879e+00
7.25424178e+00
-1.32702589e-01
-7.48682523e+00
-2.27125300e+01
-2.56093181e+01
-1.74153074e+01
-6.63047034e+00
1.30352952e+01
-9.94131422e+00
6.32298279e+00
-3.36088443e+00
1.10533563e+01
1.26300722e+01
1.57364571e+00
8.01740692e+00
1.86871588e-01
-2.18807232e+00
-1.44197576e+01
-4.00737333e+00
-1.31209086e+01
-5.25800687e+00
-2.02529413e+00
-1.39205646e+00
2.28671825e+00
1.64748334e+00
3.45984783e+01
3.36889496e+01
2.21126685e+01
3.19384146e+01
4.20640240e+01
2.52488847e+01
-7.95306587e+00
4.57365457e+01
-1.40616108e+01
1.06683195e+01
-6.76893175e-01
-8.21381470e-01
1.60048044e+00
9.84870151e-01
1.07340039e+01
9.85820138e+00
6.15351246e+00
1.11592496e+01
4.16210538e+00
4.01816924e+00
4.73268026e+00
1.70051485e+00
5.62555262e+00
5.47372086e+00
-1.07487631e+00
5.27492295e+00
-2.56220067e+00
2.44117343e+00
2.53329903e+00
9.50993347e+00
2.30336959e+01
7.67201004e+01
5.71669502e+01
5.50278883e+01
5.84833107e+01
-8.00671828e+00
-3.04644974e+00
4.34259912e+01
-3.08073559e+01
-6.70459758e+00
-7.57559216e+00
-2.41880052e+01
-2.09491383e+01
-6.81772764e+00
-3.12296247e+00
7.92081034e+00
3.12285638e+01
1.02135936e+01
1.46150341e+01
1.21082726e+01
1.11948139e+02
1.37395348e-01
1.37397036e-01
1.37385048e-01
1.37430586e-01
9.20502314e+00
8.97442204e+00
3.45313769e+00
8.16529754e+00
3.35404134e+00
2.12780523e+00
1.50666326e+00
-3.32449597e+00
-1.11282945e+00
6.60665172e+00
-5.88348177e+00
1.04672694e+00
-1.16161332e+01
-1.15079657e+01
4.35687792e+00
4.11238730e+00
-3.58902764e+00
9.86816360e+01
6.96416864e+01
4.82195129e+01
3.34989452e+01
7.85081911e+00
-7.30879405e+00
1.25931395e+02
-1.85533805e+01
-7.02395523e+00
6.39400129e+01
-1.33379299e+01
-9.09183228e+00
-1.84226254e+01
-2.20804348e+01
9.80683403e+01
-1.83564663e+00
7.76650715e+00
</DataArray>
<DataArray type="Float32" Name="Stress_Tresca" format="ascii">
3.33216095e+01
3.76378565e+01
3.42806578e+01
3.34954166e+01
3.13924332e+01
3.51547995e+01
3.27829562e+01
3.37220449e+01
4.11447897e+01
4.28800993e+01
3.63180618e+01
3.76655765e+01
4.62533512e+01
5.01993580e+01
3.73563590e+01
4.24328529e+01
5.04528503e+01
5.81606722e+01
4.04296565e+01
3.33907334e+01
5.18184052e+01
4.61640873e+01
3.52619967e+01
3.55587463e+01
8.25326462e+01
8.72720184e+01
5.77584305e+01
5.71278739e+01
3.33720446e+01
3.08813744e+01
3.19621552e+01
2.74378631e+01
3.81270914e+01
3.44041028e+01
3.07698598e+01
3.61244545e+01
3.30451317e+01
5.69129620e+01
2.76207190e+01
5.15116053e+01
5.37090187e+01
8.65601603e+01
3.51004500e+01
2.87895823e+01
3.21641537e+01
2.48566790e+01
3.47019711e+01
3.11935413e+01
1.75248380e+01
2.51970107e+01
1.95109679e+01
3.40545527e+01
1.05556094e+01
2.79693146e+01
3.16814613e+01
2.82783279e+01
3.48578672e+01
3.45274410e+01
2.86924231e+01
3.02836876e+01
2.54162598e+01
2.31998278e+01
2.12281022e+01
1.95134796e+01
1.84237957e+01
2.61566175e+01
3.44811850e+01
1.07939555e+01
3.41589584e+01
2.27481225e+01
3.45143661e+01
3.55833702e+01
2.54214050e+01
3.09695683e+01
2.55607738e+01
2.80319169e+01
2.51391230e+01
3.58647294e+01
1.80363493e+01
2.60833559e+01
1.23435240e+01
9.18545723e+00
1.13054810e+01
7.68386650e+00
5.53826694e+01
5.49101601e+01
4.33340397e+01
5.21735249e+01
6.31909809e+01
4.65319166e+01
4.35385742e+01
6.93985456e+01
1.78914433e+01
4.01964264e+01
1.98722658e+01
1.60672369e+01
5.16660643e+00
5.66211915e+00
3.21448250e+01
3.09367833e+01
2.80299455e+01
3.26885762e+01
2.59538565e+01
2.62485254e+01
2.61062000e+01
3.11765409e+01
2.73968520e+01
2.76767230e+01
2.17056532e+01
2.70508417e+01
2.03662910e+01
2.52313700e+01
2.49657048e+01
3.12412868e+01
4.45801697e+01
9.29758965e+01
7.18292866e+01
7.08922262e+01
7.56454506e+01
2.92414838e+01
1.96251504e+01
6.39806197e+01
3.26108809e+01
1.89518201e+01
1.62053592e+01
1.97995554e+01
2.17376258e+01
1.96719158e+01
2.03405235e+01
3.10497072e+01
5.38619280e+01
3.14143515e+01
3.49676132e+01
6.03579750e+01
1.19771103e+02
1.80447817e+00
1.51830876e+00
2.35152543e+00
3.23634243e+00
2.97180481e+01
2.98573174e+01
2.55086582e+01
2.93973932e+01
2.55236230e+01
2.57393601e+01
2.37115583e+01
2.76301165e+01
2.18454404e+01
2.85282849e+01
1.76579671e+01
3.06414175e+01
1.25126710e+01
2.43060589e+01
2.73761245e+01
2.72112916e+01
4.02305486e+01
1.08253017e+02
8.26463661e+01
6.45374765e+01
5.31544571e+01
3.06890537e+01
2.73782263e+01
1.37708885e+02
2.31419683e+01
1.65046463e+01
8.02507057e+01
2.22859380e+01
2.26761222e+01
4.07333914e+01
5.33689575e+01
1.18054638e+02
2.39638548e+01
3.06962595e+01
</DataArray>
<DataArray type="Float32" Name="Stress_Third_Invariant" format="ascii">
-3.06303730e+01
-3.45700417e+01
-3.22620001e+01
-3.17618008e+01
-2.89046726e+01
-3.24511309e+01
-3.08676318e+01
-3.18602514e+01
-3.76526594e+01
-3.96543050e+01
-3.40597649e+01
-3.53254832e+01
-4.23887196e+01
-4.61811132e+01
-3.58441038e+01
-3.95655501e+01
-4.68516617e+01
-5.04718614e+01
-3.85351961e+01
-3.15554020e+01
-4.71420269e+01
-3.77316461e+01
-3.38179835e+01
-2.78664650e+01
-7.03165741e+01
-6.77396965e+01
-5.20205536e+01
-5.03696613e+01
-3.14626889e+01
-2.93664303e+01
-3.09836138e+01
-2.69368873e+01
-3.41524901e+01
-3.22594930e+01
-1.45049331e+01
-2.55730544e+01
-1.03565106e+01
-3.29477027e+01
-8.41952944e+00
-3.17207508e+01
-1.72604313e+01
-5.13790963e+01
-2.92008302e+01
-2.55079274e+01
-2.79306695e+01
-2.32074010e+01
-9.92341900e+00
-1.73138392e+01
-2.38228643e+00
8.81331396e+00
3.22705905e-01
2.65346394e+01
8.12808180e+00
2.36562843e+01
-8.83286524e+00
-3.06544304e+00
-2.66321087e+01
-2.86090403e+01
-2.35982608e+01
-2.62745299e+01
-1.33817443e+01
-1.17713491e+01
-6.15286398e+00
-2.82835964e+00
-1.71035258e+00
7.10397116e+00
-1.36476464e+01
5.79151233e+00
-2.62568846e+01
1.83593232e+01
-2.70520627e+01
-2.96854954e+01
-2.13196967e+01
-2.66423869e+01
-1.67009390e+01
-1.71951778e+01
-7.83478022e+00
-1.20893272e+01
5.30220461e+00
3.75682104e+00
-5.49545133e+00
2.71047225e+00
-3.79326344e+00
-7.09252024e+00
-4.79015846e+01
-4.64480934e+01
-3.88638635e+01
-4.68040218e+01
-5.33353157e+01
-4.16799719e+01
-1.36531553e+01
-5.56202087e+01
-7.68702269e+00
5.45648575e+00
-1.06013525e+01
-1.18540646e+01
-4.60789204e+00
-4.68305397e+00
-3.02429447e+01
-2.96950197e+01
-2.65035031e+01
-3.04835372e+01
-2.50465552e+01
-2.47500825e+01
-2.55536737e+01
-2.29990093e+01
-2.61815510e+01
-2.60721821e+01
-2.05516410e+01
-2.57848111e+01
-1.95007849e+01
-2.33647246e+01
-2.34304466e+01
-2.90971491e+01
-4.19039039e+01
-8.33979443e+01
-6.93474245e+01
-6.72566118e+01
-6.88650990e+01
-1.50443488e+01
-1.90131485e+01
-6.00800985e+01
2.42169228e+01
-1.45411420e+01
-1.51109037e+01
-1.82798358e+00
-7.72296460e+00
-1.57781290e+01
-1.86940533e+01
-2.57965679e+01
-5.10764005e+01
-2.96983869e+01
-3.38888941e+01
-3.06854038e+01
-1.16007252e+02
1.33606440e+00
1.18383524e+00
-9.13350463e-01
2.45002031e+00
-2.93496246e+01
-2.91005378e+01
-2.43554612e+01
-2.83615479e+01
-2.42429748e+01
-2.31341109e+01
-2.27298183e+01
-1.86282980e+01
-2.03394717e+01
-2.68637888e+01
-1.64021556e+01
-2.22681092e+01
-1.17937531e+01
-1.20149576e+01
-2.43218157e+01
-2.41714061e+01
-1.98533974e+01
-1.02547102e+02
-7.97916937e+01
-6.17323465e+01
-4.85042458e+01
-2.72146175e+01
-1.52169769e+01
-1.25103607e+02
-6.15080472e+00
-1.56028892e+01
-7.55077386e+01
-1.11428388e+01
-1.40646811e+01
-7.82762064e+00
4.46601601e+01
-1.07093742e+02
-1.92501494e+01
-2.80170316e+01
</DataArray>
<DataArray type="Float32" Name="Logarithmic_strain_Max_Principal" format="ascii">
5.27476445e-02
5.48272580e-02
4.96057887e-02
4.75919060e-02
5.00369482e-02
5.11643216e-02
4.73046661e-02
4.64353841e-02
5.96043877e-02
5.46101527e-02
5.29907607e-02
5.05289650e-02
6.47188835e-02
5.90799246e-02
5.53469341e-02
5.45577882e-02
6.97881728e-02
6.53064409e-02
5.93037000e-02
5.63479937e-02
7.63404928e-02
7.27690645e-02
6.30945573e-02
6.24747053e-02
9.31492299e-02
8.61914232e-02
7.54137412e-02
7.36111440e-02
3.99664138e-02
3.81641611e-02
3.88825652e-02
3.64849642e-02
4.32167668e-02
4.12271875e-02
3.90121099e-02
4.25245174e-02
4.44946354e-02
5.03411821e-02
4.62698042e-02
5.21025211e-02
4.94797789e-02
5.93848998e-02
3.54567254e-02
3.49131003e-02
3.29329649e-02
3.08471005e-02
2.90291086e-02
3.09398193e-02
1.41715544e-02
2.00375744e-02
1.17496739e-02
2.61661385e-02
1.24806988e-02
2.59675899e-02
1.09256995e-02
2.28976351e-02
3.44391195e-02
3.54631115e-02
3.08685191e-02
3.20933177e-02
2.47787563e-02
2.47399278e-02
8.96754902e-03
1.30276480e-02
1.47228545e-03
3.10140433e-03
6.26297570e-03
4.00263457e-03
6.74806748e-03
6.06908222e-03
3.36904619e-02
3.63287330e-02
3.07092897e-02
3.24493125e-02
2.50968221e-02
2.62454674e-02
8.89587274e-03
1.80761820e-02
8.45668132e-04
2.76875659e-03
1.48360596e-04
1.29612849e-04
9.85778752e-05
4.88019611e-05
3.78375016e-02
4.10028175e-02
3.36445579e-02
3.68633997e-02
3.19821117e-02
3.10426774e-02
1.37821087e-02
2.63636149e-02
1.21456341e-03
5.67017155e-03
2.61901914e-04
1.59968845e-04
2.92994009e-05
4.41145912e-05
4.41328119e-02
4.25079288e-02
4.35534543e-02
4.41662427e-02
4.19000462e-02
4.44923090e-02
4.36668172e-02
4.73975376e-02
4.88964142e-02
5.22366404e-02
4.77605592e-02
5.32929581e-02
4.93068919e-02
5.49237980e-02
4.10063840e-02
4.18352280e-02
4.50138258e-02
5.79694182e-02
5.98171828e-02
6.08883314e-02
6.38063066e-02
3.42531630e-02
3.22577241e-02
4.09944101e-02
5.26267421e-02
2.90870543e-02
2.50288993e-02
2.80828537e-02
2.64043404e-02
2.87314828e-02
2.70012035e-02
3.46900746e-02
4.15950427e-02
2.94662518e-02
2.76703089e-02
3.96881420e-02
5.04325479e-02
2.25463209e-05
1.91767658e-05
2.60625493e-05
4.28668045e-05
3.89585886e-02
3.97858145e-02
4.23242995e-02
4.02325280e-02
4.29800786e-02
4.53652358e-02
4.40864582e-02
4.75404458e-02
4.55044163e-02
4.99054017e-02
4.28031199e-02
4.64036874e-02
4.10323944e-02
4.52270498e-02
4.83365669e-02
4.66423547e-02
4.44597001e-02
6.20852262e-02
5.93499895e-02
5.55328624e-02
5.46742529e-02
4.73350036e-02
4.18453934e-02
6.92974422e-02
3.26989322e-02
3.44439903e-02
4.51342543e-02
3.25654573e-02
3.24429893e-02
4.37836056e-02
6.92530647e-02
6.88612697e-02
4.06779838e-02
3.70867439e-02
</DataArray>
<DataArray type="Float32" Name="Logarithmic_strain_Min_Principal" format="ascii">
-6.84525147e-02
-7.18078203e-02
-6.75807465e-02
-6.57619201e-02
-6.57006651e-02
-6.84678666e-02
-6.55435380e-02
-6.40216488e-02
-7.83821642e-02
-7.36673642e-02
-7.39587937e-02
-7.11624017e-02
-8.70667882e-02
-8.12511090e-02
-8.09143092e-02
-7.81079009e-02
-9.59881470e-02
-8.90155826e-02
-8.79832562e-02
-8.22757808e-02
-1.04625482e-01
-9.32242982e-02
-9.28187333e-02
-8.76821363e-02
-1.15065604e-01
-1.04710866e-01
-1.01158183e-01
-9.62065347e-02
-5.75976605e-02
-5.70097268e-02
-5.76864881e-02
-5.57886567e-02
-5.64795844e-02
-5.90119995e-02
-5.01059312e-02
-6.05821445e-02
-5.13166217e-02
-6.37652179e-02
-4.77804616e-02
-6.43206667e-02
-5.16353026e-02
-7.20020930e-02
-4.61214306e-02
-4.68391143e-02
-4.66601658e-02
-4.59604561e-02
-3.43632838e-02
-3.99460178e-02
-1.29514236e-02
-1.77948897e-02
-8.86505408e-03
-2.04639405e-02
-9.45469194e-03
-2.06931634e-02
-1.09520841e-02
-1.91775188e-02
-4.00107242e-02
-4.34046332e-02
-3.84940128e-02
-4.11670851e-02
-2.67426558e-02
-2.65079373e-02
-6.58123125e-03
-1.15867526e-02
-1.68378699e-03
-2.58761276e-03
-9.20759171e-03
-2.90539316e-03
-9.07882386e-03
-3.66613126e-03
-4.25025579e-02
-4.63435072e-02
-3.93847013e-02
-4.31832913e-02
-2.92163002e-02
-3.18082706e-02
-7.08743394e-03
-2.09316721e-02
-4.01466807e-04
-1.66436007e-03
-1.13234607e-04
-8.45462953e-05
-1.72904216e-04
-1.35531422e-04
-5.05679660e-02
-5.36632389e-02
-4.74023027e-02
-5.15601449e-02
-4.02200539e-02
-4.42256741e-02
-1.37936012e-02
-3.50512260e-02
-1.55533731e-03
-5.49751747e-03
-3.73474541e-04
-1.83114636e-04
-9.52283008e-05
-9.14857192e-05
-6.29745498e-02
-6.35474622e-02
-6.14072741e-02
-6.13204241e-02
-6.46575764e-02
-6.53019706e-02
-6.86643999e-02
-7.15158889e-02
-7.27268793e-02
-7.80299986e-02
-7.38217309e-02
-8.08224957e-02
-7.44023994e-02
-8.10940415e-02
-5.73229375e-02
-5.59821241e-02
-6.74208403e-02
-8.78735587e-02
-9.48305055e-02
-9.69848502e-02
-9.77488235e-02
-4.74273306e-02
-4.57558790e-02
-5.96525917e-02
-4.72520785e-02
-3.85186505e-02
-3.78956795e-02
-3.39516223e-02
-2.67817372e-02
-3.86867612e-02
-3.89465801e-02
-4.49942171e-02
-6.37257667e-02
-4.60887617e-02
-4.54433914e-02
-5.73466895e-02
-8.70788284e-02
-2.05635670e-05
-1.69855211e-05
-3.01715563e-05
-3.44587625e-05
-6.43982328e-02
-6.41102968e-02
-6.31422745e-02
-6.39888858e-02
-6.21287711e-02
-6.48121322e-02
-6.16939878e-02
-6.72720056e-02
-6.15433278e-02
-7.22456537e-02
-6.01171991e-02
-7.05830436e-02
-5.79314604e-02
-6.67788312e-02
-6.44843248e-02
-6.12713899e-02
-7.27022343e-02
-9.94842783e-02
-9.52249300e-02
-8.96634050e-02
-8.51637721e-02
-6.09331881e-02
-5.40297925e-02
-9.89261009e-02
-4.66932787e-02
-4.60623838e-02
-6.86657541e-02
-4.66061439e-02
-4.62702252e-02
-5.88587634e-02
-6.94033951e-02
-9.75906402e-02
-5.54699199e-02
-5.30298296e-02
</DataArray>
<DataArray type="Float32" Name="Plastic_strain_Max_Principal" format="ascii">
5.25978059e-02
5.47186695e-02
4.94939703e-02
4.74459380e-02
4.98537291e-02
5.10472320e-02
4.71607260e-02
4.63312510e-02
5.95523287e-02
5.45946332e-02
5.28635094e-02
5.04696914e-02
6.46589920e-02
6.19819881e-02
5.52331675e-02
5.50574898e-02
6.97765239e-02
6.76238677e-02
5.93352001e-02
5.69773526e-02
7.64364414e-02
7.80838672e-02
6.31910833e-02
6.38486268e-02
9.31665152e-02
9.29877609e-02
7.56679028e-02
7.45537914e-02
3.98413306e-02
3.80039066e-02
3.87735190e-02
3.63000035e-02
4.28129826e-02
4.18863506e-02
3.07601596e-02
4.09005593e-02
3.87527130e-02
4.57457726e-02
3.13195498e-02
4.38729441e-02
2.85914163e-02
5.34356882e-02
3.52698537e-02
3.46648842e-02
3.27615456e-02
3.05927484e-02
2.99742725e-02
2.85367584e-02
1.22171954e-02
2.12113229e-02
1.11481755e-02
2.68608692e-02
1.17766736e-02
2.32036114e-02
1.21665057e-02
2.44517573e-02
3.42134573e-02
3.52145433e-02
3.06063918e-02
3.18774269e-02
2.44824006e-02
2.44074634e-02
8.59029806e-03
1.26829976e-02
1.08236881e-03
2.70734627e-03
6.16807444e-03
3.79685765e-03
6.57179486e-03
5.73651137e-03
3.34595796e-02
3.61682493e-02
3.04697163e-02
3.22372084e-02
2.53127329e-02
2.43248323e-02
7.53751199e-03
1.85558222e-02
4.56224288e-04
2.37984442e-03
3.09233535e-05
5.59123146e-06
0.00000000e+00
0.00000000e+00
3.78390141e-02
4.10771407e-02
3.36997896e-02
3.69227268e-02
3.18220295e-02
3.18414434e-02
1.47476890e-02
2.60135476e-02
8.71427503e-04
5.32347317e-03
6.24841487e-05
3.74045291e-05
0.00000000e+00
0.00000000e+00
4.40282393e-02
4.23651906e-02
4.33857217e-02
4.40093735e-02
4.17355318e-02
4.42332863e-02
4.35014516e-02
4.58723688e-02
4.86851139e-02
5.22155482e-02
4.75863749e-02
5.29444194e-02
4.92044669e-02
5.44175962e-02
4.07926622e-02
4.17097490e-02
4.48795318e-02
5.86308330e-02
6.01658598e-02
6.13645846e-02
6.42113648e-02
3.41214926e-02
3.20706433e-02
4.22942561e-02
5.39576672e-02
2.78596478e-02
2.47517419e-02
2.45030099e-02
2.68135661e-02
2.84604521e-02
2.67393505e-02
3.45498160e-02
4.57342817e-02
2.94016600e-02
2.77185217e-02
4.13548835e-02
5.07093593e-02
0.00000000e+00
0.00000000e+00
0.00000000e+00
0.00000000e+00
3.88889145e-02
3.96099519e-02
4.21860809e-02
4.00303407e-02
4.27748729e-02
4.51329215e-02
4.39083232e-02
4.63291956e-02
4.51628985e-02
4.97814906e-02
4.23904965e-02
4.61226106e-02
4.05861735e-02
4.47688252e-02
4.80299969e-02
4.64973589e-02
4.47166621e-02
6.34157710e-02
5.99889420e-02
5.61766215e-02
5.49947005e-02
4.70303015e-02
4.15973235e-02
7.05056358e-02
3.24854188e-02
3.42048495e-02
4.64576404e-02
3.48908121e-02
3.42519251e-02
4.11243207e-02
6.87986687e-02
7.76834488e-02
4.73741596e-02
3.58849429e-02
</DataArray>
<DataArray type="Float32" Name="Plastic_strain_Min_Principal" format="ascii">
-6.78190142e-02
-7.09861964e-02
-6.68937303e-02
-6.50579408e-02
-6.51166067e-02
-6.77696392e-02
-6.48897123e-02
-6.33801389e-02
-7.74292313e-02
-7.26393871e-02
-7.31229782e-02
-7.03725573e-02
-8.57202560e-02
-8.39779824e-02
-7.99397472e-02
-7.80266989e-02
-9.43220034e-02
-8.98397863e-02
-8.70462880e-02
-8.29093829e-02
-1.02921378e-01
-9.87117030e-02
-9.22681969e-02
-8.95857606e-02
-1.11301705e-01
-1.09853126e-01
-9.92247462e-02
-9.60383117e-02
-5.69261881e-02
-5.63987624e-02
-5.70542319e-02
-5.52690765e-02
-5.51525531e-02
-5.95999141e-02
-4.01981919e-02
-5.82612700e-02
-4.41491666e-02
-5.68436746e-02
-2.77059441e-02
-5.28037157e-02
-2.48347570e-02
-6.34485893e-02
-4.54268418e-02
-4.63016909e-02
-4.60715690e-02
-4.55022650e-02
-3.65908253e-02
-3.56803322e-02
-7.56659644e-03
-1.64693530e-02
-6.58155559e-03
-2.16787211e-02
-6.91635845e-03
-1.93822356e-02
-1.14196716e-02
-2.23852796e-02
-3.93522466e-02
-4.26675044e-02
-3.80044240e-02
-4.06180480e-02
-2.64273486e-02
-2.64332609e-02
-6.75141462e-03
-1.18681232e-02
-1.68172067e-03
-2.36275071e-03
-8.57859664e-03
-2.87219530e-03
-8.50498118e-03
-3.42439801e-03
-4.18204358e-02
-4.56797238e-02
-3.90330697e-02
-4.26069945e-02
-2.98688216e-02
-2.88547961e-02
-5.60368091e-03
-2.22025383e-02
-3.75380721e-04
-1.43806872e-03
-1.97532600e-05
-5.71887472e-06
0.00000000e+00
0.00000000e+00
-4.91711646e-02
-5.23882657e-02
-4.65817833e-02
-5.02862614e-02
-3.83674186e-02
-4.48018834e-02
-1.55905210e-02
-3.30218437e-02
-1.48941783e-03
-4.88715596e-03
-9.57362281e-05
-2.72888768e-05
0.00000000e+00
0.00000000e+00
-6.24015294e-02
-6.29421193e-02
-6.09929883e-02
-6.06786869e-02
-6.43615313e-02
-6.48792796e-02
-6.83309715e-02
-6.90569710e-02
-7.22963866e-02
-7.80457985e-02
-7.37875085e-02
-8.01535333e-02
-7.45053962e-02
-8.02735537e-02
-5.69914822e-02
-5.54695847e-02
-6.59839718e-02
-8.60430360e-02
-9.22261346e-02
-9.48694460e-02
-9.56827737e-02
-4.77638952e-02
-4.56451429e-02
-5.97803375e-02
-5.19278347e-02
-3.67350923e-02
-3.78028248e-02
-3.00830514e-02
-2.54785977e-02
-3.86363189e-02
-3.86859179e-02
-4.05161893e-02
-6.88207187e-02
-4.55454187e-02
-4.49146740e-02
-6.01202268e-02
-8.18621516e-02
0.00000000e+00
0.00000000e+00
0.00000000e+00
0.00000000e+00
-6.39551766e-02
-6.34925254e-02
-6.29116530e-02
-6.33675028e-02
-6.18165210e-02
-6.44921330e-02
-6.15302864e-02
-6.54781042e-02
-6.12632101e-02
-7.19974628e-02
-5.99014591e-02
-7.02937432e-02
-5.79086673e-02
-6.67777508e-02
-6.40524272e-02
-6.10627700e-02
-7.22719548e-02
-9.55975994e-02
-9.23636220e-02
-8.83061085e-02
-8.41416419e-02
-6.02418413e-02
-5.41505320e-02
-9.60329790e-02
-4.73679756e-02
-4.60595358e-02
-6.81070099e-02
-3.95854610e-02
-4.99047711e-02
-5.12876103e-02
-7.47394338e-02
-1.08722866e-01
-6.76137162e-02
-5.09002004e-02
</DataArray>
</PointData>
<Cells>
<DataArray type="Int32" Name="connectivity" format="ascii">
0 1 2 3 4 5 6 7
1 8 9 2 5 10 11 6
8 12 13 9 10 14 15 11
12 16 17 13 14 18 19 15
16 20 21 17 18 22 23 19
20 24 25 21 22 26 27 23
3 2 28 29 7 6 30 31
2 9 32 28 6 11 33 30
9 13 34 32 11 15 35 33
13 17 36 34 15 19 37 35
17 21 38 36 19 23 39 37
21 25 40 38 23 27 41 39
29 28 42 43 31 30 44 45
28 32 46 42 30 33 47 44
32 34 48 46 33 35 49 47
34 36 50 48 35 37 51 49
36 38 52 50 37 39 53 51
38 40 54 52 39 41 55 53
43 42 56 57 45 44 58 59
42 46 60 56 44 47 61 58
46 48 62 60 47 49 63 61
48 50 64 62 49 51 65 63
52 54 66 67 53 55 68 69
57 56 70 71 59 58 72 73
56 60 74 70 58 61 75 72
60 62 76 74 61 63 77 75
62 64 78 76 63 65 79 77
64 67 80 78 65 69 81 79
67 66 82 80 69 68 83 81
71 70 84 85 73 72 86 87
70 74 88 84 72 75 89 86
74 76 90 88 75 77 91 89
76 78 92 90 77 79 93 91
78 80 94 92 79 81 95 93
80 82 96 94 81 83 97 95
4 5 6 7 98 99 100 101
5 10 11 6 99 102 103 100
10 14 15 11 102 104 105 103
14 18 19 15 104 106 107 105
18 22 23 19 106 108 109 107
22 26 27 23 108 110 111 109
7 6 30 31 101 100 112 113
6 11 33 30 100 103 114 112
11 15 35 33 103 105 115 114
15 19 37 35 105 107 116 115
19 23 39 37 107 109 117 116
23 27 41 39 109 111 118 117
31 30 44 45 113 112 119 120
30 33 47 44 112 114 121 119
33 35 49 47 114 115 122 121
45 44 58 59 120 119 123 124
44 47 61 58 119 121 125 123
47 49 63 61 121 122 126 125
59 58 72 73 124 123 127 128
58 61 75 72 123 125 129 127
61 63 77 75 125 126 130 129
73 72 86 87 128 127 131 132
72 75 89 86 127 129 133 131
75 77 91 89 129 130 134 133
81 83 97 95 135 136 137 138
98 99 100 101 139 140 141 142
99 102 103 100 140 143 144 141
102 104 105 103 143 145 146 144
104 106 107 105 145 147 148 146
106 108 109 107 147 149 150 148
108 110 111 109 149 151 152 150
101 100 112 113 142 141 153 154
100 103 114 112 141 144 155 153
103 105 115 114 144 146 156 155
105 107 116 115 146 148 157 156
107 109 117 116 148 150 158 157
109 111 118 117 150 152 159 158
113 112 119 120 154 153 160 161
112 114 121 119 153 155 162 160
120 119 123 124 161 160 163 164
119 121 125 123 160 162 165 163
124 123 127 128 164 163 166 167
123 125 129 127 163 165 168 166
125 126 130 129 165 169 170 168
128 127 131 132 167 166 171 172
</DataArray>
<DataArray type="Int32" Name="offsets" format="ascii">
8
16
24
32
40
48
56
64
72
80
88
96
104
112
120
128
136
144
152
160
168
176
184
192
200
208
216
224
232
240
248
256
264
272
280
288
296
304
312
320
328
336
344
352
360
368
376
384
392
400
408
416
424
432
440
448
456
464
472
480
488
496
504
512
520
528
536
544
552
560
568
576
584
592
600
608
616
624
632
640
</DataArray>
<DataArray type="UInt8" Name="types" format="ascii">
12
12
12
12
12
12
12
12
12
12
12
12
12
12
12
12
12
12
12
12
12
12
12
12
12
12
12
12
12
12
12
12
12
12
12
12
12
12
12
12
12
12
12
12
12
12
12
12
12
12
12
12
12
12
12
12
12
12
12
12
12
12
12
12
12
12
12
12
12
12
12
12
12
12
12
12
12
12
12
12
</DataArray>
</Cells>
</Piece>
</UnstructuredGrid>
</VTKFile>
