<VTKFile type="UnstructuredGrid" version="0.1" byte_order="LittleEndian">
<UnstructuredGrid>
<Piece NumberOfPoints="173" NumberOfCells="80">
<Points>
<DataArray type="Float64" NumberOfComponents="3" format="ascii">
 0.00000000e+00  0.00000000e+00  0.00000000e+00
 1.01909661e+00  0.00000000e+00  0.00000000e+00
 1.02092111e+00  1.04141831e+00  0.00000000e+00
 0.00000000e+00  1.03935397e+00  0.00000000e+00
 0.00000000e+00  0.00000000e+00  9.51971948e-01
 1.01923025e+00  0.00000000e+00  9.49808955e-01
 1.01959527e+00  1.03803587e+00  9.52422917e-01
 0.00000000e+00  1.03745210e+00  9.54749048e-01
 2.04163647e+00  0.00000000e+00  0.00000000e+00
 2.04227781e+00  1.04571247e+00  0.00000000e+00
 2.04091573e+00  0.00000000e+00  9.44128990e-01
 2.04231191e+00  1.04055929e+00  9.47868347e-01
 3.06565499e+00  0.00000000e+00  0.00000000e+00
 3.06784678e+00  1.05182076e+00  0.00000000e+00
 3.06928515e+00  0.00000000e+00  9.38285649e-01
 3.06650043e+00  1.04338992e+00  9.41127241e-01
 4.09876442e+00  0.00000000e+00  0.00000000e+00
 4.09246588e+00  1.05686688e+00  0.00000000e+00
 4.10178137e+00  0.00000000e+00  9.32195783e-01
 4.09485292e+00  1.04443204e+00  9.35545862e-01
 5.13469887e+00  0.00000000e+00  0.00000000e+00
 5.12422943e+00  1.06152558e+00  0.00000000e+00
 5.13725948e+00  0.00000000e+00  9.24113512e-01
 5.13013744e+00  1.04665601e+00  9.30488646e-01
 6.17525339e+00  0.00000000e+00  0.00000000e+00
 6.14999294e+00  1.07910550e+00  0.00000000e+00
 6.17136431e+00  0.00000000e+00  9.20854092e-01
 6.16532898e+00  1.06056762e+00  9.21230674e-01
 1.02351606e+00  2.07213640e+00  0.00000000e+00
 0.00000000e+00  2.07059979e+00  0.00000000e+00
 1.02112317e+00  2.06993103e+00  9.60274398e-01
 0.00000000e+00  2.06781411e+00  9.61014569e-01
 2.04691124e+00  2.07976389e+00  0.00000000e+00
 2.04273081e+00  2.07419538e+00  9.60343421e-01
 3.06555367e+00  2.08651495e+00  0.00000000e+00
 3.06254911e+00  2.07948160e+00  9.65833366e-01
 4.08162355e+00  2.09735584e+00  0.00000000e+00
 4.08362961e+00  2.08168459e+00  9.63845730e-01
 5.09276104e+00  2.10132408e+00  0.00000000e+00
 5.10159779e+00  2.08565807e+00  9.65788603e-01
 6.10953045e+00  2.12209439e+00  0.00000000e+00
 6.12493944e+00  2.10619259e+00  9.65205252e-01
 1.02544320e+00  3.09008598e+00  0.00000000e+00
 0.00000000e+00  3.08827591e+00  0.00000000e+00
 1.02244103e+00  3.09053850e+00  9.69337165e-01
 0.00000000e+00  3.08956552e+00  9.68571424e-01
 2.04920197e+00  3.09209323e+00  0.00000000e+00
 2.04424024e+00  3.09275031e+00  9.77859855e-01
 3.06237531e+00  3.09817767e+00  0.00000000e+00
 3.05925512e+00  3.09582710e+00  9.92301285e-01
 4.06499338e+00  3.10421944e+00  0.00000000e+00
 4.06190443e+00  3.09662199e+00  1.00209689e+00
 5.07370615e+00  3.10149074e+00  0.00000000e+00
 5.07394648e+00  3.09341741e+00  1.00622845e+00
 6.07574368e+00  3.12426472e+00  0.00000000e+00
 6.07795954e+00  3.12108731e+00  1.00256157e+00
 1.02619338e+00  4.09898901e+00  0.00000000e+00
 0.00000000e+00  4.10059690e+00  0.00000000e+00
 1.02263498e+00  4.10056353e+00  9.73658025e-01
 0.00000000e+00  4.10252762e+00  9.71866131e-01
 2.04794598e+00  4.09821749e+00  0.00000000e+00
 2.04296255e+00  4.09691143e+00  9.82715011e-01
 3.05794573e+00  4.09851313e+00  0.00000000e+00
 3.05380583e+00  4.09722328e+00  9.96344805e-01
 4.05660772e+00  4.10259724e+00  0.00000000e+00
 4.05632162e+00  4.10252714e+00  1.00000393e+00
 6.05673361e+00  4.10929918e+00  0.00000000e+00
 5.05669880e+00  4.10561800e+00  0.00000000e+00
 6.05683470e+00  4.10938263e+00  9.99835849e-01
 5.05676508e+00  4.10564470e+00  1.00005281e+00
 1.02469707e+00  5.10833883e+00  0.00000000e+00
 0.00000000e+00  5.11239147e+00  0.00000000e+00
 1.02246928e+00  5.11122274e+00  9.72217143e-01
 0.00000000e+00  5.11278868e+00  9.68094289e-01
 2.04593349e+00  5.10160255e+00  0.00000000e+00
 2.03884053e+00  5.10307884e+00  9.81001258e-01
 3.05303597e+00  5.09935045e+00  0.00000000e+00
 3.05025530e+00  5.09980297e+00  9.96630847e-01
 4.05348110e+00  5.10256004e+00  0.00000000e+00
 4.05330896e+00  5.10254335e+00  1.00024581e+00
 5.05335236e+00  5.10575628e+00  0.00000000e+00
 5.05344248e+00  5.10574675e+00  1.00001264e+00
 6.05342484e+00  5.10903025e+00  0.00000000e+00
 6.05344772e+00  5.10897541e+00  9.99980569e-01
 1.02750373e+00  6.12409115e+00  0.00000000e+00
 0.00000000e+00  6.12632895e+00  0.00000000e+00
 1.02418602e+00  6.12365913e+00  9.67021108e-01
 0.00000000e+00  6.12893009e+00  9.62902427e-01
 2.04973316e+00  6.11119032e+00  0.00000000e+00
 2.03943658e+00  6.11902857e+00  9.72290993e-01
 3.05273795e+00  6.10187817e+00  0.00000000e+00
 3.05110765e+00  6.10807371e+00  9.91289139e-01
 4.05092096e+00  6.10286474e+00  0.00000000e+00
 4.05052710e+00  6.10287762e+00  1.00035679e+00
 5.05027294e+00  6.10566521e+00  0.00000000e+00
 5.05035400e+00  6.10572338e+00  9.99987245e-01
 6.05023098e+00  6.10897398e+00  0.00000000e+00
 6.05025482e+00  6.10894012e+00  1.00000536e+00
 0.00000000e+00  0.00000000e+00  1.90845120e+00
 1.02085686e+00  0.00000000e+00  1.90364945e+00
 1.01995862e+00  1.03127050e+00  1.90853810e+00
 0.00000000e+00  1.03203607e+00  1.90995967e+00
 2.04667234e+00  0.00000000e+00  1.89696741e+00
 2.04123926e+00  1.02716482e+00  1.89849651e+00
 3.07317162e+00  0.00000000e+00  1.88646686e+00
 3.07342315e+00  1.02626753e+00  1.88692439e+00
 4.10903263e+00  0.00000000e+00  1.87184691e+00
 4.10598564e+00  1.02714515e+00  1.88230252e+00
 5.14516640e+00  0.00000000e+00  1.86086774e+00
 5.14185762e+00  1.02866554e+00  1.87287676e+00
 6.17392635e+00  0.00000000e+00  1.85395432e+00
 6.18114042e+00  1.03084540e+00  1.86407387e+00
 1.01577461e+00  2.06177831e+00  1.91977072e+00
 0.00000000e+00  2.06512904e+00  1.92440820e+00
 2.03797770e+00  2.06076384e+00  1.91603112e+00
 3.06514120e+00  2.06447792e+00  1.91348720e+00
 4.10063648e+00  2.07275081e+00  1.89947510e+00
 5.13923359e+00  2.07418513e+00  1.90141153e+00
 6.17549038e+00  2.07768703e+00  1.89072478e+00
 1.01321888e+00  3.08883452e+00  1.93672240e+00
 0.00000000e+00  3.08981633e+00  1.94070292e+00
 2.03150058e+00  3.08944654e+00  1.94778681e+00
 3.02856445e+00  3.08367205e+00  2.00429106e+00
 1.01517296e+00  4.10847950e+00  1.95069993e+00
 0.00000000e+00  4.10636377e+00  1.94543600e+00
 2.03196621e+00  4.10134506e+00  1.96662188e+00
 3.04063678e+00  4.08744287e+00  1.98689735e+00
 1.01727426e+00  5.11621332e+00  1.94730914e+00
 0.00000000e+00  5.11912632e+00  1.94328463e+00
 2.03012633e+00  5.11160707e+00  1.96026003e+00
 3.05348754e+00  5.10366869e+00  1.96791875e+00
 1.01379812e+00  6.13490629e+00  1.93223524e+00
 0.00000000e+00  6.13266659e+00  1.93190861e+00
 2.02998495e+00  6.13909245e+00  1.93991113e+00
 3.05801797e+00  6.13540316e+00  1.94045937e+00
 5.05347633e+00  5.10576344e+00  2.00001669e+00
 6.05347919e+00  5.10893488e+00  1.99999881e+00
 6.05029631e+00  6.10894394e+00  1.99999535e+00
 5.05027628e+00  6.10577059e+00  1.99999344e+00
 0.00000000e+00  0.00000000e+00  2.86196113e+00
 1.02601874e+00  0.00000000e+00  2.86033058e+00
 1.02669454e+00  1.02791762e+00  2.86547971e+00
 0.00000000e+00  1.02721167e+00  2.86924791e+00
 2.05732036e+00  0.00000000e+00  2.85059786e+00
 2.05055189e+00  1.02239323e+00  2.85790873e+00
 3.08530617e+00  0.00000000e+00  2.84018350e+00
 3.08580470e+00  1.01843393e+00  2.84282684e+00
 4.11910963e+00  0.00000000e+00  2.83045602e+00
 4.12050247e+00  1.01962304e+00  2.82677436e+00
 5.15263414e+00  0.00000000e+00  2.81758809e+00
 5.15401506e+00  1.02155983e+00  2.81993580e+00
 6.18224764e+00  0.00000000e+00  2.81212974e+00
 6.18393183e+00  1.02020395e+00  2.81502581e+00
 1.01763296e+00  2.05187511e+00  2.88054228e+00
 0.00000000e+00  2.05992723e+00  2.88274884e+00
 2.04781079e+00  2.05131984e+00  2.86282063e+00
 3.07931209e+00  2.05616665e+00  2.83426237e+00
 4.12008047e+00  2.06297088e+00  2.82872152e+00
 5.15563679e+00  2.05693316e+00  2.82771897e+00
 6.18583632e+00  2.05536890e+00  2.82440901e+00
 1.01325679e+00  3.08998299e+00  2.90887260e+00
 0.00000000e+00  3.08803678e+00  2.90443039e+00
 2.04254675e+00  3.07914329e+00  2.88583517e+00
 1.01257598e+00  4.10972548e+00  2.92485428e+00
 0.00000000e+00  4.11407757e+00  2.92312837e+00
 2.03343725e+00  4.10994720e+00  2.94568634e+00
 1.01398838e+00  5.13322973e+00  2.92060137e+00
 0.00000000e+00  5.12924480e+00  2.91962838e+00
 2.03312206e+00  5.13341045e+00  2.92262292e+00
 3.03992295e+00  4.12658739e+00  3.00948477e+00
 3.05665207e+00  5.12714243e+00  2.91273355e+00
 1.01493001e+00  6.15110207e+00  2.90524578e+00
 0.00000000e+00  6.15204287e+00  2.89762950e+00
</DataArray>
</Points>
<PointData Tensors="Stress_Components,Plastic_strain_components" Vevtors="Spatial_displacement,Reaction_force" Scalars="Equivalent_plastic_strain,Stress_Mises,Stress_Max_Principal,Stress_Mid_Principal,Stress_Min_Principal,Stress_Pressure,Stress_Tresca,Stress_Third_Invariant,Plastic_strain_Max_Principal,Plastic_strain_Min_Principal">
<DataArray type="Float32" Name="Stress_Components" NumberOfComponents="9" format="ascii">
-3.64806008e+00 -2.81043258e-03 -7.68666994e-03 -2.81043258e-03 1.57910824e+00 5.50054014e-04 -7.68666994e-03 5.50054014e-04 -3.17838688e+01
-6.11904708e+00 2.66834632e-01 -1.77473424e-03 2.66834632e-01 -4.80749130e-01 -1.46671757e-01 -1.77473424e-03 -1.46671757e-01 -3.66508446e+01
-3.82471275e+00 6.15077958e-01 -4.85121198e-01 6.15077958e-01 3.85743380e-02 -3.24298322e-01 -4.85121198e-01 -3.24298322e-01 -3.37970786e+01
-2.28535938e+00 2.20482513e-01 -3.27351943e-01 2.20482513e-01 1.29214954e+00 1.05982898e-02 -3.27351943e-01 1.05982898e-02 -3.08431644e+01
-2.15413198e+00 -2.07007327e-03 1.84013337e-01 -2.07007327e-03 2.71847504e+00 -3.48924518e-01 1.84013337e-01 -3.48924518e-01 -2.89703712e+01
-4.42001665e+00 9.98994969e-02 4.53901678e-01 9.98994969e-02 6.27494693e-01 -5.20908900e-01 4.53901678e-01 -5.20908900e-01 -3.36755414e+01
-2.57093190e+00 3.59124744e-01 -4.42969798e-02 3.59124744e-01 1.15890724e+00 -5.41132215e-01 -4.42969798e-02 -5.41132215e-01 -3.12523614e+01
-3.09730089e+00 1.12274541e-01 -2.52693649e-02 1.12274541e-01 6.79017216e-01 -9.56131751e-02 -2.52693649e-02 -9.56131751e-02 -3.23534284e+01
-9.54485345e+00 3.62983460e-02 -1.35345343e-02 3.62983460e-02 -3.31911087e+00 -4.18606535e-01 -1.35345343e-02 -4.18606535e-01 -4.33897858e+01
-9.88412762e+00 1.18175202e+00 -7.24858075e-01 1.18175202e+00 -4.69388628e+00 -2.16433111e-01 -7.24858075e-01 -2.16433111e-01 -4.53174009e+01
-4.73300290e+00 2.04738997e-01 4.16406833e-01 2.04738997e-01 -5.19945979e-01 -3.25069401e-01 4.16406833e-01 -3.25069401e-01 -3.54275918e+01
-6.60726145e+00 4.01266536e-01 -4.56057151e-01 4.01266536e-01 -2.39301929e+00 -1.23252640e+00 -4.56057151e-01 -1.23252640e+00 -3.93759272e+01
-1.40964408e+01 6.41977757e-01 -5.76453935e-02 6.41977757e-01 -7.37562972e+00 4.79010925e-01 -5.76453935e-02 4.79010925e-01 -5.26971416e+01
-1.54421519e+01 7.26898104e-01 -1.44040279e+00 7.26898104e-01 -9.15757632e+00 -9.37009111e-01 -1.44040279e+00 -9.37009111e-01 -5.61290112e+01
-5.81306708e+00 -4.85053912e-01 -2.07756996e-01 -4.85053912e-01 -2.88651786e+00 -3.97411420e-01 -2.07756996e-01 -3.97411420e-01 -3.93380921e+01
-1.02714297e+01 -4.36477067e-01 1.85072731e-01 -4.36477067e-01 -5.46706921e+00 -8.38135738e-01 1.85072731e-01 -8.38135738e-01 -4.65433599e+01
-1.62140927e+01 -1.19486263e+00 -5.40215354e-02 -1.19486263e+00 -1.01592907e+01 2.53423758e-01 -5.40215354e-02 2.53423758e-01 -5.81167507e+01
-2.21735268e+01 -1.19228318e+00 -2.51973902e+00 -1.19228318e+00 -1.21810387e+01 -7.58006237e-03 -2.51973902e+00 -7.58006237e-03 -6.60566499e+01
-8.19170332e+00 -1.34012020e+00 2.53133334e-01 -1.34012020e+00 -5.77422822e+00 -2.36473072e-01 2.53133334e-01 -2.36473072e-01 -4.50222874e+01
-3.43862884e+00 -1.21571390e+00 3.87042798e-02 -1.21571390e+00 -1.24817908e+00 2.61387076e-01 3.87042798e-02 2.61387076e-01 -3.49290974e+01
-1.84481043e+01 -1.03567000e+00 -1.33259010e-01 -1.03567000e+00 -1.06979699e+01 8.92250687e-01 -1.33259010e-01 8.92250687e-01 -6.08786716e+01
-1.44509780e+01 -3.23702508e+00 -2.59954678e+00 -3.23702508e+00 -7.01685953e+00 9.75009009e-01 -2.59954678e+00 9.75009009e-01 -5.16803017e+01
-4.80788541e+00 -7.91973425e-01 3.79906300e-01 -7.91973425e-01 -2.35064614e+00 9.17551022e-01 3.79906300e-01 9.17551022e-01 -3.76397262e+01
-1.92410618e+00 -2.18249882e+00 5.08687668e-01 -2.18249882e+00 -6.29314527e-01 4.65194589e-01 5.08687668e-01 4.65194589e-01 -3.24318775e+01
-4.30848274e+01 -4.64824390e+00 -1.41538322e-01 -4.64824390e+00 -2.74536533e+01 4.19552177e-01 -1.41538322e-01 4.19552177e-01 -1.04129875e+02
-4.63454247e+01 -4.29739356e+00 -3.70163023e+00 -4.29739356e+00 -2.58308430e+01 4.55818737e+00 -3.70163023e+00 4.55818737e+00 -1.03763432e+02
-2.21304202e+01 -7.46397644e-01 -8.31231087e-01 -7.46397644e-01 -1.30938184e+01 1.58911005e+00 -8.31231087e-01 1.58911005e+00 -6.73042774e+01
-2.14253247e+01 -2.21632800e+00 1.88023120e-01 -2.21632800e+00 -1.45157977e+01 2.23083115e+00 1.88023120e-01 2.23083115e+00 -6.73602666e+01
-4.37201262e-02 1.05159483e+00 -4.75848604e-01 1.05159483e+00 -1.51520491e+00 -4.43741411e-01 -4.75848604e-01 -4.43741411e-01 -3.15066577e+01
1.31821346e+00 1.29221004e-01 -7.36567497e-01 1.29221004e-01 1.40050411e-01 3.54088098e-03 -7.36567497e-01 3.54088098e-03 -2.82978401e+01
-8.73263977e-01 7.39108581e-01 3.92511606e-01 7.39108581e-01 -1.75419658e-01 -9.13048519e-01 3.92511606e-01 -9.13048519e-01 -3.10287168e+01
2.76035005e+00 3.61869652e-01 9.37089495e-01 3.61869652e-01 3.28871644e+00 -1.24546902e-01 9.37089495e-01 -1.24546902e-01 -2.34195115e+01
-7.60782242e-01 2.18612498e+00 -1.24017949e+00 2.18612498e+00 -3.04140711e+00 -1.24163944e+00 -1.24017949e+00 -1.24163944e+00 -3.34614513e+01
-1.71502765e+00 1.28373900e+00 1.62184075e+00 1.28373900e+00 -1.17935485e+00 -4.98102099e-01 1.62184075e+00 -4.98102099e-01 -3.26308550e+01
1.24917139e+01 1.10823666e+00 -1.14196070e+00 1.10823666e+00 1.11913781e+01 -6.70230459e-01 -1.14196070e+00 -6.70230459e-01 -5.02689362e+00
4.16171483e+00 6.30827993e-01 3.83919028e+00 6.30827993e-01 5.10218699e+00 5.66572547e-02 3.83919028e+00 5.66572547e-02 -1.95715519e+01
1.60752118e+01 -2.26416372e+00 -3.85197371e+00 -2.26416372e+00 1.22061753e+01 -6.02256209e-02 -3.85197371e+00 -6.02256209e-02 6.38257027e-01
-4.99693652e+00 -4.92383524e+00 6.54003879e+00 -4.92383524e+00 -2.72115827e+00 9.93697764e-01 6.54003879e+00 9.93697764e-01 -3.46815850e+01
2.12812992e+01 -6.91339787e-01 -3.76857162e+00 -6.91339787e-01 1.47497296e+01 1.27249022e+00 -3.76857162e+00 1.27249022e+00 9.11878586e+00
-7.71628494e-01 -3.98420472e+00 7.98737887e+00 -3.98420472e+00 -3.13899004e+00 3.33972393e+00 7.98737887e+00 3.33972393e+00 -2.81357524e+01
1.05497894e+01 -4.82866842e+00 -4.76609248e+00 -4.82866842e+00 1.64148521e+00 3.21330011e+00 -4.76609248e+00 3.21330011e+00 -1.41084251e+01
-1.79690374e+01 -7.83889771e+00 7.37101833e+00 -7.83889771e+00 -1.50652606e+01 6.45897857e+00 7.37101833e+00 6.45897857e+00 -5.98160248e+01
3.55019152e+00 6.44038141e-01 2.85895489e-01 6.44038141e-01 -3.90774393e+00 -7.06851184e-01 2.85895489e-01 -7.06851184e-01 -2.93745145e+01
4.08964753e+00 3.66259664e-01 4.27452579e-01 3.66259664e-01 -1.38792324e+00 -1.35609973e-02 4.27452579e-01 -1.35609973e-02 -2.65518880e+01
3.28524530e+00 3.74632530e-01 1.31618252e+00 3.74632530e-01 -2.14683273e+00 -5.31810222e-01 1.31618252e+00 -5.31810222e-01 -2.80677398e+01
6.36997499e+00 1.56248095e-01 1.13429148e+00 1.56248095e-01 3.61398080e+00 -2.84058971e-01 1.13429148e+00 -2.84058971e-01 -1.89232770e+01
1.44991534e+01 5.28970855e-01 2.48979475e-01 5.28970855e-01 9.63470844e+00 -1.53049390e+00 2.48979475e-01 -1.53049390e+00 -3.39916706e+00
1.22163034e+01 4.80130389e-01 1.28322051e+00 4.80130389e-01 4.04454297e+00 8.71500416e-01 1.28322051e+00 8.71500416e-01 -1.15035031e+01
2.85446222e+01 3.50502506e-01 -4.28947061e-01 3.50502506e-01 2.35152261e+01 -7.71728657e-01 -4.28947061e-01 -7.71728657e-01 2.48331327e+01
2.94553070e+01 -8.67484922e-01 2.71768590e-01 -8.67484922e-01 2.80100657e+01 2.17182505e+00 2.71768590e-01 2.17182505e+00 3.09365188e+01
3.02795258e+01 -4.68618790e-01 -2.57592632e+00 -4.68618790e-01 2.55597669e+01 -2.58958730e+00 -2.57592632e+00 -2.58958730e+00 3.73246199e+01
1.65647443e+01 -2.54765260e+00 -4.42947514e+00 -2.54765260e+00 2.16844031e+01 4.00295293e+00 -4.42947514e+00 4.00295293e+00 2.57641767e+01
3.25083860e+01 1.81834367e+00 4.81546481e-01 1.81834367e+00 3.68005511e+01 -4.64156250e-01 4.81546481e-01 -4.64156250e-01 4.12882868e+01
2.37710562e+01 2.90039674e+00 -6.13963779e+00 2.90039674e+00 2.92109617e+01 -1.40318139e+00 -6.13963779e+00 -1.40318139e+00 3.60208497e+01
2.61106749e+01 5.31581974e+00 -2.74340892e+00 5.31581974e+00 1.04554014e+01 4.46313024e-01 -2.74340892e+00 4.46313024e-01 3.76357685e+01
9.68393981e+00 1.17001545e+00 3.32357955e+00 1.17001545e+00 1.00857210e+00 -2.04225004e+00 3.32357955e+00 -2.04225004e+00 1.08736591e+01
4.51370916e+00 -6.91794030e-01 2.52218276e-01 -6.91794030e-01 -5.34679693e+00 -1.12477985e+00 2.52218276e-01 -1.12477985e+00 -2.91891637e+01
3.07059586e+00 -6.23818308e-01 5.65220803e-01 -6.23818308e-01 -5.21816611e+00 -2.60515390e-02 5.65220803e-01 -2.60515390e-02 -3.11482220e+01
6.20033827e+00 -1.03983001e+00 1.80890244e+00 -1.03983001e+00 -7.28335738e-01 -1.17838377e-01 1.80890244e+00 -1.17838377e-01 -2.27716218e+01
4.31251872e+00 -8.41103122e-01 5.84812550e-01 -8.41103122e-01 -1.97513051e+00 1.48227695e-01 5.84812550e-01 1.48227695e-01 -2.67493377e+01
1.03431784e+01 -1.36389457e+00 -6.37568623e-01 -1.36389457e+00 2.33046663e+00 -2.03138877e+00 -6.37568623e-01 -2.03138877e+00 -1.48379636e+01
1.28682029e+01 -1.37881177e+00 1.53649467e-01 -1.37881177e+00 6.37918863e+00 2.26405565e+00 1.53649467e-01 2.26405565e+00 -7.13657518e+00
1.64238418e+01 -1.68629807e+00 -9.08157660e-01 -1.68629807e+00 1.77572998e+01 -5.07804026e+00 -9.08157660e-01 -5.07804026e+00 1.06558634e+01
2.11297627e+01 -4.03949648e-01 -2.28980976e-01 -4.03949648e-01 1.77338030e+01 7.74150590e-02 -2.28980976e-01 7.74150590e-02 1.21318454e+01
1.14939140e+01 2.39189307e-01 -1.04812780e+00 2.39189307e-01 1.76080159e+01 -3.47687910e+00 -1.04812780e+00 -3.47687910e+00 1.35201712e+01
1.38393278e+01 2.51120828e+00 -1.88737591e-01 2.51120828e+00 4.58989040e+00 4.85388072e+00 -1.88737591e-01 4.85388072e+00 -8.77464493e-01
-1.13555622e+00 -4.56314611e+00 8.44128966e-01 -4.56314611e+00 -2.15396450e+01 1.09549567e+00 8.44128966e-01 1.09549567e+00 -5.56339943e+00
6.02394748e+00 -2.23295609e+00 1.45072639e-01 -2.23295609e+00 1.11583152e+01 9.63302061e-01 1.45072639e-01 9.63302061e-01 5.86612773e+00
4.32332832e+00 -4.53713965e+00 1.29774761e+00 -4.53713965e+00 -1.56001635e+01 -1.22230159e+00 1.29774761e+00 -1.22230159e+00 -7.14675933e-01
4.84490220e+00 -1.97561518e+00 -1.89590584e+00 -1.97561518e+00 6.86416141e+00 -2.46234804e-01 -1.89590584e+00 -2.46234804e-01 -1.21247605e+00
2.92248738e+00 -1.84174346e+00 1.21298052e+00 -1.84174346e+00 -4.91436911e+00 -4.70711954e-01 1.21298052e+00 -4.70711954e-01 -3.07599075e+01
1.55986416e+00 -1.48493242e+00 1.77820072e-01 -1.48493242e+00 -6.07058066e+00 -9.80230095e-03 1.77820072e-01 -9.80230095e-03 -3.38553724e+01
6.59219633e+00 -1.45539059e+00 3.45170641e-01 -1.45539059e+00 2.03582574e+00 6.46312020e-01 3.45170641e-01 6.46312020e-01 -1.99800770e+01
3.81551998e+00 -4.26714666e-01 -1.53469104e-01 -4.26714666e-01 -2.33159065e+00 7.42749974e-01 -1.53469104e-01 7.42749974e-01 -2.75824723e+01
7.30565631e+00 -1.93092389e+00 4.40102920e-01 -1.93092389e+00 1.22350329e+00 -2.88992716e+00 4.40102920e-01 -2.88992716e+00 -1.93946135e+01
9.92616653e+00 -2.37735306e+00 -5.37404903e-01 -2.37735306e+00 6.96575322e+00 1.71741868e+00 -5.37404903e-01 1.71741868e+00 -1.02191324e+01
1.65450921e+01 7.98503682e-01 1.65191033e+00 7.98503682e-01 1.92989644e+01 -3.48687068e+00 1.65191033e+00 -3.48687068e+00 1.10124688e+01
6.48575139e+00 -1.35599819e+00 -1.43588075e+00 -1.35599819e+00 4.83397055e+00 3.81922235e+00 -1.43588075e+00 3.81922235e+00 -1.53822861e+01
7.96969062e+00 5.01703934e+00 2.59180568e-01 5.01703934e+00 1.06482227e+01 -1.50451734e+00 2.59180568e-01 -1.50451734e+00 6.45152432e+00
7.84386647e+00 2.78077327e+00 1.63824051e+00 2.78077327e+00 1.54313958e+00 1.46805191e+00 1.63824051e+00 1.46805191e+00 1.99976975e+00
2.52299450e-01 5.88403732e-01 -1.98616296e-01 5.88403732e-01 2.57129811e+00 1.83245873e+00 -1.98616296e-01 1.83245873e+00 1.88534015e+00
2.35094517e+00 7.05048513e-01 -7.65543708e-01 7.05048513e-01 9.65795916e-01 -6.03469189e-01 -7.65543708e-01 -6.03469189e-01 8.87889981e-02
2.63853592e+00 4.82156903e-01 -1.14421183e+00 4.82156903e-01 -7.14682508e+00 4.76353958e-01 -1.14421183e+00 4.76353958e-01 -1.40744057e+00
1.08498849e+00 -5.99184414e-01 3.05878858e-01 -5.99184414e-01 -5.76943648e+00 -1.34973753e-01 3.05878858e-01 -1.34973753e-01 3.62112264e-01
-8.22826746e+00 -2.16753271e+00 8.24312000e-02 -2.16753271e+00 -1.58615949e+01 -8.76494437e-01 8.24312000e-02 -8.76494437e-01 -5.50849552e+01
-6.93726921e+00 -4.93027121e-01 1.26980448e+00 -4.93027121e-01 -1.73592453e+01 -1.78080518e-02 1.26980448e+00 -1.78080518e-02 -5.50115852e+01
-3.37280971e+00 -9.10203516e-01 1.05314493e-01 -9.10203516e-01 -9.23634976e+00 -1.07607525e+00 1.05314493e-01 -1.07607525e+00 -4.30040860e+01
-6.93858910e+00 -1.60281116e+00 -2.60286823e-01 -1.60281116e+00 -1.32758026e+01 8.02229553e-01 -2.60286823e-01 8.02229553e-01 -5.13489876e+01
-1.24892610e+01 -3.68968141e+00 4.83875799e+00 -3.68968141e+00 -1.63818207e+01 -5.30231476e+00 4.83875799e+00 -5.30231476e+00 -5.85895538e+01
-8.64113116e+00 -3.28603256e+00 6.22118503e-01 -3.28603256e+00 -6.83471975e+00 8.29367638e-01 6.22118503e-01 8.29367638e-01 -4.61730106e+01
6.34670448e+00 1.59431458e-01 5.65735689e+00 1.59431458e-01 1.17009838e+01 -2.43651205e+00 5.65735689e+00 -2.43651205e+00 -9.82709503e+00
-2.07900588e+01 -6.34829267e+00 2.93308008e+00 -6.34829267e+00 -1.52625276e+01 1.07123454e+01 2.93308008e+00 1.07123454e+01 -6.40553869e+01
-4.12786865e+00 -4.29647255e+00 1.53571639e+00 -4.29647255e+00 1.35758235e+01 -3.11802268e-01 1.53571639e+00 -3.11802268e-01 5.98876500e+00
-1.20533099e+01 -7.54768009e+00 7.54509628e-01 -7.54768009e+00 -6.33935332e+00 4.90365171e+00 7.54509628e-01 4.90365171e+00 -5.30752206e+00
-8.67917776e+00 1.13382339e-02 1.21871763e+00 1.13382339e-02 3.48909533e+00 1.25706401e+00 1.21871763e+00 1.25706401e+00 6.66893035e+00
-3.25075547e+00 1.48300807e-01 6.77607884e-01 1.48300807e-01 1.66568912e+00 -2.23978591e+00 6.77607884e-01 -2.23978591e+00 2.18804942e+00
-2.08207369e+00 2.39936376e+00 -7.07084179e-01 2.39936376e+00 -2.65254068e+00 4.98717755e-01 -7.07084179e-01 4.98717755e-01 -3.18023801e-01
-3.19327688e+00 4.97984320e-01 2.07056277e-01 4.97984320e-01 -5.24211839e-01 1.06220600e+00 2.07056277e-01 1.06220600e+00 6.23083174e-01
-2.42748797e+00 -1.71998428e-03 9.15147201e-03 -1.71998428e-03 1.16851258e+00 -6.79050118e-01 9.15147201e-03 -6.79050118e-01 -3.11549120e+01
-1.37628353e+00 -2.34756477e-02 6.51042223e-01 -2.34756477e-02 1.08106953e+00 -4.98428531e-01 6.51042223e-01 -4.98428531e-01 -3.01930008e+01
6.85469389e-01 -5.46730229e-01 3.08545447e-01 -5.46730229e-01 3.61373277e+00 -5.34928497e-03 3.08545447e-01 -5.34928497e-03 -2.51429368e+01
-2.87086239e+00 -6.96975878e-02 2.44782433e-01 -6.96975878e-02 1.36080930e+00 -6.06462231e-02 2.44782433e-01 -6.06462231e-02 -3.12954986e+01
3.31630594e+00 -8.56260560e-01 5.99214278e-01 -8.56260560e-01 3.56647581e+00 1.95829825e-01 5.99214278e-01 1.95829825e-01 -2.25534811e+01
3.04361793e+00 -7.43947759e-01 -2.27604159e-01 -7.43947759e-01 4.31521603e+00 -1.06743134e+00 -2.27604159e-01 -1.06743134e+00 -2.17855268e+01
4.21959180e+00 1.45105728e-02 5.81056100e-02 1.45105728e-02 3.29777725e+00 -1.75178047e-01 5.81056100e-02 -1.75178047e-01 -2.18584765e+01
5.09911374e+00 -5.09104711e-01 -4.67107937e-01 -5.09104711e-01 4.56741241e+00 -3.90534313e-01 -4.67107937e-01 -3.90534313e-01 -1.94558227e+01
3.91382515e+00 -3.41382682e-01 5.33679783e-01 -3.41382682e-01 1.44075507e+00 -4.38826751e-01 5.33679783e-01 -4.38826751e-01 -2.41436107e+01
2.35689408e+00 -5.37142916e-01 -8.33960623e-02 -5.37142916e-01 2.20269707e+00 8.44179370e-01 -8.33960623e-02 8.44179370e-01 -2.49598492e+01
7.12855345e+00 -5.56966417e-01 6.73310518e-01 -5.56966417e-01 5.74835768e+00 3.11583742e-01 6.73310518e-01 3.11583742e-01 -1.60140846e+01
3.31583932e+00 -2.93181002e-01 4.69957302e-01 -2.93181002e-01 2.28984534e+00 5.75363753e-01 4.69957302e-01 5.75363753e-01 -2.39145329e+01
8.38136077e+00 6.33397236e-01 4.06676665e-01 6.33397236e-01 8.93301487e+00 1.11521792e+00 4.06676665e-01 1.11521792e+00 -1.12925014e+01
6.28347301e+00 3.27124432e-01 -4.64566167e-01 3.27124432e-01 5.33788252e+00 2.98391465e-01 -4.64566167e-01 2.98391465e-01 -1.74069571e+01
3.28251410e+00 -8.16530382e-01 6.70727080e-01 -8.16530382e-01 5.84532726e+00 -1.10987119e+00 6.70727080e-01 -1.10987119e+00 -1.98448716e+01
-1.45659769e+00 -7.45676056e-01 1.97484913e+00 -7.45676056e-01 2.55360776e+00 -3.74482527e-01 1.97484913e+00 -3.74482527e-01 -2.82042453e+01
-1.13729990e+01 -8.05200977e-01 1.90173115e+00 -8.05200977e-01 -7.53847216e+00 -4.71366143e-01 1.90173115e+00 -4.71366143e-01 -5.12150341e+01
-4.23089306e+01 -4.92024631e+00 1.22868400e+01 -4.92024631e+00 -4.14458278e+01 6.52236122e-01 1.22868400e+01 6.52236122e-01 -1.10792854e+02
-2.99941711e+01 -3.62966858e-01 1.71785444e+00 -3.62966858e-01 -2.57758026e+01 2.68500541e+00 1.71785444e+00 2.68500541e+00 -8.99215183e+01
-3.13667979e+01 -6.02655053e-01 3.52897823e+00 -6.02655053e-01 -2.59843910e+01 5.18261528e+00 3.52897823e+00 5.18261528e+00 -9.03816032e+01
-3.42639942e+01 -2.72640538e+00 1.81086296e+00 -2.72640538e+00 -2.61164246e+01 5.82347804e+00 1.81086296e+00 5.82347804e+00 -9.30915031e+01
9.54151195e+00 4.92087938e-02 1.76689476e+00 4.92087938e-02 1.18226364e+01 -1.03463418e+00 1.76689476e+00 -1.03463418e+00 -6.58614063e+00
6.87459767e+00 -3.18674183e-01 1.56805927e+00 -3.18674183e-01 8.39138103e+00 -1.98894629e-01 1.56805927e+00 -1.98894629e-01 -1.32413625e+01
-2.37088890e+01 -1.49538641e+00 6.36553256e+00 -1.49538641e+00 -1.87073238e+01 1.00652094e+01 6.36553256e+00 1.00652094e+01 -6.78762665e+01
2.44446921e+00 -2.94220793e+00 -1.58444071e+00 -2.94220793e+00 6.72114277e+00 5.67069185e+00 -1.58444071e+00 5.67069185e+00 1.73726516e+01
1.01052718e+01 9.72296577e-03 2.01979171e+00 9.72296577e-03 8.34294367e+00 9.11665486e-01 2.01979171e+00 9.11665486e-01 -8.85374884e+00
1.02100022e+01 7.42664874e-01 9.99983819e-01 7.42664874e-01 9.88627061e+00 9.03236791e-01 9.99983819e-01 9.03236791e-01 -8.19947028e+00
2.20843260e+01 -2.46835064e+00 1.21681147e+00 -2.46835064e+00 2.05120858e+01 2.26888648e-01 1.21681147e+00 2.26888648e-01 1.62234128e+01
2.34692879e+01 -1.32009866e+00 -5.73893507e+00 -1.32009866e+00 2.46915325e+01 -1.07406282e+00 -5.73893507e+00 -1.07406282e+00 1.87819700e+01
9.97670062e+00 -4.94923389e-01 3.77751373e-01 -4.94923389e-01 7.69528764e+00 4.00837715e-01 3.77751373e-01 4.00837715e-01 -1.03921575e+01
9.84576619e+00 -7.84180939e-01 3.48079264e-01 -7.84180939e-01 7.57652095e+00 6.03837781e-01 3.48079264e-01 6.03837781e-01 -1.08813269e+01
-1.48570299e-01 -2.48826072e+00 6.56667702e-01 -2.48826072e+00 -3.73337865e-01 2.35612509e+00 6.56667702e-01 2.35612509e+00 -2.86371360e+01
-1.10487509e+01 -3.80626097e-01 -1.67790364e+00 -3.80626097e-01 -1.07899592e+01 4.93068954e+00 -1.67790364e+00 4.93068954e+00 -5.40365138e+01
9.27174330e-01 -4.31728540e-01 -4.54162654e-01 -4.31728540e-01 1.99002719e+00 -2.66402647e-01 -4.54162654e-01 -2.66402647e-01 -2.69779358e+01
-5.40647268e-01 -5.80536947e-02 -2.80963659e-01 -5.80536947e-02 -1.57672286e+00 1.03093129e+00 -2.80963659e-01 1.03093129e+00 -3.21611128e+01
-3.78523684e+00 3.37318540e-01 1.06244313e+00 3.37318540e-01 1.35924697e+00 -1.13590929e+00 1.06244313e+00 -1.13590929e+00 -3.22759085e+01
-6.16709518e+01 -1.26282197e+00 -2.10487014e+00 -1.26282197e+00 -5.66044769e+01 4.64347875e+00 -2.10487014e+00 4.64347875e+00 -1.58619011e+02
-3.63094211e-02 -5.89330435e-01 -1.34158753e-01 -5.89330435e-01 1.50039978e-01 7.75294006e-02 -1.34158753e-01 7.75294006e-02 -5.36464214e-01
-3.05485126e-01 -2.29626372e-01 -1.67029023e-01 -2.29626372e-01 -3.81125957e-02 -1.13015532e-01 -1.67029023e-01 -1.13015532e-01 -7.91281154e-02
5.02794176e-01 -1.89079501e-01 4.24214350e-02 -1.89079501e-01 5.07290885e-02 4.21053715e-01 4.24214350e-02 4.21053715e-01 -9.76244807e-01
2.73739392e-01 -5.48868507e-01 -3.81603241e-02 -5.48868507e-01 -2.59381585e-01 -4.15571570e-01 -3.81603241e-02 -4.15571570e-01 -4.37164336e-01
-1.94928169e-01 1.64095741e-02 6.76525056e-01 1.64095741e-02 4.31828499e-01 -1.54846560e-01 6.76525056e-01 -1.54846560e-01 -2.97634096e+01
2.60995422e-01 3.16971868e-01 4.21513923e-01 3.16971868e-01 1.45759553e-01 3.69300976e-01 4.21513923e-01 3.69300976e-01 -2.95292420e+01
2.89076950e+00 -7.16323860e-01 7.38327300e-01 -7.16323860e-01 3.50233278e+00 5.02121705e-01 7.38327300e-01 5.02121705e-01 -2.29602939e+01
-1.80048048e-01 1.87734185e-01 8.03238258e-01 1.87734185e-01 1.35165524e+00 -4.38239388e-01 8.03238258e-01 -4.38239388e-01 -2.86849756e+01
4.21601564e+00 -1.05979052e+00 4.01591986e-01 -1.05979052e+00 2.59463853e+00 1.37227444e-01 4.01591986e-01 1.37227444e-01 -2.25576102e+01
5.07115268e+00 -1.00904215e+00 1.14225263e+00 -1.00904215e+00 4.41285401e+00 9.23942368e-01 1.14225263e+00 9.23942368e-01 -1.93610930e+01
6.43201625e+00 1.55531213e-01 8.91927816e-02 1.55531213e-01 4.00398010e+00 6.90522950e-01 8.91927816e-02 6.90522950e-01 -1.85332321e+01
8.95401376e+00 -2.78884880e-01 3.10862996e-03 -2.78884880e-01 6.58789912e+00 -3.77091467e-02 3.10862996e-03 -3.77091467e-02 -1.30422781e+01
8.81677550e+00 2.74914443e-01 -2.16257384e-01 2.74914443e-01 5.76881018e+00 2.36027829e-01 -2.16257384e-01 2.36027829e-01 -1.39928041e+01
2.34262800e+00 2.69743281e-01 -8.03076621e-01 2.69743281e-01 -1.84678912e-01 8.83530416e-02 -8.03076621e-01 8.83530416e-02 -2.74486939e+01
1.19811282e+01 -5.42982146e-02 1.46697823e-01 -5.42982146e-02 9.51901388e+00 -2.48974115e-01 1.46697823e-01 -2.48974115e-01 -6.58692539e+00
6.02525842e+00 4.64401990e-02 -3.40142342e-01 4.64401990e-02 3.57183301e+00 3.90210487e-02 -3.40142342e-01 3.90210487e-02 -1.94852813e+01
1.65485072e+01 -1.56058490e-01 1.31505422e-01 -1.56058490e-01 1.51473269e+01 -5.26584268e-01 1.31505422e-01 -5.26584268e-01 4.48608398e+00
1.46795863e+01 -1.62035480e-01 -4.77574579e-01 -1.62035480e-01 1.28667660e+01 -2.01065091e-01 -4.77574579e-01 -2.01065091e-01 -1.34830475e-01
1.96782303e+00 -1.32442125e+00 2.22774643e+00 -1.32442125e+00 5.07312536e+00 1.97561856e-01 2.22774643e+00 1.97561856e-01 -2.13159136e+01
1.19907522e+00 -1.25001243e+00 1.76730102e+00 -1.25001243e+00 5.56243108e+00 -3.62957869e-01 1.76730102e+00 -3.62957869e-01 -2.20426505e+01
8.16768440e+00 9.93059539e-01 3.22013295e+00 9.93059539e-01 6.64695482e+00 2.01511928e+00 3.22013295e+00 2.01511928e+00 -1.79301744e+01
-5.42916603e+01 -3.34625435e+00 -1.17557212e+01 -3.34625435e+00 -5.45699490e+01 -1.53882331e+00 -1.17557212e+01 -1.53882331e+00 -1.37889517e+02
-3.84183946e+01 -6.02545612e-01 -3.85681182e+00 -6.02545612e-01 -3.46744633e+01 1.87573519e+00 -3.85681182e+00 1.87573519e+00 -1.08548510e+02
-2.40028896e+01 -6.76421724e-01 -1.28869772e-01 -6.76421724e-01 -2.14089513e+01 1.71611030e+00 -1.28869772e-01 1.71611030e+00 -7.90280609e+01
-1.40408704e+01 -6.39856726e-01 -5.61671317e-01 -6.39856726e-01 -8.86878550e+00 3.71870339e-01 -5.61671317e-01 3.71870339e-01 -5.45189342e+01
-2.30773255e+00 -4.35135108e-01 4.17321147e+00 -4.35135108e-01 1.75922390e+00 8.68153421e-01 4.17321147e+00 8.68153421e-01 -2.87897504e+01
9.77800441e+00 4.09617722e-01 1.95253163e+00 4.09617722e-01 1.25771446e+01 -4.91703623e-01 1.95253163e+00 -4.91703623e-01 -5.27622771e+00
-7.72670746e+01 -8.85408747e+00 1.16549434e+01 -8.85408747e+00 -7.02233934e+01 -1.35768062e+01 1.16549434e+01 -1.35768062e+01 -1.71744806e+02
1.53815149e+01 -1.19672416e-01 -6.52576072e-01 -1.19672416e-01 1.66413198e+01 8.79642086e-01 -6.52576072e-01 8.79642086e-01 4.30607966e+00
1.01842158e+01 -6.32965494e-01 1.89344185e+00 -6.32965494e-01 1.20028538e+01 4.65656854e-01 1.89344185e+00 4.65656854e-01 -5.16723818e+00
-3.38765598e+01 7.02987021e-01 5.25163186e+00 7.02987021e-01 -3.09787145e+01 1.51755890e+01 5.25163186e+00 1.51755890e+01 -8.76341224e+01
1.64749326e+01 2.26341520e-01 1.34456212e+00 2.26341520e-01 1.77929437e+01 -3.46652914e-01 1.34456212e+00 -3.46652914e-01 7.18472457e+00
1.16959474e+01 2.41317209e-01 2.55526863e-02 2.41317209e-01 1.26567523e+01 6.24252731e-01 2.55526863e-02 6.24252731e-01 -3.50063539e+00
1.79666281e+01 -1.35958521e+00 1.83683992e+00 -1.35958521e+00 2.03769282e+01 1.41779331e+00 1.83683992e+00 1.41779331e+00 9.17212159e+00
-1.10798922e+01 8.01924896e+00 -6.79675579e+00 8.01924896e+00 -1.19035006e+01 2.51115131e+01 -6.79675579e+00 2.51115131e+01 1.39003181e+01
-5.77835251e+01 5.92705178e+00 -2.16892652e+01 5.92705178e+00 -5.96031581e+01 -3.02152995e+00 -2.16892652e+01 -3.02152995e+00 -1.47474445e+02
5.42747092e+00 7.34315325e-01 6.80213232e-01 7.34315325e-01 5.86983567e+00 1.88597037e+00 6.80213232e-01 1.88597037e+00 -1.74842205e+01
-1.31489372e+00 -2.22195312e-01 1.03638917e-01 -2.22195312e-01 1.67047691e+00 1.16221325e+00 1.03638917e-01 1.16221325e+00 -2.94695005e+01
</DataArray>
<DataArray type="Float32" Name="Logarithmic_strain_components" NumberOfComponents="9" format="ascii">
1.91097707e-02 -9.86212399e-07 4.27774467e-07 -9.86212399e-07 3.87897827e-02 -1.09077810e-05 4.27774467e-07 -1.09077810e-05 -4.90125120e-02
2.04402981e-02 1.78551616e-03 1.09977191e-06 1.78551616e-03 4.04214896e-02 1.30807195e-04 1.09977191e-06 1.30807195e-04 -5.16706184e-02
2.12475285e-02 5.23015234e-03 -3.25763429e-03 5.23015234e-03 3.57581042e-02 -1.28905653e-03 -3.25763429e-03 -1.28905653e-03 -4.83923145e-02
2.04647044e-02 1.99347280e-03 -1.83537020e-03 1.99347280e-03 3.44547275e-02 1.75121750e-06 -1.83537020e-03 1.75121750e-06 -4.65642102e-02
1.89194391e-02 3.24895882e-06 2.90726137e-03 3.24895882e-06 3.66398469e-02 -2.24973983e-03 2.90726137e-03 -2.24973983e-03 -4.69885599e-02
2.04375093e-02 3.60111138e-04 2.74383248e-03 3.60111138e-04 3.75150703e-02 -3.24960187e-03 2.74383248e-03 -3.24960187e-03 -4.91631562e-02
2.08879795e-02 2.42941196e-03 5.73670419e-04 2.42941196e-03 3.43355353e-02 -4.07361519e-03 5.73670419e-04 -4.07361519e-03 -4.68370556e-02
1.98692917e-02 5.65555863e-04 1.19031148e-03 5.65555863e-04 3.38081419e-02 -2.43280322e-03 1.19031148e-03 -2.43280322e-03 -4.55565564e-02
2.29473338e-02 6.24558452e-04 1.92003608e-06 6.24558452e-04 4.46337219e-02 -7.07178842e-04 1.92003608e-06 -7.07178842e-04 -5.75638246e-02
2.33050692e-02 7.57028384e-03 -4.94898704e-03 7.57028384e-03 3.92288277e-02 5.32171853e-05 -4.94898704e-03 5.32171853e-05 -5.34116896e-02
2.40314407e-02 1.36273936e-03 3.94076551e-03 1.36273936e-03 3.90772652e-02 -3.61358752e-03 3.94076551e-03 -3.61358752e-03 -5.36151314e-02
2.36194839e-02 3.46754317e-03 -4.19626993e-04 3.46754317e-03 3.69082661e-02 -6.43425051e-03 -4.19626993e-04 -6.43425051e-03 -5.15602226e-02
2.68645845e-02 2.12549942e-03 -2.04928074e-06 2.12549942e-03 4.92535140e-02 3.51062417e-03 -2.04928074e-06 3.51062417e-03 -6.51235245e-02
2.58521815e-02 5.29075804e-03 -8.06245115e-03 5.29075804e-03 4.34185052e-02 -1.28597164e-03 -8.06245115e-03 -1.28597164e-03 -5.95282698e-02
2.87987459e-02 -2.70234304e-03 3.00355954e-03 -2.70234304e-03 4.12987834e-02 -2.68416764e-03 3.00355954e-03 -2.68416764e-03 -5.97115755e-02
2.68889938e-02 -1.45541008e-03 2.26321717e-03 -1.45541008e-03 3.99589804e-02 -3.84003659e-03 2.26321717e-03 -3.84003659e-03 -5.70262759e-02
3.16907736e-02 -6.10494730e-03 1.00607758e-05 -6.10494730e-03 5.30858990e-02 2.91213475e-03 1.00607758e-05 2.91213475e-03 -7.27168918e-02
2.83970851e-02 -3.72327934e-03 -1.18267806e-02 -3.72327934e-03 4.81218826e-02 2.28930212e-03 -1.18267806e-02 2.28930212e-03 -6.60449676e-02
3.36323767e-02 -6.69657451e-03 3.56730010e-03 -6.69657451e-03 4.36420599e-02 -2.61688704e-03 3.56730010e-03 -2.61688704e-03 -6.59782067e-02
3.13369820e-02 -7.32470787e-03 2.51156732e-03 -7.32470787e-03 4.00486081e-02 7.61155592e-04 2.51156732e-03 7.61155592e-04 -6.05046991e-02
3.59352566e-02 -1.00889895e-02 2.27256241e-05 -1.00889895e-02 5.80895320e-02 2.44036829e-03 2.27256241e-05 2.44036829e-03 -8.07346702e-02
3.04323332e-02 -9.80519678e-03 -1.40797556e-02 -9.80519678e-03 5.13078878e-02 5.62656473e-03 -1.40797556e-02 5.62656473e-03 -7.00457022e-02
3.57296756e-02 -6.86503248e-03 6.83881179e-03 -6.86503248e-03 4.70600482e-02 -1.06630358e-03 6.83881179e-03 -1.06630358e-03 -7.03957882e-02
3.49439508e-02 -9.61158972e-03 6.39505492e-03 -9.61158972e-03 4.21327646e-02 4.46424872e-04 6.39505492e-03 4.46424872e-04 -6.51915274e-02
3.33062820e-02 -2.43729241e-02 -3.20560066e-05 -2.43729241e-02 6.96586370e-02 -3.81249283e-03 -3.20560066e-05 -3.81249283e-03 -8.98527801e-02
2.86780465e-02 -1.54899159e-02 -1.72855267e-02 -1.54899159e-02 6.20173272e-02 1.46989087e-02 -1.72855267e-02 1.46989087e-02 -7.91396052e-02
3.21551366e-02 -5.79766603e-03 4.37779338e-04 -5.79766603e-03 5.74661624e-02 -4.18794877e-03 4.37779338e-04 -4.18794877e-03 -7.73194320e-02
3.34059168e-02 -9.48623870e-03 6.93347305e-04 -9.48623870e-03 5.03616501e-02 4.39644908e-03 6.93347305e-04 4.39644908e-03 -7.16560874e-02
2.33099125e-02 6.68443431e-03 -2.14435160e-03 6.68443431e-03 2.41728509e-02 -2.32977251e-03 -2.14435160e-03 -2.32977251e-03 -4.03963840e-02
2.30629956e-02 1.50044053e-03 -2.71907402e-03 1.50044053e-03 2.39824709e-02 2.20764377e-06 -2.71907402e-03 2.20764377e-06 -3.99595797e-02
2.14647835e-02 4.52884205e-03 3.76537359e-03 4.52884205e-03 2.62418189e-02 -4.12847084e-03 3.76537359e-03 -4.12847084e-03 -4.05716766e-02
2.05559977e-02 2.06109922e-03 4.51111485e-03 2.06109922e-03 2.53746947e-02 -7.75673150e-04 4.51111485e-03 -7.75673150e-04 -3.88764860e-02
2.19858284e-02 1.04244663e-02 -5.41599153e-03 1.04244663e-02 2.41132025e-02 -4.05714673e-03 -5.41599153e-03 -4.05714673e-03 -3.91988344e-02
2.17231715e-02 5.64128166e-03 6.38539688e-03 5.64128166e-03 2.70078594e-02 -1.45825486e-03 6.38539688e-03 -1.45825486e-03 -4.14818497e-02
1.76889217e-02 5.92054165e-03 -6.87341951e-03 5.92054165e-03 2.34209946e-02 -2.93342385e-03 -6.87341951e-03 -2.93342385e-03 -3.42719043e-02
2.10674482e-02 2.47111644e-04 1.63849663e-02 2.47111644e-04 2.81799172e-02 1.75977379e-03 1.63849663e-02 1.75977379e-03 -4.16283182e-02
1.58494008e-02 -6.29762704e-03 -1.52865727e-02 -6.29762704e-03 2.56825716e-02 1.93051429e-03 -1.52865727e-02 1.93051429e-03 -3.45201241e-02
2.13852224e-02 -1.15374633e-02 1.99720448e-02 -1.15374633e-02 3.12387518e-02 6.46273315e-03 1.99720448e-02 6.46273315e-03 -4.41757540e-02
1.68634150e-02 -1.28299270e-02 -1.52864817e-02 -1.28299270e-02 2.25609880e-02 8.60405876e-03 -1.52864817e-02 8.60405876e-03 -3.20316777e-02
2.25195955e-02 -1.61331235e-02 2.48493518e-02 -1.61331235e-02 2.97552942e-02 1.78364820e-02 2.48493518e-02 1.78364820e-02 -4.30938499e-02
1.83536480e-02 -1.63044133e-02 -1.54466014e-02 -1.63044133e-02 2.35496773e-02 1.50404065e-02 -1.54466014e-02 1.50404065e-02 -3.44145354e-02
2.38251854e-02 -2.25803660e-02 2.47189142e-02 -2.25803660e-02 3.46041828e-02 2.42881527e-02 2.47189142e-02 2.42881527e-02 -4.89568797e-02
2.39896369e-02 3.19466501e-03 4.50637090e-04 3.19466501e-03 1.30154809e-02 -2.93034210e-03 4.50637090e-04 -2.93034210e-03 -3.14785745e-02
2.43909284e-02 1.78477861e-03 1.26962765e-03 1.78477861e-03 1.41477636e-02 -1.69199120e-06 1.26962765e-03 -1.69199120e-06 -3.27100512e-02
2.21114554e-02 2.31844308e-03 6.30397926e-03 2.31844308e-03 1.54044946e-02 -1.18369322e-03 6.30397926e-03 -1.18369322e-03 -3.18961912e-02
2.10418385e-02 9.52830771e-04 6.35631575e-03 9.52830771e-04 1.60376206e-02 7.83830270e-04 6.35631575e-03 7.83830270e-04 -3.13032935e-02
1.81283499e-02 4.52872438e-03 6.60002916e-04 4.52872438e-03 9.01998137e-03 -4.87486471e-03 6.60002916e-04 -4.87486471e-03 -2.25726981e-02
1.88293477e-02 2.74959413e-03 1.02281647e-02 2.74959413e-03 1.17954909e-02 3.10709502e-03 1.02281647e-02 3.10709502e-03 -2.57832508e-02
6.89923242e-03 2.27840920e-03 -2.33444333e-03 2.27840920e-03 5.02489191e-03 -3.10275232e-03 -2.33444333e-03 -3.10275232e-03 -8.72455747e-03
6.03516491e-03 -1.89715124e-03 9.81933560e-03 -1.89715124e-03 3.88279873e-03 7.68054510e-04 9.81933560e-03 7.68054510e-04 -5.97804156e-03
2.16623411e-03 -1.07024186e-02 -7.61733732e-03 -1.07024186e-02 1.50301059e-03 -3.11261524e-03 -7.61733732e-03 -3.11261524e-03 -4.74991471e-04
2.97966142e-04 -1.68489285e-02 1.73813732e-02 -1.68489285e-02 6.15698363e-03 4.56353095e-03 1.73813732e-02 4.56353095e-03 -3.12523761e-03
1.32874467e-03 -4.06458105e-03 -8.10619288e-03 -4.06458105e-03 -1.39089037e-03 2.59182571e-04 -8.10619288e-03 2.59182571e-04 3.14265684e-03
4.53669054e-04 -6.84141056e-03 1.67692062e-02 -6.84141056e-03 2.83460833e-03 -1.30912010e-03 1.67692062e-02 -1.30912010e-03 1.34967035e-04
3.64771864e-03 -3.43830721e-03 -3.21098114e-03 -3.43830721e-03 -4.90616378e-03 2.25224847e-03 -3.21098114e-03 2.25224847e-03 3.80922965e-03
2.56148359e-03 -6.33305567e-03 1.40708622e-02 -6.33305567e-03 -3.07037495e-04 -2.08216457e-03 1.40708622e-02 -2.08216457e-03 7.03769620e-04
2.32751770e-02 -1.54692491e-03 1.56046115e-03 -1.54692491e-03 8.66141450e-03 -3.47373344e-03 1.56046115e-03 -3.47373344e-03 -2.71386295e-02
2.45281989e-02 -1.59062492e-03 1.90941425e-03 -1.59062492e-03 1.06418426e-02 1.82755321e-06 1.90941425e-03 1.82755321e-06 -2.99392892e-02
2.06366095e-02 -2.79487466e-03 6.16132506e-03 -2.79487466e-03 9.65892465e-03 1.74165223e-04 6.16132506e-03 1.74165223e-04 -2.56066930e-02
2.19629239e-02 -1.94226307e-03 2.60537598e-03 -1.94226307e-03 1.11220651e-02 1.84599895e-03 2.60537598e-03 1.84599895e-03 -2.80970540e-02
1.58592609e-02 -1.84052635e-03 -1.30167964e-03 -1.84052635e-03 4.84910450e-03 -4.90589347e-03 -1.30167964e-03 -4.90589347e-03 -1.73353336e-02
1.53898454e-02 -4.34771559e-03 3.15032279e-03 -4.34771559e-03 5.04041192e-03 3.66275091e-03 3.15032279e-03 3.66275091e-03 -1.68696477e-02
4.40555018e-03 -2.45879777e-03 -1.29549787e-03 -2.45879777e-03 6.64693973e-04 -4.12514829e-03 -1.29549787e-03 -4.12514829e-03 -3.59089443e-03
7.23204579e-03 -2.46601372e-03 -1.90488563e-03 -2.46601372e-03 1.16784278e-03 3.29325825e-03 -1.90488563e-03 3.29325825e-03 -6.37491952e-03
-2.19299599e-04 -1.15129068e-03 -7.02311954e-05 -1.15129068e-03 6.94847755e-05 -2.88561627e-04 -7.02311954e-05 -2.88561627e-04 6.34942468e-04
7.16538464e-04 7.02095356e-04 -5.95670906e-04 7.02095356e-04 8.73072052e-04 2.17644497e-03 -5.95670906e-04 2.17644497e-03 -1.10854579e-03
2.85506104e-03 -7.41031668e-03 8.63743735e-05 -7.41031668e-03 -4.90823788e-03 9.82838901e-05 8.63743735e-05 9.82838901e-05 2.58598651e-03
-2.82761532e-04 -4.45173770e-03 2.85465327e-05 -4.45173770e-03 1.07802889e-03 6.21850171e-05 2.85465327e-05 6.21850171e-05 -3.25223201e-04
2.37883384e-03 -8.46147974e-03 -1.19357702e-03 -8.46147974e-03 -3.87846390e-03 -1.01303391e-04 -1.19357702e-03 -1.01303391e-04 2.05732112e-03
-1.07903625e-03 -4.44672958e-03 -2.06084169e-03 -4.44672958e-03 2.80105665e-03 -4.60099303e-05 -2.06084169e-03 -4.60099303e-05 -1.26295696e-03
2.20468501e-02 -4.69431977e-03 2.84248812e-03 -4.69431977e-03 1.18170471e-02 -2.16931908e-03 2.84248812e-03 -2.16931908e-03 -2.88701076e-02
2.46380456e-02 -4.00128495e-03 3.89400389e-04 -4.00128495e-03 1.30352466e-02 1.28770625e-06 3.89400389e-04 1.28770625e-06 -3.21672112e-02
1.94896557e-02 -4.04996887e-03 4.53921442e-04 -4.04996887e-03 1.17605975e-02 2.97971896e-03 4.53921442e-04 2.97971896e-03 -2.64000504e-02
2.17499360e-02 -1.54534934e-03 -1.29122258e-03 -1.54534934e-03 1.26513261e-02 4.24235198e-03 -1.29122258e-03 4.24235198e-03 -2.92466404e-02
1.47623026e-02 -3.59405862e-03 1.45679372e-03 -3.59405862e-03 7.16653903e-03 -6.99290202e-03 1.45679372e-03 -6.99290202e-03 -1.84830334e-02
1.35640464e-02 -7.42308499e-03 -4.18788437e-04 -7.42308499e-03 1.07620109e-02 4.65956934e-03 -4.18788437e-04 4.65956934e-03 -2.02330961e-02
3.53867322e-03 -2.12133801e-03 4.52848588e-04 -2.12133801e-03 1.44924495e-03 -2.77650397e-03 4.52848588e-04 -2.77650397e-03 -3.60983686e-03
8.64463146e-03 -2.59065701e-03 -9.71198984e-04 -2.59065701e-03 5.51992463e-03 1.10106494e-02 -9.71198984e-04 1.10106494e-02 -1.17473654e-02
6.11732739e-05 3.60151533e-04 -1.65944507e-05 3.60151533e-04 3.77395490e-05 -1.72871310e-04 -1.65944507e-05 -1.72871310e-04 1.44838730e-04
1.00293426e-03 7.84725644e-05 1.66653850e-04 7.84725644e-05 -4.13413598e-04 1.52012664e-03 1.66653850e-04 1.52012664e-03 -3.46076775e-04
-1.08544796e-05 2.19491176e-05 -1.01975891e-05 2.19491176e-05 4.11787094e-05 9.02314205e-05 -1.01975891e-05 9.02314205e-05 2.49268071e-05
4.09572637e-05 3.63309809e-05 -3.61116308e-05 3.63309809e-05 1.15758354e-05 -3.36401249e-05 -3.61116308e-05 -3.36401249e-05 -9.79997683e-06
8.70219446e-05 2.29727484e-05 -5.51898993e-05 2.29727484e-05 -1.47645009e-04 2.30324058e-05 -5.51898993e-05 2.30324058e-05 -9.63520779e-06
4.28982331e-05 -2.84179247e-05 1.44000836e-05 -2.84179247e-05 -1.21502704e-04 -6.61618342e-06 1.44000836e-05 -6.61618342e-06 2.57398272e-05
2.40520239e-02 -4.71234240e-03 -4.43097189e-04 -4.71234240e-03 1.51473787e-02 -3.23697214e-03 -4.43097189e-04 -3.23697214e-03 -3.40689905e-02
2.79429834e-02 -2.20942730e-03 2.56184512e-03 -2.20942730e-03 1.46662034e-02 5.40847395e-06 2.56184512e-03 5.40847395e-06 -3.69392820e-02
2.20321952e-02 -3.23489326e-03 -6.46875706e-05 -3.23489326e-03 1.48916862e-02 -1.87181772e-03 -6.46875706e-05 -1.87181772e-03 -3.18304198e-02
2.38944283e-02 -5.18023712e-03 -2.26752466e-03 -5.18023712e-03 1.60277146e-02 4.25138022e-03 -2.26752466e-03 4.25138022e-03 -3.46120596e-02
1.56724676e-02 -7.27273664e-03 7.70048122e-03 -7.27273664e-03 1.27440393e-02 -1.01248659e-02 7.70048122e-03 -1.01248659e-02 -2.48801261e-02
1.52454320e-02 -7.19797995e-03 4.65638749e-03 -7.19797995e-03 1.77820530e-02 2.76508089e-03 4.65638749e-03 2.76508089e-03 -2.84542381e-02
2.94204926e-03 -4.45445653e-03 6.17355760e-03 -4.45445653e-03 4.89488640e-03 -1.62295433e-03 6.17355760e-03 -1.62295433e-03 -6.38008560e-03
1.07255097e-02 -8.11458721e-03 7.53836656e-03 -8.11458721e-03 1.16376475e-02 1.72369170e-02 7.53836656e-03 1.72369170e-02 -1.96670061e-02
-9.80057754e-04 -6.69173278e-04 1.59314159e-05 -6.69173278e-04 5.53072547e-04 -3.94513059e-04 1.59314159e-05 -3.94513059e-04 6.04720466e-04
-4.33740628e-04 -3.95709969e-03 1.28223735e-04 -3.95709969e-03 2.86588329e-04 3.95484679e-03 1.28223735e-04 3.95484679e-03 3.19841645e-04
-1.89584749e-04 -2.54192564e-05 5.84306345e-05 -2.54192564e-05 6.40553681e-05 8.11823847e-05 5.84306345e-05 8.11823847e-05 1.38222542e-04
-6.94846361e-05 4.52823103e-06 2.87626196e-05 4.52823103e-06 3.10911698e-05 -8.23832573e-05 2.87626196e-05 -8.23832573e-05 4.31372215e-05
-2.94252750e-05 1.15391180e-04 -3.35870318e-05 1.15391180e-04 -4.35488982e-05 2.38422745e-05 -3.35870318e-05 2.38422745e-05 1.25244896e-05
-6.44845495e-05 2.41131629e-05 1.03469993e-05 2.41131629e-05 1.18218850e-07 5.08438679e-05 1.03469993e-05 5.08438679e-05 2.71783147e-05
2.12647235e-02 4.09163977e-06 1.57666567e-03 4.09163977e-06 3.21551021e-02 -5.01870480e-03 1.57666567e-03 -5.01870480e-03 -4.53724358e-02
2.30771350e-02 -8.72331133e-04 5.11003507e-03 -8.72331133e-04 3.07905199e-02 -2.69481841e-03 5.11003507e-03 -2.69481841e-03 -4.57439050e-02
2.09298641e-02 -4.86269256e-03 3.52323164e-03 -4.86269256e-03 3.09411357e-02 -2.52293996e-03 3.52323164e-03 -2.52293996e-03 -4.38369797e-02
1.96467554e-02 -7.40830263e-04 3.37429659e-03 -7.40830263e-04 3.19318557e-02 -1.48380749e-03 3.37429659e-03 -1.48380749e-03 -4.37715761e-02
2.70711225e-02 -5.29396732e-03 1.59782509e-03 -5.29396732e-03 2.80062575e-02 -1.02027402e-03 1.59782509e-03 -1.02027402e-03 -4.65452727e-02
2.58290055e-02 -6.68134820e-03 1.17531203e-03 -6.68134820e-03 2.94032551e-02 -7.32757323e-03 1.17531203e-03 -7.32757323e-03 -4.65102284e-02
3.15889395e-02 2.45599986e-04 4.77663918e-04 2.45599986e-04 2.67921267e-02 -5.42381222e-03 4.77663918e-04 -5.42381222e-03 -4.92826430e-02
3.07396969e-02 -4.00591346e-03 2.15099630e-03 -4.00591346e-03 3.05878427e-02 7.66161278e-04 2.15099630e-03 7.66161278e-04 -5.15061896e-02
3.52692492e-02 -2.91650539e-03 1.09930669e-02 -2.91650539e-03 2.66276980e-02 -5.12869298e-03 1.09930669e-02 -5.12869298e-03 -5.22447200e-02
3.26846589e-02 -3.05439641e-03 2.64801574e-03 -3.05439641e-03 3.47531463e-02 4.91572726e-03 2.64801574e-03 4.91572726e-03 -5.69368168e-02
3.34306126e-02 -3.18350288e-03 1.26493988e-02 -3.18350288e-03 2.97042588e-02 -2.01896085e-03 1.26493988e-02 -2.01896085e-03 -5.30462367e-02
3.50183558e-02 -1.22386152e-03 9.36766103e-03 -1.22386152e-03 3.45303712e-02 1.81127539e-03 9.36766103e-03 1.81127539e-03 -5.87003902e-02
3.07488861e-02 7.02251540e-03 1.06877135e-02 7.02251540e-03 3.27167707e-02 -1.97411925e-03 1.06877135e-02 -1.97411925e-03 -5.32526001e-02
3.48231606e-02 2.66746525e-03 1.77955226e-05 2.66746525e-03 3.45586147e-02 -3.49248177e-04 1.77955226e-05 -3.49248177e-04 -5.84079511e-02
1.91103898e-02 -5.39679249e-03 5.87574937e-03 -5.39679249e-03 2.87033939e-02 -6.08721341e-03 5.87574937e-03 -6.08721341e-03 -4.02659033e-02
1.65797316e-02 -3.22950020e-03 1.21490336e-02 -3.22950020e-03 2.93750698e-02 -4.80230269e-03 1.21490336e-02 -4.80230269e-03 -3.88361868e-02
2.46878764e-02 -3.52049718e-03 1.33984565e-02 -3.52049718e-03 3.16477554e-02 -1.96420195e-03 1.33984565e-02 -1.96420195e-03 -4.84589615e-02
3.32727056e-02 -8.21866102e-03 2.97273139e-02 -8.21866102e-03 3.66729192e-02 -9.92497290e-04 2.97273139e-02 -9.92497290e-04 -6.10300586e-02
3.61767923e-02 -7.17165298e-04 9.43023921e-03 -7.17165298e-04 4.43130471e-02 1.10051808e-02 9.43023921e-03 1.10051808e-02 -7.01616257e-02
3.71192796e-02 -6.55694268e-04 1.68444957e-02 -6.55694268e-04 4.47003515e-02 2.12609214e-02 1.68444957e-02 2.12609214e-02 -7.10819960e-02
3.65136079e-02 -2.84355832e-03 4.34603472e-03 -2.84355832e-03 4.65720855e-02 1.77262619e-02 4.34603472e-03 1.77262619e-02 -7.21272454e-02
1.51077854e-02 -4.66777899e-04 1.56566063e-02 -4.66777899e-04 2.24850595e-02 -8.42669629e-04 1.56566063e-02 -8.42669629e-04 -3.11904438e-02
1.47827044e-02 -9.38771482e-04 1.00947976e-02 -9.38771482e-04 2.20150207e-02 -4.09629638e-03 1.00947976e-02 -4.09629638e-03 -3.08277127e-02
1.62354344e-02 -4.66145482e-03 2.07151837e-02 -4.66145482e-03 2.51769361e-02 2.22038029e-02 2.07151837e-02 2.22038029e-02 -3.55796600e-02
-7.77277979e-03 -1.79830445e-02 2.44183270e-02 -1.79830445e-02 5.35004580e-03 2.49197092e-02 2.44183270e-02 2.49197092e-02 9.10162088e-03
1.59487315e-02 -5.35725907e-04 9.92197290e-03 -5.35725907e-04 1.36620367e-02 5.91637957e-03 9.92197290e-03 5.91637957e-03 -2.45384211e-02
1.50317382e-02 2.06656370e-03 7.01380728e-03 2.06656370e-03 1.45305858e-02 5.38969587e-03 7.01380728e-03 5.38969587e-03 -2.46992395e-02
1.28018251e-02 -1.08579818e-02 1.05256996e-02 -1.08579818e-02 1.04928162e-02 1.25934577e-02 1.05256996e-02 1.25934577e-02 -1.86096294e-02
2.72570162e-03 -1.32503029e-03 -1.23685660e-02 -1.32503029e-03 6.28511181e-03 1.13110412e-02 -1.23685660e-02 1.13110412e-02 -4.73261035e-03
1.59058339e-02 -4.42864227e-03 1.35242213e-03 -4.42864227e-03 1.41387415e-02 4.54530675e-03 1.35242213e-03 4.54530675e-03 -2.50647452e-02
1.68102579e-02 -2.87202001e-03 1.18783873e-03 -2.87202001e-03 1.27829371e-02 4.12597437e-03 1.18783873e-03 4.12597437e-03 -2.48238738e-02
1.73820724e-02 -7.15404103e-03 1.09130450e-03 -7.15404103e-03 1.82574317e-02 7.82057567e-03 1.09130450e-03 7.82057567e-03 -3.00660708e-02
2.35517737e-02 8.73984711e-04 -1.09710431e-02 8.73984711e-04 2.43190925e-02 1.10230818e-02 -1.09710431e-02 1.10230818e-02 -4.21423605e-02
1.58970007e-02 -3.12816672e-04 -2.04137867e-03 -3.12816672e-04 1.95962992e-02 -3.71709320e-04 -2.04137867e-03 -3.71709320e-04 -3.02198967e-02
1.72622744e-02 2.20609154e-03 -3.48724891e-04 2.20609154e-03 1.70895215e-02 3.36248137e-04 -3.48724891e-04 3.36248137e-04 -2.93979431e-02
2.04797578e-02 -3.17544327e-05 3.57034843e-03 -3.17544327e-05 2.60103140e-02 -1.81165425e-03 3.57034843e-03 -1.81165425e-03 -3.96835050e-02
3.27499136e-02 1.34189660e-03 -1.55988502e-03 1.34189660e-03 3.66390636e-02 1.58436983e-02 -1.55988502e-03 1.58436983e-02 -6.26453515e-02
5.06503739e-07 -2.81642833e-05 -6.32010301e-06 -2.81642833e-05 4.96499288e-06 4.19510798e-06 -6.32010301e-06 4.19510798e-06 -1.13709270e-05
-5.56343065e-06 -1.11467848e-05 -8.18733952e-06 -1.11467848e-05 1.05032200e-06 -5.46790352e-06 -8.18733952e-06 -5.46790352e-06 2.36502729e-08
1.33000713e-05 -8.69177666e-06 1.88593572e-06 -8.69177666e-06 2.89432012e-06 2.06020445e-05 1.88593572e-06 2.06020445e-05 -2.17881452e-05
8.25519942e-06 -2.61970090e-05 -2.33714763e-06 -2.61970090e-05 -4.55715247e-06 -2.04166718e-05 -2.33714763e-06 -2.04166718e-05 -8.56737483e-06
2.69114049e-02 6.09924064e-06 7.62850186e-03 6.09924064e-06 2.80601466e-02 -1.70887413e-03 7.62850186e-03 -1.70887413e-03 -4.66699339e-02
2.76528597e-02 6.52091359e-04 5.38699853e-03 6.52091359e-04 2.69018202e-02 1.39055555e-03 5.38699853e-03 1.39055555e-03 -4.63158833e-02
2.65843039e-02 -6.45502246e-03 8.47997822e-03 -6.45502246e-03 2.71660357e-02 2.16162881e-03 8.47997822e-03 2.16162881e-03 -4.53754659e-02
2.55929232e-02 6.94983813e-04 7.71918410e-03 6.94983813e-04 2.87669147e-02 -3.94184852e-03 7.71918410e-03 -3.94184852e-03 -4.61229719e-02
2.99472013e-02 -6.57486718e-03 7.64293363e-03 -6.57486718e-03 2.27956581e-02 5.48923819e-04 7.64293363e-03 5.48923819e-04 -4.45023170e-02
2.93971840e-02 -9.22422006e-03 6.91719565e-03 -9.22422006e-03 2.55026463e-02 2.68402712e-03 6.91719565e-03 2.68402712e-03 -4.62077665e-02
3.21097393e-02 4.81206895e-04 2.75970268e-03 4.81206895e-04 1.98640581e-02 3.96738555e-03 2.75970268e-03 3.96738555e-03 -4.37004808e-02
3.21520485e-02 -4.26022016e-03 -3.84692076e-03 -4.26022016e-03 2.53647370e-02 -3.29380915e-03 -3.84692076e-03 -3.29380915e-03 -4.81813056e-02
3.25361723e-02 1.34799143e-03 -3.84773331e-03 1.34799143e-03 1.87917445e-02 -8.94173048e-04 -3.84773331e-03 -8.94173048e-04 -4.30144193e-02
3.21227780e-02 1.93786192e-03 -4.39159072e-03 1.93786192e-03 2.94958346e-02 -1.38701405e-04 -4.39159072e-03 -1.38701405e-04 -5.20972596e-02
2.95106070e-02 1.34226060e-03 2.43797078e-03 1.34226060e-03 1.97346732e-02 -3.42027348e-03 2.43797078e-03 -3.42027348e-03 -4.11208086e-02
3.14429549e-02 1.68806179e-03 2.16674212e-04 1.68806179e-03 2.82657377e-02 1.59486326e-03 2.16674212e-04 1.59486326e-03 -5.02976952e-02
2.77786907e-02 1.63517293e-03 3.00230028e-03 1.63517293e-03 1.85777964e-02 -3.71299731e-03 3.00230028e-03 -3.71299731e-03 -3.83637864e-02
2.89721405e-02 4.00836077e-04 -5.76040766e-04 4.00836077e-04 2.68211770e-02 -3.12049355e-03 -5.76040766e-04 -3.12049355e-03 -4.64303168e-02
2.30731172e-02 -1.07335193e-02 1.98571464e-02 -1.07335193e-02 2.98624255e-02 -4.50909389e-04 1.98571464e-02 -4.50909389e-04 -4.42349557e-02
1.93950720e-02 -7.79222790e-03 1.40747926e-02 -7.79222790e-03 3.18368794e-02 -2.23934866e-03 1.40747926e-02 -2.23934866e-03 -4.31003347e-02
3.15473785e-02 -1.95333683e-03 1.32792573e-02 -1.95333683e-03 2.91293407e-02 -3.85945813e-03 1.32792573e-02 -3.85945813e-03 -5.19110677e-02
3.85269068e-02 -8.03349487e-03 -3.79990861e-02 -8.03349487e-03 3.53380509e-02 -3.57124861e-04 -3.79990861e-02 -3.57124861e-04 -6.57429904e-02
3.76819838e-02 -1.55414920e-04 -1.06529960e-02 -1.55414920e-04 4.26708441e-02 8.68070195e-03 -1.06529960e-02 8.68070195e-03 -7.07076713e-02
3.66462972e-02 -2.20819883e-03 -2.17536179e-03 -2.20819883e-03 3.90878804e-02 6.64280498e-03 -2.17536179e-03 6.64280498e-03 -6.57316418e-02
3.31659168e-02 2.37431814e-04 -3.34916334e-03 2.37431814e-04 3.80535703e-02 2.53526069e-03 -3.34916334e-03 2.53526069e-03 -6.11086283e-02
1.92729530e-02 -6.19652076e-03 2.40209319e-02 -6.19652076e-03 2.89699583e-02 3.23866494e-04 2.40209319e-02 3.23866494e-04 -4.04481164e-02
1.49069643e-02 1.85135630e-03 1.92143652e-02 1.85135630e-03 2.83422442e-02 4.60325903e-03 1.92143652e-02 4.60325903e-03 -3.57580110e-02
3.02203000e-02 -1.55210723e-02 3.52290147e-02 -1.55210723e-02 3.86301978e-02 -3.86827912e-02 3.52290147e-02 -3.86827912e-02 -6.01137383e-02
1.49663626e-02 -1.85317604e-03 1.00083371e-02 -1.85317604e-03 2.06463752e-02 1.31253959e-02 1.00083371e-02 1.31253959e-02 -2.91686109e-02
1.34532144e-02 -4.27974446e-03 1.59860468e-02 -4.27974446e-03 2.12831451e-02 1.80001074e-03 1.59860468e-02 1.80001074e-03 -2.86317267e-02
1.61531437e-02 1.83870433e-03 8.03905632e-03 1.83870433e-03 2.41308375e-02 3.98647552e-02 8.03905632e-03 3.98647552e-02 -3.45417052e-02
1.62899056e-02 3.23186103e-03 8.66339587e-03 3.23186103e-03 2.04940997e-02 4.20754735e-03 8.66339587e-03 4.20754735e-03 -3.00455813e-02
1.54100670e-02 3.91273818e-03 -4.43117693e-04 3.91273818e-03 2.03750224e-02 9.88296189e-04 -4.43117693e-04 9.88296189e-04 -2.98080584e-02
1.96418239e-02 -5.85784874e-03 -7.56310605e-03 -5.85784874e-03 2.92351456e-02 9.17745754e-03 -7.56310605e-03 9.17745754e-03 -4.06977439e-02
-2.30007851e-03 3.49783339e-02 -5.66087253e-02 3.49783339e-02 -7.46936351e-03 6.20863810e-02 -5.66087253e-02 6.20863810e-02 1.87353995e-02
3.54745314e-02 1.62159875e-02 -5.48501189e-02 1.62159875e-02 3.66097248e-02 -5.61515645e-04 -5.48501189e-02 -5.61515645e-04 -6.36953302e-02
1.99045788e-02 9.79643982e-03 9.44462295e-03 9.79643982e-03 2.46050572e-02 9.02548735e-03 9.44462295e-03 9.02548735e-03 -3.75592709e-02
1.71539080e-02 -9.36272962e-04 7.22438970e-03 -9.36272962e-04 2.53284331e-02 7.91390939e-03 7.22438970e-03 7.91390939e-03 -3.58117688e-02
</DataArray>
<DataArray type="Float32" Name="Plastic_strain_components" NumberOfComponents="9" format="ascii">
1.90704372e-02 -3.86586180e-07 4.26601673e-07 -3.86586180e-07 3.86282578e-02 -3.31536285e-07 4.26601673e-07 -3.31536285e-07 -4.83911037e-02
2.04320746e-02 1.77308405e-03 1.08469976e-07 1.77308405e-03 4.02766820e-02 1.37671734e-04 1.08469976e-07 1.37671734e-04 -5.09325508e-02
2.12114253e-02 5.20357460e-03 -3.23587988e-03 5.20357460e-03 3.56263407e-02 -1.27398878e-03 -3.23587988e-03 -1.27398878e-03 -4.77300081e-02
2.03920035e-02 1.98252860e-03 -1.82023825e-03 1.98252860e-03 3.42862308e-02 3.76450771e-07 -1.82023825e-03 3.76450771e-07 -4.59335633e-02
1.88519452e-02 3.21298285e-06 2.89937865e-03 3.21298285e-06 3.64543814e-02 -2.24883447e-03 2.89937865e-03 -2.24883447e-03 -4.64062039e-02
2.04089675e-02 3.55768214e-04 2.72181333e-03 3.55768214e-04 3.73689625e-02 -3.23008483e-03 2.72181333e-03 -3.23008483e-03 -4.85055707e-02
2.08241716e-02 2.41321657e-03 5.78885323e-04 2.41321657e-03 3.41800647e-02 -4.04165132e-03 5.78885323e-04 -4.04165132e-03 -4.62097800e-02
1.98219381e-02 5.60702363e-04 1.19520689e-03 5.60702363e-04 3.36732655e-02 -2.43027019e-03 1.19520689e-03 -2.43027019e-03 -4.49333908e-02
2.30042031e-02 6.23724860e-04 1.15947114e-06 6.23724860e-04 4.45387326e-02 -6.84857747e-04 1.15947114e-06 -6.84857747e-04 -5.66883963e-02
2.33673984e-02 7.51887879e-03 -4.91765805e-03 7.51887879e-03 3.91631322e-02 6.38803631e-05 -4.91765805e-03 6.38803631e-05 -5.25035886e-02
2.39846129e-02 1.35414003e-03 3.92124895e-03 1.35414003e-03 3.89265874e-02 -3.59895350e-03 3.92124895e-03 -3.59895350e-03 -5.28757013e-02
2.36264067e-02 3.45163140e-03 -3.89286688e-04 3.45163140e-03 3.68181905e-02 -6.37600513e-03 -3.89286688e-04 -6.37600513e-03 -5.08000832e-02
2.69771265e-02 2.09357729e-03 4.76429705e-08 2.09357729e-03 4.91825081e-02 3.50235845e-03 4.76429705e-08 3.50235845e-03 -6.39529061e-02
2.65401523e-02 5.32861712e-03 -8.13375111e-03 5.32861712e-03 4.44728089e-02 -1.32966149e-03 -8.13375111e-03 -1.32966149e-03 -5.99208362e-02
2.87551438e-02 -2.67531251e-03 3.01815383e-03 -2.67531251e-03 4.11789026e-02 -2.66043044e-03 3.01815383e-03 -2.66043044e-03 -5.88511946e-02
2.68766768e-02 -1.44455775e-03 2.29516870e-03 -1.44455775e-03 3.97763029e-02 -3.79426669e-03 2.29516870e-03 -3.79426669e-03 -5.59790712e-02
3.18291299e-02 -6.03333139e-03 1.19189172e-05 -6.03333139e-03 5.30373864e-02 2.89654802e-03 1.19189172e-05 2.89654802e-03 -7.13215992e-02
2.90293107e-02 -4.07386187e-03 -1.21486057e-02 -4.07386187e-03 4.92773326e-02 2.38307682e-03 -1.21486057e-02 2.38307682e-03 -6.60261735e-02
3.36704953e-02 -6.63341058e-03 3.54921201e-03 -6.63341058e-03 4.36354065e-02 -2.60386143e-03 3.54921201e-03 -2.60386143e-03 -6.50808886e-02
3.14644882e-02 -7.37443625e-03 2.56379007e-03 -7.37443625e-03 4.02699895e-02 7.74227839e-04 2.56379007e-03 7.74227839e-04 -6.04217034e-02
3.61773055e-02 -1.00341118e-02 2.44191615e-05 -1.00341118e-02 5.81236091e-02 2.39526294e-03 2.44191615e-05 2.39526294e-03 -7.92754553e-02
3.15726656e-02 -1.05348083e-02 -1.47137996e-02 -1.05348083e-02 5.35432398e-02 6.10554847e-03 -1.47137996e-02 6.10554847e-03 -7.20218774e-02
3.57827470e-02 -6.83705555e-03 6.82137185e-03 -6.83705555e-03 4.70886463e-02 -1.12202863e-03 6.82137185e-03 -1.12202863e-03 -6.97467420e-02
3.51203601e-02 -9.63063492e-03 6.62927760e-03 -9.63063492e-03 4.24547233e-02 5.18478082e-04 6.62927760e-03 5.18478082e-04 -6.53525051e-02
3.39669362e-02 -2.40357351e-02 -1.14979339e-05 -2.40357351e-02 6.97294697e-02 -3.82689526e-03 -1.14979339e-05 -3.82689526e-03 -8.68970603e-02
3.05476375e-02 -1.64980157e-02 -1.77990105e-02 -1.64980157e-02 6.53666239e-02 1.54941003e-02 -1.77990105e-02 1.54941003e-02 -8.09345767e-02
3.25156571e-02 -5.77232335e-03 4.59893912e-04 -5.77232335e-03 5.76118231e-02 -4.27257508e-03 4.59893912e-04 -4.27257508e-03 -7.57425725e-02
3.34265195e-02 -9.33667517e-03 8.35125335e-04 -9.33667517e-03 5.00352010e-02 4.21612919e-03 8.35125335e-04 4.21612919e-03 -6.99044392e-02
2.31924355e-02 6.63417188e-03 -2.12087552e-03 6.63417188e-03 2.40808707e-02 -2.30934529e-03 -2.12087552e-03 -2.30934529e-03 -3.97624569e-02
2.29237443e-02 1.49368303e-03 -2.68226280e-03 1.49368303e-03 2.38569854e-02 2.41598718e-06 -2.68226280e-03 2.41598718e-06 -3.93743068e-02
2.13761060e-02 4.49439290e-03 3.75050292e-03 4.49439290e-03 2.61297817e-02 -4.08496181e-03 3.75050292e-03 -4.08496181e-03 -3.99540546e-02
2.04015202e-02 2.04336806e-03 4.46595385e-03 2.04336806e-03 2.52001449e-02 -7.67866382e-04 4.46595385e-03 -7.67866382e-04 -3.83793404e-02
2.17652391e-02 1.02838371e-02 -5.40045567e-03 1.02838371e-02 2.39337012e-02 -4.00097435e-03 -5.40045567e-03 -4.00097435e-03 -3.82971345e-02
2.18510488e-02 5.64602436e-03 6.29893284e-03 5.64602436e-03 2.71767776e-02 -1.26866745e-03 6.29893284e-03 -1.26866745e-03 -4.12545418e-02
1.62064682e-02 5.88725950e-03 -6.04639715e-03 5.88725950e-03 2.02169293e-02 -2.60308411e-03 -6.04639715e-03 -2.60308411e-03 -2.99678617e-02
2.13848677e-02 -7.65310667e-05 1.73565375e-02 -7.65310667e-05 2.88883679e-02 1.56334660e-03 1.73565375e-02 1.56334660e-03 -4.25847697e-02
1.48427789e-02 -6.22643884e-03 -1.35112857e-02 -6.22643884e-03 2.22225676e-02 1.42789932e-03 -1.35112857e-02 1.42789932e-03 -3.05262301e-02
2.01170219e-02 -1.05165956e-02 1.95025795e-02 -1.05165956e-02 2.91712824e-02 6.29114865e-03 1.95025795e-02 6.29114865e-03 -4.06247337e-02
1.37912610e-02 -1.08828440e-02 -1.25070474e-02 -1.08828440e-02 1.45041535e-02 6.94941671e-03 -1.25070474e-02 6.94941671e-03 -2.16370014e-02
2.07130072e-02 -1.51484958e-02 2.33451758e-02 -1.51484958e-02 2.72300922e-02 1.71290216e-02 2.33451758e-02 1.71290216e-02 -3.89122232e-02
1.47582314e-02 -1.30297281e-02 -1.25238365e-02 -1.30297281e-02 1.29855741e-02 1.15330543e-02 -1.25238365e-02 1.15330543e-02 -2.04993119e-02
2.41451456e-02 -2.22678340e-02 2.38637912e-02 -2.22678340e-02 3.56064296e-02 2.41949816e-02 2.38637912e-02 2.41949816e-02 -4.98381692e-02
2.37881918e-02 3.16099910e-03 4.37317271e-04 3.16099910e-03 1.29902097e-02 -2.89599312e-03 4.37317271e-04 -2.89599312e-03 -3.08687030e-02
2.41791606e-02 1.76562218e-03 1.24949479e-03 1.76562218e-03 1.40732792e-02 -1.01572732e-06 1.24949479e-03 -1.01572732e-06 -3.21412785e-02
2.19354380e-02 2.29912327e-03 6.24178664e-03 2.29912327e-03 1.53506593e-02 -1.15693428e-03 6.24178664e-03 -1.15693428e-03 -3.13270246e-02
2.08171848e-02 9.43880659e-04 6.29185262e-03 9.43880659e-04 1.58781128e-02 8.00097958e-04 6.29185262e-03 8.00097958e-04 -3.08588254e-02
1.83319196e-02 4.66087885e-03 8.10726473e-04 4.66087885e-03 9.30675527e-03 -4.80767584e-03 8.10726473e-04 -4.80767584e-03 -2.34023910e-02
1.80394986e-02 2.48197968e-03 1.01162549e-02 2.48197968e-03 1.08319694e-02 2.44789093e-03 1.01162549e-02 2.44789093e-03 -2.40634019e-02
4.15997081e-03 1.22232409e-03 -3.32782627e-03 1.22232409e-03 1.74026174e-03 -2.96748820e-03 -3.32782627e-03 -2.96748820e-03 -3.79230222e-03
4.18750288e-03 -3.60707287e-04 5.24158673e-03 -3.60707287e-04 2.21568578e-03 1.33776440e-03 5.24158673e-03 1.33776440e-03 -3.88181241e-03
-6.10781135e-05 -3.11163720e-03 -7.40356914e-03 -3.11163720e-03 -2.16408772e-03 -2.11136908e-03 -7.40356914e-03 -2.11136908e-03 4.15178423e-03
5.23049976e-04 -1.86498589e-02 1.74685679e-02 -1.86498589e-02 6.66309055e-03 4.12437467e-03 1.74685679e-02 4.12437467e-03 -4.90957068e-03
-1.57372591e-03 2.01252359e-03 -7.45588463e-03 2.01252359e-03 -2.25836953e-03 -1.25038855e-03 -7.45588463e-03 -1.25038855e-03 5.57238197e-03
7.75920072e-04 -8.57759320e-03 1.68108642e-02 -8.57759320e-03 2.47359095e-03 -8.36540790e-04 1.68108642e-02 -8.36540790e-04 -1.25017921e-03
2.31270131e-03 6.91048452e-04 -3.88791936e-03 6.91048452e-04 -6.56807201e-03 1.07241275e-03 -3.88791936e-03 1.07241275e-03 5.77126793e-03
2.47780627e-03 -7.48569611e-03 1.40322202e-02 -7.48569611e-03 -8.62358138e-06 -1.67759211e-03 1.40322202e-02 -1.67759211e-03 -3.21770785e-04
2.30477625e-02 -1.51277243e-03 1.54747354e-03 -1.51277243e-03 8.67694430e-03 -3.41886003e-03 1.54747354e-03 -3.41886003e-03 -2.65331073e-02
2.43014907e-02 -1.55850669e-03 1.88054203e-03 -1.55850669e-03 1.06323925e-02 2.87904004e-06 1.88054203e-03 2.87904004e-06 -2.92692808e-02
2.04022485e-02 -2.74439469e-03 6.07114446e-03 -2.74439469e-03 9.59773548e-03 1.81018666e-04 6.07114446e-03 1.81018666e-04 -2.51149216e-02
2.17576553e-02 -1.90153078e-03 2.57486857e-03 -1.90153078e-03 1.10696710e-02 1.83711768e-03 2.57486857e-03 1.83711768e-03 -2.75374646e-02
1.55896125e-02 -1.77545661e-03 -1.27210657e-03 -1.77545661e-03 4.77772939e-03 -4.80854430e-03 -1.27210657e-03 -4.80854430e-03 -1.69901287e-02
1.50794855e-02 -4.27694256e-03 3.18460193e-03 -4.27694256e-03 4.92906448e-03 3.55976139e-03 3.18460193e-03 3.55976139e-03 -1.66368110e-02
4.17321852e-03 -2.37576225e-03 -1.25121389e-03 -2.37576225e-03 4.07507760e-04 -3.87997372e-03 -1.25121389e-03 -3.87997372e-03 -3.67338138e-03
7.04700197e-03 -2.45696093e-03 -2.10212875e-03 -2.45696093e-03 8.88693554e-04 3.27574726e-03 -2.10212875e-03 3.27574726e-03 -6.56769960e-03
-3.25115548e-04 -1.16359018e-03 -2.08125538e-05 -1.16359018e-03 -1.83212835e-04 -1.20698995e-04 -2.08125538e-05 -1.20698995e-04 4.80025895e-04
4.54990467e-04 5.82031978e-04 -5.85680351e-04 5.82031978e-04 8.32239128e-04 1.94193437e-03 -5.85680351e-04 1.94193437e-03 -1.01469968e-03
2.82093324e-03 -7.22893234e-03 4.58201976e-05 -7.22893234e-03 -4.48397314e-03 4.66277597e-05 4.58201976e-05 4.66277597e-05 2.65697716e-03
-3.17909492e-04 -4.33645711e-03 1.96910721e-05 -4.33645711e-03 9.26351675e-04 1.59330816e-05 1.96910721e-05 1.59330816e-05 -3.55483972e-04
2.26361793e-03 -8.27359967e-03 -1.26464898e-03 -8.27359967e-03 -3.52650532e-03 -4.28386702e-05 -1.26464898e-03 -4.28386702e-05 2.06192816e-03
-1.12910106e-03 -4.32902574e-03 -1.96623211e-03 -4.32902574e-03 2.69937584e-03 -3.47109132e-05 -1.96623211e-03 -3.47109132e-05 -1.16670896e-03
2.18437831e-02 -4.60406992e-03 2.78423727e-03 -4.60406992e-03 1.18063313e-02 -2.14822846e-03 2.78423727e-03 -2.14822846e-03 -2.82280953e-02
2.44723521e-02 -3.93064762e-03 3.82107944e-04 -3.93064762e-03 1.30487792e-02 7.78643880e-07 3.82107944e-04 7.78643880e-07 -3.14972857e-02
1.92810837e-02 -3.98417033e-03 4.36953196e-04 -3.98417033e-03 1.16616053e-02 2.95187716e-03 4.36953196e-04 2.95187716e-03 -2.59793610e-02
2.15514097e-02 -1.52348250e-03 -1.28501165e-03 -1.52348250e-03 1.26022282e-02 4.20475833e-03 -1.28501165e-03 4.20475833e-03 -2.86711664e-02
1.45386474e-02 -3.50184523e-03 1.43289048e-03 -3.50184523e-03 7.09138729e-03 -6.85349689e-03 1.43289048e-03 -6.85349689e-03 -1.80691665e-02
1.33089407e-02 -7.31011244e-03 -3.92183329e-04 -7.31011244e-03 1.05733952e-02 4.57620603e-03 -3.92183329e-04 4.57620603e-03 -1.99905192e-02
3.31169460e-03 -2.15717906e-03 3.70551694e-04 -2.15717906e-03 1.15654665e-03 -2.60312547e-03 3.70551694e-04 -2.60312547e-03 -3.69645446e-03
8.48591007e-03 -2.52543284e-03 -9.13585759e-04 -2.52543284e-03 5.39878914e-03 1.08383927e-02 -9.13585759e-04 1.08383927e-02 -1.14298282e-02
-3.03717323e-05 1.19063256e-04 -2.90698317e-05 1.19063256e-04 -1.18500869e-04 -1.00267335e-04 -2.90698317e-05 -1.00267335e-04 8.96376248e-05
8.58764504e-04 -5.42446389e-05 8.75878584e-05 -5.42446389e-05 -4.04776062e-04 1.44774197e-03 8.75878584e-05 1.44774197e-03 -3.49024218e-04
2.07046268e-06 -6.17832451e-06 -6.04440586e-08 -6.17832451e-06 -1.64738304e-06 2.22504291e-06 -6.04440586e-08 2.22504291e-06 -1.31939638e-06
-2.08687825e-06 2.50564981e-06 6.69725455e-07 2.50564981e-06 1.42434467e-06 -4.51572752e-06 6.69725455e-07 -4.51572752e-06 1.55774303e-06
0.00000000e+00 0.00000000e+00 0.00000000e+00 0.00000000e+00 0.00000000e+00 0.00000000e+00 0.00000000e+00 0.00000000e+00 0.00000000e+00
0.00000000e+00 0.00000000e+00 0.00000000e+00 0.00000000e+00 0.00000000e+00 0.00000000e+00 0.00000000e+00 0.00000000e+00 0.00000000e+00
2.39867559e-02 -4.60918294e-03 -4.44080579e-04 -4.60918294e-03 1.52705139e-02 -3.19637952e-03 -4.44080579e-04 -3.19637952e-03 -3.29794623e-02
2.78922059e-02 -2.18661805e-03 2.50277971e-03 -2.18661805e-03 1.48542309e-02 4.74625995e-06 2.50277971e-03 4.74625995e-06 -3.58886942e-02
2.19806358e-02 -3.19979695e-03 -6.90561719e-05 -3.19979695e-03 1.49687678e-02 -1.82236047e-03 -6.90561719e-05 -1.82236047e-03 -3.10594244e-02
2.38430463e-02 -5.10506728e-03 -2.25470064e-03 -5.10506728e-03 1.61258653e-02 4.21699183e-03 -2.25470064e-03 4.21699183e-03 -3.36042754e-02
1.56909106e-02 -7.11293961e-03 7.48455687e-03 -7.11293961e-03 1.28684072e-02 -9.88984620e-03 7.48455687e-03 -9.88984620e-03 -2.38517066e-02
1.52123733e-02 -7.05212541e-03 4.62505926e-03 -7.05212541e-03 1.77124301e-02 2.72818108e-03 4.62505926e-03 2.72818108e-03 -2.76619680e-02
2.81301024e-03 -4.47140436e-03 5.90942265e-03 -4.47140436e-03 4.63806931e-03 -1.49797910e-03 5.90942265e-03 -1.49797910e-03 -6.13612379e-03
1.09464301e-02 -7.82988686e-03 7.44806176e-03 -7.82988686e-03 1.17253582e-02 1.68019758e-02 7.44806176e-03 1.68019758e-02 -1.86447751e-02
-8.21043592e-04 -4.63797289e-04 -5.79813286e-05 -4.63797289e-04 2.87077804e-04 -3.78878409e-04 -5.79813286e-05 -3.78878409e-04 5.23247443e-04
-2.38558383e-04 -3.59481689e-03 9.27340061e-05 -3.59481689e-03 3.44359636e-04 3.71966777e-03 9.27340061e-05 3.71966777e-03 3.53121877e-04
2.46328382e-05 -2.59972639e-05 -3.57351126e-07 -2.59972639e-05 -1.35846840e-05 2.06839359e-05 -3.57351126e-07 2.06839359e-05 -1.60820273e-05
1.07950800e-05 -2.81312320e-06 -3.72692890e-06 -2.81312320e-06 -6.95211202e-06 2.47376059e-05 -3.72692890e-06 2.47376059e-05 -7.14730777e-06
0.00000000e+00 0.00000000e+00 0.00000000e+00 0.00000000e+00 0.00000000e+00 0.00000000e+00 0.00000000e+00 0.00000000e+00 0.00000000e+00
0.00000000e+00 0.00000000e+00 0.00000000e+00 0.00000000e+00 0.00000000e+00 0.00000000e+00 0.00000000e+00 0.00000000e+00 0.00000000e+00
2.12163879e-02 4.42794362e-06 1.57879025e-03 4.42794362e-06 3.20272576e-02 -4.99058980e-03 1.57879025e-03 -4.99058980e-03 -4.47726697e-02
2.29918631e-02 -8.70138640e-04 5.08051901e-03 -8.70138640e-04 3.06495475e-02 -2.66923680e-03 5.08051901e-03 -2.66923680e-03 -4.51363986e-02
2.08235825e-02 -4.83680298e-03 3.51193998e-03 -4.83680298e-03 3.07706136e-02 -2.52603689e-03 3.51193998e-03 -2.52603689e-03 -4.33579036e-02
1.95879154e-02 -7.36852569e-04 3.36203584e-03 -7.36852569e-04 3.17691742e-02 -1.48124341e-03 3.36203584e-03 -1.48124341e-03 -4.31443024e-02
2.69285343e-02 -5.25664282e-03 1.57101994e-03 -5.25664282e-03 2.78630410e-02 -1.03236099e-03 1.57101994e-03 -1.03236099e-03 -4.61586667e-02
2.56393610e-02 -6.64447935e-03 1.17412794e-03 -6.64447935e-03 2.91878325e-02 -7.28007332e-03 1.17412794e-03 -7.28007332e-03 -4.60596462e-02
3.14153386e-02 2.43321188e-04 4.75881243e-04 2.43321188e-04 2.66516795e-02 -5.42442089e-03 4.75881243e-04 -5.42442089e-03 -4.88996413e-02
3.04557330e-02 -3.97330218e-03 2.13735085e-03 -3.97330218e-03 3.03097151e-02 7.80697490e-04 2.13735085e-03 7.80697490e-04 -5.10917632e-02
3.50728380e-02 -2.90229858e-03 1.09728437e-02 -2.90229858e-03 2.65000826e-02 -5.11586160e-03 1.09728437e-02 -5.11586160e-03 -5.17860055e-02
3.24672367e-02 -3.02404005e-03 2.63813122e-03 -3.02404005e-03 3.45213732e-02 4.86938308e-03 2.63813122e-03 4.86938308e-03 -5.63911865e-02
3.32582081e-02 -3.16302938e-03 1.26388774e-02 -3.16302938e-03 2.95709162e-02 -2.03722200e-03 1.26388774e-02 -2.03722200e-03 -5.28361276e-02
3.47663963e-02 -1.20567584e-03 9.30187764e-03 -1.20567584e-03 3.42902755e-02 1.77253668e-03 9.30187764e-03 1.77253668e-03 -5.81060108e-02
3.06133926e-02 7.00119138e-03 1.06781754e-02 7.00119138e-03 3.25921495e-02 -2.04566849e-03 1.06781754e-02 -2.04566849e-03 -5.31971920e-02
3.44848922e-02 2.66002154e-03 -8.88947397e-06 2.66002154e-03 3.42342211e-02 -3.65083804e-04 -8.88947397e-06 -3.65083804e-04 -5.78176286e-02
1.89628808e-02 -5.35910457e-03 5.84950819e-03 -5.35910457e-03 2.85005432e-02 -6.03856790e-03 5.84950819e-03 -6.03856790e-03 -3.98714519e-02
1.65191796e-02 -3.19616986e-03 1.20692886e-02 -3.19616986e-03 2.92255399e-02 -4.78839595e-03 1.20692886e-02 -4.78839595e-03 -3.83079331e-02
2.47265619e-02 -3.50086334e-03 1.33274059e-02 -3.50086334e-03 3.15781763e-02 -1.99346431e-03 1.33274059e-02 -1.99346431e-03 -4.73569456e-02
3.36713087e-02 -7.91453039e-03 2.87937677e-02 -7.91453039e-03 3.70103408e-02 -9.43590049e-04 2.87937677e-02 -9.43590049e-04 -5.89057148e-02
3.65772154e-02 -6.94767397e-04 9.33377771e-03 -6.94767397e-04 4.46069147e-02 1.08645855e-02 9.33377771e-03 1.08645855e-02 -6.82918187e-02
3.75435892e-02 -6.14322300e-04 1.66850495e-02 -6.14322300e-04 4.49941503e-02 2.09801312e-02 1.66850495e-02 2.09801312e-02 -6.92613795e-02
3.69464401e-02 -2.70857092e-03 4.26006468e-03 -2.70857092e-03 4.68104314e-02 1.74450800e-02 4.26006468e-03 1.74450800e-02 -7.03319013e-02
1.48769228e-02 -4.68349841e-04 1.55667842e-02 -4.68349841e-04 2.21964081e-02 -8.10046447e-04 1.55667842e-02 -8.10046447e-04 -3.09898504e-02
1.46264329e-02 -9.23187690e-04 1.00348397e-02 -9.23187690e-04 2.18296703e-02 -4.08897363e-03 1.00348397e-02 -4.08897363e-03 -3.05803926e-02
1.66626180e-02 -4.54334851e-03 2.05253740e-02 -4.54334851e-03 2.56314883e-02 2.20575729e-02 2.05253740e-02 2.20575729e-02 -3.49937438e-02
-6.98159495e-03 -1.87630430e-02 2.80130273e-02 -1.87630430e-02 5.95228915e-03 2.39410717e-02 2.80130273e-02 2.39410717e-02 5.39717381e-03
1.57137439e-02 -5.35442145e-04 9.80800932e-03 -5.35442145e-04 1.34624738e-02 5.87590612e-03 9.80800932e-03 5.87590612e-03 -2.43242409e-02
1.48079372e-02 2.02960958e-03 6.96779002e-03 2.02960958e-03 1.43128659e-02 5.34789474e-03 6.96779002e-03 5.34789474e-03 -2.44797911e-02
1.18274421e-02 -1.01245738e-02 1.03917451e-02 -1.01245738e-02 9.55696796e-03 1.18349291e-02 1.03917451e-02 1.18349291e-02 -1.74595249e-02
1.12057260e-03 -2.28512625e-03 -1.35880156e-02 -2.28512625e-03 3.62193033e-03 -4.02971947e-04 -1.35880156e-02 -4.02971947e-04 -1.60777538e-03
1.56799624e-02 -4.40534232e-03 1.34636242e-03 -4.40534232e-03 1.39617601e-02 4.53304807e-03 1.34636242e-03 4.53304807e-03 -2.48396390e-02
1.65778575e-02 -2.83501652e-03 1.16932089e-03 -2.83501652e-03 1.26061160e-02 4.09693085e-03 1.16932089e-03 4.09693085e-03 -2.45450246e-02
1.44511112e-02 -6.40406099e-03 1.15312152e-03 -6.40406099e-03 1.46896900e-02 7.15900725e-03 1.15312152e-03 7.15900725e-03 -2.31420246e-02
2.55076177e-02 6.87489228e-04 -1.05523533e-02 6.87489228e-04 2.68434088e-02 1.35362528e-02 -1.05523533e-02 1.35362528e-02 -4.52045398e-02
1.57929603e-02 -2.95576683e-04 -2.02779287e-03 -2.95576683e-04 1.94706693e-02 -3.63518891e-04 -2.02779287e-03 -3.63518891e-04 -2.97009824e-02
1.72111047e-02 2.20933685e-03 -3.39142513e-04 2.20933685e-03 1.70618994e-02 2.92937868e-04 -3.39142513e-04 2.92937868e-04 -2.88588209e-02
2.19799210e-02 -4.59523988e-04 3.49136599e-03 -4.59523988e-04 2.77172970e-02 -1.38690093e-03 3.49136599e-03 -1.38690093e-03 -4.25637811e-02
3.28274537e-02 1.65415311e-03 -1.51376371e-03 1.65415311e-03 3.64244124e-02 1.54475484e-02 -1.51376371e-03 1.54475484e-02 -5.80401681e-02
0.00000000e+00 0.00000000e+00 0.00000000e+00 0.00000000e+00 0.00000000e+00 0.00000000e+00 0.00000000e+00 0.00000000e+00 0.00000000e+00
0.00000000e+00 0.00000000e+00 0.00000000e+00 0.00000000e+00 0.00000000e+00 0.00000000e+00 0.00000000e+00 0.00000000e+00 0.00000000e+00
0.00000000e+00 0.00000000e+00 0.00000000e+00 0.00000000e+00 0.00000000e+00 0.00000000e+00 0.00000000e+00 0.00000000e+00 0.00000000e+00
0.00000000e+00 0.00000000e+00 0.00000000e+00 0.00000000e+00 0.00000000e+00 0.00000000e+00 0.00000000e+00 0.00000000e+00 0.00000000e+00
2.68326197e-02 5.51715675e-06 7.60699320e-03 5.51715675e-06 2.79642809e-02 -1.70356949e-03 7.60699320e-03 -1.70356949e-03 -4.61350437e-02
2.75130211e-02 6.38567857e-04 5.36487345e-03 6.38567857e-04 2.67646271e-02 1.37711823e-03 5.36487345e-03 1.37711823e-03 -4.56944751e-02
2.64717133e-02 -6.42860946e-03 8.46500392e-03 -6.42860946e-03 2.70354713e-02 2.13748186e-03 8.46500392e-03 2.13748186e-03 -4.49957550e-02
2.54725320e-02 6.89857436e-04 7.67472456e-03 6.89857436e-04 2.86024739e-02 -3.92172212e-03 7.67472456e-03 -3.92172212e-03 -4.55107307e-02
2.97716563e-02 -6.52538100e-03 7.62784982e-03 -6.52538100e-03 2.26540095e-02 5.37709107e-04 7.62784982e-03 5.37709107e-04 -4.40877257e-02
2.92062163e-02 -9.17842577e-03 6.86964196e-03 -9.17842577e-03 2.53321428e-02 2.65590304e-03 6.86964196e-03 2.65590304e-03 -4.58263112e-02
3.19264154e-02 4.72503489e-04 2.75913614e-03 4.72503489e-04 1.97233879e-02 3.93568938e-03 2.75913614e-03 3.93568938e-03 -4.34116423e-02
3.17932505e-02 -4.23472785e-03 -3.81998668e-03 -4.23472785e-03 2.50561088e-02 -3.28422991e-03 -3.81998668e-03 -3.28422991e-03 -4.77984706e-02
3.22423596e-02 1.33265441e-03 -3.82858812e-03 1.33265441e-03 1.85803869e-02 -9.08945120e-04 -3.82858812e-03 -9.08945120e-04 -4.27064532e-02
3.18964680e-02 1.92730814e-03 -4.34994174e-03 1.92730814e-03 2.93030131e-02 -1.40307064e-04 -4.34994174e-03 -1.40307064e-04 -5.14824879e-02
2.91658300e-02 1.34201776e-03 2.43745564e-03 1.34201776e-03 1.94667182e-02 -3.40437642e-03 2.43745564e-03 -3.40437642e-03 -4.09068819e-02
3.12125408e-02 1.68623263e-03 2.38567358e-04 1.68623263e-03 2.80852786e-02 1.59656022e-03 2.38567358e-04 1.59656022e-03 -4.99263685e-02
2.73980070e-02 1.64017378e-03 3.00130213e-03 1.64017378e-03 1.82460556e-02 -3.67245963e-03 3.00130213e-03 -3.67245963e-03 -3.83700002e-02
2.86152754e-02 4.09519605e-04 -5.50425400e-04 4.09519605e-04 2.64964928e-02 -3.11800087e-03 -5.50425400e-04 -3.11800087e-03 -4.63930471e-02
2.29051086e-02 -1.06710386e-02 1.97424388e-02 -1.06710386e-02 2.96104152e-02 -4.39006464e-04 1.97424388e-02 -4.39006464e-04 -4.38014185e-02
1.93205811e-02 -7.74085801e-03 1.40311157e-02 -7.74085801e-03 3.16726859e-02 -2.22532061e-03 1.40311157e-02 -2.22532061e-03 -4.27566776e-02
3.16184983e-02 -1.99898794e-03 1.29939739e-02 -1.99898794e-03 2.91937034e-02 -3.96313798e-03 1.29939739e-02 -3.96313798e-03 -5.14918683e-02
3.92216995e-02 -7.85916017e-03 -3.67560986e-02 -7.85916017e-03 3.61709297e-02 -9.77109186e-05 -3.67560986e-02 -9.77109186e-05 -6.24244623e-02
3.82299442e-02 -1.23316422e-04 -1.04328053e-02 -1.23316422e-04 4.31396039e-02 8.60070817e-03 -1.04328053e-02 8.60070817e-03 -6.84869308e-02
3.70696401e-02 -2.18122786e-03 -2.17497203e-03 -2.18122786e-03 3.94649077e-02 6.59227296e-03 -2.17497203e-03 6.59227296e-03 -6.44409955e-02
3.33856363e-02 2.67669755e-04 -3.32762790e-03 2.67669755e-04 3.81700005e-02 2.51917698e-03 -3.32762790e-03 2.51917698e-03 -6.02418575e-02
1.92051246e-02 -6.15090251e-03 2.37948639e-02 -6.15090251e-03 2.88026791e-02 3.38557376e-04 2.37948639e-02 3.38557376e-04 -3.98539427e-02
1.46921980e-02 1.83436059e-03 1.91662288e-02 1.83436059e-03 2.80798646e-02 4.61998663e-03 1.91662288e-02 4.61998663e-03 -3.57033405e-02
3.06103348e-02 -1.51679995e-02 3.59074641e-02 -1.51679995e-02 3.91272437e-02 -3.82788728e-02 3.59074641e-02 -3.82788728e-02 -5.70394145e-02
1.46541426e-02 -1.85098038e-03 1.00614631e-02 -1.85098038e-03 2.03067240e-02 1.30520639e-02 1.00614631e-02 1.30520639e-02 -2.91581779e-02
1.32577743e-02 -4.25375695e-03 1.58986369e-02 -4.25375695e-03 2.10461977e-02 1.78495367e-03 1.58986369e-02 1.78495367e-03 -2.85220351e-02
1.68998531e-02 1.55019243e-03 7.69235776e-03 1.55019243e-03 2.47920980e-02 3.95420752e-02 7.69235776e-03 3.95420752e-02 -3.35012078e-02
1.12734294e-02 2.45651290e-03 8.95472528e-03 2.45651290e-03 1.44066601e-02 1.27471672e-03 8.95472528e-03 1.27471672e-03 -1.96648755e-02
1.54162783e-02 3.96456145e-03 -4.30787099e-04 3.96456145e-03 2.04167578e-02 1.06638530e-03 -4.30787099e-04 1.06638530e-03 -3.01785362e-02
1.77678048e-02 -5.02920159e-03 -5.68283880e-03 -5.02920159e-03 2.59435868e-02 1.10658832e-02 -5.68283880e-03 1.10658832e-02 -3.61919262e-02
-2.35054665e-03 3.52066457e-02 -5.44716045e-02 3.52066457e-02 -6.52642362e-03 6.99553639e-02 -5.44716045e-02 6.99553639e-02 1.47021925e-02
3.82443623e-02 1.56915818e-02 -5.58620083e-02 1.56915818e-02 4.03452519e-02 -1.86767584e-03 -5.58620083e-02 -1.86767584e-03 -6.60302776e-02
2.24607312e-02 1.02354158e-02 9.27901534e-03 1.02354158e-02 2.77453088e-02 1.06092402e-02 9.27901534e-03 1.06092402e-02 -4.30660308e-02
1.69187477e-02 -9.61881131e-04 7.23707292e-03 -9.61881131e-04 2.50326563e-02 7.78950937e-03 7.23707292e-03 7.78950937e-03 -3.51687428e-02
</DataArray>
<DataArray type="Float32" Name="Spatial_displacement" NumberOfComponents="3" format="ascii">
0.00000000e+00 0.00000000e+00 0.00000000e+00
1.90966316e-02 0.00000000e+00 0.00000000e+00
2.09211297e-02 4.14182991e-02 0.00000000e+00
0.00000000e+00 3.93539593e-02 0.00000000e+00
0.00000000e+00 0.00000000e+00 -4.80280668e-02
1.92302279e-02 0.00000000e+00 -5.01910746e-02
1.95953138e-02 3.80359031e-02 -4.75770906e-02
0.00000000e+00 3.74520868e-02 -4.52509746e-02
4.16363478e-02 0.00000000e+00 0.00000000e+00
4.22777273e-02 4.57124189e-02 0.00000000e+00
4.09157649e-02 0.00000000e+00 -5.58710024e-02
4.23118323e-02 4.05592509e-02 -5.21316528e-02
6.56549260e-02 0.00000000e+00 0.00000000e+00
6.78468943e-02 5.18207774e-02 0.00000000e+00
6.92850649e-02 0.00000000e+00 -6.17143512e-02
6.65003285e-02 4.33898754e-02 -5.88727742e-02
9.87643600e-02 0.00000000e+00 0.00000000e+00
9.24658328e-02 5.68669029e-02 0.00000000e+00
1.01781197e-01 0.00000000e+00 -6.78041950e-02
9.48529914e-02 4.44320589e-02 -6.44541532e-02
1.34698734e-01 0.00000000e+00 0.00000000e+00
1.24229498e-01 6.15255423e-02 0.00000000e+00
1.37259424e-01 0.00000000e+00 -7.58864805e-02
1.30137354e-01 4.66559865e-02 -6.95113763e-02
1.75253391e-01 0.00000000e+00 0.00000000e+00
1.49993002e-01 7.91054517e-02 0.00000000e+00
1.71364367e-01 0.00000000e+00 -7.91458935e-02
1.65328920e-01 6.05676547e-02 -7.87693560e-02
2.35161148e-02 7.21364990e-02 0.00000000e+00
0.00000000e+00 7.05997795e-02 0.00000000e+00
2.11231150e-02 6.99310079e-02 -3.97256091e-02
0.00000000e+00 6.78140074e-02 -3.89854386e-02
4.69112322e-02 7.97638893e-02 0.00000000e+00
4.27307226e-02 7.41954669e-02 -3.96565571e-02
6.55535981e-02 8.65150541e-02 0.00000000e+00
6.25491142e-02 7.94815645e-02 -3.41666490e-02
8.16237777e-02 9.73558202e-02 0.00000000e+00
8.36294815e-02 8.16845521e-02 -3.61542925e-02
9.27608013e-02 1.01324067e-01 0.00000000e+00
1.01597875e-01 8.56580660e-02 -3.42114046e-02
1.09530345e-01 1.22094445e-01 0.00000000e+00
1.24939278e-01 1.06192537e-01 -3.47947329e-02
2.54432075e-02 9.00860354e-02 0.00000000e+00
0.00000000e+00 8.82758498e-02 0.00000000e+00
2.24410333e-02 9.05386209e-02 -3.06628123e-02
0.00000000e+00 8.95654708e-02 -3.14286053e-02
4.92019504e-02 9.20931399e-02 0.00000000e+00
4.42402661e-02 9.27502662e-02 -2.21401230e-02
6.23754039e-02 9.81775597e-02 0.00000000e+00
5.92550412e-02 9.58270282e-02 -7.69871473e-03
6.49935156e-02 1.04219526e-01 0.00000000e+00
6.19043857e-02 9.66220200e-02 2.09690630e-03
7.37062767e-02 1.01490639e-01 0.00000000e+00
7.39463717e-02 9.34173092e-02 6.22843206e-03
7.57436901e-02 1.24264598e-01 0.00000000e+00
7.79593140e-02 1.21087238e-01 2.56158412e-03
2.61933543e-02 9.89892408e-02 0.00000000e+00
0.00000000e+00 1.00596771e-01 0.00000000e+00
2.26349272e-02 1.00563593e-01 -2.63419598e-02
0.00000000e+00 1.02527589e-01 -2.81338394e-02
4.79460657e-02 9.82174575e-02 0.00000000e+00
4.29624543e-02 9.69116092e-02 -1.72850043e-02
5.79458065e-02 9.85129327e-02 0.00000000e+00
5.38057387e-02 9.72230732e-02 -3.65516543e-03
5.66076599e-02 1.02597415e-01 0.00000000e+00
5.63214496e-02 1.02527238e-01 3.96370888e-06
5.67334220e-02 1.09299049e-01 0.00000000e+00
5.66985980e-02 1.05618134e-01 0.00000000e+00
5.68349101e-02 1.09382838e-01 -1.64180994e-04
5.67650571e-02 1.05644897e-01 5.28544188e-05
2.46971250e-02 1.08338788e-01 0.00000000e+00
0.00000000e+00 1.12391546e-01 0.00000000e+00
2.24693045e-02 1.11222632e-01 -2.77828798e-02
0.00000000e+00 1.12788484e-01 -3.19057330e-02
4.59335297e-02 1.01602614e-01 0.00000000e+00
3.88406254e-02 1.03079036e-01 -1.89987496e-02
5.30359000e-02 9.93503630e-02 0.00000000e+00
5.02553955e-02 9.98027921e-02 -3.36913764e-03
5.34813404e-02 1.02559879e-01 0.00000000e+00
5.33088222e-02 1.02543287e-01 2.45809555e-04
5.33522256e-02 1.05756491e-01 0.00000000e+00
5.34424111e-02 1.05746888e-01 1.26063824e-05
5.34246899e-02 1.09030083e-01 0.00000000e+00
5.34475520e-02 1.08975247e-01 -1.94311142e-05
2.75037847e-02 1.24091305e-01 0.00000000e+00
0.00000000e+00 1.26328722e-01 0.00000000e+00
2.41860710e-02 1.23659201e-01 -3.29788774e-02
0.00000000e+00 1.28930241e-01 -3.70975658e-02
4.97331396e-02 1.11190215e-01 0.00000000e+00
3.94365564e-02 1.19028687e-01 -2.77089849e-02
5.27378619e-02 1.01877958e-01 0.00000000e+00
5.11076376e-02 1.08073540e-01 -8.71086866e-03
5.09210564e-02 1.02864698e-01 0.00000000e+00
5.05271107e-02 1.02877423e-01 3.56808305e-04
5.02728671e-02 1.05665162e-01 0.00000000e+00
5.03538884e-02 1.05723336e-01 -1.27404928e-05
5.02309278e-02 1.08974099e-01 0.00000000e+00
5.02548292e-02 1.08940162e-01 5.37931919e-06
0.00000000e+00 0.00000000e+00 -9.15487558e-02
2.08569132e-02 0.00000000e+00 -9.63505059e-02
1.99585892e-02 3.12705562e-02 -9.14618671e-02
0.00000000e+00 3.20360959e-02 -9.00402889e-02
4.66722548e-02 0.00000000e+00 -1.03032529e-01
4.12392318e-02 2.71647759e-02 -1.01503529e-01
7.31716529e-02 0.00000000e+00 -1.13533117e-01
7.34231248e-02 2.62674913e-02 -1.13075621e-01
1.09032854e-01 0.00000000e+00 -1.28153130e-01
1.05985507e-01 2.71451212e-02 -1.17697492e-01
1.45166278e-01 0.00000000e+00 -1.39132231e-01
1.41857624e-01 2.86655091e-02 -1.27123207e-01
1.73926383e-01 0.00000000e+00 -1.46045655e-01
1.81140453e-01 3.08453813e-02 -1.35926157e-01
1.57746002e-02 6.17783628e-02 -8.02293271e-02
0.00000000e+00 6.51290715e-02 -7.55917579e-02
3.79775874e-02 6.07637540e-02 -8.39688331e-02
6.51413053e-02 6.44779205e-02 -8.65128338e-02
1.00636616e-01 7.27509111e-02 -1.00524843e-01
1.39233619e-01 7.41851330e-02 -9.85885262e-02
1.75490141e-01 7.76870772e-02 -1.09275170e-01
1.32188350e-02 8.88345316e-02 -6.32775873e-02
0.00000000e+00 8.98163915e-02 -5.92971072e-02
3.15006711e-02 8.94465148e-02 -5.22131473e-02
2.85644159e-02 8.36720616e-02 4.29114699e-03
1.51729695e-02 1.08479545e-01 -4.93001118e-02
0.00000000e+00 1.06363632e-01 -5.45639992e-02
3.19662280e-02 1.01345301e-01 -3.33781615e-02
4.06367369e-02 8.74429047e-02 -1.31026879e-02
1.72742829e-02 1.16213441e-01 -5.26908413e-02
0.00000000e+00 1.19126178e-01 -5.67153618e-02
3.01262252e-02 1.11606896e-01 -3.97399217e-02
5.34874275e-02 1.03668556e-01 -3.20812017e-02
1.37981027e-02 1.34906381e-01 -6.77646995e-02
0.00000000e+00 1.32666618e-01 -6.80913702e-02
2.99848653e-02 1.39092684e-01 -6.00889176e-02
5.80179468e-02 1.35403007e-01 -5.95406070e-02
5.34763038e-02 1.05763435e-01 1.68085098e-05
5.34790531e-02 1.08935013e-01 -1.20699406e-06
5.02965078e-02 1.08944178e-01 -4.63426113e-06
5.02764583e-02 1.05770692e-01 -6.54160976e-06
0.00000000e+00 0.00000000e+00 -1.38038784e-01
2.60187164e-02 0.00000000e+00 -1.39669433e-01
2.66944878e-02 2.79176310e-02 -1.34520367e-01
0.00000000e+00 2.72116959e-02 -1.30752146e-01
5.73203787e-02 0.00000000e+00 -1.49402171e-01
5.05519360e-02 2.23932080e-02 -1.42091185e-01
8.53061602e-02 0.00000000e+00 -1.59816459e-01
8.58047903e-02 1.84338763e-02 -1.57173038e-01
1.19109809e-01 0.00000000e+00 -1.69544011e-01
1.20502532e-01 1.96230039e-02 -1.73225611e-01
1.52633965e-01 0.00000000e+00 -1.82411999e-01
1.54015094e-01 2.15598233e-02 -1.80064246e-01
1.82247713e-01 0.00000000e+00 -1.87870160e-01
1.83931768e-01 2.02038921e-02 -1.84974104e-01
1.76329799e-02 5.18749952e-02 -1.19457647e-01
0.00000000e+00 5.99272549e-02 -1.17251217e-01
4.78108525e-02 5.13199419e-02 -1.37179419e-01
7.93119818e-02 5.61665595e-02 -1.65737644e-01
1.20080262e-01 6.29707798e-02 -1.71278507e-01
1.55636951e-01 5.69330975e-02 -1.72281131e-01
1.85836107e-01 5.53689934e-02 -1.75590932e-01
1.32567324e-02 8.99828747e-02 -9.11273733e-02
0.00000000e+00 8.80368277e-02 -9.55696106e-02
4.25468609e-02 7.91432261e-02 -1.14164725e-01
1.25759281e-02 1.09725498e-01 -7.51457140e-02
0.00000000e+00 1.14077330e-01 -7.68716857e-02
3.34372520e-02 1.09947376e-01 -5.43136969e-02
1.39883794e-02 1.33229643e-01 -7.93985277e-02
0.00000000e+00 1.29244894e-01 -8.03715512e-02
3.31221670e-02 1.33410245e-01 -7.73769990e-02
3.99229862e-02 1.26587555e-01 9.48484242e-03
5.66521063e-02 1.27142638e-01 -8.72663558e-02
1.49299949e-02 1.51102275e-01 -9.47540998e-02
0.00000000e+00 1.52043059e-01 -1.02370448e-01
</DataArray>
<DataArray type="Float32" Name="Spatial_acceleration" NumberOfComponents="3" format="ascii">
0.00000000e+00 0.00000000e+00 0.00000000e+00
1.01566314e-07 0.00000000e+00 0.00000000e+00
1.21672940e-07 8.80161934e-08 0.00000000e+00
0.00000000e+00 5.12599954e-08 0.00000000e+00
0.00000000e+00 0.00000000e+00 8.90095997e-09
1.16944314e-07 0.00000000e+00 4.76837165e-08
1.43438569e-07 5.01722077e-08 -3.75111888e-08
0.00000000e+00 1.59740452e-08 -8.16980972e-08
2.67903005e-07 0.00000000e+00 0.00000000e+00
2.70783886e-07 7.04526926e-08 0.00000000e+00
2.12550162e-07 0.00000000e+00 1.15712481e-07
1.96675458e-07 3.04679055e-08 3.56038399e-08
2.33093900e-07 0.00000000e+00 0.00000000e+00
1.71979266e-07 -2.63055160e-08 0.00000000e+00
2.59955726e-07 0.00000000e+00 2.05357864e-07
2.00668964e-07 -7.96318034e-08 1.57038372e-07
2.13106475e-07 0.00000000e+00 0.00000000e+00
1.24255820e-07 -1.35257835e-07 0.00000000e+00
2.13086608e-07 0.00000000e+00 2.75293985e-07
2.10523609e-07 -9.52482182e-08 1.90416969e-07
2.42501500e-07 0.00000000e+00 0.00000000e+00
2.96950333e-07 -5.85317608e-08 0.00000000e+00
1.32322313e-07 0.00000000e+00 1.84059147e-07
1.81953112e-07 -9.19500991e-08 5.54720572e-08
2.16881432e-07 0.00000000e+00 0.00000000e+00
2.28881831e-07 -1.73886619e-07 0.00000000e+00
9.85463444e-08 0.00000000e+00 1.98364262e-07
2.83400226e-07 9.93410776e-09 3.43322739e-08
1.60614647e-07 1.22467682e-07 0.00000000e+00
0.00000000e+00 4.99884294e-08 0.00000000e+00
1.31987036e-07 1.03334585e-07 -2.90870670e-08
0.00000000e+00 1.37706593e-07 -1.16030371e-07
2.54948930e-07 8.13802075e-08 0.00000000e+00
1.74826624e-07 6.27835561e-08 -6.99361147e-09
2.43743244e-07 5.82536046e-08 0.00000000e+00
2.12107381e-07 3.16074917e-08 -7.50223776e-08
2.04404188e-07 9.33011393e-08 0.00000000e+00
2.99188827e-07 -6.00284977e-08 -7.67178037e-08
2.94129052e-07 -8.06649538e-08 0.00000000e+00
3.09454066e-07 -1.14520390e-07 -4.40809451e-08
3.26951351e-07 -7.97907518e-08 0.00000000e+00
2.03874379e-07 -7.54462377e-08 -1.47501623e-07
1.69754031e-07 2.46018175e-07 0.00000000e+00
0.00000000e+00 2.62459110e-07 0.00000000e+00
9.36587625e-08 1.77065530e-07 -5.48362742e-08
0.00000000e+00 1.56919157e-07 -3.40143842e-08
2.67664575e-07 1.65740644e-07 0.00000000e+00
2.47637416e-07 9.83873960e-08 -1.24295553e-07
3.01996863e-07 8.23338837e-08 0.00000000e+00
2.89446774e-07 1.84641937e-08 8.71022579e-08
2.95215187e-07 9.26123747e-08 0.00000000e+00
2.50710372e-07 3.77231189e-08 1.25037303e-07
2.47955313e-07 -9.21885217e-08 0.00000000e+00
2.31954786e-07 -7.43865982e-08 9.02811692e-08
3.44912195e-07 2.39054373e-07 0.00000000e+00
2.98817952e-07 -1.33772687e-07 3.33786012e-08
6.90619117e-08 1.61329908e-07 0.00000000e+00
0.00000000e+00 3.27825546e-07 0.00000000e+00
8.68042278e-08 2.00976928e-07 -1.43845881e-07
0.00000000e+00 2.67386440e-07 -1.01407366e-07
2.34683355e-07 1.70191129e-07 0.00000000e+00
1.42912072e-07 1.13964077e-07 -5.75383510e-08
2.53995267e-07 1.03791557e-07 0.00000000e+00
3.11056766e-07 1.13222335e-07 -7.50223776e-08
3.14182699e-07 -6.19888283e-08 0.00000000e+00
1.93489925e-07 1.44534638e-07 1.73250839e-07
3.21467724e-07 -1.19209290e-07 0.00000000e+00
2.06152606e-07 -2.89811027e-07 0.00000000e+00
3.11017033e-07 -3.24249271e-07 -1.82469691e-07
4.08066654e-07 3.29915025e-07 2.89864005e-07
9.61621627e-09 3.03188955e-07 0.00000000e+00
0.00000000e+00 2.41557757e-07 0.00000000e+00
8.60020535e-08 2.76158261e-07 -1.76588699e-07
0.00000000e+00 3.30805761e-07 -7.69297301e-08
3.04659210e-07 1.66813535e-07 0.00000000e+00
1.81595482e-07 2.30948132e-07 -1.35103861e-07
4.16835150e-07 7.67707817e-08 0.00000000e+00
3.02632657e-07 6.86115698e-08 -1.22070318e-07
1.95026402e-07 -8.05854796e-08 0.00000000e+00
5.77131914e-07 4.10079934e-08 1.25567121e-08
5.70535633e-07 8.87910545e-08 0.00000000e+00
1.79457672e-07 -2.58072220e-07 -3.81135436e-07
4.31855511e-07 -7.62939436e-08 0.00000000e+00
1.02890866e-07 2.92989952e-08 4.02343773e-07
1.98364262e-07 2.61823345e-07 0.00000000e+00
0.00000000e+00 4.08376252e-07 0.00000000e+00
8.20954611e-08 2.98420588e-07 -1.83105470e-07
0.00000000e+00 4.18533887e-07 -4.06901037e-08
2.13781988e-07 8.16980972e-08 0.00000000e+00
2.00192133e-07 3.24090308e-07 -1.77383427e-07
2.48750041e-07 1.92642204e-07 0.00000000e+00
3.91642260e-07 1.51952108e-07 -3.20434566e-07
7.99179077e-07 2.99135849e-07 0.00000000e+00
1.02043153e-07 -1.95026402e-07 1.19527186e-07
9.52879589e-08 1.08242034e-07 0.00000000e+00
4.78956451e-07 -3.07374535e-07 4.25307292e-07
1.97927150e-07 -1.96948648e-07 0.00000000e+00
6.66101755e-07 9.86158852e-08 -6.22016671e-07
0.00000000e+00 0.00000000e+00 -1.41779580e-07
1.51991841e-07 0.00000000e+00 1.33514400e-08
7.41481756e-08 2.39014621e-08 -3.03586312e-08
0.00000000e+00 9.25262782e-08 -1.25885009e-07
1.14609797e-07 0.00000000e+00 4.48226913e-08
1.51872626e-07 1.35898590e-08 3.97364310e-08
1.50859350e-07 0.00000000e+00 1.11262004e-07
1.80284175e-07 7.01347957e-08 1.34468081e-07
2.18808651e-07 0.00000000e+00 2.28563948e-07
1.89503027e-07 1.66743988e-08 1.08877813e-07
2.28603682e-07 0.00000000e+00 3.39190166e-07
1.61925954e-07 -1.04526677e-07 1.75158178e-07
2.42392217e-09 0.00000000e+00 6.97453800e-07
1.55170753e-07 -4.25577156e-08 3.96410627e-07
1.16348268e-07 5.27699768e-08 -1.72932943e-07
0.00000000e+00 4.46637465e-08 -2.21570332e-07
1.87783016e-07 5.54947626e-08 -1.21343703e-07
2.16563549e-07 -3.63349919e-08 -1.08337403e-07
1.57872833e-07 -4.88162044e-08 5.72204595e-09
5.59091546e-08 -1.17341678e-07 -1.46230065e-07
1.93715096e-07 -8.58803588e-08 4.06901037e-08
1.01367633e-07 7.12076798e-08 -1.94549557e-07
0.00000000e+00 9.50495362e-08 -1.97728468e-07
1.59210629e-07 8.28107218e-08 -3.39084210e-07
2.28881838e-08 -1.33514405e-07 1.62998830e-07
1.03553134e-07 1.42117344e-07 -1.53064732e-07
0.00000000e+00 6.46114344e-08 -7.02540106e-08
2.28538397e-07 1.24295553e-07 -2.44867238e-07
4.44200310e-07 1.01089476e-07 -2.05569805e-07
1.66932736e-07 2.11636220e-07 -2.83400226e-07
0.00000000e+00 2.26768350e-07 -3.43322739e-07
2.38657009e-07 1.53660778e-07 -4.22477711e-07
3.44912195e-07 2.04766792e-07 -2.93095894e-07
2.31266014e-07 2.79506054e-07 -2.23795567e-07
0.00000000e+00 4.24146634e-07 -2.77837103e-07
2.36491360e-07 3.14156210e-07 -4.14212536e-07
3.53336333e-07 1.87079110e-07 -3.95456937e-07
3.23714374e-07 -1.67191025e-08 5.69085273e-07
5.18163063e-07 -7.75794206e-07 -1.06848279e-06
2.94014797e-07 -4.30106809e-07 9.79686774e-07
4.83075780e-07 -1.72535579e-07 -7.44710348e-07
0.00000000e+00 0.00000000e+00 -4.57763676e-08
3.44713520e-08 0.00000000e+00 -1.57674151e-07
6.64691129e-08 2.41299460e-08 -1.90575918e-07
0.00000000e+00 1.79509314e-08 -7.75655096e-08
1.05877717e-07 0.00000000e+00 -3.21070353e-08
1.20530530e-07 6.75568970e-08 -1.60535180e-07
1.21414658e-07 0.00000000e+00 1.34785964e-07
1.44243245e-07 1.03433926e-07 -8.10623177e-08
6.80089016e-08 0.00000000e+00 1.36057537e-07
1.14878020e-07 6.51280061e-08 1.46547947e-07
1.42432754e-07 0.00000000e+00 1.50044755e-07
1.74164768e-07 1.07837216e-07 1.39713279e-07
2.13762121e-07 0.00000000e+00 2.25067140e-07
1.83661783e-07 1.17540360e-07 2.69889824e-07
5.60283659e-08 4.18821955e-08 -2.48273210e-07
0.00000000e+00 1.58747042e-08 -1.81198118e-07
1.92642204e-07 1.06402801e-07 -1.83832071e-07
1.63141891e-07 1.05412802e-07 5.08626308e-10
1.13825003e-07 7.06513745e-08 7.05719003e-08
5.48958781e-08 9.49700674e-09 1.91370646e-07
-1.47054593e-07 1.10467271e-08 3.03904216e-07
7.97226321e-08 1.12896871e-07 -3.58218244e-07
0.00000000e+00 1.71820318e-07 -2.98817952e-07
1.64508819e-07 4.19616697e-08 -1.23341877e-07
1.55494320e-07 1.05358303e-07 -2.09990006e-07
0.00000000e+00 -3.00010043e-08 -3.18209317e-07
2.73386632e-07 2.85108882e-07 -3.59853118e-07
2.26100283e-07 1.38898685e-07 -4.22437978e-07
0.00000000e+00 2.37286088e-07 -4.63167822e-07
2.87555508e-07 1.54222761e-07 -2.92460129e-07
1.18712585e-07 4.83353915e-07 -8.01086415e-08
5.62667850e-08 2.95639040e-07 -2.05145938e-07
3.36885449e-07 3.45985086e-07 -3.39031203e-07
0.00000000e+00 2.65836718e-07 -5.65846733e-07
</DataArray>
<DataArray type="Float32" Name="Spatial_velocity" NumberOfComponents="3" format="ascii">
0.00000000e+00 0.00000000e+00 0.00000000e+00
9.18689693e-05 0.00000000e+00 0.00000000e+00
9.71750487e-05 1.53849338e-04 0.00000000e+00
0.00000000e+00 1.48830572e-04 0.00000000e+00
0.00000000e+00 0.00000000e+00 -1.85939745e-04
8.92081734e-05 0.00000000e+00 -1.92720865e-04
9.12594114e-05 1.44535312e-04 -1.83848839e-04
0.00000000e+00 1.42489953e-04 -1.82531730e-04
1.91426210e-04 0.00000000e+00 0.00000000e+00
1.92003063e-04 1.61850126e-04 0.00000000e+00
1.84829798e-04 0.00000000e+00 -2.00207593e-04
1.89424754e-04 1.49878455e-04 -1.93627653e-04
2.90236407e-04 0.00000000e+00 0.00000000e+00
3.01509135e-04 1.74582092e-04 0.00000000e+00
3.00125714e-04 0.00000000e+00 -2.06441677e-04
2.88537645e-04 1.53000496e-04 -2.11368199e-04
4.20954166e-04 0.00000000e+00 0.00000000e+00
3.97086755e-04 1.84625416e-04 0.00000000e+00
4.26516286e-04 0.00000000e+00 -2.21536044e-04
3.98382079e-04 1.53644898e-04 -2.14846121e-04
5.37553336e-04 0.00000000e+00 0.00000000e+00
5.12607978e-04 1.96441440e-04 0.00000000e+00
5.51328703e-04 0.00000000e+00 -2.28701436e-04
5.31313650e-04 1.58774390e-04 -2.21401351e-04
6.65738771e-04 0.00000000e+00 0.00000000e+00
5.94188692e-04 2.37835717e-04 0.00000000e+00
6.67476561e-04 0.00000000e+00 -2.25130250e-04
6.48358953e-04 2.03370539e-04 -2.40875816e-04
1.03977545e-04 2.78071471e-04 0.00000000e+00
0.00000000e+00 2.75574712e-04 0.00000000e+00
9.64377905e-05 2.69283628e-04 -1.65265898e-04
0.00000000e+00 2.61825509e-04 -1.62543074e-04
2.08189755e-04 3.01874068e-04 0.00000000e+00
1.90438164e-04 2.80006672e-04 -1.69101171e-04
2.91543431e-04 3.17209517e-04 0.00000000e+00
2.77988787e-04 2.94350524e-04 -1.54523834e-04
3.61077022e-04 3.56285484e-04 0.00000000e+00
3.66207561e-04 2.89231655e-04 -1.59647985e-04
4.07977815e-04 3.55798460e-04 0.00000000e+00
4.38960240e-04 2.95889477e-04 -1.50902546e-04
4.72021318e-04 4.26615123e-04 0.00000000e+00
5.21396694e-04 3.62683961e-04 -1.46147926e-04
1.09930668e-04 3.57233745e-04 0.00000000e+00
0.00000000e+00 3.51184892e-04 0.00000000e+00
1.00437355e-04 3.60725739e-04 -1.38446165e-04
0.00000000e+00 3.57040262e-04 -1.31854613e-04
2.26158401e-04 3.59630707e-04 0.00000000e+00
2.02742784e-04 3.64947220e-04 -1.09472559e-04
2.86089489e-04 3.76628392e-04 0.00000000e+00
2.75973958e-04 3.72767012e-04 -3.45608350e-05
3.01853172e-04 3.86840926e-04 0.00000000e+00
2.82182737e-04 3.66340973e-04 1.28652400e-05
3.30287701e-04 3.63996020e-04 0.00000000e+00
3.35756456e-04 3.30437993e-04 3.10304385e-05
3.37943231e-04 4.48390521e-04 0.00000000e+00
3.52004339e-04 4.38177551e-04 7.91428374e-06
1.17087817e-04 4.02457314e-04 0.00000000e+00
0.00000000e+00 4.11472050e-04 0.00000000e+00
1.02613703e-04 4.06548352e-04 -1.20794866e-04
0.00000000e+00 4.19425982e-04 -1.23157733e-04
2.24920295e-04 3.91591195e-04 0.00000000e+00
2.01842486e-04 3.84988671e-04 -8.66832561e-05
2.81191577e-04 3.77989316e-04 0.00000000e+00
2.62614019e-04 3.74827883e-04 -1.62430788e-05
2.74693390e-04 3.84797895e-04 0.00000000e+00
2.73488287e-04 3.85146937e-04 4.99060263e-07
2.72273930e-04 3.84431129e-04 0.00000000e+00
2.73137994e-04 3.85899562e-04 0.00000000e+00
2.72476900e-04 3.84036859e-04 -9.28268832e-07
2.73543177e-04 3.85171879e-04 -5.52186862e-07
1.12275382e-04 4.43552242e-04 0.00000000e+00
0.00000000e+00 4.65304853e-04 0.00000000e+00
1.06982610e-04 4.60596493e-04 -1.26396058e-04
0.00000000e+00 4.67742910e-04 -1.37335417e-04
2.23163035e-04 4.08423773e-04 0.00000000e+00
1.90342675e-04 4.14403272e-04 -1.00939251e-04
2.68984295e-04 3.78669851e-04 0.00000000e+00
2.52530648e-04 3.87329463e-04 -2.51426663e-05
2.73410609e-04 3.85530060e-04 0.00000000e+00
2.73394398e-04 3.85867810e-04 4.99341752e-07
2.73384328e-04 3.85623251e-04 0.00000000e+00
2.73509388e-04 3.85420775e-04 3.90934893e-08
2.73953046e-04 3.84757062e-04 0.00000000e+00
2.73755461e-04 3.84667015e-04 2.93753999e-07
1.26312516e-04 5.18943474e-04 0.00000000e+00
0.00000000e+00 5.24696894e-04 0.00000000e+00
1.16765637e-04 5.19016292e-04 -1.53729561e-04
0.00000000e+00 5.41164307e-04 -1.62946220e-04
2.46197043e-04 4.54426976e-04 0.00000000e+00
1.97690475e-04 4.98125970e-04 -1.49602856e-04
2.80519889e-04 4.01324796e-04 0.00000000e+00
2.67099822e-04 4.39522322e-04 -6.56950142e-05
2.76393985e-04 3.88033019e-04 0.00000000e+00
2.74769845e-04 3.87543580e-04 1.89963714e-06
2.73916783e-04 3.85029824e-04 0.00000000e+00
2.74396385e-04 3.85224586e-04 -1.82728343e-07
2.74038612e-04 3.84857965e-04 0.00000000e+00
2.74078251e-04 3.84940737e-04 -3.30800241e-08
0.00000000e+00 0.00000000e+00 -3.56823119e-04
8.77782950e-05 0.00000000e+00 -3.69316840e-04
8.75637415e-05 1.22255224e-04 -3.57065059e-04
0.00000000e+00 1.23155245e-04 -3.56346805e-04
1.94762382e-04 0.00000000e+00 -3.86101805e-04
1.76379515e-04 1.11258400e-04 -3.73639486e-04
3.01321852e-04 0.00000000e+00 -4.02585720e-04
3.01104476e-04 1.11835667e-04 -4.02583624e-04
4.37985262e-04 0.00000000e+00 -4.27514897e-04
4.27677587e-04 1.11710338e-04 -4.14693553e-04
5.82054432e-04 0.00000000e+00 -4.44801903e-04
5.65833587e-04 1.16435462e-04 -4.27740830e-04
6.97160838e-04 0.00000000e+00 -4.50109073e-04
7.18555995e-04 1.35851296e-04 -4.43346915e-04
7.76253582e-05 2.39986766e-04 -3.26576002e-04
0.00000000e+00 2.54249142e-04 -3.20211897e-04
1.71804990e-04 2.38536551e-04 -3.40595638e-04
2.72130244e-04 2.45033298e-04 -3.49258364e-04
4.07490093e-04 2.76122853e-04 -3.75624077e-04
5.46175928e-04 2.80532113e-04 -3.59935948e-04
6.59002282e-04 3.07065115e-04 -3.76417011e-04
6.78081997e-05 3.49872047e-04 -2.74662772e-04
0.00000000e+00 3.57219280e-04 -2.67489493e-04
1.46778431e-04 3.52634059e-04 -2.54257931e-04
1.35690905e-04 2.97658815e-04 1.83963984e-05
7.20442549e-05 4.46018385e-04 -2.27527868e-04
0.00000000e+00 4.33142908e-04 -2.44432158e-04
1.59907388e-04 4.04043414e-04 -1.66748301e-04
2.11155595e-04 3.33228585e-04 -7.77925961e-05
9.33902629e-05 4.83359705e-04 -2.46147567e-04
0.00000000e+00 4.98918933e-04 -2.58401851e-04
1.52081659e-04 4.60459851e-04 -2.07264588e-04
2.61534296e-04 4.23390913e-04 -1.63764926e-04
8.41833753e-05 5.73768455e-04 -3.11977026e-04
0.00000000e+00 5.74237609e-04 -3.26932524e-04
1.57582443e-04 5.86714130e-04 -2.97036866e-04
2.81957997e-04 5.61436289e-04 -2.93032645e-04
2.73336307e-04 3.85660998e-04 5.66499025e-08
2.73216603e-04 3.84945248e-04 2.19421167e-07
2.73847516e-04 3.84939660e-04 3.82000536e-07
2.73773796e-04 3.85635445e-04 -4.38384575e-07
0.00000000e+00 0.00000000e+00 -5.28968289e-04
9.99736658e-05 0.00000000e+00 -5.31871105e-04
1.06976346e-04 1.10513472e-04 -5.24569419e-04
0.00000000e+00 1.05520325e-04 -5.16271568e-04
2.21708484e-04 0.00000000e+00 -5.54093334e-04
1.98712107e-04 9.64741848e-05 -5.44255076e-04
3.29678151e-04 0.00000000e+00 -5.81484346e-04
3.32467520e-04 8.96096317e-05 -5.78919542e-04
4.59845440e-04 0.00000000e+00 -6.06152287e-04
4.67890757e-04 9.38603189e-05 -6.13081269e-04
6.03884109e-04 0.00000000e+00 -6.32334384e-04
6.03209366e-04 9.93086214e-05 -6.29441172e-04
7.42063858e-04 0.00000000e+00 -6.40610291e-04
7.34350586e-04 1.04280807e-04 -6.38766389e-04
7.68633763e-05 2.10483209e-04 -4.89959086e-04
0.00000000e+00 2.37923363e-04 -4.83958604e-04
2.01546893e-04 2.16631001e-04 -5.18563960e-04
3.15020501e-04 2.27404147e-04 -5.92428085e-04
4.53931512e-04 2.50465906e-04 -6.19073166e-04
5.84613823e-04 2.42139839e-04 -6.07282505e-04
6.99721044e-04 2.69103504e-04 -6.17930258e-04
7.15509086e-05 3.61696002e-04 -4.14142793e-04
0.00000000e+00 3.53122887e-04 -4.12205263e-04
1.80821618e-04 3.13082593e-04 -4.62436816e-04
7.33715642e-05 4.47935367e-04 -3.49395501e-04
0.00000000e+00 4.64333338e-04 -3.62065097e-04
1.75825713e-04 4.51957661e-04 -2.87516799e-04
7.63927455e-05 5.64581424e-04 -3.77634744e-04
0.00000000e+00 5.53952297e-04 -3.94134928e-04
1.65562102e-04 5.53215097e-04 -3.57819052e-04
2.12231011e-04 5.63303765e-04 3.91586545e-05
2.44801893e-04 5.42352151e-04 -4.12416935e-04
8.62616507e-05 6.56994991e-04 -4.65609541e-04
0.00000000e+00 6.64487947e-04 -4.85283439e-04
</DataArray>
<DataArray type="Float32" Name="Reaction_force" NumberOfComponents="3" format="ascii">
6.55492842e-01 -4.66569811e-01 8.14103222e+00
0.00000000e+00 -1.00174642e+00 1.65040398e+01
0.00000000e+00 0.00000000e+00 3.19446793e+01
8.89330149e-01 0.00000000e+00 1.59624348e+01
1.21998262e+00 -9.22424018e-01 0.00000000e+00
0.00000000e+00 -1.64166498e+00 0.00000000e+00
0.00000000e+00 0.00000000e+00 0.00000000e+00
1.55982518e+00 0.00000000e+00 0.00000000e+00
0.00000000e+00 -1.08187521e+00 1.68622398e+01
0.00000000e+00 0.00000000e+00 3.29459534e+01
0.00000000e+00 -1.04669189e+00 0.00000000e+00
0.00000000e+00 0.00000000e+00 0.00000000e+00
0.00000000e+00 -8.11424255e-01 1.78667564e+01
0.00000000e+00 0.00000000e+00 3.25070648e+01
0.00000000e+00 -4.61975813e-01 0.00000000e+00
0.00000000e+00 0.00000000e+00 0.00000000e+00
0.00000000e+00 -9.89456773e-01 1.77400818e+01
0.00000000e+00 0.00000000e+00 3.25299301e+01
0.00000000e+00 -7.23340988e-01 0.00000000e+00
0.00000000e+00 0.00000000e+00 0.00000000e+00
0.00000000e+00 -1.66485190e+00 1.60713139e+01
0.00000000e+00 0.00000000e+00 3.01879883e+01
0.00000000e+00 -2.29945946e+00 0.00000000e+00
0.00000000e+00 0.00000000e+00 0.00000000e+00
0.00000000e+00 -2.36438966e+00 9.40191841e+00
0.00000000e+00 0.00000000e+00 1.76875362e+01
0.00000000e+00 -3.12403202e+00 0.00000000e+00
0.00000000e+00 0.00000000e+00 0.00000000e+00
0.00000000e+00 0.00000000e+00 2.96917057e+01
-2.58805096e-01 0.00000000e+00 1.49193029e+01
0.00000000e+00 0.00000000e+00 0.00000000e+00
2.55368859e-01 0.00000000e+00 0.00000000e+00
0.00000000e+00 0.00000000e+00 2.69757576e+01
0.00000000e+00 0.00000000e+00 0.00000000e+00
0.00000000e+00 0.00000000e+00 2.19047165e+01
0.00000000e+00 0.00000000e+00 0.00000000e+00
0.00000000e+00 0.00000000e+00 1.75869007e+01
0.00000000e+00 0.00000000e+00 0.00000000e+00
0.00000000e+00 0.00000000e+00 1.77678032e+01
0.00000000e+00 0.00000000e+00 0.00000000e+00
0.00000000e+00 0.00000000e+00 1.38833828e+01
0.00000000e+00 0.00000000e+00 0.00000000e+00
0.00000000e+00 0.00000000e+00 2.68640156e+01
-1.28178990e+00 0.00000000e+00 1.42263231e+01
0.00000000e+00 0.00000000e+00 0.00000000e+00
-1.51495934e+00 0.00000000e+00 0.00000000e+00
0.00000000e+00 0.00000000e+00 2.08986950e+01
0.00000000e+00 0.00000000e+00 0.00000000e+00
0.00000000e+00 0.00000000e+00 1.26996222e+01
0.00000000e+00 0.00000000e+00 0.00000000e+00
0.00000000e+00 0.00000000e+00 5.28323364e+00
0.00000000e+00 0.00000000e+00 0.00000000e+00
0.00000000e+00 0.00000000e+00 4.60453939e+00
0.00000000e+00 0.00000000e+00 0.00000000e+00
0.00000000e+00 0.00000000e+00 3.95185423e+00
0.00000000e+00 0.00000000e+00 0.00000000e+00
0.00000000e+00 0.00000000e+00 2.59210701e+01
-1.94572556e+00 0.00000000e+00 1.41680202e+01
0.00000000e+00 0.00000000e+00 0.00000000e+00
-3.60889816e+00 0.00000000e+00 0.00000000e+00
0.00000000e+00 0.00000000e+00 2.00411949e+01
0.00000000e+00 0.00000000e+00 0.00000000e+00
0.00000000e+00 0.00000000e+00 1.10320330e+01
0.00000000e+00 0.00000000e+00 0.00000000e+00
0.00000000e+00 0.00000000e+00 -7.29362726e-01
0.00000000e+00 0.00000000e+00 0.00000000e+00
0.00000000e+00 0.00000000e+00 -2.34329700e+00
0.00000000e+00 0.00000000e+00 -3.49556184e+00
0.00000000e+00 0.00000000e+00 0.00000000e+00
0.00000000e+00 0.00000000e+00 0.00000000e+00
0.00000000e+00 0.00000000e+00 2.73248558e+01
-2.43665671e+00 0.00000000e+00 1.38784752e+01
0.00000000e+00 0.00000000e+00 0.00000000e+00
-3.70922756e+00 0.00000000e+00 0.00000000e+00
0.00000000e+00 0.00000000e+00 2.31692238e+01
0.00000000e+00 0.00000000e+00 0.00000000e+00
0.00000000e+00 0.00000000e+00 1.70027237e+01
0.00000000e+00 0.00000000e+00 0.00000000e+00
0.00000000e+00 0.00000000e+00 5.65479898e+00
0.00000000e+00 0.00000000e+00 0.00000000e+00
0.00000000e+00 0.00000000e+00 -3.96520233e+00
0.00000000e+00 0.00000000e+00 0.00000000e+00
0.00000000e+00 0.00000000e+00 1.44525027e+00
0.00000000e+00 0.00000000e+00 0.00000000e+00
0.00000000e+00 0.00000000e+00 1.57950315e+01
-1.64663863e+00 0.00000000e+00 7.61611891e+00
0.00000000e+00 0.00000000e+00 0.00000000e+00
-2.72449255e+00 0.00000000e+00 0.00000000e+00
0.00000000e+00 0.00000000e+00 1.60859680e+01
0.00000000e+00 0.00000000e+00 0.00000000e+00
0.00000000e+00 0.00000000e+00 1.28588238e+01
0.00000000e+00 0.00000000e+00 0.00000000e+00
0.00000000e+00 0.00000000e+00 6.27575588e+00
0.00000000e+00 0.00000000e+00 0.00000000e+00
0.00000000e+00 0.00000000e+00 -2.70738578e+00
0.00000000e+00 0.00000000e+00 0.00000000e+00
0.00000000e+00 0.00000000e+00 3.73592824e-01
0.00000000e+00 0.00000000e+00 0.00000000e+00
4.37151968e-01 -9.70705032e-01 0.00000000e+00
0.00000000e+00 -7.67851889e-01 0.00000000e+00
0.00000000e+00 0.00000000e+00 0.00000000e+00
1.73097122e+00 0.00000000e+00 0.00000000e+00
0.00000000e+00 2.23074943e-01 0.00000000e+00
0.00000000e+00 0.00000000e+00 0.00000000e+00
0.00000000e+00 1.32626653e+00 0.00000000e+00
0.00000000e+00 0.00000000e+00 0.00000000e+00
0.00000000e+00 2.15905476e+00 0.00000000e+00
0.00000000e+00 0.00000000e+00 0.00000000e+00
0.00000000e+00 1.77134335e-01 0.00000000e+00
0.00000000e+00 0.00000000e+00 0.00000000e+00
0.00000000e+00 -6.62503421e-01 0.00000000e+00
0.00000000e+00 0.00000000e+00 0.00000000e+00
0.00000000e+00 0.00000000e+00 0.00000000e+00
8.99328351e-01 0.00000000e+00 0.00000000e+00
0.00000000e+00 0.00000000e+00 0.00000000e+00
0.00000000e+00 0.00000000e+00 0.00000000e+00
0.00000000e+00 0.00000000e+00 0.00000000e+00
0.00000000e+00 0.00000000e+00 0.00000000e+00
0.00000000e+00 0.00000000e+00 0.00000000e+00
0.00000000e+00 0.00000000e+00 0.00000000e+00
-7.39333153e-01 0.00000000e+00 0.00000000e+00
0.00000000e+00 0.00000000e+00 0.00000000e+00
0.00000000e+00 0.00000000e+00 0.00000000e+00
0.00000000e+00 0.00000000e+00 0.00000000e+00
-1.70385134e+00 0.00000000e+00 0.00000000e+00
0.00000000e+00 0.00000000e+00 0.00000000e+00
0.00000000e+00 0.00000000e+00 0.00000000e+00
0.00000000e+00 0.00000000e+00 0.00000000e+00
-1.66423202e+00 0.00000000e+00 0.00000000e+00
0.00000000e+00 0.00000000e+00 0.00000000e+00
0.00000000e+00 0.00000000e+00 0.00000000e+00
0.00000000e+00 0.00000000e+00 0.00000000e+00
-1.32738030e+00 0.00000000e+00 0.00000000e+00
0.00000000e+00 0.00000000e+00 0.00000000e+00
0.00000000e+00 0.00000000e+00 0.00000000e+00
0.00000000e+00 0.00000000e+00 0.00000000e+00
0.00000000e+00 0.00000000e+00 0.00000000e+00
0.00000000e+00 0.00000000e+00 0.00000000e+00
0.00000000e+00 0.00000000e+00 0.00000000e+00
-1.30793557e-01 -3.66414845e-01 0.00000000e+00
0.00000000e+00 5.43832302e-01 0.00000000e+00
0.00000000e+00 0.00000000e+00 0.00000000e+00
1.36716866e+00 0.00000000e+00 0.00000000e+00
0.00000000e+00 1.34564877e+00 0.00000000e+00
0.00000000e+00 0.00000000e+00 0.00000000e+00
0.00000000e+00 2.21758604e+00 0.00000000e+00
0.00000000e+00 0.00000000e+00 0.00000000e+00
0.00000000e+00 3.48899221e+00 0.00000000e+00
0.00000000e+00 0.00000000e+00 0.00000000e+00
0.00000000e+00 2.36209965e+00 0.00000000e+00
0.00000000e+00 0.00000000e+00 0.00000000e+00
0.00000000e+00 8.91978621e-01 0.00000000e+00
0.00000000e+00 0.00000000e+00 0.00000000e+00
0.00000000e+00 0.00000000e+00 0.00000000e+00
1.46953046e+00 0.00000000e+00 0.00000000e+00
0.00000000e+00 0.00000000e+00 0.00000000e+00
0.00000000e+00 0.00000000e+00 0.00000000e+00
0.00000000e+00 0.00000000e+00 0.00000000e+00
0.00000000e+00 0.00000000e+00 0.00000000e+00
0.00000000e+00 0.00000000e+00 0.00000000e+00
0.00000000e+00 0.00000000e+00 0.00000000e+00
2.36947834e-01 0.00000000e+00 0.00000000e+00
0.00000000e+00 0.00000000e+00 0.00000000e+00
0.00000000e+00 0.00000000e+00 0.00000000e+00
3.28035146e-01 0.00000000e+00 0.00000000e+00
0.00000000e+00 0.00000000e+00 0.00000000e+00
0.00000000e+00 0.00000000e+00 0.00000000e+00
5.94136000e-01 0.00000000e+00 0.00000000e+00
0.00000000e+00 0.00000000e+00 0.00000000e+00
0.00000000e+00 0.00000000e+00 0.00000000e+00
0.00000000e+00 0.00000000e+00 0.00000000e+00
0.00000000e+00 0.00000000e+00 0.00000000e+00
-2.87928849e-01 0.00000000e+00 0.00000000e+00
</DataArray>
<DataArray type="Float32" Name="Equivalent_plastic_strain" format="ascii">
4.96784374e-02
5.21882828e-02
4.86103334e-02
4.66762651e-02
4.75154147e-02
4.94988458e-02
4.69469307e-02
4.57047801e-02
5.79378698e-02
5.35249440e-02
5.35752745e-02
5.14783822e-02
6.51482493e-02
6.04489679e-02
5.91713134e-02
5.68108819e-02
7.22825304e-02
6.66973349e-02
6.52598403e-02
6.08891295e-02
8.01750869e-02
7.27149844e-02
7.00693764e-02
6.59731729e-02
8.97159949e-02
8.33783597e-02
7.67552219e-02
7.20315613e-02
4.00901530e-02
3.95302530e-02
4.03065528e-02
3.85508547e-02
3.92250223e-02
4.16950197e-02
3.13827787e-02
4.30112965e-02
3.26011991e-02
4.33868660e-02
2.71840089e-02
4.41947036e-02
2.72109229e-02
5.43744601e-02
3.15481937e-02
3.26168053e-02
3.18100222e-02
3.11556328e-02
2.36744676e-02
2.51073956e-02
5.53723180e-03
6.98067252e-03
3.64052365e-04
1.48099517e-02
-1.38719574e-03
1.35332324e-02
3.13685881e-03
1.27907894e-02
2.77100541e-02
3.02326521e-02
2.60742065e-02
2.82355384e-02
1.80283803e-02
1.79475719e-02
4.84348717e-03
7.55996009e-03
-1.51083539e-04
1.45482449e-03
5.30579686e-03
1.35023003e-03
4.26510442e-03
2.15424554e-03
2.89406059e-02
3.21564600e-02
2.64936087e-02
2.92649199e-02
1.90068798e-02
2.07735286e-02
4.11959813e-03
1.31038835e-02
-3.16181160e-04
5.60263538e-04
-4.78437155e-06
4.77861031e-06
0.00000000e+00
0.00000000e+00
3.35141364e-02
3.65991034e-02
3.14403223e-02
3.39746475e-02
2.51289075e-02
2.80929101e-02
7.01890164e-03
2.14953277e-02
-5.72111021e-05
2.44974202e-03
-2.68715648e-05
-1.76386263e-05
0.00000000e+00
0.00000000e+00
4.52177934e-02
4.53967741e-02
4.39646654e-02
4.38436102e-02
4.60817572e-02
4.68017277e-02
4.89268424e-02
5.16416361e-02
5.22458442e-02
5.65697919e-02
5.33467196e-02
5.84512544e-02
5.34275603e-02
5.81915714e-02
4.05248604e-02
3.96969439e-02
4.77135533e-02
6.22954093e-02
6.88163880e-02
7.08742701e-02
7.16595054e-02
3.24744107e-02
3.13653797e-02
3.91165093e-02
2.93440702e-02
2.58993541e-02
2.47745663e-02
2.03155531e-02
4.87077981e-03
2.56337633e-02
2.47625504e-02
2.64208910e-02
4.35867910e-02
2.96938960e-02
2.88978852e-02
4.11619712e-02
5.81939295e-02
0.00000000e+00
0.00000000e+00
0.00000000e+00
0.00000000e+00
4.62480765e-02
4.58200341e-02
4.54335087e-02
4.57074214e-02
4.45049619e-02
4.65019271e-02
4.39841980e-02
4.83152596e-02
4.33265492e-02
5.18682371e-02
4.12375815e-02
5.00233588e-02
3.88301462e-02
4.65390515e-02
4.65159533e-02
4.39665178e-02
4.99720440e-02
6.80864364e-02
6.87671658e-02
6.45580096e-02
6.04014117e-02
4.35235644e-02
3.77339739e-02
6.63639130e-02
3.09746614e-02
3.08611705e-02
4.40276694e-02
2.29758371e-02
3.05381026e-02
3.66131661e-02
4.05186266e-02
6.99949339e-02
4.30058213e-02
3.60193104e-02
</DataArray>
<DataArray type="Float32" Name="Stress_Mises" format="ascii">
3.10808277e+01
3.37125444e+01
3.21336193e+01
3.05223408e+01
2.95634441e+01
3.21029940e+01
3.07608404e+01
3.13464417e+01
3.73564463e+01
3.83963270e+01
3.30384603e+01
3.52000514e+01
4.24112988e+01
4.43082781e+01
3.51070948e+01
3.91237420e+01
4.52877083e+01
4.98879642e+01
3.81754577e+01
3.28218868e+01
4.68574314e+01
4.23777240e+01
3.42191865e+01
3.47583432e+01
7.06430740e+01
7.12414150e+01
5.04353371e+01
5.08634758e+01
3.09046574e+01
2.91596394e+01
3.06481096e+01
2.65269134e+01
3.21961980e+01
3.15757982e+01
2.86513966e+01
3.07939843e+01
2.90173039e+01
4.29650675e+01
2.80894217e+01
4.40602845e+01
4.55216084e+01
6.72533220e+01
3.00051546e+01
2.83306360e+01
2.93585516e+01
2.41838500e+01
2.12427073e+01
2.68393914e+01
1.88623688e+01
2.05401743e+01
1.81884108e+01
1.92924077e+01
1.03195143e+01
2.13332504e+01
2.95804596e+01
2.55503492e+01
3.01130252e+01
3.09564877e+01
2.67057807e+01
2.85504122e+01
2.28562911e+01
1.95122927e+01
1.44100753e+01
1.41937604e+01
1.82580814e+01
2.34973227e+01
2.93245983e+01
1.34082212e+01
2.91118469e+01
2.08281593e+01
3.08873615e+01
3.23911991e+01
2.49567888e+01
2.89522009e+01
2.53880432e+01
2.39069037e+01
1.97281816e+01
2.52854626e+01
2.06358960e+01
2.51507010e+01
8.91610336e+00
6.87183924e+00
9.47879505e+00
7.49465672e+00
4.39027271e+01
4.38667908e+01
3.73786926e+01
4.17378273e+01
4.69302425e+01
3.95576549e+01
2.46716239e+01
5.29900996e+01
2.33727770e+01
3.40002403e+01
1.94434876e+01
1.03548516e+01
4.89495039e+00
4.05422044e+00
3.07065353e+01
3.01736007e+01
2.74772451e+01
3.08172760e+01
2.60704942e+01
2.57066877e+01
2.56772661e+01
3.00060484e+01
2.69455328e+01
2.73986164e+01
2.25654147e+01
2.68637063e+01
2.01213455e+01
2.34561512e+01
2.47046178e+01
2.92446175e+01
4.22681468e+01
7.75136219e+01
6.24793606e+01
6.31271534e+01
6.46776257e+01
2.45620060e+01
2.11614866e+01
5.57501885e+01
3.24147224e+01
1.95315712e+01
1.85382581e+01
1.84227547e+01
2.21984882e+01
1.99185917e+01
1.99334955e+01
2.99384750e+01
4.57222367e+01
2.85973002e+01
3.13594894e+01
4.78740234e+01
1.00066730e+02
1.33812785e+00
1.57078898e+00
1.71986765e+00
2.53372508e+00
2.99111700e+01
2.97981963e+01
2.63387703e+01
2.93900952e+01
2.60862308e+01
2.45664689e+01
2.39185605e+01
2.67137842e+01
2.14890952e+01
2.87432480e+01
1.74865649e+01
2.77361079e+01
1.16008041e+01
2.10330493e+01
2.57854804e+01
2.60500727e+01
3.57927942e+01
9.11552597e+01
7.25878944e+01
5.65430727e+01
4.33582478e+01
3.01970773e+01
2.38930009e+01
1.13674875e+02
1.84918058e+01
1.69320371e+01
6.65575075e+01
2.01827130e+01
1.97585452e+01
3.82906275e+01
5.35587540e+01
1.02481777e+02
2.38002262e+01
2.98710847e+01
</DataArray>
<DataArray type="Float32" Name="Stress_Max_Principal" format="ascii">
1.57911158e+00
-4.67852116e-01
1.60873406e-01
1.30990291e+00
2.71955633e+00
6.35241017e-01
1.21172170e+00
6.93065494e-01
-3.31870770e+00
-4.33823133e+00
-5.03054529e-01
-2.31998399e+00
-7.30389714e+00
-9.00956416e+00
-2.80536228e+00
-5.31612025e+00
-9.93144408e+00
-1.19122245e+01
-5.17177129e+00
-5.78539938e-01
-1.05526556e+01
-5.07585180e+00
-2.04835069e+00
2.89830482e+00
-2.61750717e+01
-2.44068766e+01
-1.30150358e+01
-1.25224106e+01
9.76632118e-01
2.14038515e+00
5.83940722e-01
3.62239259e+00
1.32977533e+00
2.70450637e-01
1.90742007e+01
9.19341300e+00
2.40821504e+01
6.64720519e+00
2.99333258e+01
9.86343439e+00
2.40855179e+01
2.07356771e+00
3.62882766e+00
4.11537695e+00
3.41980362e+00
6.38841014e+00
1.72827911e+01
1.52595843e+01
3.67604198e+01
4.15079230e+01
4.08755976e+01
3.38266691e+01
4.28640391e+01
4.35201486e+01
3.92950951e+01
2.11621418e+01
4.61371043e+00
3.11772120e+00
6.43395180e+00
4.42633304e+00
1.07541664e+01
1.39168887e+01
2.17797735e+01
2.39314880e+01
2.48296369e+01
1.99507268e+01
4.95183584e+00
1.61247166e+01
1.02304592e+01
1.69586263e+01
3.36568981e+00
1.84063387e+00
7.40327325e+00
3.86453245e+00
8.33452465e+00
1.38804544e+01
2.62543825e+01
1.20148684e+01
2.02525723e+01
1.83062911e+01
6.44807994e+00
5.16470981e+00
2.93341678e+00
1.62070026e+00
-7.15492767e+00
-6.91387224e+00
-3.14065808e+00
-6.54020524e+00
-8.07766992e+00
-4.13459921e+00
1.46971682e+01
-8.95579386e+00
1.68316889e+01
1.06796050e+01
8.85586596e+00
5.27711682e+00
8.60026926e-02
1.08476722e+00
1.16852164e+00
1.09563676e+00
3.75820558e+00
1.39654222e+00
4.32476315e+00
4.98671195e+00
4.36761336e+00
8.54601158e+00
3.97260642e+00
3.48824716e+00
7.46405020e+00
3.80827802e+00
9.52327871e+00
7.30630970e+00
6.13982242e+00
2.84226028e+00
-7.04545598e+00
-3.38503954e+01
-2.55467491e+01
-2.55990325e+01
-2.52433300e+01
1.54403023e+01
8.62238908e+00
-1.55665986e+01
2.74549160e+01
1.18172874e+01
1.09805812e+01
2.96158906e+01
3.39326534e+01
1.08542902e+01
1.01210545e+01
3.70027632e+00
-8.00315309e+00
2.41572940e+00
-4.98769283e-01
1.01706328e+01
-5.61870518e+01
7.09053338e-01
8.68900359e-01
7.70583034e-01
1.47830230e+00
4.47649240e-01
8.63560591e-01
4.38061799e+00
1.50816908e+00
4.76920727e+00
6.34349256e+00
6.48822457e+00
1.21093300e+01
8.85742521e+00
2.78184591e+00
1.19932319e+01
7.76922160e+00
1.66695609e+01
1.81275185e+01
6.27980971e+00
6.04443304e+00
1.37540696e+01
-4.86534626e+01
-3.40866847e+01
-2.08125696e+01
-8.77763772e+00
3.21386044e+00
1.64534500e+01
-5.96368694e+01
2.01423087e+01
1.25138934e+01
-2.53823915e+01
2.33193506e+01
1.49765924e+01
3.52357063e+01
2.95176468e+01
-4.69424189e+01
6.80945551e+00
1.73050213e+00
</DataArray>
<DataArray type="Float32" Name="Stress_Mid_Principal" format="ascii">
-3.64806151e+00
-6.13123828e+00
-3.93669891e+00
-2.29976189e+00
-2.14958373e+00
-4.41237211e+00
-2.60558800e+00
-3.10091329e+00
-9.53991991e+00
-1.02255955e+01
-4.73470369e+00
-6.60001835e+00
-1.41620946e+01
-1.55248810e+01
-5.88493401e+00
-1.02827654e+01
-1.64403136e+01
-2.23230178e+01
-8.78926921e+00
-4.04796977e+00
-1.85739007e+01
-1.62121692e+01
-5.07155824e+00
-3.66575396e+00
-4.43603668e+01
-4.72632618e+01
-2.21279433e+01
-2.29892877e+01
-2.52217245e+00
-6.63024426e-01
-1.58149683e+00
2.46500558e+00
-5.03950560e+00
-2.99389647e+00
1.07910048e+01
3.66576542e+00
1.25059528e+01
-8.36635453e+00
1.65742387e+01
-3.94351537e+00
1.55179024e+00
-2.24882037e+01
-3.96752799e+00
-1.40631151e+00
-2.12929744e+00
3.67050388e+00
9.59781694e+00
4.28110915e+00
2.39729689e+01
2.81643991e+01
3.16714141e+01
1.76715314e+01
3.64823799e+01
2.52079756e+01
2.80625463e+01
6.90983045e+00
-5.40693745e+00
-5.25296760e+00
-6.44539297e-01
-2.04667701e+00
2.11742854e+00
6.30180851e+00
1.70627855e+01
1.84110602e+01
1.35099959e+01
3.73469448e+00
-5.81166744e+00
5.96927794e+00
2.36314237e-01
-7.54831155e-01
-5.29574060e+00
-6.35016364e+00
1.28552971e+00
-2.32115752e+00
5.15650749e-01
5.42911818e+00
1.63221599e+01
6.22456710e-01
7.90988755e+00
2.92096043e+00
2.04414573e+00
7.15828526e-01
-1.06941714e+00
3.90101204e-01
-1.69182899e+01
-1.73398685e+01
-9.30476503e+00
-1.36481042e+01
-1.97299356e+01
-1.09459979e+01
6.48274565e+00
-2.38654269e+01
7.23788023e+00
-6.37256932e+00
4.68953836e+00
1.64077000e+00
-1.95168123e-01
-6.35827791e-01
-2.41136944e+00
-1.36353239e+00
5.71396500e-01
-2.87206945e+00
2.57866919e+00
2.45853843e+00
3.16649404e+00
4.00602014e+00
1.40213972e+00
1.11996317e+00
5.44148815e+00
1.84918110e+00
7.87148523e+00
4.36918092e+00
3.07991913e+00
-1.59907255e+00
-1.16539347e+01
-4.48260577e+01
-3.00079956e+01
-3.09288113e+01
-3.42713966e+01
9.84652382e+00
6.77726412e+00
-2.09666132e+01
8.85475087e+00
7.28984258e+00
9.26039609e+00
1.98105665e+01
2.36786335e+01
7.06335783e+00
7.43624631e+00
-3.69869882e+00
-1.22517757e+01
5.68704247e-01
-1.45492578e+00
-4.09770679e+00
-6.17777061e+01
-3.32509436e-01
-4.07406610e-01
5.64654171e-03
-5.55999815e-01
-1.94783688e-01
-4.27143745e-01
2.06992922e+00
-2.94398308e-01
2.05003408e+00
3.34491658e+00
3.98647085e+00
6.33428606e+00
5.74618755e+00
-5.86375117e-01
9.51819122e+00
3.60119045e+00
1.51317735e+01
1.30962729e+01
1.09981239e+00
8.69753122e-01
6.00026967e+00
-5.53209263e+01
-3.86932225e+01
-2.45126748e+01
-1.40997710e+01
-3.02091227e+00
9.81857443e+00
-7.81785250e+01
1.54940970e+01
1.00234482e+01
-3.21655785e+01
1.62603793e+01
1.16518025e+01
1.78141107e+01
-6.58105278e+00
-6.19369157e+01
4.77936018e+00
-1.30677414e+00
</DataArray>
<DataArray type="Float32" Name="Stress_Min_Principal" format="ascii">
-3.17838707e+01
-3.66515493e+01
-3.38073912e+01
-3.08465157e+01
-2.89760008e+01
-3.36909328e+01
-3.12705199e+01
-3.23638639e+01
-4.33951225e+01
-4.53315881e+01
-3.54427826e+01
-3.94562061e+01
-5.27032204e+01
-5.61942945e+01
-3.93473799e+01
-4.66829729e+01
-5.81183758e+01
-6.61759737e+01
-4.50271779e+01
-3.49893959e+01
-6.08981895e+01
-5.18601193e+01
-3.76783504e+01
-3.42178483e+01
-1.04132919e+02
-1.04269562e+02
-6.73855362e+01
-6.77896886e+01
-3.15200433e+01
-2.83169379e+01
-3.10798435e+01
-2.34578432e+01
-3.35539100e+01
-3.28017917e+01
-1.12090063e+01
-2.31668288e+01
-7.66845798e+00
-4.06805312e+01
-1.35774851e+00
-3.79662889e+01
-2.75544605e+01
-7.24356880e+01
-2.93933662e+01
-2.65592299e+01
-2.82198338e+01
-1.89982358e+01
-6.14591312e+00
-1.47833498e+01
1.61595923e+01
1.87295702e+01
2.06169020e+01
1.25151227e+01
3.12508055e+01
2.02747437e+01
6.84420395e+00
-6.50580022e+00
-2.92290249e+01
-3.11605463e+01
-2.30890319e+01
-2.67916055e+01
-1.50359131e+01
-8.10788073e+00
5.99444531e+00
8.65286303e+00
4.28246752e+00
-6.13366739e+00
-2.73787689e+01
9.54395731e-01
-2.24582844e+01
-5.70720754e+00
-3.08217391e+01
-3.38565598e+01
-2.00408573e+01
-2.76419177e+01
-1.97156298e+01
-1.26367848e+01
4.27998400e+00
-1.66998894e+01
-3.09302191e+00
-9.84047532e+00
-3.78328820e+00
-2.47500830e+00
-7.77972913e+00
-6.33313727e+00
-5.51015987e+01
-5.50543594e+01
-4.31678219e+01
-5.13750687e+01
-5.96530304e+01
-4.65682638e+01
-1.29593210e+01
-6.72867533e+01
-8.63284945e+00
-2.80072203e+01
-1.20665565e+01
-6.31490374e+00
-4.94347286e+00
-3.54334509e+00
-3.11710396e+01
-3.02203188e+01
-2.51733368e+01
-3.13300238e+01
-2.25741315e+01
-2.18719435e+01
-2.18752154e+01
-2.23413278e+01
-2.41637766e+01
-2.50084683e+01
-1.60427115e+01
-2.39663071e+01
-1.13728895e+01
-1.74610915e+01
-1.99367717e+01
-2.83504235e+01
-5.14271146e+01
-1.15871160e+02
-9.01367474e+01
-9.12049475e+01
-9.39571953e+01
-1.05088176e+01
-1.33750368e+01
-7.37592665e+01
-9.77140307e+00
-9.51266327e+00
-8.34417486e+00
9.39336744e+00
9.33150514e+00
-1.06378173e+01
-1.10163406e+01
-2.91606215e+01
-5.56202931e+01
-2.70451684e+01
-3.23247881e+01
-4.07748241e+01
-1.58929680e+02
-7.99277544e-01
-8.84219557e-01
-1.19895113e+00
-1.34510899e+00
-2.97793751e+01
-2.95589039e+01
-2.30177388e+01
-2.87271392e+01
-2.25661979e+01
-1.95654954e+01
-1.85719313e+01
-1.59439811e+01
-1.40108309e+01
-2.74862161e+01
-6.59820619e+00
-2.12586027e+01
4.38058472e+00
-3.81226969e+00
-2.16545877e+01
-2.21953306e+01
-2.28698733e+01
-1.42776741e+02
-1.08861458e+02
-7.91146564e+01
-5.45511818e+01
-2.95312071e+01
-9.19310498e+00
-1.81419882e+02
6.92509583e-01
-5.51751035e+00
-9.49414272e+01
1.87287068e+00
-5.77632976e+00
-5.53413895e+00
-3.20196686e+01
-1.55981794e+02
-1.77757287e+01
-2.95376439e+01
</DataArray>
<DataArray type="Float32" Name="Stress_Pressure" format="ascii">
1.12842731e+01
1.44168801e+01
1.25277389e+01
1.06121247e+01
9.46867609e+00
1.24893544e+01
1.08881286e+01
1.15905709e+01
1.87512498e+01
1.99651386e+01
1.35601802e+01
1.61254027e+01
2.47230716e+01
2.69095794e+01
1.60125592e+01
2.07606199e+01
2.81633782e+01
3.34704053e+01
1.96627395e+01
1.32053014e+01
3.00082483e+01
2.43827143e+01
1.49327526e+01
1.16617663e+01
5.82227859e+01
5.86465683e+01
3.41761727e+01
3.44337974e+01
1.10218612e+01
8.94652526e+00
1.06924667e+01
5.79014850e+00
1.24212137e+01
1.18417454e+01
-6.21873283e+00
3.43588362e+00
-9.63988042e+00
1.41332273e+01
-1.50499383e+01
1.06821238e+01
6.39049530e-01
3.09501076e+01
9.91068883e+00
7.95005500e+00
8.97644231e+00
2.97977348e+00
-6.91156459e+00
-1.58578105e+00
-2.56309938e+01
-2.94672970e+01
-3.10546376e+01
-2.13377749e+01
-3.68657405e+01
-2.96676222e+01
-2.47339478e+01
-7.18872356e+00
1.00074173e+01
1.10985975e+01
5.76653968e+00
8.13731629e+00
7.21439362e-01
-4.03693905e+00
-1.49456686e+01
-1.69984705e+01
-1.42073668e+01
-5.85058467e+00
9.41286635e+00
-7.68279680e+00
3.99717021e+00
-3.49886235e+00
1.09172632e+01
1.27886968e+01
3.78401810e+00
8.69951439e+00
3.62181824e+00
-2.22426248e+00
-1.56188419e+01
1.35418789e+00
-8.35647911e+00
-3.79559189e+00
-1.56964585e+00
-1.13517670e+00
1.97190994e+00
1.44077856e+00
2.63916049e+01
2.64360332e+01
1.85377489e+01
2.38544598e+01
2.91535454e+01
2.05496208e+01
-2.74019718e+00
3.33693237e+01
-5.14557329e+00
7.90006131e+00
-4.92949367e-01
-2.00994313e-01
1.68421268e+00
1.03146850e+00
1.08046291e+01
1.01627384e+01
6.94791146e+00
1.09351840e+01
5.22356659e+00
4.80889750e+00
4.78036880e+00
3.26309903e+00
6.26300997e+00
6.80008598e+00
1.04572444e+00
6.10294926e+00
-2.00729138e+00
1.92853355e+00
3.57234337e+00
9.03574467e+00
2.33755014e+01
6.48492029e+01
4.85638313e+01
4.92442636e+01
5.11573067e+01
-4.92600223e+00
-6.74872085e-01
3.67641608e+01
-8.84608793e+00
-3.19815578e+00
-3.96560082e+00
-1.96066082e+01
-2.23142631e+01
-2.42661037e+00
-2.18032014e+00
9.71968151e+00
2.52917414e+01
8.02024496e+00
1.14261611e+01
1.15673003e+01
9.22981453e+01
1.40911218e-01
1.40908614e-01
1.40907180e-01
1.40935507e-01
9.84216934e+00
9.70749600e+00
5.52239714e+00
9.17112275e+00
5.24898517e+00
3.29236237e+00
2.69907856e+00
-8.33211403e-01
-1.97593689e-01
8.43024874e+00
-4.97107202e+00
3.29606330e+00
-1.20606399e+01
-9.13717401e+00
4.75832199e+00
5.09371471e+00
1.03851151e+00
8.22503769e+01
6.05471220e+01
4.14799681e+01
2.58095293e+01
9.77941973e+00
-5.69297345e+00
1.06411758e+02
-1.21096381e+01
-5.67327732e+00
5.08297982e+01
-1.38175334e+01
-6.95068777e+00
-1.58385597e+01
3.02769160e+00
8.82870433e+01
2.06230509e+00
9.70463848e+00
</DataArray>
<DataArray type="Float32" Name="Stress_Tresca" format="ascii">
3.33629837e+01
3.61836977e+01
3.39682646e+01
3.21564178e+01
3.16955566e+01
3.43261738e+01
3.24822414e+01
3.30569296e+01
4.00764151e+01
4.09933567e+01
3.49397278e+01
3.71362221e+01
4.53993225e+01
4.71847305e+01
3.65420179e+01
4.13668529e+01
4.81869316e+01
5.42637486e+01
3.98554060e+01
3.44108558e+01
5.03455353e+01
4.67842684e+01
3.56300001e+01
3.71161530e+01
7.79578476e+01
7.98626862e+01
5.43705006e+01
5.52672777e+01
3.24966760e+01
3.04573231e+01
3.16637838e+01
2.70802360e+01
3.48836851e+01
3.30722421e+01
3.02832069e+01
3.23602416e+01
3.17506084e+01
4.73277353e+01
3.12910748e+01
4.78297234e+01
5.16399784e+01
7.45092557e+01
3.30221939e+01
3.06746063e+01
3.16396369e+01
2.53866463e+01
2.34287047e+01
3.00429342e+01
2.06008272e+01
2.27783527e+01
2.02586956e+01
2.13115470e+01
1.16132336e+01
2.32454046e+01
3.24508915e+01
2.76679420e+01
3.38427353e+01
3.42782669e+01
2.95229836e+01
3.12179384e+01
2.57900789e+01
2.20247693e+01
1.57853284e+01
1.52786252e+01
2.05471694e+01
2.60843945e+01
3.23306046e+01
1.51703211e+01
3.26887436e+01
2.26658344e+01
3.41874290e+01
3.56971941e+01
2.74441301e+01
3.15064502e+01
2.80501549e+01
2.65172393e+01
2.19743981e+01
2.87147576e+01
2.33455939e+01
2.81467667e+01
1.02313683e+01
7.63971825e+00
1.07131457e+01
7.95383739e+00
4.79466724e+01
4.81404877e+01
4.00271640e+01
4.48348637e+01
5.15753593e+01
4.24336653e+01
2.76564884e+01
5.83309606e+01
2.54645386e+01
3.86868267e+01
2.09224224e+01
1.15920207e+01
5.02947569e+00
4.62811232e+00
3.23395615e+01
3.13159556e+01
2.89315424e+01
3.27265663e+01
2.68988948e+01
2.68586552e+01
2.62428291e+01
3.08873391e+01
2.81363821e+01
2.84967155e+01
2.35067611e+01
2.77745844e+01
2.08961687e+01
2.47674015e+01
2.60765939e+01
3.11926837e+01
4.43816588e+01
8.20207645e+01
6.45899992e+01
6.56059132e+01
6.87138653e+01
2.59491200e+01
2.19974253e+01
5.81926680e+01
3.72263184e+01
2.13299503e+01
1.93247561e+01
2.02225231e+01
2.46011486e+01
2.14921075e+01
2.11373949e+01
3.28608980e+01
4.76171408e+01
2.94608974e+01
3.18260183e+01
5.09454565e+01
1.02742626e+02
1.50833088e+00
1.75311989e+00
1.96953416e+00
2.82341123e+00
3.02270241e+01
3.04224644e+01
2.73983570e+01
3.02353086e+01
2.73354058e+01
2.59089880e+01
2.50601559e+01
2.80533111e+01
2.28682566e+01
3.02680620e+01
1.85914383e+01
2.90278245e+01
1.22889762e+01
2.19397888e+01
2.79343973e+01
2.82397633e+01
3.66239425e+01
9.41232773e+01
7.47747736e+01
5.83020859e+01
4.57735443e+01
3.27450676e+01
2.56465549e+01
1.21783010e+02
1.94497991e+01
1.80314033e+01
6.95590363e+01
2.14464803e+01
2.07529221e+01
4.07698451e+01
6.15373154e+01
1.09039371e+02
2.45851841e+01
3.12681460e+01
</DataArray>
<DataArray type="Float32" Name="Stress_Third_Invariant" format="ascii">
-3.00679703e+01
-3.26102362e+01
-3.14812794e+01
-3.00039129e+01
-2.86398096e+01
-3.11860862e+01
-3.01919864e+01
-3.07794838e+01
-3.61630840e+01
-3.73385777e+01
-3.23863378e+01
-3.45814100e+01
-4.10593491e+01
-4.31435313e+01
-3.47907434e+01
-3.83951082e+01
-4.42070856e+01
-4.73218751e+01
-3.77868507e+01
-3.23806989e+01
-4.52580690e+01
-3.86651801e+01
-3.39152824e+01
-3.05666869e+01
-6.50567932e+01
-6.21427422e+01
-4.85309582e+01
-4.82956476e+01
-3.04275780e+01
-2.88455019e+01
-3.04457459e+01
-2.64505394e+01
-3.06546540e+01
-3.11642216e+01
-1.68056362e+01
-2.54015926e+01
-1.37186472e+01
-3.03656656e+01
-8.50363088e+00
-2.90974267e+01
-1.77489643e+01
-4.34424318e+01
-2.75183759e+01
-2.70439844e+01
-2.78112353e+01
-2.37073512e+01
-1.40069789e+01
-1.74248227e+01
4.55879378e+00
5.66961932e+00
-1.24042384e+00
1.75038001e+01
2.97518571e-01
1.93450216e+01
-7.62687397e+00
-2.20932388e+00
-2.59277596e+01
-2.82255335e+01
-2.44208415e+01
-2.67746744e+01
-1.53955566e+01
-1.39729446e+01
-8.75880325e+00
-4.93867962e+00
6.45158386e+00
9.44312191e+00
-1.22361221e+01
1.08394454e+01
-2.41576204e+01
1.85038198e+01
-2.75007830e+01
-2.99127684e+01
-2.31675373e+01
-2.72662129e+01
-2.03413537e+01
-1.71187796e+01
-6.71471828e+00
-1.43462041e+01
5.19464016e+00
3.21677017e+00
-4.99738407e+00
1.92006493e-01
-3.86276996e+00
-6.21678464e+00
-4.12949581e+01
-4.09375114e+01
-3.60396481e+01
-4.03406601e+01
-4.31553850e+01
-3.79113050e+01
-1.92867597e+01
-4.55599995e+01
-1.51703358e+00
6.34046555e-01
-1.68913882e+01
-8.28480212e+00
-4.87673187e+00
-3.02996039e+00
-3.02316723e+01
-2.99099898e+01
-2.70563030e+01
-3.01333609e+01
-2.59361348e+01
-2.53668418e+01
-2.55717683e+01
-2.42805700e+01
-2.66605339e+01
-2.71380214e+01
-2.23544204e+01
-2.66548281e+01
-1.99674616e+01
-2.29730077e+01
-2.42236922e+01
-2.84095969e+01
-4.16914230e+01
-7.44017288e+01
-6.21182270e+01
-6.25649967e+01
-6.32254200e+01
-1.77301428e+01
-2.08972702e+01
-5.49673630e+01
-7.07036018e-01
-1.79090056e+01
-1.83132583e+01
-3.64650937e+00
-7.28168043e+00
-1.89060392e+01
-1.95126479e+01
-2.74236320e+01
-4.49741892e+01
-2.84138833e+01
-3.13248177e+01
-3.03900642e+01
-9.97076607e+01
1.12826651e+00
1.38959771e+00
-1.23936480e+00
2.18001556e+00
-2.98950806e+01
-2.97348695e+01
-2.60476252e+01
-2.92210164e+01
-2.57522085e+01
-2.40869998e+01
-2.35873394e+01
-2.05458035e+01
-2.09506538e+01
-2.82600883e+01
-1.70832915e+01
-2.41301915e+01
-1.13550258e+01
-1.34793236e+01
-2.44056581e+01
-2.48208127e+01
-2.30264826e+01
-9.00350426e+01
-7.22375774e+01
-5.62692165e+01
-4.26137810e+01
-2.84005901e+01
-1.64592558e+01
-1.10119226e+02
-1.22983902e+01
-1.64864433e+01
-6.53639970e+01
-9.73549609e+00
-1.58089329e+01
-9.61875221e+00
3.56379929e+01
-9.95821737e+01
-2.27537263e+01
-2.95031221e+01
</DataArray>
<DataArray type="Float32" Name="Logarithmic_strain_Max_Principal" format="ascii">
3.87897827e-02
4.04615682e-02
3.63493189e-02
3.45417354e-02
3.66651416e-02
3.75381904e-02
3.45240403e-02
3.38381734e-02
4.46382221e-02
4.04491378e-02
3.91481295e-02
3.72410933e-02
4.93058600e-02
4.39788168e-02
4.14733253e-02
4.04614471e-02
5.35147209e-02
4.88193538e-02
4.47127894e-02
4.21676231e-02
5.91928288e-02
5.50610041e-02
4.81227664e-02
4.71183602e-02
7.33676478e-02
6.58470206e-02
5.77955898e-02
5.59983449e-02
2.84634358e-02
2.69341301e-02
2.78518423e-02
2.58722929e-02
3.06773069e-02
2.95297517e-02
2.73046899e-02
3.05354236e-02
3.09608248e-02
3.65391988e-02
3.28213745e-02
3.83320702e-02
3.52224065e-02
4.41960866e-02
2.43369881e-02
2.44733058e-02
2.27453504e-02
2.12388840e-02
1.94646581e-02
2.08507224e-02
9.68847494e-03
1.36157085e-02
8.61207737e-03
1.75274084e-02
8.57201125e-03
1.77242306e-02
7.31750601e-03
1.58213412e-02
2.34006643e-02
2.45736670e-02
2.09353648e-02
2.20634323e-02
1.61165129e-02
1.61357560e-02
5.78249560e-03
8.16133234e-03
9.86744368e-04
2.32618693e-03
4.47739766e-03
2.83408696e-03
4.69552240e-03
4.18096869e-03
2.26926045e-02
2.49757171e-02
2.05721965e-02
2.19155792e-02
1.62326070e-02
1.70602318e-02
5.14586834e-03
1.16662444e-02
3.89233268e-04
1.56973489e-03
1.35160003e-04
1.10893130e-04
9.41173603e-05
5.60635356e-05
2.54623136e-02
2.80344374e-02
2.26074192e-02
2.47646486e-02
2.08952818e-02
2.05627000e-02
8.02079774e-03
1.71379965e-02
7.39912241e-04
3.11075083e-03
1.90662326e-04
1.13145591e-04
2.24093383e-05
3.82528779e-05
3.21631711e-02
3.09092733e-02
3.17272427e-02
3.21309357e-02
3.02564753e-02
3.25078897e-02
3.17564984e-02
3.49571919e-02
3.56582273e-02
3.85497203e-02
3.45432796e-02
3.93305751e-02
3.55544677e-02
4.00239332e-02
2.96526966e-02
3.02010588e-02
3.30449473e-02
4.32890736e-02
4.47963402e-02
4.54169223e-02
4.68644928e-02
2.39810732e-02
2.26988038e-02
2.94426760e-02
3.64695312e-02
1.94665054e-02
1.67338455e-02
1.84296569e-02
1.70946801e-02
1.92000661e-02
1.73661229e-02
2.39342037e-02
2.91256090e-02
1.97013440e-02
1.84351131e-02
2.73616635e-02
3.67862741e-02
1.83795905e-05
2.28520566e-05
1.97610270e-05
3.70840044e-05
2.82555502e-02
2.86959712e-02
3.08444903e-02
2.90658623e-02
3.12811141e-02
3.33476525e-02
3.21950368e-02
3.50099523e-02
3.25862607e-02
3.67152751e-02
2.96528968e-02
3.35644125e-02
2.80493721e-02
3.15941889e-02
3.53529677e-02
3.36890733e-02
3.28509893e-02
4.66602050e-02
4.45389627e-02
4.04117517e-02
3.82451601e-02
3.45427559e-02
2.98619587e-02
5.22465529e-02
2.25491492e-02
2.36375150e-02
3.15984944e-02
2.19752621e-02
2.17195116e-02
3.09190231e-02
4.51877043e-02
5.13040138e-02
2.89512384e-02
2.60114828e-02
</DataArray>
<DataArray type="Float32" Name="Logarithmic_strain_Min_Principal" format="ascii">
-4.90125120e-02
-5.16706780e-02
-4.84290337e-02
-4.65746336e-02
-4.70330529e-02
-4.92359763e-02
-4.69374568e-02
-4.56036869e-02
-5.75653780e-02
-5.34782680e-02
-5.37281204e-02
-5.18051055e-02
-6.51571192e-02
-5.96905751e-02
-5.97536936e-02
-5.75162508e-02
-7.27372169e-02
-6.63637426e-02
-6.60355370e-02
-6.10216293e-02
-8.07474665e-02
-7.05203209e-02
-7.05285389e-02
-6.58943704e-02
-8.98825452e-02
-8.01081024e-02
-7.73785003e-02
-7.29064373e-02
-4.04337374e-02
-3.99888381e-02
-4.07401943e-02
-3.89621938e-02
-3.93716451e-02
-4.17705094e-02
-3.45165003e-02
-4.28457005e-02
-3.55621343e-02
-4.60307859e-02
-3.34770936e-02
-4.72117805e-02
-3.63195594e-02
-5.37033180e-02
-3.15188752e-02
-3.27186827e-02
-3.22492919e-02
-3.15321302e-02
-2.27281074e-02
-2.68244185e-02
-8.99071596e-03
-1.21578334e-02
-6.53319635e-03
-1.40371257e-02
-6.75962291e-03
-1.42713515e-02
-7.84352119e-03
-1.37082259e-02
-2.72143683e-02
-2.99617453e-02
-2.61083166e-02
-2.82439766e-02
-1.75444959e-02
-1.74310890e-02
-4.49411385e-03
-7.41943841e-03
-1.12337329e-03
-1.82460204e-03
-6.52468509e-03
-2.04172608e-03
-6.22807736e-03
-2.49012594e-03
-2.89396881e-02
-3.21680512e-02
-2.65303128e-02
-2.93956529e-02
-1.88762238e-02
-2.07112429e-02
-3.94895312e-03
-1.35306498e-02
-2.14876171e-04
-9.53125967e-04
-1.06717573e-04
-7.18981788e-05
-1.62873846e-04
-1.35109305e-04
-3.41159999e-02
-3.69710699e-02
-3.20717264e-02
-3.47117037e-02
-2.58371793e-02
-2.91067115e-02
-7.22627249e-03
-2.29190392e-02
-1.14333341e-03
-3.26763510e-03
-2.78680724e-04
-1.40232391e-04
-9.83946884e-05
-7.28567866e-05
-4.54748403e-02
-4.58680103e-02
-4.40605902e-02
-4.39671557e-02
-4.65897890e-02
-4.70673940e-02
-4.94309450e-02
-5.22158621e-02
-5.27128298e-02
-5.71443429e-02
-5.35552511e-02
-5.91938160e-02
-5.36252335e-02
-5.89496093e-02
-4.06232844e-02
-3.94826364e-02
-4.93644119e-02
-6.55192107e-02
-7.08083119e-02
-7.31004775e-02
-7.36629888e-02
-3.27389489e-02
-3.15286252e-02
-4.23961108e-02
-3.26738060e-02
-2.60187453e-02
-2.52700667e-02
-2.21551984e-02
-1.70361002e-02
-2.58009280e-02
-2.51086433e-02
-3.10662903e-02
-4.35800450e-02
-3.05177798e-02
-2.97148572e-02
-3.99234137e-02
-6.33998085e-02
-1.77430547e-05
-1.93209426e-05
-2.71902754e-05
-3.05141884e-05
-4.68739886e-02
-4.65011010e-02
-4.57677925e-02
-4.64102393e-02
-4.47242726e-02
-4.66509569e-02
-4.38087871e-02
-4.85383733e-02
-4.30898322e-02
-5.23167425e-02
-4.12439182e-02
-5.03930077e-02
-3.86124551e-02
-4.65449421e-02
-4.62645600e-02
-4.38346239e-02
-5.32994073e-02
-7.47558720e-02
-7.12612327e-02
-6.60341578e-02
-6.13537673e-02
-4.36556725e-02
-3.72604784e-02
-7.50319799e-02
-3.16060374e-02
-3.03406860e-02
-4.82292948e-02
-3.08028299e-02
-3.03075952e-02
-4.19400095e-02
-4.85701561e-02
-7.32085307e-02
-3.88696659e-02
-3.67648304e-02
</DataArray>
<DataArray type="Float32" Name="Plastic_strain_Max_Principal" format="ascii">
3.86282578e-02
4.03164737e-02
3.62154199e-02
3.43728494e-02
3.64797730e-02
3.73919085e-02
3.43675972e-02
3.37030781e-02
4.45432533e-02
4.03768504e-02
3.89972590e-02
3.71500212e-02
4.92336974e-02
4.50331718e-02
4.13518604e-02
4.02869293e-02
5.34600019e-02
5.00279358e-02
4.46923627e-02
4.23787106e-02
5.92250880e-02
5.74320350e-02
4.81464202e-02
4.74091270e-02
7.33946860e-02
6.92863800e-02
5.79412654e-02
5.56655107e-02
2.83168741e-02
2.67669065e-02
2.77236688e-02
2.56908736e-02
3.03858682e-02
2.96689486e-02
2.40900023e-02
3.10064775e-02
2.76274080e-02
3.42459595e-02
2.51233090e-02
3.55048121e-02
2.43068077e-02
4.48294530e-02
2.41343300e-02
2.42608609e-02
2.25669087e-02
2.10137186e-02
1.97173874e-02
1.98381499e-02
6.74435333e-03
1.50325447e-02
6.04828703e-03
1.80856373e-02
7.55027014e-03
1.74976420e-02
6.54285052e-03
1.56721314e-02
2.31708968e-02
2.43458347e-02
2.06956009e-02
2.18558656e-02
1.58386638e-02
1.58112735e-02
5.46892936e-03
7.95281927e-03
6.88767485e-04
1.92227581e-03
4.30713827e-03
2.56142675e-03
4.44941735e-03
3.83401710e-03
2.24791216e-02
2.48033842e-02
2.03458371e-02
2.17160359e-02
1.60045295e-02
1.67560310e-02
4.80993825e-03
1.13774357e-02
1.26735675e-04
1.20316505e-03
4.19850073e-06
3.46246666e-06
0.00000000e+00
0.00000000e+00
2.53733480e-02
2.79834121e-02
2.25541447e-02
2.47052200e-02
2.08375650e-02
2.04333216e-02
7.72085553e-03
1.70926945e-02
5.50234283e-04
2.76565206e-03
3.07508890e-05
1.72857411e-05
0.00000000e+00
0.00000000e+00
3.20354234e-02
3.07681574e-02
3.15536147e-02
3.19680469e-02
3.00951004e-02
3.22760418e-02
3.15826852e-02
3.46482974e-02
3.54620414e-02
3.82882874e-02
3.43696899e-02
3.90524562e-02
3.54144061e-02
3.96450488e-02
2.94439900e-02
3.00465319e-02
3.29890113e-02
4.33721527e-02
4.50844737e-02
4.57099043e-02
4.70861010e-02
2.36898432e-02
2.25093509e-02
2.98153156e-02
3.72999320e-02
1.91920262e-02
1.64944248e-02
1.70958709e-02
1.79497109e-02
1.89558633e-02
1.71276242e-02
2.21453153e-02
3.17359706e-02
1.95746650e-02
1.83970807e-02
2.91000479e-02
3.66927218e-02
0.00000000e+00
0.00000000e+00
0.00000000e+00
0.00000000e+00
2.81602722e-02
2.85416469e-02
3.07002589e-02
2.88992971e-02
3.10932486e-02
3.31313210e-02
3.20106559e-02
3.46360276e-02
3.22918762e-02
3.64657380e-02
2.93082967e-02
3.33334014e-02
2.76669702e-02
3.12389750e-02
3.50771048e-02
3.35177639e-02
3.29348259e-02
4.72721644e-02
4.50030249e-02
4.07794528e-02
3.83631270e-02
3.43312137e-02
2.95983837e-02
5.29603586e-02
2.22062077e-02
2.33906237e-02
3.19832112e-02
2.42970958e-02
2.17686626e-02
2.84446222e-02
4.50290553e-02
5.49772431e-02
3.20812776e-02
2.57226592e-02
</DataArray>
<DataArray type="Float32" Name="Plastic_strain_Min_Principal" format="ascii">
-4.83911037e-02
-5.09326179e-02
-4.77665290e-02
-4.59439177e-02
-4.64509539e-02
-4.85781413e-02
-4.63098856e-02
-4.49805604e-02
-5.66898677e-02
-5.25700534e-02
-5.29886205e-02
-5.10434462e-02
-6.39867149e-02
-6.00837991e-02
-5.88935958e-02
-5.64719816e-02
-7.13419542e-02
-6.63600890e-02
-6.51381845e-02
-6.09355322e-02
-7.92879164e-02
-7.25284889e-02
-6.98795896e-02
-6.60672709e-02
-8.69275928e-02
-8.19453336e-02
-7.58028999e-02
-7.11679375e-02
-3.97995058e-02
-3.94030958e-02
-4.01217733e-02
-3.84642100e-02
-3.84714594e-02
-4.15405724e-02
-3.01803851e-02
-4.38811124e-02
-3.14403281e-02
-4.24952405e-02
-2.32884917e-02
-4.29687649e-02
-2.22189310e-02
-5.43256837e-02
-3.09086018e-02
-3.21497554e-02
-3.16767099e-02
-3.10858120e-02
-2.35517574e-02
-2.52020878e-02
-5.09580714e-03
-1.31195937e-02
-4.80056135e-03
-1.48949898e-02
-5.46209964e-03
-1.53265597e-02
-7.35451817e-03
-1.41840829e-02
-2.66079586e-02
-2.92914342e-02
-2.56091659e-02
-2.76834732e-02
-1.71947284e-02
-1.71973245e-02
-4.50496643e-03
-7.63265009e-03
-1.06787428e-03
-1.60698928e-03
-5.97018283e-03
-1.95313266e-03
-5.72253531e-03
-2.28452189e-03
-2.82964143e-02
-3.14981062e-02
-2.61085597e-02
-2.88190409e-02
-1.84546942e-02
-2.04579288e-02
-4.00659785e-03
-1.31836421e-02
-1.54178088e-04
-7.04214882e-04
-3.72284799e-06
-4.23902718e-06
0.00000000e+00
0.00000000e+00
-3.30262799e-02
-3.59195508e-02
-3.12972954e-02
-3.37041076e-02
-2.47852374e-02
-2.83052949e-02
-6.94406731e-03
-2.18335278e-02
-9.31466420e-04
-2.69432209e-03
-2.07177600e-05
-1.36156911e-05
0.00000000e+00
0.00000000e+00
-4.48750276e-02
-4.52599972e-02
-4.35814797e-02
-4.33397470e-02
-4.62030247e-02
-4.66159848e-02
-4.90480401e-02
-5.17997979e-02
-5.22557972e-02
-5.65979378e-02
-5.33468314e-02
-5.85975875e-02
-5.35708480e-02
-5.83593743e-02
-4.02278057e-02
-3.89528293e-02
-4.82689121e-02
-6.31989375e-02
-6.89327624e-02
-7.12575838e-02
-7.18473233e-02
-3.25322298e-02
-3.12794768e-02
-4.16125456e-02
-3.47544262e-02
-2.57911896e-02
-2.50480352e-02
-2.09962738e-02
-1.65026418e-02
-2.55717570e-02
-2.48268852e-02
-2.62378671e-02
-4.68323911e-02
-2.99993143e-02
-2.91731618e-02
-4.27807951e-02
-5.87998908e-02
0.00000000e+00
0.00000000e+00
0.00000000e+00
0.00000000e+00
-4.63396646e-02
-4.58795661e-02
-4.53882543e-02
-4.57975781e-02
-4.43105223e-02
-4.62670149e-02
-4.35192939e-02
-4.81546149e-02
-4.27817358e-02
-5.17019089e-02
-4.10300186e-02
-5.00211907e-02
-3.86163909e-02
-4.65072608e-02
-4.58252574e-02
-4.34907516e-02
-5.28343522e-02
-7.12087378e-02
-6.90319575e-02
-6.47430560e-02
-6.04874901e-02
-4.30459364e-02
-3.72065529e-02
-7.22132688e-02
-3.15936932e-02
-3.02240667e-02
-4.68463479e-02
-2.89892815e-02
-3.06764990e-02
-3.89315391e-02
-5.13697937e-02
-7.55968330e-02
-4.43456997e-02
-3.61260194e-02
</DataArray>
</PointData>
<Cells>
<DataArray type="Int32" Name="connectivity" format="ascii">
0 1 2 3 4 5 6 7
1 8 9 2 5 10 11 6
8 12 13 9 10 14 15 11
12 16 17 13 14 18 19 15
16 20 21 17 18 22 23 19
20 24 25 21 22 26 27 23
3 2 28 29 7 6 30 31
2 9 32 28 6 11 33 30
9 13 34 32 11 15 35 33
13 17 36 34 15 19 37 35
17 21 38 36 19 23 39 37
21 25 40 38 23 27 41 39
29 28 42 43 31 30 44 45
28 32 46 42 30 33 47 44
32 34 48 46 33 35 49 47
34 36 50 48 35 37 51 49
36 38 52 50 37 39 53 51
38 40 54 52 39 41 55 53
43 42 56 57 45 44 58 59
42 46 60 56 44 47 61 58
46 48 62 60 47 49 63 61
48 50 64 62 49 51 65 63
52 54 66 67 53 55 68 69
57 56 70 71 59 58 72 73
56 60 74 70 58 61 75 72
60 62 76 74 61 63 77 75
62 64 78 76 63 65 79 77
64 67 80 78 65 69 81 79
67 66 82 80 69 68 83 81
71 70 84 85 73 72 86 87
70 74 88 84 72 75 89 86
74 76 90 88 75 77 91 89
76 78 92 90 77 79 93 91
78 80 94 92 79 81 95 93
80 82 96 94 81 83 97 95
4 5 6 7 98 99 100 101
5 10 11 6 99 102 103 100
10 14 15 11 102 104 105 103
14 18 19 15 104 106 107 105
18 22 23 19 106 108 109 107
22 26 27 23 108 110 111 109
7 6 30 31 101 100 112 113
6 11 33 30 100 103 114 112
11 15 35 33 103 105 115 114
15 19 37 35 105 107 116 115
19 23 39 37 107 109 117 116
23 27 41 39 109 111 118 117
31 30 44 45 113 112 119 120
30 33 47 44 112 114 121 119
33 35 49 47 114 115 122 121
45 44 58 59 120 119 123 124
44 47 61 58 119 121 125 123
47 49 63 61 121 122 126 125
59 58 72 73 124 123 127 128
58 61 75 72 123 125 129 127
61 63 77 75 125 126 130 129
73 72 86 87 128 127 131 132
72 75 89 86 127 129 133 131
75 77 91 89 129 130 134 133
81 83 97 95 135 136 137 138
98 99 100 101 139 140 141 142
99 102 103 100 140 143 144 141
102 104 105 103 143 145 146 144
104 106 107 105 145 147 148 146
106 108 109 107 147 149 150 148
108 110 111 109 149 151 152 150
101 100 112 113 142 141 153 154
100 103 114 112 141 144 155 153
103 105 115 114 144 146 156 155
105 107 116 115 146 148 157 156
107 109 117 116 148 150 158 157
109 111 118 117 150 152 159 158
113 112 119 120 154 153 160 161
112 114 121 119 153 155 162 160
120 119 123 124 161 160 163 164
119 121 125 123 160 162 165 163
124 123 127 128 164 163 166 167
123 125 129 127 163 165 168 166
125 126 130 129 165 169 170 168
128 127 131 132 167 166 171 172
</DataArray>
<DataArray type="Int32" Name="offsets" format="ascii">
8
16
24
32
40
48
56
64
72
80
88
96
104
112
120
128
136
144
152
160
168
176
184
192
200
208
216
224
232
240
248
256
264
272
280
288
296
304
312
320
328
336
344
352
360
368
376
384
392
400
408
416
424
432
440
448
456
464
472
480
488
496
504
512
520
528
536
544
552
560
568
576
584
592
600
608
616
624
632
640
</DataArray>
<DataArray type="UInt8" Name="types" format="ascii">
12
12
12
12
12
12
12
12
12
12
12
12
12
12
12
12
12
12
12
12
12
12
12
12
12
12
12
12
12
12
12
12
12
12
12
12
12
12
12
12
12
12
12
12
12
12
12
12
12
12
12
12
12
12
12
12
12
12
12
12
12
12
12
12
12
12
12
12
12
12
12
12
12
12
12
12
12
12
12
12
</DataArray>
</Cells>
</Piece>
</UnstructuredGrid>
</VTKFile>
