<VTKFile type="UnstructuredGrid" version="0.1" byte_order="LittleEndian">
<UnstructuredGrid>
<Piece NumberOfPoints="191" NumberOfCells="79">
<Points>
<DataArray type="Float64" NumberOfComponents="3" format="ascii">
 1.00032401e+00  5.00462961e+00  1.99800074e+00
 2.00068879e+00  5.00450134e+00  1.99862337e+00
 2.00053287e+00  6.00509024e+00  1.99800050e+00
 1.00016391e+00  6.00500727e+00  1.99756515e+00
 1.00024068e+00  5.00512409e+00  2.99715161e+00
 2.00055695e+00  5.00526285e+00  2.99725342e+00
 2.00013924e+00  6.00617361e+00  2.99632978e+00
 1.00007892e+00  6.00522757e+00  2.99699044e+00
 3.00106382e+00  5.00435925e+00  1.99888647e+00
 3.00107837e+00  6.00490093e+00  1.99836791e+00
 3.00141335e+00  5.00467348e+00  2.99771929e+00
 3.00286078e+00  6.00744343e+00  2.99313855e+00
 5.00123167e+00  5.00517082e+00  2.00000072e+00
 6.00123167e+00  5.00564957e+00  1.99997056e+00
 6.00074768e+00  6.00565767e+00  2.00001907e+00
 5.00073671e+00  6.00517464e+00  2.00003719e+00
 5.00125694e+00  5.00512362e+00  2.99999189e+00
 6.00125408e+00  5.00561190e+00  2.99997187e+00
 6.00076818e+00  6.00560713e+00  3.00001454e+00
 5.00077343e+00  6.00512028e+00  3.00004768e+00
 0.00000000e+00  0.00000000e+00  2.99296904e+00
 1.00116086e+00  0.00000000e+00  2.99270535e+00
 1.00109172e+00  1.00113380e+00  2.99323893e+00
 0.00000000e+00  1.00118184e+00  2.99348021e+00
 0.00000000e+00  0.00000000e+00  3.99057221e+00
 1.00172567e+00  0.00000000e+00  3.99047232e+00
 1.00174618e+00  1.00099623e+00  3.99047709e+00
 0.00000000e+00  1.00098932e+00  3.99085498e+00
 2.00250888e+00  0.00000000e+00  2.99195004e+00
 2.00222158e+00  1.00080991e+00  2.99268031e+00
 2.00334334e+00  0.00000000e+00  3.99002194e+00
 2.00340438e+00  1.00105131e+00  3.98966455e+00
 3.00387430e+00  0.00000000e+00  2.99122047e+00
 3.00385761e+00  1.00055432e+00  2.99148655e+00
 3.00485563e+00  0.00000000e+00  3.98915505e+00
 3.00482655e+00  1.00095117e+00  3.98889852e+00
 4.00544214e+00  0.00000000e+00  2.99049687e+00
 4.00543213e+00  1.00062120e+00  2.99019265e+00
 4.00610542e+00  0.00000000e+00  3.98841572e+00
 4.00612020e+00  1.00074303e+00  3.98808718e+00
 5.00672007e+00  0.00000000e+00  2.98961329e+00
 5.00685596e+00  1.00073147e+00  2.98969316e+00
 5.00708055e+00  0.00000000e+00  3.98815012e+00
 5.00713825e+00  1.00058985e+00  3.98759508e+00
 6.00762272e+00  0.00000000e+00  2.98919296e+00
 6.00792599e+00  1.00049281e+00  2.98938322e+00
 6.00773621e+00  0.00000000e+00  3.98802447e+00
 6.00802469e+00  1.00038493e+00  3.98757887e+00
 1.00061810e+00  2.00217128e+00  2.99439073e+00
 0.00000000e+00  2.00259495e+00  2.99465108e+00
 1.00175595e+00  2.00232553e+00  3.99191976e+00
 0.00000000e+00  2.00236702e+00  3.99226403e+00
 2.00183916e+00  2.00197816e+00  2.99237490e+00
 2.00369573e+00  2.00235605e+00  3.99010038e+00
 3.00332880e+00  2.00221062e+00  2.99052310e+00
 3.00494218e+00  2.00212073e+00  3.98712444e+00
 4.00564480e+00  2.00265479e+00  2.99080229e+00
 4.00591707e+00  2.00157380e+00  3.98661566e+00
 5.00725460e+00  2.00211453e+00  2.99008012e+00
 5.00730610e+00  2.00186563e+00  3.98731685e+00
 6.00850773e+00  2.00158858e+00  2.99000406e+00
 6.00861549e+00  2.00142336e+00  3.98721838e+00
 1.00028455e+00  3.00372767e+00  2.99649692e+00
 0.00000000e+00  3.00382900e+00  2.99575591e+00
 1.00109029e+00  3.00396371e+00  3.99287462e+00
 0.00000000e+00  3.00347662e+00  3.99507260e+00
 2.00161958e+00  3.00344062e+00  2.99447751e+00
 2.00384784e+00  3.00412321e+00  3.98888803e+00
 3.00122333e+00  3.00236297e+00  2.98308873e+00
 3.00611186e+00  3.00315070e+00  3.98585868e+00
 1.00020015e+00  4.00460672e+00  2.99735355e+00
 0.00000000e+00  4.00478458e+00  2.99693418e+00
 1.00048780e+00  4.00487852e+00  3.99577260e+00
 0.00000000e+00  4.00460339e+00  3.99622512e+00
 0.00000000e+00  5.00491047e+00  2.99727249e+00
 1.00055718e+00  5.00565624e+00  3.99671125e+00
 0.00000000e+00  5.00531578e+00  3.99623084e+00
 2.00054312e+00  4.00469542e+00  2.99849868e+00
 2.00152397e+00  4.00541830e+00  3.99491334e+00
 2.00200486e+00  5.00555897e+00  3.99597955e+00
 0.00000000e+00  6.00526333e+00  2.99661040e+00
 1.00093675e+00  6.00741005e+00  3.99360919e+00
 0.00000000e+00  6.00716305e+00  3.99481869e+00
 2.00263000e+00  6.00877857e+00  3.99255371e+00
 3.00490856e+00  5.00496912e+00  3.98777533e+00
 3.00662279e+00  6.00731707e+00  3.98894620e+00
 0.00000000e+00  0.00000000e+00  4.98750734e+00
 1.00228155e+00  0.00000000e+00  4.98733139e+00
 1.00244391e+00  1.00107658e+00  4.98765993e+00
 0.00000000e+00  1.00098503e+00  4.98776293e+00
 2.00415111e+00  0.00000000e+00  4.98702002e+00
 2.00442314e+00  1.00134313e+00  4.98712969e+00
 3.00550842e+00  0.00000000e+00  4.98672485e+00
 3.00567698e+00  1.00151193e+00  4.98638105e+00
 4.00646305e+00  0.00000000e+00  4.98638582e+00
 4.00646734e+00  1.00133801e+00  4.98605680e+00
 5.00725985e+00  0.00000000e+00  4.98631239e+00
 5.00718784e+00  1.00107825e+00  4.98602295e+00
 6.00799894e+00  0.00000000e+00  4.98627806e+00
 6.00803041e+00  1.00106061e+00  4.98613596e+00
 1.00298429e+00  2.00257373e+00  4.98758459e+00
 0.00000000e+00  2.00216007e+00  4.98847246e+00
 2.00514078e+00  2.00285077e+00  4.98643208e+00
 3.00625181e+00  2.00268674e+00  4.98562813e+00
 4.00668144e+00  2.00229716e+00  4.98480701e+00
 5.00715446e+00  2.00187469e+00  4.98453283e+00
 6.00762367e+00  2.00185061e+00  4.98472548e+00
 1.00332308e+00  3.00321341e+00  4.99093866e+00
 0.00000000e+00  3.00383258e+00  4.99180222e+00
 2.00587583e+00  3.00358391e+00  4.98627996e+00
 3.00700903e+00  3.00316381e+00  4.98435068e+00
 4.00639677e+00  3.00103021e+00  3.98287129e+00
 4.00733662e+00  3.00265670e+00  4.98405933e+00
 1.00264966e+00  4.00373030e+00  4.99446297e+00
 0.00000000e+00  4.00340652e+00  4.99391890e+00
 2.00649238e+00  4.00492144e+00  4.98697948e+00
 1.00304317e+00  5.00689745e+00  4.99096584e+00
 0.00000000e+00  5.00699472e+00  4.99206018e+00
 1.00325000e+00  6.01079702e+00  4.99050570e+00
 0.00000000e+00  6.01050091e+00  4.99031305e+00
 2.00588894e+00  5.00637531e+00  4.98832941e+00
 2.00765276e+00  6.00924873e+00  4.98851681e+00
 3.00756717e+00  5.00505733e+00  4.98499489e+00
 3.00984478e+00  6.00537634e+00  4.98542738e+00
 4.00469398e+00  5.00376558e+00  3.98240089e+00
 4.00719452e+00  6.00368738e+00  3.98293281e+00
 4.00847149e+00  5.00308132e+00  4.98383760e+00
 4.00982809e+00  6.00343370e+00  4.98402643e+00
 5.00871658e+00  5.00220203e+00  3.98400378e+00
 6.00871992e+00  5.00135374e+00  3.98402047e+00
 6.00955105e+00  6.00137281e+00  3.98399711e+00
 5.00951910e+00  6.00221968e+00  3.98403573e+00
 5.00869608e+00  5.00219917e+00  4.98401546e+00
 6.00871229e+00  5.00140095e+00  4.98401690e+00
 6.00953722e+00  6.00137091e+00  4.98400593e+00
 5.00960493e+00  6.00217295e+00  4.98402691e+00
 0.00000000e+00  0.00000000e+00  5.98401880e+00
 1.00249910e+00  0.00000000e+00  5.98401880e+00
 1.00279081e+00  1.00131154e+00  5.98401880e+00
 0.00000000e+00  1.00106061e+00  5.98401880e+00
 2.00449491e+00  0.00000000e+00  5.98401880e+00
 2.00478625e+00  1.00161648e+00  5.98401880e+00
 3.00574398e+00  0.00000000e+00  5.98401880e+00
 3.00599027e+00  1.00171447e+00  5.98401880e+00
 4.00651836e+00  0.00000000e+00  5.98401880e+00
 4.00666761e+00  1.00172913e+00  5.98401880e+00
 5.00731850e+00  0.00000000e+00  5.98401880e+00
 5.00719404e+00  1.00158799e+00  5.98401880e+00
 6.00835562e+00  0.00000000e+00  5.98401880e+00
 6.00785542e+00  1.00175285e+00  5.98401880e+00
 1.00349116e+00  2.00206304e+00  5.98401880e+00
 0.00000000e+00  2.00191450e+00  5.98401880e+00
 2.00571871e+00  2.00278163e+00  5.98401880e+00
 3.00664091e+00  2.00299525e+00  5.98401880e+00
 4.00704145e+00  2.00264502e+00  5.98401880e+00
 5.00715256e+00  2.00225377e+00  5.98401880e+00
 6.00726795e+00  2.00217509e+00  5.98401880e+00
 1.00455260e+00  3.00556684e+00  5.98401880e+00
 0.00000000e+00  3.00610161e+00  5.98401880e+00
 2.00708985e+00  3.00420594e+00  5.98401880e+00
 3.00738525e+00  3.00342298e+00  5.98401880e+00
 4.00736141e+00  3.00275660e+00  5.98401880e+00
 5.00738525e+00  3.00209093e+00  4.98392534e+00
 5.00741434e+00  3.00223947e+00  5.98401880e+00
 6.00743628e+00  3.00178075e+00  4.98395634e+00
 6.00741243e+00  3.00191140e+00  5.98401880e+00
 3.00792074e+00  4.00335312e+00  4.98346472e+00
 3.00811386e+00  4.00351572e+00  5.98401880e+00
 2.00839496e+00  4.00433779e+00  5.98401880e+00
 4.00797653e+00  4.00273228e+00  4.98406839e+00
 4.00790024e+00  4.00280237e+00  5.98401880e+00
 5.00786924e+00  4.00226355e+00  4.98402452e+00
 5.00789309e+00  4.00223494e+00  5.98401880e+00
 6.00791264e+00  4.00158739e+00  4.98399687e+00
 6.00791073e+00  4.00155544e+00  5.98401880e+00
 0.00000000e+00  4.00072145e+00  5.98401880e+00
 1.00766087e+00  4.00196600e+00  5.98401880e+00
 1.00502038e+00  5.00851011e+00  5.98401880e+00
 0.00000000e+00  5.00848770e+00  5.98401880e+00
 5.00864029e+00  5.00219107e+00  5.98401880e+00
 4.00863218e+00  5.00312519e+00  5.98401880e+00
 6.00872087e+00  5.00142670e+00  5.98401880e+00
 1.00541461e+00  6.01130056e+00  5.98401880e+00
 0.00000000e+00  6.01265574e+00  5.98401880e+00
 2.00696778e+00  5.00661612e+00  5.98401880e+00
 2.00958037e+00  6.00847197e+00  5.98401880e+00
 3.00841188e+00  5.00483894e+00  5.98401880e+00
 3.01055288e+00  6.00511551e+00  5.98401880e+00
 4.01001024e+00  6.00318766e+00  5.98401880e+00
 5.00959349e+00  6.00214243e+00  5.98401880e+00
 6.00952768e+00  6.00138712e+00  5.98401880e+00
</DataArray>
</Points>
<PointData Tensors="Stress_Components,Plastic_strain_components" Vevtors="Spatial_displacement,Reaction_force" Scalars="Equivalent_plastic_strain,Stress_Mises,Stress_Max_Principal,Stress_Mid_Principal,Stress_Min_Principal,Stress_Pressure,Stress_Tresca,Stress_Third_Invariant,Plastic_strain_Max_Principal,Plastic_strain_Min_Principal">
<DataArray type="Float32" Name="Stress_Components" NumberOfComponents="9" format="ascii">
1.46019794e+00 -2.87140712e+00 9.63012673e-01 -2.87140712e+00 3.03398270e-01 2.86576248e+00 9.63012673e-01 2.86576248e+00 -2.63677504e+01
9.61630389e-01 -2.66891208e+00 8.67523858e-02 -2.66891208e+00 6.60597369e-01 2.11035113e+00 8.67523858e-02 2.11035113e+00 -2.64382222e+01
-1.06153336e+00 -1.28373471e+00 1.42988841e+00 -1.28373471e+00 9.56623048e-01 -2.08871728e-01 1.42988841e+00 -2.08871728e-01 -3.11085238e+01
-1.19584412e+00 -4.63281786e-01 -2.28845716e+00 -4.63281786e-01 1.77656421e+00 -1.09612019e+00 -2.28845716e+00 -1.09612019e+00 -2.96105227e+01
2.47278972e+00 1.52403478e+00 3.73148596e+00 1.52403478e+00 3.95287322e+00 1.60911548e+00 3.73148596e+00 1.60911548e+00 -2.38372210e+01
6.72105432e-01 -1.89153421e+00 -3.21863079e+00 -1.89153421e+00 3.50003856e+00 3.89258759e+00 -3.21863079e+00 3.89258759e+00 -2.61074881e+01
-1.70814681e+00 3.08409944e+00 3.20933071e+00 3.08409944e+00 -3.54242259e+00 -4.59631771e+00 3.20933071e+00 -4.59631771e+00 -3.08588009e+01
-1.75827173e+00 2.49440551e+00 4.79855584e+00 2.49440551e+00 -4.44914967e-01 4.32184458e-01 4.79855584e+00 4.32184458e-01 -2.74048972e+01
2.24414706e+00 -4.02767379e-02 -4.67492384e+00 -4.02767379e-02 1.59009871e+00 3.82204264e+00 -4.67492384e+00 3.82204264e+00 -2.63870754e+01
-3.79124749e+00 -6.39037728e-01 2.64553910e+00 -6.39037728e-01 -4.06677151e+00 5.82502294e+00 2.64553910e+00 5.82502294e+00 -3.74524555e+01
-9.84205643e+00 3.36504992e+00 -1.25407499e+01 3.36504992e+00 -7.48562125e+00 5.40820249e+00 -1.25407499e+01 5.40820249e+00 -3.86445071e+01
-8.57169628e+00 7.38108373e+00 -8.82180357e+00 7.38108373e+00 -8.63123870e+00 -9.19521272e-01 -8.82180357e+00 -9.19521272e-01 -4.63656616e+01
-4.40388806e-02 -3.32113191e-01 8.13332945e-03 -3.32113191e-01 1.25698116e-01 -2.69104689e-02 8.13332945e-03 -2.69104689e-02 -2.46424533e-01
-6.67259432e-02 -1.00558773e-01 -9.77523923e-02 -1.00558773e-01 2.64652997e-01 -9.28774439e-02 -9.77523923e-02 -9.28774439e-02 -3.62685686e-01
1.31312098e-01 -1.97407138e-02 1.87692285e-01 -1.97407138e-02 -4.67143953e-04 1.03363298e-01 1.87692285e-01 1.03363298e-01 -2.95610562e-01
6.47997111e-03 -2.51304939e-01 -6.77897707e-02 -2.51304939e-01 -2.86896221e-01 -1.29950136e-01 -6.77897707e-02 -1.29950136e-01 1.15649864e-01
1.26315877e-01 1.04959205e-01 1.70184195e-01 1.04959205e-01 1.11122422e-01 1.07233405e-01 1.70184195e-01 1.07233405e-01 -1.21213280e-01
1.18945781e-02 6.20351247e-02 1.04042754e-01 6.20351247e-02 -8.02649483e-02 4.74391840e-02 1.04042754e-01 4.74391840e-02 1.84599087e-01
3.77144553e-02 2.35591568e-02 -1.67842969e-01 2.35591568e-02 3.14389057e-02 -2.65634805e-01 -1.67842969e-01 -2.65634805e-01 4.70800176e-02
-1.96634486e-01 6.64617121e-02 1.74146332e-02 6.64617121e-02 -1.25971094e-01 6.87220991e-02 1.74146332e-02 6.87220991e-02 4.38831210e-01
6.80631295e-01 1.12679432e-03 2.16356957e+00 1.12679432e-03 6.84041888e-01 -1.12211776e+00 2.16356957e+00 -1.12211776e+00 -2.82922173e+01
8.93130958e-01 -2.19025664e-01 2.38749605e+00 -2.19025664e-01 -2.22685188e-01 -1.51531205e-01 2.38749605e+00 -1.51531205e-01 -2.89536419e+01
3.00092794e-01 -1.85043712e+00 2.78064770e+00 -1.85043712e+00 -2.37122336e-02 6.97040673e-01 2.78064770e+00 6.97040673e-01 -2.90238965e+01
-3.47673886e-01 -8.91349465e-02 2.41492525e+00 -8.91349465e-02 1.14456189e+00 -9.32041720e-01 2.41492525e+00 -9.32041720e-01 -2.87137141e+01
2.32074684e+00 -1.19545613e-04 1.26893240e+00 -1.19545613e-04 -3.73291922e+00 -2.04906926e-01 1.26893240e+00 -2.04906926e-01 -3.09568996e+01
2.00433218e+00 6.49569202e-02 -1.14096357e-02 6.49569202e-02 -3.63189405e+00 1.31531467e+00 -1.14096357e-02 1.31531467e+00 -3.12114286e+01
1.08714591e+00 1.44062153e-01 2.54619718e+00 1.44062153e-01 -3.36381929e+00 3.99358844e-01 2.54619718e+00 3.99358844e-01 -3.13692572e+01
1.11915495e+00 2.65802061e-02 2.62950760e+00 2.65802061e-02 -3.45433438e+00 -1.40805098e+00 2.62950760e+00 -1.40805098e+00 -3.14860454e+01
2.28944427e+00 -1.41556081e+00 3.64143753e+00 -1.41556081e+00 -2.51506466e+00 2.41244998e-01 3.64143753e+00 2.41244998e-01 -2.91985641e+01
6.15774323e-01 -2.69858405e+00 1.19134069e+00 -2.69858405e+00 -2.70556614e+00 2.40168236e-01 1.19134069e+00 2.40168236e-01 -3.14451737e+01
1.56974060e+00 3.26649532e-01 -1.45495766e+00 3.26649532e-01 -3.10875732e+00 7.54463430e-01 -1.45495766e+00 7.54463430e-01 -3.13168697e+01
3.48231064e-01 6.12391624e-01 1.38570163e+00 6.12391624e-01 -2.65431329e+00 1.51778013e+00 1.38570163e+00 1.51778013e+00 -3.23164511e+01
3.85633129e+00 -5.53103024e-03 1.41858611e+00 -5.53103024e-03 -4.51904488e+00 1.12529604e+00 1.41858611e+00 1.12529604e+00 -2.95176601e+01
1.45045916e-01 -1.43644417e+00 -1.10576792e+00 -1.43644417e+00 -3.81335372e+00 -1.30538090e+00 -1.10576792e+00 -1.30538090e+00 -3.31090310e+01
1.76029032e+00 -1.24462085e-01 -8.10726613e-01 -1.24462085e-01 -2.38907078e+00 1.69081390e-01 -8.10726613e-01 1.69081390e-01 -3.05035558e+01
5.35362959e-02 -3.77013044e-01 -1.82761548e+00 -3.77013044e-01 -2.52405067e+00 5.41265053e-01 -1.82761548e+00 5.41265053e-01 -3.22519450e+01
4.09217882e+00 -5.80070959e-02 -1.45897397e+00 -5.80070959e-02 -3.93696636e+00 -4.03714560e-01 -1.45897397e+00 -4.03714560e-01 -2.89564104e+01
-9.59266365e-01 6.88923445e-01 -3.39411217e-01 6.88923445e-01 -2.42854600e+00 -3.81276250e-01 -3.39411217e-01 -3.81276250e-01 -3.31325657e+01
2.26444760e+00 7.07776342e-02 -1.63351694e+00 7.07776342e-02 -1.55563144e+00 1.03607200e-01 -1.63351694e+00 1.03607200e-01 -2.88901758e+01
1.50478969e+00 -1.36728769e+00 -2.42307225e+00 -1.36728769e+00 -2.08240950e+00 -8.79593611e-01 -2.42307225e+00 -8.79593611e-01 -2.98458216e+01
2.85054913e+00 8.45923826e-01 7.04922169e-01 8.45923826e-01 -1.40133661e+00 -1.33447874e+00 7.04922169e-01 -1.33447874e+00 -2.81814494e+01
3.70174984e-01 8.35708790e-01 -1.39106981e-01 8.35708790e-01 -1.32772113e+00 2.22647522e-01 -1.39106981e-01 2.22647522e-01 -3.08889866e+01
2.17137172e+00 3.43957365e-01 -3.69934809e+00 3.43957365e-01 -6.67087644e-01 5.40983349e-01 -3.69934809e+00 5.40983349e-01 -2.75354476e+01
5.08063883e-02 -4.48186313e-01 -1.54795912e+00 -4.48186313e-01 -3.03977426e-01 -6.21255126e-01 -1.54795912e+00 -6.21255126e-01 -2.99306850e+01
3.77206957e+00 2.14006728e+00 1.51973784e+00 2.14006728e+00 -2.32213718e+00 -1.88165241e+00 1.51973784e+00 -1.88165241e+00 -2.75424862e+01
2.06516901e+00 9.96352214e-01 3.50068156e-01 9.96352214e-01 -1.13695815e+00 -1.06498812e+00 3.50068156e-01 -1.06498812e+00 -2.86651368e+01
3.01916397e+00 2.25076568e+00 -3.47296381e+00 2.25076568e+00 -1.32538567e+00 2.64306970e-01 -3.47296381e+00 2.64306970e-01 -2.71831427e+01
1.51006071e+00 1.47642627e+00 -7.29322791e-01 1.47642627e+00 -1.06305565e+00 1.15096182e-01 -7.29322791e-01 1.15096182e-01 -2.91037579e+01
-2.91513175e+00 -3.17222002e+00 5.71601528e+00 -3.17222002e+00 -2.34442949e-03 -1.63228050e+00 5.71601528e+00 -1.63228050e+00 -2.88386202e+01
-1.95241486e+00 -1.98106799e+00 3.94190890e+00 -1.98106799e+00 3.81589794e+00 -1.04486920e+00 3.94190890e+00 -1.04486920e+00 -2.65125237e+01
-3.15724947e-01 -9.29039618e-01 4.93797922e+00 -9.29039618e-01 -3.39987431e+00 7.64079809e-01 4.93797922e+00 7.64079809e-01 -3.23820288e+01
5.77358514e-01 -9.06530675e-02 6.17010093e+00 -9.06530675e-02 -3.54000866e+00 -5.93449265e-01 6.17010093e+00 -5.93449265e-01 -3.06830950e+01
-2.20756715e+00 -8.98912289e-01 2.40922503e+00 -8.98912289e-01 -2.43313812e+00 -2.34345393e+00 2.40922503e+00 -2.34345393e+00 -3.52528330e+01
3.78447361e-02 5.76327568e-01 8.28380182e-01 5.76327568e-01 -1.00558519e+00 -2.17403529e+00 8.28380182e-01 -2.17403529e+00 -3.06563919e+01
-6.43228312e+00 -1.33446157e+00 -7.61910429e+00 -1.33446157e+00 -8.54124594e+00 7.73593140e-01 -7.61910429e+00 7.73593140e-01 -4.23202023e+01
-2.35153590e-01 1.03599170e+00 -5.16993659e+00 1.03599170e+00 -3.14118138e-01 -1.40404855e+00 -5.16993659e+00 -1.40404855e+00 -2.86271398e+01
-5.31165940e+00 3.14108193e-01 -1.23120387e+00 3.14108193e-01 -4.40864691e+00 1.64039138e+00 -1.23120387e+00 1.64039138e+00 -4.05713797e+01
-6.42464480e-01 -9.88995993e-01 -8.17179804e+00 -9.88995993e-01 -6.33830563e+00 2.34317596e+00 -8.17179804e+00 2.34317596e+00 -3.26686321e+01
-1.96280026e+00 -5.83789669e-01 -1.00807711e+00 -5.83789669e-01 -2.13453026e+00 4.41746689e-01 -1.00807711e+00 4.41746689e-01 -3.42577324e+01
-2.64485493e+00 4.05761242e-01 -2.09769711e+00 4.05761242e-01 -3.25922847e+00 4.72985372e-01 -2.09769711e+00 4.72985372e-01 -3.66246147e+01
2.64442638e-01 1.17380157e-01 -7.33901143e-01 1.17380157e-01 -1.06761205e+00 4.21624817e-02 -7.33901143e-01 4.21624817e-02 -3.06679029e+01
-1.40765615e+00 7.99849153e-01 -1.04986348e+00 7.99849153e-01 -4.13893104e+00 -2.87137032e+00 -1.04986348e+00 -2.87137032e+00 -3.53900795e+01
-4.95283525e+00 -1.93953973e+00 6.76474816e+00 -1.93953973e+00 -7.95714442e-01 -8.43211481e-01 6.76474816e+00 -8.43211481e-01 -2.99322521e+01
-3.22100148e+00 -3.75404563e-01 6.07089734e+00 -3.75404563e-01 6.38544083e+00 4.20375651e+00 6.07089734e+00 4.20375651e+00 -2.29916539e+01
1.65563607e+00 -9.80423025e-01 5.18883472e+00 -9.80423025e-01 -2.41989652e+00 -3.53579012e+00 5.18883472e+00 -3.53579012e+00 -2.80371710e+01
-1.53818934e-01 1.93436188e+00 7.92220140e+00 1.93436188e+00 -1.15760949e+00 -8.61928248e+00 7.92220140e+00 -8.61928248e+00 -2.33181348e+01
-1.02113053e+01 -2.74518371e+00 7.87300909e+00 -2.74518371e+00 -8.42879915e+00 -6.71476808e+00 7.87300909e+00 -6.71476808e+00 -4.51557207e+01
-8.91993904e-01 -1.33527246e+00 1.06966124e+00 -1.33527246e+00 -5.98333232e+00 -3.67759604e+00 1.06966124e+00 -3.67759604e+00 -3.55144650e+01
-2.28319855e+01 -9.13069248e+00 -1.69964771e+01 -9.13069248e+00 -1.77287636e+01 -1.85604935e+01 -1.69964771e+01 -1.85604935e+01 -2.66143751e+00
8.09702587e+00 -2.36866999e+00 -7.61592976e+00 -2.36866999e+00 2.84650421e+00 -5.80793452e+00 -7.61592976e+00 -5.80793452e+00 -1.34366833e+01
-3.05659520e+00 -9.10254768e-01 3.85898612e+00 -9.10254768e-01 3.67059653e+00 5.47018284e+00 3.85898612e+00 5.47018284e+00 -2.50559935e+01
-1.55420068e+00 -1.71606025e+00 7.24512982e+00 -1.71606025e+00 3.69832782e+00 3.69400203e+00 7.24512982e+00 3.69400203e+00 -2.09049587e+01
1.47523602e+00 2.78371414e-01 7.74442987e+00 2.78371414e-01 1.60685865e+00 1.97393407e+00 7.74442987e+00 1.97393407e+00 -2.09794097e+01
2.96636117e+00 1.46656054e+00 8.61919984e-01 1.46656054e+00 7.83098710e+00 -2.39509532e+00 8.61919984e-01 -2.39509532e+00 -1.84250510e+01
1.73374777e+00 2.72174644e+00 1.30459267e+00 2.72174644e+00 2.58476720e+00 -1.41703030e+00 1.30459267e+00 -1.41703030e+00 -2.33158684e+01
-3.13552959e+00 2.07142633e+00 -9.96225221e-01 2.07142633e+00 -8.20456220e-01 3.01613082e+00 -9.96225221e-01 3.01613082e+00 -2.60103957e+01
-1.36515206e+00 1.68723433e+00 9.97706234e-01 1.68723433e+00 5.41120446e+00 2.38482442e+00 9.97706234e-01 2.38482442e+00 -2.40692687e+01
-9.85399306e+00 -3.94596040e-01 -1.15701056e+00 -3.94596040e-01 -1.38685650e+00 8.76782662e+00 -1.15701056e+00 8.76782662e+00 -2.47644877e+01
-9.48397374e+00 -1.81288600e-01 9.79042149e+00 -1.81288600e-01 -1.45756631e+01 5.57361400e+00 9.79042149e+00 5.57361400e+00 -5.10979538e+01
-6.36936874e+00 9.34328550e-01 -3.74883022e+00 9.34328550e-01 -6.54468555e+00 -2.56939454e+00 -3.74883022e+00 -2.56939454e+00 -3.71091064e+01
-3.75253463e+00 -4.13868308e-01 3.26470470e+00 -4.13868308e-01 2.10370374e+00 3.90807760e+00 3.26470470e+00 3.90807760e+00 -2.89622087e+01
-2.59616226e-02 3.52845243e+00 -7.24233896e-01 3.52845243e+00 2.73233712e+00 9.85388722e-01 -7.24233896e-01 9.85388722e-01 -2.84397869e+01
-4.84923077e+00 7.07415730e-01 4.16709340e+00 7.07415730e-01 1.98928374e+00 -5.33081591e+00 4.16709340e+00 -5.33081591e+00 -3.14064312e+01
-3.87283824e+00 1.19339564e+00 -4.27979499e+00 1.19339564e+00 -2.98563578e+00 3.77103457e+00 -4.27979499e+00 3.77103457e+00 -3.49804382e+01
-7.32700585e+00 1.37785653e+00 3.27642218e+00 1.37785653e+00 -3.02528326e+00 -8.63599968e+00 3.27642218e+00 -8.63599968e+00 -4.10143642e+01
-7.20368405e-01 -1.38627615e+00 -7.05965797e-01 -1.38627615e+00 -2.24346383e+00 -2.00787449e+00 -7.05965797e-01 -2.00787449e+00 -3.36730264e+01
2.16558909e+00 1.93150295e-03 8.66482109e-01 1.93150295e-03 -6.88240600e+00 -6.15568072e-01 8.66482109e-01 -6.15568072e-01 -3.37422256e+01
1.45737222e+00 5.56018636e-01 1.40044418e+00 5.56018636e-01 -5.71403360e+00 5.29102381e-01 1.40044418e+00 5.29102381e-01 -3.36224689e+01
1.14540210e+00 1.79879436e+00 1.15158593e+00 1.79879436e+00 -5.25749174e+00 9.07739840e-01 1.15158593e+00 9.07739840e-01 -3.34673297e+01
2.07847187e+00 2.74645641e-01 1.80220649e+00 2.74645641e-01 -7.01315296e+00 -1.32668985e-01 1.80220649e+00 -1.32668985e-01 -3.39126644e+01
-4.05603684e-01 1.05225685e+00 6.90059841e-01 1.05225685e+00 -2.64630371e+00 1.17644642e+00 6.90059841e-01 1.17644642e+00 -3.30442400e+01
-4.25676066e-01 2.65925120e+00 2.84450784e-01 2.65925120e+00 -1.95385469e+00 3.49191848e-01 2.84450784e-01 3.49191848e-01 -3.17914288e+01
-2.02203588e+00 7.42704079e-01 -1.23284072e+00 7.42704079e-01 7.27239355e-01 5.66219036e-01 -1.23284072e+00 5.66219036e-01 -3.11960344e+01
-1.52302540e+00 1.63879139e+00 -5.45779262e-01 1.63879139e+00 1.09968843e+00 2.68548909e-01 -5.45779262e-01 2.68548909e-01 -2.99439588e+01
-1.88777143e+00 6.20497987e-02 -1.22891068e+00 6.20497987e-02 2.46619719e+00 -8.83293729e-02 -1.22891068e+00 -8.83293729e-02 -2.91108608e+01
-1.57887209e+00 -4.55327712e-01 -1.30218595e+00 -4.55327712e-01 2.43800588e+00 4.22382938e-01 -1.30218595e+00 4.22382938e-01 -2.85336516e+01
-7.32334241e-01 -4.06519972e-01 -1.39156261e+00 -4.06519972e-01 2.55745381e+00 4.24725277e-01 -1.39156261e+00 4.24725277e-01 -2.78698549e+01
-5.35845693e-01 -1.17010386e+00 -2.18065175e+00 -1.17010386e+00 1.38864811e+00 1.83346225e-01 -2.18065175e+00 1.83346225e-01 -2.83554564e+01
-6.07472371e-01 2.79496044e-01 -8.36021841e-01 2.79496044e-01 3.03053808e+00 1.48418343e+00 -8.36021841e-01 1.48418343e+00 -2.73052807e+01
-1.82123108e-01 -1.42121062e+00 -7.46795297e-01 -1.42121062e+00 6.53773069e-01 -5.03099188e-02 -7.46795297e-01 -5.03099188e-02 -2.91212888e+01
1.54193390e+00 2.11778669e+00 3.67556487e+00 2.11778669e+00 -6.57816491e+00 -3.22711453e-01 3.67556487e+00 -3.22711453e-01 -3.26650364e+01
7.07386956e-01 1.18801749e+00 4.42109081e+00 1.18801749e+00 -7.78568017e+00 -2.36549798e+00 4.42109081e+00 -2.36549798e+00 -3.47431989e+01
1.91394237e+00 2.68034393e+00 -8.23977944e-01 2.68034393e+00 -1.52102939e+00 2.08401531e-01 -8.23977944e-01 2.08401531e-01 -2.89817083e+01
1.81950434e+00 2.42048819e+00 -2.94092153e+00 2.42048819e+00 2.62098575e+00 2.17430189e-01 -2.94092153e+00 2.17430189e-01 -2.33711827e+01
1.74974618e+00 6.25716891e-01 -3.81768693e+00 6.25716891e-01 4.74819602e+00 -6.44913884e-01 -3.81768693e+00 -6.44913884e-01 -2.34815260e+01
1.27466746e+00 -8.98283670e-01 -7.23347835e+00 -8.98283670e-01 1.73993321e+00 -6.97029357e-01 -7.23347835e+00 -6.97029357e-01 -2.53343137e+01
8.10561577e-01 -3.18427030e+00 -7.28268639e+00 -3.18427030e+00 -9.57256556e-01 -3.13505689e+00 -7.28268639e+00 -3.13505689e+00 -2.63359814e+01
2.02858822e+00 -7.05667257e-01 8.93526514e+00 -7.05667257e-01 -1.00779745e+01 -1.91328279e+00 8.93526514e+00 -1.91328279e+00 -2.95505349e+01
-2.09870326e-01 -1.70089738e+00 8.71269719e+00 -1.70089738e+00 -1.19345765e+01 -2.05038973e+00 8.71269719e+00 -2.05038973e+00 -3.57614816e+01
3.55682834e+00 2.42386164e+00 1.37731302e+00 2.42386164e+00 -1.81480355e+00 -4.34352730e+00 1.37731302e+00 -4.34352730e+00 -2.66887077e+01
5.98432699e+00 3.69250838e+00 -8.37697538e+00 3.69250838e+00 1.04534025e+00 -3.79575199e+00 -8.37697538e+00 -3.79575199e+00 -1.70103457e+01
-7.45840693e+00 -1.11242342e+01 -1.51963148e+01 -1.11242342e+01 -1.95354099e+01 -1.59924011e+01 -1.51963148e+01 -1.59924011e+01 6.02593994e+00
5.28814427e+00 1.65268815e+00 -4.42257038e+00 1.65268815e+00 4.62698247e+00 -1.59019012e+00 -4.42257038e+00 -1.59019012e+00 -4.42403258e+00
-1.02406949e-01 1.31841794e+00 -9.13458467e-01 1.31841794e+00 -7.58035471e+00 2.22851503e+00 -9.13458467e-01 2.22851503e+00 -2.65233784e+01
2.08318166e+00 1.35420765e+00 -3.40159202e+00 1.35420765e+00 -2.53434213e+00 1.65379562e+00 -3.40159202e+00 1.65379562e+00 -2.67138379e+01
-4.40692377e+00 -1.82123184e-01 6.50073044e-01 -1.82123184e-01 -8.82383466e+00 -4.77294207e+00 6.50073044e-01 -4.77294207e+00 -4.94478970e+01
-3.35052476e+00 -1.56661570e-01 -1.82879170e-02 -1.56661570e-01 -8.35765858e-01 1.18664239e+00 -1.82879170e-02 1.18664239e+00 -3.49049088e+01
-1.91831684e+00 -4.07263219e-01 -7.34341685e-02 -4.07263219e-01 2.90341794e-01 -1.82330433e+00 -7.34341685e-02 -1.82330433e+00 -3.22334042e+01
-1.89367430e+00 -8.75270858e-01 3.10727271e+00 -8.75270858e-01 -1.69998756e+00 2.65741999e+00 3.10727271e+00 2.65741999e+00 -3.24363627e+01
-9.52760577e-01 4.09380630e-01 1.89225811e+00 4.09380630e-01 -3.35642338e-01 5.47961757e-01 1.89225811e+00 5.47961757e-01 -3.15526228e+01
-5.05408102e+00 1.76901123e+00 1.10321206e+00 1.76901123e+00 -1.68036741e+00 -1.52227853e+00 1.10321206e+00 -1.52227853e+00 -3.77343521e+01
-1.02573636e+00 -2.14090303e+00 -3.79859209e-02 -2.14090303e+00 -1.30809100e+00 2.12663043e+00 -3.79859209e-02 2.12663043e+00 -3.21582475e+01
9.16217196e+00 2.78511310e+00 1.73995885e+00 2.78511310e+00 6.26301408e-01 -2.75595546e+00 1.73995885e+00 -2.75595546e+00 -2.04251020e+01
3.96173210e+00 -1.10793871e+00 -1.69621888e+00 -1.10793871e+00 1.62716533e+00 -3.33881561e+00 -1.69621888e+00 -3.33881561e+00 -2.36258488e+01
-6.04902172e+00 1.13321505e+01 9.09233928e-01 1.13321505e+01 4.35511827e+00 -2.20874596e+01 9.09233928e-01 -2.20874596e+01 1.77073498e+01
1.87790024e+00 -6.95513344e+00 2.34178305e+00 -6.95513344e+00 -6.00145006e+00 -2.32558231e+01 2.34178305e+00 -2.32558231e+01 7.98199028e-02
4.64491384e+00 -2.60390782e+00 3.76855552e-01 -2.60390782e+00 -4.40640926e-01 6.09634244e+00 3.76855552e-01 6.09634244e+00 -2.15170217e+00
-5.34507491e+00 -5.82800007e+00 -2.25717833e+00 -5.82800007e+00 8.90371041e+00 6.48916483e-01 -2.25717833e+00 6.48916483e-01 -2.70701567e-01
-4.84426856e-01 -9.53511596e-01 5.99075913e-01 -9.53511596e-01 1.12721205e-01 -8.58220235e-02 5.99075913e-01 -8.58220235e-02 -1.46381840e-01
-2.92978466e-01 -3.60178709e-01 4.99745131e-01 -3.60178709e-01 3.63532245e-01 1.83368593e-01 4.99745131e-01 1.83368593e-01 -5.88646770e-01
3.26331347e-01 -3.30471367e-01 -5.21167099e-01 -3.30471367e-01 -2.03901872e-01 -1.09022939e+00 -5.21167099e-01 -1.09022939e+00 -6.40504301e-01
5.96017241e-01 -9.23914313e-01 -3.06355596e-01 -9.23914313e-01 6.36343937e-03 9.84109879e-01 -3.06355596e-01 9.84109879e-01 -1.12046385e+00
3.94709985e+00 9.25776076e-01 -8.31834868e-02 9.25776076e-01 -1.92334981e+00 4.85950828e-01 -8.31834868e-02 4.85950828e-01 -1.19236410e-02
5.90170075e-01 3.89929270e-01 6.71066274e-01 3.89929270e-01 -3.50909042e+00 9.63214487e-02 6.71066274e-01 9.63214487e-02 -1.01579433e-01
-2.27980942e+00 4.84379202e-01 -7.98900425e-02 4.84379202e-01 -7.08175905e-01 -6.70411706e-01 -7.98900425e-02 -6.70411706e-01 9.79835540e-01
-3.04161553e+00 -9.48467890e-01 -5.18360962e-01 -9.48467890e-01 8.62291162e-01 1.49000774e-01 -5.18360962e-01 1.49000774e-01 1.57556606e+00
1.88161981e+00 5.49566746e-03 -7.95751810e-04 5.49566746e-03 -7.70298624e+00 2.44791619e-04 -7.95751810e-04 2.44791619e-04 -3.48725357e+01
7.34166175e-01 1.07307810e+00 3.27587686e-03 1.07307810e+00 -5.75973916e+00 6.84264153e-01 3.27587686e-03 6.84264153e-01 -3.46913605e+01
1.51173031e+00 2.48286611e+00 7.46026009e-01 2.48286611e+00 -6.89418614e+00 1.10314223e+00 7.46026009e-01 1.10314223e+00 -3.41501012e+01
2.28848398e+00 8.23784977e-01 1.40630461e-01 8.23784977e-01 -8.73096108e+00 2.33481405e-03 1.40630461e-01 2.33481405e-03 -3.50849075e+01
-1.54921471e+00 1.05350226e+00 2.99340184e-03 1.05350226e+00 -1.76437235e+00 1.27739167e+00 2.99340184e-03 1.27739167e+00 -3.33219891e+01
-5.88559821e-01 2.83662957e+00 9.92024988e-01 2.83662957e+00 -2.08100347e+00 1.22547176e+00 9.92024988e-01 1.22547176e+00 -3.20154982e+01
-3.48513150e+00 1.00227425e+00 -4.75836731e-03 1.00227425e+00 1.87681162e+00 9.34903979e-01 -4.75836731e-03 9.34903979e-01 -3.11111288e+01
-2.26884361e+00 2.18714118e+00 8.45995963e-01 2.18714118e+00 2.32223496e+00 1.33233055e+00 8.45995963e-01 1.33233055e+00 -2.90196929e+01
-4.47093415e+00 7.25021362e-01 -5.02288807e-03 7.25021362e-01 3.65027893e+00 2.21968085e-01 -5.02288807e-03 2.21968085e-01 -2.98665342e+01
-2.66733282e+00 1.09286185e+00 1.89491996e+00 1.09286185e+00 4.11126316e+00 9.56594467e-01 1.89491996e+00 9.56594467e-01 -2.74048882e+01
-2.87762827e+00 -6.75682515e-01 -9.63541633e-03 -6.75682515e-01 3.17906535e+00 2.87572190e-01 -9.63541633e-03 2.87572190e-01 -2.91684227e+01
-1.55396092e+00 -3.01865712e-01 2.63443041e+00 -3.01865712e-01 3.11373371e+00 -2.87030735e-02 2.63443041e+00 -2.87030735e-02 -2.76779366e+01
-2.93834662e+00 -2.17458296e+00 -1.01630641e-02 -2.17458296e+00 3.45497751e+00 1.44529843e+00 -1.01630641e-02 1.44529843e+00 -2.85721741e+01
-1.29876721e+00 -1.89481497e+00 3.64421237e+00 -1.89481497e+00 1.29501271e+00 -1.05610621e+00 3.64421237e+00 -1.05610621e+00 -2.86741753e+01
3.26876193e-02 3.37252128e+00 -1.32690275e+00 3.37252128e+00 -3.96922062e+00 1.38291073e+00 -1.32690275e+00 1.38291073e+00 -3.29977732e+01
-1.15121603e+00 1.66758083e-01 -3.14918101e-01 1.66758083e-01 -6.25396562e+00 -1.78788975e-03 -3.14918101e-01 -1.78788975e-03 -3.72224903e+01
6.44328922e-01 5.94487453e+00 -3.38735223e-01 5.94487453e+00 -7.54826903e-01 2.23673189e+00 -3.38735223e-01 2.23673189e+00 -2.74986405e+01
1.22745016e+00 3.74640521e+00 1.65612796e+00 3.74640521e+00 2.73652056e+00 2.05950537e+00 1.65612796e+00 2.05950537e+00 -2.39291258e+01
3.48312039e+00 2.65240433e-01 3.29102892e+00 2.65240433e-01 6.94527599e+00 3.73004866e+00 3.29102892e+00 3.73004866e+00 -1.90812497e+01
3.91765182e+00 -1.16801155e+00 5.41144830e+00 -1.16801155e+00 7.24111724e+00 8.61183703e-02 5.41144830e+00 8.61183703e-02 -1.89452636e+01
7.09630702e+00 -3.41023076e+00 4.33175015e+00 -3.41023076e+00 1.32608008e+00 -5.66316390e+00 4.33175015e+00 -5.66316390e+00 -2.21536570e+01
-1.04339929e+01 -1.01161271e-01 5.43698573e+00 -1.01161271e-01 -9.57870770e+00 2.73753178e+00 5.43698573e+00 2.73753178e+00 -5.12612343e+01
-1.09824190e+01 -1.04983699e+00 4.50930595e+00 -1.04983699e+00 -1.21642723e+01 -4.08720411e-03 4.50930595e+00 -4.08720411e-03 -5.47075653e+01
-7.47333527e-01 1.83623056e+00 3.22183943e+00 1.83623056e+00 5.59532603e-01 5.49375979e+00 3.22183943e+00 5.49375979e+00 -2.74800612e+01
6.33574457e+00 1.71576038e+00 3.76261902e+00 1.71576038e+00 8.81392363e+00 5.78968590e+00 3.76261902e+00 5.78968590e+00 -1.60845996e+01
2.75792050e+00 -3.48503491e+00 2.36062253e+00 -3.48503491e+00 5.75173765e+00 1.02503921e+00 2.36062253e+00 1.02503921e+00 -3.29580036e+00
-2.52433319e+00 -1.78075612e+00 -2.38235724e+00 -1.78075612e+00 3.31326395e+00 -5.54682583e-01 -2.38235724e+00 -5.54682583e-01 -1.93961218e+00
-1.01632661e+00 -1.10669301e+00 3.18917960e+00 -1.10669301e+00 -2.48979580e+00 5.94286919e-01 3.18917960e+00 5.94286919e-01 2.01388863e+00
1.29912141e+00 -3.67719865e+00 -5.27611601e+00 -3.67719865e+00 -7.28861547e+00 8.16345960e-03 -5.27611601e+00 8.16345960e-03 -4.06931281e-01
8.74308586e-01 -8.39427710e-02 2.85014331e+00 -8.39427710e-02 -1.17851915e+01 -4.77634937e-01 2.85014331e+00 -4.77634937e-01 3.94415414e+00
-1.07906599e+00 -1.07012105e+00 -6.95604241e+00 -1.07012105e+00 -9.14190847e+00 -6.37944555e+00 -6.95604241e+00 -6.37944555e+00 -4.61635113e-01
-4.49326509e+00 -9.08166051e-01 5.86658150e-01 -9.08166051e-01 6.25923109e+00 1.54605210e+00 5.86658150e-01 1.54605210e+00 6.31947899e+00
-4.36787987e+00 2.64491677e+00 -4.52898407e+00 2.64491677e+00 9.42881703e-01 1.18809137e+01 -4.52898407e+00 1.18809137e+01 -3.31458549e+01
8.09052984e-01 1.71258104e+00 -4.75511750e-01 1.71258104e+00 1.02019601e+01 2.64083624e+00 -4.75511750e-01 2.64083624e+00 1.61769491e+00
8.11192214e-01 -3.25344245e-01 1.58029763e+00 -3.25344245e-01 9.67259550e+00 -1.76595644e+00 1.58029763e+00 -1.76595644e+00 1.71420565e+00
-2.62424842e-01 1.72897752e+00 3.40883493e-01 1.72897752e+00 3.31938952e+00 -2.50444626e-01 3.40883493e-01 -2.50444626e-01 8.28182146e-01
1.86237352e+00 -2.18338192e-01 -5.98240793e-01 -2.18338192e-01 6.25367776e-01 4.94016215e-01 -5.98240793e-01 4.94016215e-01 1.39740416e+00
2.35801858e+00 -7.99612761e-01 -3.25798169e-02 -7.99612761e-01 -7.35556316e+00 -6.03546709e-01 -3.25798169e-02 -6.03546709e-01 1.45133796e+00
2.38351503e+00 -5.27001500e-01 -6.62648320e-01 -5.27001500e-01 -8.46243691e+00 -3.41520570e-02 -6.62648320e-01 -3.41520570e-02 2.53270689e+00
-1.27787552e+01 1.61228561e+00 -3.82929468e+00 1.61228561e+00 -1.19833984e+01 6.81036897e-03 -3.82929468e+00 6.81036897e-03 -5.68920975e+01
-1.23591833e+01 -2.04221559e+00 -2.98989129e+00 -2.04221559e+00 -1.48910170e+01 6.64478779e+00 -2.98989129e+00 6.64478779e+00 -5.79753075e+01
-2.13891705e+00 -2.00293189e+00 2.41719755e+00 -2.00293189e+00 -1.56151956e+00 2.85438156e+00 2.41719755e+00 2.85438156e+00 -3.29186351e+01
-6.77167428e+00 -5.03150728e-02 1.97079611e+00 -5.03150728e-02 -3.68224680e+00 3.42291780e-03 1.97079611e+00 3.42291780e-03 -4.11007996e+01
2.71734205e+00 1.70959011e-02 -1.67869996e-01 1.70959011e-02 -1.05617155e+00 -1.16271901e+00 -1.67869996e-01 -1.16271901e+00 9.83129948e-01
3.46969763e-02 -8.27912172e-01 9.39219276e-01 -8.27912172e-01 2.17165483e+00 3.45234450e+00 9.39219276e-01 3.45234450e+00 7.59373665e-01
1.97202677e+00 9.21576887e-01 5.33994168e-01 9.21576887e-01 -4.90696776e+00 1.81883134e-01 5.33994168e-01 1.81883134e-01 -1.33677024e+00
8.75254184e-01 -2.85202539e+00 7.24974692e-01 -2.85202539e+00 -5.40169239e+00 3.31444716e+00 7.24974692e-01 3.31444716e+00 -3.33887129e+01
-5.98248839e-02 -2.16663837e+00 3.17917061e+00 -2.16663837e+00 -3.59086919e+00 -2.26068869e-03 3.17917061e+00 -2.26068869e-03 -3.31999130e+01
1.01161695e+00 1.90063238e+00 4.45479840e-01 1.90063238e+00 2.81212756e+00 2.45851851e+00 4.45479840e-01 2.45851851e+00 -2.63490963e+01
-6.95892334e-01 -9.56340671e-01 -2.08676940e+00 -9.56340671e-01 -6.13689899e-01 4.43676102e+00 -2.08676940e+00 4.43676102e+00 -2.99035959e+01
7.75085998e+00 3.99849588e+00 -1.97874105e+00 3.99849588e+00 2.33184276e+00 6.61528790e+00 -1.97874105e+00 6.61528790e+00 -2.10040283e+01
1.29179382e+00 -1.70511818e+00 -2.21115232e+00 -1.70511818e+00 6.72028399e+00 4.84766865e+00 -2.21115232e+00 4.84766865e+00 -2.11473503e+01
-1.57462478e+01 -2.75272179e+00 -5.61077523e+00 -2.75272179e+00 1.06340303e+01 3.67045045e+00 -5.61077523e+00 3.67045045e+00 1.28351486e+00
-6.12300742e+00 1.11117572e+00 -6.37514353e-01 1.11117572e+00 1.90270782e+00 -2.42563561e-01 -6.37514353e-01 -2.42563561e-01 3.57368863e+00
-2.60582113e+00 1.07746708e+00 3.32872242e-01 1.07746708e+00 -1.53172910e+00 -1.95205033e-01 3.32872242e-01 -1.95205033e-01 6.39343560e-01
</DataArray>
<DataArray type="Float32" Name="Logarithmic_strain_components" NumberOfComponents="9" format="ascii">
3.55507327e-04 -2.39182820e-04 7.85594816e-05 -2.39182820e-04 3.00580177e-04 2.47008366e-04 7.85594816e-05 2.47008366e-04 -8.82771841e-04
3.91633967e-04 -2.51012252e-04 6.02130392e-05 -2.51012252e-04 3.96024194e-04 2.30286219e-04 6.02130392e-05 2.30286219e-04 -9.94715418e-04
5.01754657e-04 -2.09179385e-04 1.80862527e-04 -2.09179385e-04 6.33765492e-04 -1.28751977e-05 1.80862527e-04 -1.28751977e-05 -1.37472610e-03
2.60667301e-04 -4.05909665e-05 -2.04607757e-04 -4.05909665e-05 3.71293954e-04 -1.05299843e-04 -2.04607757e-04 -1.05299843e-04 -9.19931132e-04
2.36064474e-04 1.15304413e-04 3.31781146e-04 1.15304413e-04 2.68236693e-04 1.07092066e-04 3.31781146e-04 1.07092066e-04 -6.87348111e-04
5.14774521e-04 -4.05694551e-04 -5.00214864e-04 -4.05694551e-04 7.30495418e-04 8.04323378e-04 -5.00214864e-04 8.04323378e-04 -1.36312912e-03
1.52370864e-03 6.92220186e-04 9.15066139e-04 6.92220186e-04 1.04618159e-03 -8.83830682e-04 9.15066139e-04 -8.83830682e-04 -2.59188103e-03
6.14383876e-04 2.94067635e-04 1.03884711e-03 2.94067635e-04 6.49075173e-04 2.45522679e-04 1.03884711e-03 2.45522679e-04 -1.43446299e-03
3.94014925e-04 -3.64176831e-05 -4.16315739e-04 -3.64176831e-05 4.03507540e-04 4.03651957e-04 -4.16315739e-04 4.03651957e-04 -9.88134445e-04
1.20534221e-03 -1.72804823e-04 9.34677606e-04 -1.72804823e-04 1.20306757e-03 1.29024417e-03 9.34677606e-04 1.29024417e-03 -2.59437406e-03
1.33338399e-03 7.49384208e-04 -3.43915599e-03 7.49384208e-04 2.25080824e-03 1.85957085e-03 -3.43915599e-03 1.85957085e-03 -3.62514825e-03
2.47904623e-03 2.71240447e-03 -3.40005185e-03 2.71240447e-03 2.52275693e-03 -4.43050347e-04 -3.40005185e-03 -4.43050347e-04 -4.95450059e-03
-5.39144025e-07 -1.56495153e-05 1.82554231e-07 -1.56495153e-05 3.93905987e-06 -9.16160161e-07 1.82554231e-07 -9.16160161e-07 -5.78915137e-06
-9.50700098e-07 -4.93071752e-06 -4.28858357e-06 -4.93071752e-06 6.95420931e-06 -4.84418194e-06 -4.28858357e-06 -4.84418194e-06 -7.78033200e-06
3.50158399e-06 -8.73056166e-07 9.04613671e-06 -8.73056166e-07 6.13820362e-07 5.52560789e-06 9.04613671e-06 5.52560789e-06 -6.64710433e-06
8.92576736e-07 -1.14774807e-05 -3.40446422e-06 -1.14774807e-05 -6.49871140e-06 -6.91567675e-06 -3.40446422e-06 -6.91567675e-06 3.76374510e-06
2.37875292e-06 5.31583555e-06 8.18110675e-06 5.31583555e-06 1.68276176e-06 5.17760191e-06 8.18110675e-06 5.17760191e-06 -3.42980798e-06
-5.41736654e-07 3.28636202e-06 5.24882671e-06 3.28636202e-06 -2.55055511e-06 1.95293956e-06 5.24882671e-06 1.95293956e-06 3.70645125e-06
1.25813347e-06 1.59499393e-06 -8.52322137e-06 1.59499393e-06 8.40790392e-07 -1.18090984e-05 -8.52322137e-06 -1.18090984e-05 9.78116645e-07
-5.42488806e-06 2.92113077e-06 6.37037147e-07 2.92113077e-06 -3.58857119e-06 3.02551666e-06 6.37037147e-07 3.02551666e-06 9.89213459e-06
1.15990086e-03 2.90464186e-09 5.12124738e-04 2.90464186e-09 1.18083699e-03 -2.64401038e-04 5.12124738e-04 -2.64401038e-04 -2.33127468e-03
1.21079551e-03 -6.91588339e-05 5.34798281e-04 -6.91588339e-05 1.08981974e-03 -4.50683074e-05 5.34798281e-04 -4.50683074e-05 -2.31319800e-03
1.19174662e-03 -4.56934311e-04 6.52997915e-04 -4.56934311e-04 1.16633349e-03 1.34609280e-04 6.52997915e-04 1.34609280e-04 -2.36334986e-03
1.09008513e-03 -4.77607227e-05 5.92592150e-04 -4.77607227e-05 1.29549255e-03 -2.41602174e-04 5.92592150e-04 -2.41602174e-04 -2.37952441e-03
1.73548178e-03 -5.21384251e-08 2.83271365e-04 -5.21384251e-08 1.00005811e-03 -1.00359848e-04 2.83271365e-04 -1.00359848e-04 -2.72347010e-03
1.67755250e-03 2.05581632e-05 4.89440356e-06 2.05581632e-05 1.00302848e-03 2.83518948e-04 4.89440356e-06 2.83518948e-04 -2.68316944e-03
1.68343290e-03 4.60010308e-05 6.97053937e-04 4.60010308e-05 1.14440439e-03 7.81247381e-05 6.97053937e-04 7.81247381e-05 -2.81071279e-03
1.73215638e-03 6.82960024e-06 7.50194078e-04 6.82960024e-06 1.17023377e-03 -3.78813478e-04 7.50194078e-04 -3.78813478e-04 -2.87470396e-03
1.37642707e-03 -2.86734496e-04 7.31840672e-04 -2.86734496e-04 8.29942481e-04 2.23369716e-05 7.31840672e-04 2.23369716e-05 -2.24090216e-03
1.37327375e-03 -6.23850596e-04 2.00554290e-04 -6.23850596e-04 9.79305143e-04 5.52452457e-05 2.00554290e-04 5.52452457e-05 -2.41227220e-03
1.50388290e-03 6.08576111e-05 -3.58287500e-04 6.08576111e-05 9.90269749e-04 1.59699340e-04 -3.58287500e-04 1.59699340e-04 -2.52822891e-03
1.55458668e-03 1.53655898e-04 3.05658765e-04 1.53655898e-04 1.19232040e-03 3.07510114e-04 3.05658765e-04 3.07510114e-04 -2.76393481e-03
1.51898188e-03 -1.68466213e-05 2.66490773e-04 -1.68466213e-05 6.07139737e-04 2.00077255e-04 2.66490773e-04 2.00077255e-04 -2.18065438e-03
1.48437955e-03 -3.66793894e-04 -3.60865066e-04 -3.66793894e-04 9.84358849e-04 -3.27357944e-04 -3.60865066e-04 -3.27357944e-04 -2.54574016e-03
1.33511738e-03 -2.90648613e-05 -2.57462430e-04 -2.90648613e-05 9.05226916e-04 1.10700603e-05 -2.57462430e-04 1.10700603e-05 -2.29540683e-03
1.38431082e-03 -1.10316252e-04 -5.39514103e-04 -1.10316252e-04 1.08673068e-03 1.17776383e-04 -5.39514103e-04 1.17776383e-04 -2.52814469e-03
1.37612913e-03 -9.85048609e-06 -3.05002242e-04 -9.85048609e-06 5.75091181e-04 -6.64567979e-05 -3.05002242e-04 -6.64567979e-05 -2.01988517e-03
1.44508167e-03 1.89540421e-04 -3.01796317e-05 1.89540421e-04 1.27307965e-03 -8.81737960e-05 -3.01796317e-05 -8.81737960e-05 -2.75763136e-03
1.15704583e-03 1.46308489e-05 -3.29134375e-04 1.46308489e-05 7.87701152e-04 6.36679943e-06 -3.29134375e-04 6.36679943e-06 -2.01238637e-03
1.16984222e-03 -2.74486742e-04 -5.44005305e-04 -2.74486742e-04 8.01303744e-04 -1.36240291e-04 -5.44005305e-04 -1.36240291e-04 -2.05502688e-03
9.82381811e-04 1.35600658e-04 7.98436522e-05 1.35600658e-04 6.23763583e-04 -2.17432300e-04 7.98436522e-05 -2.17432300e-04 -1.71089818e-03
1.28496720e-03 2.02532630e-04 -5.11858184e-05 2.02532630e-04 1.09532655e-03 8.26586488e-05 -5.11858184e-05 8.26586488e-05 -2.42184621e-03
8.60204251e-04 5.71644823e-05 -5.56142390e-04 5.71644823e-05 6.34626515e-04 7.36791972e-05 -5.56142390e-04 7.36791972e-05 -1.60658779e-03
8.96617203e-04 -6.62530194e-05 -2.44353456e-04 -6.62530194e-05 8.77331586e-04 -8.88143018e-05 -2.44353456e-04 -8.88143018e-05 -1.89183290e-03
8.53225414e-04 3.02913410e-04 1.90602543e-04 3.02913410e-04 4.43918718e-04 -2.48147269e-04 1.90602543e-04 -2.48147269e-04 -1.44030293e-03
1.12328047e-03 2.03091844e-04 6.41505940e-05 2.03091844e-04 8.47789488e-04 -1.80262257e-04 6.41505940e-05 -1.80262257e-04 -2.02958923e-03
7.45130499e-04 2.88371462e-04 -4.46142454e-04 2.88371462e-04 4.74621629e-04 6.16071707e-05 -4.46142454e-04 6.16071707e-05 -1.36833213e-03
8.48687443e-04 2.34236450e-04 -1.19880471e-04 2.34236450e-04 6.73979019e-04 3.56116020e-05 -1.19880471e-04 3.56116020e-05 -1.66237025e-03
8.85350521e-04 -7.10932145e-04 1.39500479e-03 -7.10932145e-04 1.26170861e-03 -4.50110730e-04 1.39500479e-03 -4.50110730e-04 -2.18481195e-03
7.03969330e-04 -4.22748868e-04 8.88566341e-04 -4.22748868e-04 1.40879548e-03 -2.60586938e-04 8.88566341e-04 -2.60586938e-04 -2.10283062e-03
1.90220941e-03 -3.32695541e-04 1.40385343e-03 -3.32695541e-04 1.53753044e-03 9.50647445e-05 1.40385343e-03 9.50647445e-05 -3.35240108e-03
1.81374769e-03 -4.15089762e-05 1.89814370e-03 -4.15089762e-05 1.30126654e-03 -3.45404267e-04 1.89814370e-03 -3.45404267e-04 -3.03340767e-03
1.41579610e-03 -3.22677743e-04 6.51491499e-04 -3.22677743e-04 1.37305567e-03 -6.46358194e-04 6.51491499e-04 -6.46358194e-04 -2.86769069e-03
1.56582135e-03 1.20032134e-04 4.64434779e-05 1.20032134e-04 1.50763357e-03 -7.56263143e-04 4.64434779e-05 -7.56263143e-04 -3.00033440e-03
2.15234293e-03 -5.26087932e-04 -2.59909013e-03 -5.26087932e-04 1.68535620e-03 2.67071807e-04 -2.59909013e-03 2.67071807e-04 -3.89858852e-03
1.15247147e-03 1.98323239e-04 -1.27466519e-03 1.98323239e-04 1.13115356e-03 -4.86115609e-04 -1.27466519e-03 -4.86115609e-04 -2.28924700e-03
1.93042832e-03 1.63299228e-04 -2.12327368e-04 1.63299228e-04 2.00108992e-03 5.94618665e-04 -2.12327368e-04 5.94618665e-04 -3.94407957e-03
1.46308987e-03 -2.77528685e-04 -1.92848799e-03 -2.77528685e-04 8.78263269e-04 5.41368258e-04 -1.92848799e-03 5.41368258e-04 -2.43883214e-03
1.64681528e-03 -1.34973801e-04 -3.31714149e-04 -1.34973801e-04 1.59893039e-03 1.91800646e-04 -3.31714149e-04 1.91800646e-04 -3.22592969e-03
1.35751854e-03 9.33220072e-05 -3.98979457e-04 9.33220072e-05 1.28411688e-03 2.51955501e-04 -3.98979457e-04 2.51955501e-04 -2.76837876e-03
1.47109886e-03 5.51367375e-05 -2.39209330e-04 5.51367375e-05 1.31421379e-03 6.87358024e-05 -2.39209330e-04 6.87358024e-05 -2.75739131e-03
1.36299629e-03 1.48117419e-04 -2.30879890e-04 1.48117419e-04 1.09290727e-03 -5.40092719e-04 -2.30879890e-04 -5.40092719e-04 -2.58818234e-03
7.18366061e-04 -4.07159624e-04 1.52802604e-03 -4.07159624e-04 1.24875943e-03 -1.33462508e-04 1.52802604e-03 -1.33462508e-04 -2.06961767e-03
2.34645887e-04 -1.01656649e-04 9.45127293e-04 -1.01656649e-04 1.04389840e-03 7.42190125e-04 9.45127293e-04 7.42190125e-04 -1.33636985e-03
1.68247627e-03 -2.90962106e-04 1.46410368e-03 -2.90962106e-04 1.20500088e-03 -1.35520522e-03 1.46410368e-03 -1.35520522e-03 -2.77969614e-03
1.03691280e-03 4.88541576e-04 1.98567526e-03 4.88541576e-04 1.06462353e-03 -2.20305246e-03 1.98567526e-03 -2.20305246e-03 -2.02880567e-03
1.69051017e-03 -9.13238007e-04 2.66267647e-03 -9.13238007e-04 2.20032668e-03 -2.85999447e-03 2.66267647e-03 -2.85999447e-03 -3.97615344e-03
2.46283864e-03 -6.34870265e-04 1.84800941e-04 -6.34870265e-04 1.57351061e-03 -1.51675924e-03 1.84800941e-04 -1.51675924e-03 -3.89727624e-03
-1.19007030e-03 -3.20102135e-03 -6.63934648e-03 -3.20102135e-03 -6.52707939e-04 -6.48097647e-03 -6.63934648e-03 -6.48097647e-03 2.03240337e-03
7.77559714e-04 -1.83613311e-04 -9.92327434e-04 -1.83613311e-04 2.00785347e-04 -7.94348152e-04 -9.92327434e-04 -7.94348152e-04 -9.09796625e-04
2.63879756e-04 -7.65826695e-05 4.70502207e-04 -7.65826695e-05 6.74845663e-04 7.14600656e-04 4.70502207e-04 7.14600656e-04 -1.10712961e-03
1.94200168e-04 -1.77573365e-04 8.52088855e-04 -1.77573365e-04 5.34482719e-04 4.19715143e-04 8.52088855e-04 4.19715143e-04 -8.51277509e-04
6.51334160e-04 9.51828273e-05 1.48276389e-03 9.51828273e-05 8.25286445e-04 6.34577300e-04 1.48276389e-03 6.34577300e-04 -1.46535600e-03
5.52364767e-04 2.74757556e-04 -1.07806840e-04 2.74757556e-04 9.84179147e-04 -4.53115535e-04 -1.07806840e-04 -4.53115535e-04 -1.44389021e-03
2.77231560e-04 2.13556243e-04 1.46835737e-04 2.13556243e-04 2.75814389e-04 -1.20963423e-04 1.46835737e-04 -1.20963423e-04 -7.32004104e-04
1.11203453e-03 4.00536877e-04 -5.40211714e-04 4.00536877e-04 1.50714321e-03 1.20479578e-03 -5.40211714e-04 1.20479578e-03 -2.54336981e-03
8.49948859e-04 3.39284699e-04 3.35236022e-04 3.39284699e-04 1.57249028e-03 4.81533592e-04 3.35236022e-04 4.81533592e-04 -2.31528192e-03
1.89701921e-04 -1.48644025e-04 5.16861415e-04 -1.48644025e-04 7.31842767e-04 1.25245677e-03 5.16861415e-04 1.25245677e-03 -1.14049065e-03
2.32234085e-03 -3.84518469e-04 3.67888599e-03 -3.84518469e-04 1.99464121e-03 2.09957571e-03 3.67888599e-03 2.09957571e-03 -4.48509725e-03
1.80217440e-03 3.01953132e-04 -2.03523417e-03 3.01953132e-04 2.37153603e-03 -1.32254330e-03 -2.03523417e-03 -1.32254330e-03 -4.04926636e-03
3.28696275e-04 -3.57784775e-05 4.92561463e-04 -3.57784775e-05 6.02901986e-04 3.80301208e-04 4.92561463e-04 3.80301208e-04 -1.17800423e-03
1.42966845e-03 1.18986575e-03 -3.33844495e-04 1.18986575e-03 1.87072827e-03 4.46370392e-04 -3.33844495e-04 4.46370392e-04 -3.12723633e-03
1.07765690e-03 2.46628624e-04 1.19717349e-03 2.46628624e-04 1.99004571e-03 -1.21309870e-03 1.19717349e-03 -1.21309870e-03 -3.01064318e-03
2.21845301e-03 5.83520479e-04 -1.90657374e-03 5.83520479e-04 2.58772314e-03 1.40345399e-03 -1.90657374e-03 1.40345399e-03 -4.53883142e-03
2.25106410e-03 9.19778016e-04 1.34046900e-03 9.19778016e-04 2.73315368e-03 -4.36456890e-03 1.34046900e-03 -4.36456890e-03 -4.77323875e-03
2.44010255e-03 -4.74110357e-04 -1.48097461e-04 -4.74110357e-04 1.93318352e-03 -1.03156214e-03 -1.48097461e-04 -1.03156214e-03 -4.15939287e-03
2.29852914e-03 -1.02591116e-07 2.56046522e-04 -1.02591116e-07 1.00466856e-03 -1.76488684e-04 2.56046522e-04 -1.76488684e-04 -3.26230435e-03
2.11135417e-03 1.62258220e-04 3.29138922e-04 1.62258220e-04 1.11376570e-03 1.41486346e-04 3.29138922e-04 1.41486346e-04 -3.19433690e-03
2.14098742e-03 5.29475194e-04 2.84244817e-04 5.29475194e-04 1.21759949e-03 2.03339692e-04 2.84244817e-04 2.03339692e-04 -3.30308906e-03
2.43165903e-03 9.11486968e-05 5.19420726e-04 9.11486968e-05 1.07010768e-03 -1.03706147e-04 5.19420726e-04 -1.03706147e-04 -3.43315280e-03
1.63173440e-03 2.71575191e-04 1.09852563e-04 2.71575191e-04 1.36161072e-03 2.70433540e-04 1.09852563e-04 2.70433540e-04 -2.98665842e-03
1.55166666e-03 7.11498938e-04 -1.27659441e-05 7.11498938e-04 1.36020700e-03 4.85699129e-05 -1.27659441e-05 4.85699129e-05 -2.89073904e-03
1.11871131e-03 1.68463877e-04 -3.44490632e-04 1.68463877e-04 1.47422295e-03 1.25592722e-04 -3.44490632e-04 1.25592722e-04 -2.60818971e-03
1.04175368e-03 3.69104777e-04 -1.68537201e-04 3.69104777e-04 1.36254414e-03 4.31883367e-05 -1.68537201e-04 4.31883367e-05 -2.42263571e-03
8.60135202e-04 4.33515083e-06 -3.29785704e-04 4.33515083e-06 1.32162543e-03 -1.05454546e-07 -3.29785704e-04 -1.05454546e-07 -2.21634557e-03
7.79909926e-04 -1.07359558e-04 -2.98830357e-04 -1.07359558e-04 1.17261564e-03 9.39229494e-05 -2.98830357e-04 9.39229494e-05 -2.01125111e-03
8.28027987e-04 -7.17210714e-05 -2.89836731e-04 -7.17210714e-05 1.13815547e-03 6.47719748e-05 -2.89836731e-04 6.47719748e-05 -2.00739066e-03
7.73439046e-04 -1.91240839e-04 -3.92765225e-04 -1.91240839e-04 9.29038652e-04 6.78533961e-05 -3.92765225e-04 6.78533961e-05 -1.79719245e-03
7.95311498e-04 3.12445209e-05 -1.42259392e-04 3.12445209e-05 1.11605704e-03 2.74968326e-04 -1.42259392e-04 2.74968326e-04 -1.94868282e-03
8.10271478e-04 -2.05049523e-04 -9.42957413e-05 -2.05049523e-04 8.93018150e-04 2.92881195e-05 -9.42957413e-05 2.92881195e-05 -1.81336817e-03
2.73542746e-03 7.83162046e-04 1.51409667e-03 7.83162046e-04 1.23502468e-03 -1.58395144e-04 1.51409667e-03 -1.58395144e-04 -3.78748731e-03
2.95474235e-03 4.13983507e-04 1.80227415e-03 4.13983507e-04 1.39666919e-03 -8.91460848e-04 1.80227415e-03 -8.91460848e-04 -4.15430783e-03
1.76313163e-03 7.81740964e-04 -2.13824122e-04 7.81740964e-04 1.24968227e-03 2.80101922e-05 -2.13824122e-04 2.80101922e-05 -2.91512569e-03
7.51391693e-04 3.89442108e-04 -5.79626034e-04 3.89442108e-04 8.06448359e-04 3.41255982e-05 -5.79626034e-04 3.41255982e-05 -1.57254076e-03
4.52705177e-04 -1.58545195e-07 -5.27347412e-04 -1.58545195e-07 7.06363569e-04 -5.42926641e-05 -5.27347412e-04 -5.42926641e-05 -1.22132275e-03
4.97500211e-04 -1.68784565e-04 -9.41869786e-04 -1.68784565e-04 6.28821381e-04 -9.29735525e-05 -9.41869786e-04 -9.29735525e-05 -1.24516990e-03
5.22472265e-04 -3.58041541e-04 -8.40248414e-04 -3.58041541e-04 5.56752764e-04 -3.74886561e-04 -8.40248414e-04 -3.74886561e-04 -1.24884129e-03
3.03901907e-03 -1.21420094e-04 3.70579826e-03 -1.21420094e-04 7.00602787e-04 -8.77867880e-04 3.70579826e-03 -8.77867880e-04 -3.49363646e-03
3.56961251e-03 -6.16230459e-04 3.93155528e-03 -6.16230459e-04 1.22152520e-03 -8.66928312e-04 3.93155528e-03 -8.66928312e-04 -4.53227642e-03
1.76134021e-03 6.69800708e-04 1.73913596e-04 6.69800708e-04 8.54334484e-04 -1.68365520e-03 1.73913596e-04 -1.68365520e-03 -2.51351204e-03
5.99458113e-04 3.44635938e-04 -9.70173375e-04 3.44635938e-04 2.49726297e-04 -5.62780472e-04 -9.70173375e-04 -5.62780472e-04 -8.54684292e-04
-4.97006622e-05 -1.64240261e-03 -2.11096252e-03 -1.64240261e-03 -8.76064296e-04 -2.04952084e-03 -2.11096252e-03 -2.04952084e-03 8.62250745e-04
2.52317186e-06 1.19086640e-04 -3.95452662e-05 1.19086640e-04 3.25889319e-05 -2.06833807e-05 -3.95452662e-05 -2.06833807e-05 -8.39164568e-06
2.68913092e-03 4.01588222e-04 -1.29383360e-03 4.01588222e-04 1.58068969e-03 1.39979197e-03 -1.29383360e-03 1.39979197e-03 -3.85412647e-03
2.80253189e-03 3.22899791e-04 -2.22740788e-03 3.22899791e-04 2.40135517e-03 5.47075217e-04 -2.22740788e-03 5.47075217e-04 -4.69416093e-03
3.11859656e-03 4.26140352e-04 1.63700541e-04 4.26140352e-04 1.82045007e-03 -2.10445089e-03 1.63700541e-04 -2.10445089e-03 -4.96260286e-03
3.07799538e-03 3.40109824e-05 -5.96955748e-05 3.40109824e-05 3.75197921e-03 6.06641101e-04 -5.96955748e-05 6.06641101e-04 -6.25962415e-03
3.08827555e-03 -9.66085317e-05 -2.34020563e-04 -9.66085317e-05 3.59195401e-03 -1.10056810e-03 -2.34020563e-04 -1.10056810e-03 -6.07259094e-03
3.02793138e-03 -4.13940797e-04 1.47872920e-03 -4.13940797e-04 3.10118729e-03 1.32877042e-03 1.47872920e-03 1.32877042e-03 -5.60691068e-03
2.98493984e-03 2.94681202e-04 9.80660188e-04 2.94681202e-04 3.24414135e-03 1.93772088e-04 9.80660188e-04 1.93772088e-04 -5.67564392e-03
2.67234785e-03 8.43878079e-04 7.18953415e-04 8.43878079e-04 3.27766268e-03 -5.27934913e-04 7.18953415e-04 -5.27934913e-04 -5.58384857e-03
2.79332878e-03 -9.44225045e-04 4.39352443e-05 -9.44225045e-04 2.36711197e-03 9.14337230e-04 4.39352443e-05 9.14337230e-04 -4.78375726e-03
1.42049683e-03 6.28132315e-04 3.72208124e-04 6.28132315e-04 4.45562626e-04 -4.99885216e-04 3.72208124e-04 -4.99885216e-04 -1.75143647e-03
1.47936258e-03 -6.34661003e-04 -6.59351768e-04 -6.34661003e-04 7.11696919e-04 -2.87295836e-04 -6.59351768e-04 -2.87295836e-04 -2.07515512e-03
-5.51132602e-04 1.29438448e-03 -1.45788828e-04 1.29438448e-03 -4.23476420e-04 -1.58804806e-03 -1.45788828e-04 -1.58804806e-03 1.10371981e-03
8.14166197e-05 -1.13170594e-03 2.94952159e-04 -1.13170594e-03 -5.66074799e-04 -3.37438053e-03 2.94952159e-04 -3.37438053e-03 6.14930876e-04
1.10657756e-04 -2.88902345e-04 -5.24465868e-05 -2.88902345e-04 -1.03193497e-04 5.75078782e-04 -5.24465868e-05 5.75078782e-04 3.88539785e-05
-2.95430820e-04 -3.58131673e-04 -5.86237572e-05 -3.58131673e-04 1.41503871e-04 6.62101908e-05 -5.86237572e-05 6.62101908e-05 1.47723423e-04
-9.47366971e-06 -4.60551382e-05 2.88275751e-05 -4.60551382e-05 4.72765123e-06 -3.59009164e-06 2.88275751e-05 -3.59009164e-06 -1.34413699e-06
-4.87989792e-06 -1.78258269e-05 2.42242586e-05 -1.78258269e-05 1.10948404e-05 7.84154690e-06 2.42242586e-05 7.84154690e-06 -1.20198474e-05
9.84993767e-06 -1.61612734e-05 -2.53040471e-05 -1.61612734e-05 -2.70929013e-06 -5.21396978e-05 -2.53040471e-05 -5.21396978e-05 -1.31935576e-05
1.68564184e-05 -4.42278397e-05 -1.41420114e-05 -4.42278397e-05 2.64292862e-06 4.73616819e-05 -1.41420114e-05 4.73616819e-05 -2.45811989e-05
8.67981104e-05 4.44701956e-05 -4.18169102e-06 4.44701956e-05 -5.42781279e-05 2.32303049e-05 -4.18169102e-06 2.32303049e-05 -8.57806458e-06
2.61046342e-05 1.90735788e-05 3.21466826e-05 1.90735788e-05 -7.21449075e-05 4.74398666e-06 3.21466826e-05 4.74398666e-06 9.75302913e-06
-4.65736848e-05 2.37024069e-05 -4.06175695e-06 2.37024069e-05 -9.24303913e-06 -3.23597524e-05 -4.06175695e-06 -3.23597524e-05 3.15955531e-05
-7.06137301e-05 -4.56396228e-05 -2.45982034e-05 -4.56396228e-05 2.33835047e-05 7.06582371e-06 -2.45982034e-05 7.06582371e-06 4.01837876e-05
2.49440107e-03 -1.43120815e-07 -1.21339326e-07 -1.43120815e-07 1.05825101e-03 5.02664079e-08 -1.21339326e-07 5.02664079e-08 -3.49676353e-03
2.17923173e-03 2.90786702e-04 -6.91693458e-08 2.90786702e-04 1.24474498e-03 2.17358916e-04 -6.91693458e-08 2.17358916e-04 -3.38458223e-03
2.49351823e-03 7.72296640e-04 2.34645591e-04 7.72296640e-04 1.13418985e-03 3.45750559e-04 2.34645591e-04 3.45750559e-04 -3.54361982e-03
2.82095897e-03 2.50584504e-04 7.56818918e-05 2.50584504e-04 9.91039298e-04 -1.28751822e-07 7.56818918e-05 -1.28751822e-07 -3.71716928e-03
1.55044429e-03 2.90862983e-04 4.66087613e-09 2.90862983e-04 1.54426700e-03 3.43269421e-04 4.66087613e-09 3.43269421e-04 -3.07711342e-03
1.65651328e-03 8.12293969e-04 2.72722689e-04 8.12293969e-04 1.44782223e-03 3.62271770e-04 2.72722689e-04 3.62271770e-04 -3.05769959e-03
1.00807147e-03 2.46166528e-04 -3.02132605e-07 2.46166528e-04 1.70968508e-03 2.35235530e-04 -3.02132605e-07 2.35235530e-04 -2.71290122e-03
9.16006218e-04 5.04424970e-04 2.02200266e-04 5.04424970e-04 1.47217367e-03 3.12962031e-04 2.02200266e-04 3.12962031e-04 -2.38958508e-03
7.32615415e-04 1.48696701e-04 1.70782414e-07 1.48696701e-04 1.67363032e-03 5.56122850e-05 1.70782414e-07 5.56122850e-05 -2.42424745e-03
6.30398346e-04 1.98303210e-04 3.90449481e-04 1.98303210e-04 1.34997373e-03 2.00067629e-04 3.90449481e-04 2.00067629e-04 -2.01159969e-03
8.45854433e-04 -1.24181832e-04 -2.89985309e-07 -1.24181832e-04 1.51410606e-03 5.84948066e-05 -2.89985309e-07 5.84948066e-05 -2.36879161e-03
6.72023903e-04 -7.10083041e-05 5.09261328e-04 -7.10083041e-05 1.20407365e-03 5.77187905e-06 5.09261328e-04 5.77187905e-06 -1.92853049e-03
8.66858754e-04 -4.99962189e-04 3.98619477e-07 -4.99962189e-04 1.58195104e-03 3.56323028e-04 3.98619477e-07 3.56323028e-04 -2.43153586e-03
7.63765740e-04 -3.79227582e-04 6.91371708e-04 -3.79227582e-04 1.18943691e-03 -1.74314038e-04 6.91371708e-04 -1.74314038e-04 -2.01726321e-03
2.45297430e-03 1.31095639e-03 -5.09675534e-04 1.31095639e-03 1.72258397e-03 5.06060867e-04 -5.09675534e-04 5.06060867e-04 -3.97739187e-03
3.05960304e-03 1.48206767e-04 -2.44173316e-04 1.48206767e-04 2.09057084e-03 -1.14543582e-07 -2.44173316e-04 -1.14543582e-07 -4.89236275e-03
1.44685195e-03 1.61591251e-03 -6.96188727e-05 1.61591251e-03 1.16648935e-03 5.77020939e-04 -6.96188727e-05 5.77020939e-04 -2.54370517e-03
6.84316772e-04 6.28977868e-04 3.08115115e-04 6.28977868e-04 8.76758611e-04 3.88575521e-04 3.08115115e-04 3.88575521e-04 -1.58751980e-03
2.51501144e-04 -2.35425582e-05 3.47940630e-04 -2.35425582e-05 5.09481262e-04 3.60288810e-04 3.47940630e-04 3.60288810e-04 -7.92763793e-04
1.13255423e-04 -1.24813323e-04 3.79000914e-04 -1.24813323e-04 3.25987625e-04 -2.10637154e-06 3.79000914e-04 -2.10637154e-06 -5.14220563e-04
2.38738830e-04 -3.00231237e-04 3.24510707e-04 -3.00231237e-04 2.02036953e-04 -3.55954995e-04 3.24510707e-04 -3.55954995e-04 -5.83797155e-04
3.59074899e-03 1.13288857e-04 2.34703615e-03 1.13288857e-04 3.55035951e-03 1.22474786e-03 2.34703615e-03 1.22474786e-03 -6.89387368e-03
4.36040899e-03 -5.33035956e-04 2.26117717e-03 -5.33035956e-04 3.99882672e-03 -3.11005351e-07 2.26117717e-03 -3.11005351e-07 -7.99895544e-03
1.11442389e-03 3.73380271e-04 6.21681412e-04 3.73380271e-04 1.06411006e-03 1.21277396e-03 6.21681412e-04 1.21277396e-03 -2.19333863e-03
1.07748088e-04 1.20387440e-05 2.59414497e-04 1.20387440e-05 2.32149930e-04 3.76369891e-04 2.59414497e-04 3.76369891e-04 -3.60473881e-04
1.36192448e-05 -1.62499069e-04 9.99347085e-05 -1.62499069e-04 7.79383427e-05 2.49416871e-05 9.99347085e-05 2.49416871e-05 -4.11137598e-05
-6.85962541e-05 -8.03805233e-05 -1.05573010e-04 -8.03805233e-05 7.60726998e-05 -2.21708178e-05 -1.05573010e-04 -2.21708178e-05 -2.52326367e-05
-1.67312523e-05 -5.23182944e-05 1.48755225e-04 -5.23182944e-05 -5.17228186e-05 2.91324400e-05 1.48755225e-04 2.91324400e-05 5.06662368e-05
2.98192035e-05 -1.66161131e-04 -2.33459585e-04 -1.66161131e-04 -1.53082561e-04 7.38419453e-06 -2.33459585e-04 7.38419453e-06 4.09903023e-05
5.41346890e-05 -6.59754005e-06 1.30686887e-04 -6.59754005e-06 -2.53983737e-04 -2.34373774e-05 1.30686887e-04 -2.34373774e-05 1.17746706e-04
2.46277421e-04 -1.83716475e-04 -7.22228200e-04 -1.83716475e-04 -3.04698306e-04 -1.26346739e-03 -7.22228200e-04 -1.26346739e-03 6.07827824e-05
-3.79397228e-04 -3.87369846e-05 1.62361954e-04 -3.87369846e-05 -3.98006819e-05 1.93390209e-04 1.62361954e-04 1.93390209e-04 4.20980810e-04
7.01813318e-04 4.82221483e-04 -5.83473884e-04 4.82221483e-04 1.11242780e-03 1.90192391e-03 -5.83473884e-04 1.90192391e-03 -1.98309147e-03
-2.51075799e-05 7.21676382e-05 -8.49829424e-07 7.21676382e-05 1.94419474e-04 9.56545822e-05 -8.49829424e-07 9.56545822e-05 -2.22219026e-05
-3.10077830e-05 -1.29909034e-05 6.99871234e-05 -1.29909034e-05 1.83338991e-04 -7.62314594e-05 6.99871234e-05 -7.62314594e-05 -4.76674722e-06
-2.19578569e-05 8.30997451e-05 1.62971901e-05 8.30997451e-05 6.44194934e-05 -1.21661695e-05 1.62971901e-05 -1.21661695e-05 4.41186091e-06
2.94469605e-05 -1.03042348e-05 -2.86187678e-05 -1.03042348e-05 -5.42898078e-07 2.35187672e-05 -2.86187678e-05 2.35187672e-05 1.77775682e-05
7.03883306e-05 -3.83081569e-05 -1.47270521e-06 -3.83081569e-05 -1.62530232e-04 -2.86328614e-05 -1.47270521e-06 -2.86328614e-05 4.86315985e-05
7.16175318e-05 -2.53319085e-05 -3.18445982e-05 -2.53319085e-05 -1.89050479e-04 -1.47689013e-06 -3.18445982e-05 -1.47689013e-06 7.48717102e-05
6.14081789e-03 1.23644597e-03 -2.67057656e-03 1.23644597e-03 6.24911720e-03 1.40068732e-06 -2.67057656e-03 1.40068732e-06 -1.14643434e-02
6.73506921e-03 -1.39016064e-03 -1.75338855e-03 -1.39016064e-03 5.61836222e-03 4.97886818e-03 -1.75338855e-03 4.97886818e-03 -1.14247967e-02
3.90284446e-03 -1.22694124e-03 1.60664774e-03 -1.22694124e-03 3.94766933e-03 1.97097473e-03 1.60664774e-03 1.97097473e-03 -7.06016738e-03
4.33815375e-03 2.22974195e-05 1.48466037e-03 2.22974195e-05 5.28066931e-03 -5.92693141e-07 1.48466037e-03 -5.92693141e-07 -8.75232741e-03
5.47933678e-05 6.97692030e-07 -8.20188188e-06 6.97692030e-07 -3.58192838e-05 -5.58368265e-05 -8.20188188e-06 -5.58368265e-05 1.30658595e-05
-4.93979035e-05 -3.16676160e-05 4.46080739e-05 -3.16676160e-05 2.11421235e-05 1.60660789e-04 4.46080739e-05 1.60660789e-04 5.25596054e-05
6.47725028e-05 4.42953751e-05 2.53098688e-05 4.42953751e-05 -1.00676210e-04 9.32678950e-06 2.53098688e-05 9.32678950e-06 -1.51694629e-05
4.65962454e-03 -1.69294348e-03 5.05428965e-04 -1.69294348e-03 2.66822556e-03 2.15491245e-03 5.05428965e-04 2.15491245e-03 -6.63059903e-03
4.58455039e-03 -1.34946255e-03 2.14715628e-03 -1.34946255e-03 3.34512256e-03 1.29962064e-06 2.14715628e-03 1.29962064e-06 -7.13954028e-03
2.07376713e-03 7.75798777e-04 2.40898204e-04 7.75798777e-04 2.23142782e-03 1.07718637e-03 2.40898204e-04 1.07718637e-03 -3.94235575e-03
2.71672569e-03 -4.81448507e-04 -7.74022395e-04 -4.81448507e-04 2.00632919e-03 1.92257011e-03 -7.74022395e-04 1.92257011e-03 -4.36073542e-03
7.81452385e-04 3.94094241e-04 -2.18112997e-04 3.94094241e-04 2.25090869e-04 8.44132388e-04 -2.18112997e-04 8.44132388e-04 -1.02994213e-03
5.13913619e-04 -5.01242357e-04 -2.60315865e-04 -5.01242357e-04 5.77357932e-04 7.07785424e-04 -2.60315865e-04 7.07785424e-04 -1.11279494e-03
-3.59248428e-04 -1.07923537e-04 -2.46115465e-04 -1.07923537e-04 1.82982280e-04 1.82022275e-04 -2.46115465e-04 1.82022275e-04 1.11499656e-04
-1.44589016e-04 5.29408971e-05 -3.04784944e-05 5.29408971e-05 4.78415095e-05 -1.16364495e-05 -3.04784944e-05 -1.16364495e-05 8.84477085e-05
-4.88044607e-05 5.13182167e-05 1.64546018e-05 5.13182167e-05 -2.23216921e-05 -9.46574528e-06 1.64546018e-05 -9.46574528e-06 2.88312476e-05
</DataArray>
<DataArray type="Float32" Name="Plastic_strain_components" NumberOfComponents="9" format="ascii">
2.21815055e-04 -1.01316491e-04 3.23628822e-05 -1.01316491e-04 1.94780629e-04 1.09549479e-04 3.23628822e-05 1.09549479e-04 -3.48558653e-04
2.69073662e-04 -1.23001822e-04 5.61073816e-05 -1.23001822e-04 2.80840000e-04 1.28988842e-04 5.61073816e-05 1.28988842e-04 -4.59539724e-04
4.02226753e-04 -1.47591832e-04 1.12502230e-04 -1.47591832e-04 4.85662706e-04 -3.10300703e-06 1.12502230e-04 -3.10300703e-06 -7.53385902e-04
1.73300625e-04 -1.85590927e-05 -9.49225323e-05 -1.85590927e-05 2.13010153e-04 -5.28509153e-05 -9.49225323e-05 -5.28509153e-05 -3.25390602e-04
1.06996540e-04 4.22226320e-05 1.52402626e-04 4.22226320e-05 1.03547708e-04 2.97965165e-05 1.52402626e-04 2.97965165e-05 -1.84913378e-04
4.10263726e-04 -3.14656218e-04 -3.45729316e-04 -3.14656218e-04 5.57853865e-04 6.16941610e-04 -3.45729316e-04 6.16941610e-04 -8.24493406e-04
1.41996769e-03 5.44112358e-04 7.61330522e-04 5.44112358e-04 9.86994455e-04 -6.62389910e-04 7.61330522e-04 -6.62389910e-04 -1.99641917e-03
5.39215407e-04 1.74412635e-04 8.09253910e-04 1.74412635e-04 5.42292153e-04 2.24868387e-04 8.09253910e-04 2.24868387e-04 -8.96093864e-04
2.49673474e-04 -3.45643823e-05 -1.92171303e-04 -3.45643823e-05 2.75084487e-04 2.20297605e-04 -1.92171303e-04 2.20297605e-04 -4.45078986e-04
1.11764175e-03 -1.42017750e-04 8.08123223e-04 -1.42017750e-04 1.12149963e-03 1.01108628e-03 8.08123223e-04 1.01108628e-03 -1.87767969e-03
1.35123681e-03 5.88205080e-04 -2.83891653e-03 5.88205080e-04 2.21246735e-03 1.60194217e-03 -2.83891653e-03 1.60194217e-03 -2.92196829e-03
2.42996856e-03 2.35770375e-03 -2.97577388e-03 2.35770375e-03 2.47453596e-03 -3.99801967e-04 -2.97577388e-03 -3.99801967e-04 -4.09429031e-03
0.00000000e+00 0.00000000e+00 0.00000000e+00 0.00000000e+00 0.00000000e+00 0.00000000e+00 0.00000000e+00 0.00000000e+00 0.00000000e+00
0.00000000e+00 0.00000000e+00 0.00000000e+00 0.00000000e+00 0.00000000e+00 0.00000000e+00 0.00000000e+00 0.00000000e+00 0.00000000e+00
0.00000000e+00 0.00000000e+00 0.00000000e+00 0.00000000e+00 0.00000000e+00 0.00000000e+00 0.00000000e+00 0.00000000e+00 0.00000000e+00
0.00000000e+00 0.00000000e+00 0.00000000e+00 0.00000000e+00 0.00000000e+00 0.00000000e+00 0.00000000e+00 0.00000000e+00 0.00000000e+00
0.00000000e+00 0.00000000e+00 0.00000000e+00 0.00000000e+00 0.00000000e+00 0.00000000e+00 0.00000000e+00 0.00000000e+00 0.00000000e+00
0.00000000e+00 0.00000000e+00 0.00000000e+00 0.00000000e+00 0.00000000e+00 0.00000000e+00 0.00000000e+00 0.00000000e+00 0.00000000e+00
0.00000000e+00 0.00000000e+00 0.00000000e+00 0.00000000e+00 0.00000000e+00 0.00000000e+00 0.00000000e+00 0.00000000e+00 0.00000000e+00
0.00000000e+00 0.00000000e+00 0.00000000e+00 0.00000000e+00 0.00000000e+00 0.00000000e+00 0.00000000e+00 0.00000000e+00 0.00000000e+00
1.03565928e-03 1.19551666e-08 4.08495805e-04 1.19551666e-08 1.05647428e-03 -2.10351551e-04 4.08495805e-04 -2.10351551e-04 -1.76029716e-03
1.07599626e-03 -5.85682646e-05 4.20094126e-04 -5.85682646e-05 9.82121084e-04 -3.77481119e-05 4.20094126e-04 -3.77481119e-05 -1.73125439e-03
1.06954313e-03 -3.68220080e-04 5.19739875e-04 -3.68220080e-04 1.05183319e-03 1.01098515e-04 5.19739875e-04 1.01098515e-04 -1.78207437e-03
9.86997256e-04 -4.36515293e-05 4.76618647e-04 -4.36515293e-05 1.15660741e-03 -1.97095273e-04 4.76618647e-04 -1.97095273e-04 -1.80197504e-03
1.54999294e-03 7.89959742e-09 2.22590781e-04 7.89959742e-09 9.59887722e-04 -9.03796208e-05 2.22590781e-04 -9.03796208e-05 -2.11006659e-03
1.49814639e-03 1.73292874e-05 5.41081715e-06 1.73292874e-05 9.58739111e-04 2.20360977e-04 5.41081715e-06 2.20360977e-04 -2.06568703e-03
1.52255205e-03 3.91228906e-05 5.74953759e-04 3.91228906e-05 1.09031209e-03 5.89631754e-05 5.74953759e-04 5.89631754e-05 -2.19244420e-03
1.56984362e-03 5.73108616e-06 6.23807648e-04 5.73108616e-06 1.11759244e-03 -3.11312593e-04 6.23807648e-04 -3.11312593e-04 -2.25456327e-03
1.20358978e-03 -2.18843787e-04 5.56978513e-04 -2.18843787e-04 7.72179512e-04 1.06901052e-05 5.56978513e-04 1.06901052e-05 -1.65819636e-03
1.22401543e-03 -4.94296706e-04 1.43597306e-04 -4.94296706e-04 9.09977447e-04 4.38781572e-05 1.43597306e-04 4.38781572e-05 -1.79194717e-03
1.33466208e-03 4.52445929e-05 -2.88404481e-04 4.52445929e-05 9.33581206e-04 1.23426683e-04 -2.88404481e-04 1.23426683e-04 -1.90806232e-03
1.40778205e-03 1.24244607e-04 2.39147146e-04 1.24244607e-04 1.11760353e-03 2.34737099e-04 2.39147146e-04 2.34737099e-04 -2.12687174e-03
1.30551180e-03 -1.66065993e-05 1.98721285e-04 -1.66065993e-05 5.94678422e-04 1.46001024e-04 1.98721285e-04 1.46001024e-04 -1.59314391e-03
1.33314647e-03 -2.97614266e-04 -3.07644606e-04 -2.97614266e-04 9.28245216e-04 -2.64698094e-04 -3.07644606e-04 -2.64698094e-04 -1.89833496e-03
1.16802822e-03 -2.31111349e-05 -2.18231784e-04 -2.31111349e-05 8.37872969e-04 2.88885531e-06 -2.18231784e-04 2.88885531e-06 -1.68818602e-03
1.24429599e-03 -9.21937014e-05 -4.51724276e-04 -9.21937014e-05 1.00850509e-03 9.17751763e-05 -4.51724276e-04 9.17751763e-05 -1.89304433e-03
1.16216252e-03 -7.00591045e-06 -2.34823165e-04 -7.00591045e-06 5.53693317e-04 -4.70276291e-05 -2.34823165e-04 -4.70276291e-05 -1.44031484e-03
1.32191119e-03 1.56384133e-04 -1.37680636e-05 1.56384133e-04 1.18510964e-03 -6.98716940e-05 -1.37680636e-05 -6.98716940e-05 -2.10856601e-03
9.89968976e-04 1.12283280e-05 -2.50732388e-04 1.12283280e-05 7.12366222e-04 1.49594780e-06 -2.50732388e-04 1.49594780e-06 -1.43185281e-03
1.01158516e-03 -2.08982105e-04 -4.27409073e-04 -2.08982105e-04 7.29019463e-04 -9.39680494e-05 -4.27409073e-04 -9.39680494e-05 -1.46082627e-03
8.06475990e-04 9.50202593e-05 4.63352371e-05 9.50202593e-05 5.50000499e-04 -1.53339159e-04 4.63352371e-05 -1.53339159e-04 -1.14164286e-03
1.14834370e-03 1.62445066e-04 -4.44960924e-05 1.62445066e-04 9.99618649e-04 7.19597433e-05 -4.44960924e-05 7.19597433e-05 -1.80826595e-03
7.03763420e-04 4.08340366e-05 -3.78445227e-04 4.08340366e-05 5.46496893e-04 4.76068362e-05 -3.78445227e-04 4.76068362e-05 -1.05007882e-03
7.74413420e-04 -4.47587969e-05 -1.69850831e-04 -4.47587969e-05 7.63553595e-04 -5.90943127e-05 -1.69850831e-04 -5.90943127e-05 -1.29446907e-03
6.57859113e-04 2.00365866e-04 1.17693278e-04 2.00365866e-04 3.94741364e-04 -1.57626011e-04 1.17693278e-04 -1.57626011e-04 -8.84186476e-04
9.62692618e-04 1.55651775e-04 4.76054938e-05 1.55651775e-04 7.63971620e-04 -1.28984540e-04 4.76054938e-05 -1.28984540e-04 -1.45299544e-03
5.70457953e-04 1.80144023e-04 -2.79427433e-04 1.80144023e-04 4.04245628e-04 4.93193033e-05 -2.79427433e-04 4.93193033e-05 -8.18490545e-04
6.97459822e-04 1.63547301e-04 -8.50009492e-05 1.63547301e-04 5.84676905e-04 3.01960677e-05 -8.50009492e-05 3.01960677e-05 -1.07868777e-03
8.27788412e-04 -5.58691860e-04 1.12053523e-03 -5.58691860e-04 1.13428885e-03 -3.71560656e-04 1.12053523e-03 -3.71560656e-04 -1.61999455e-03
6.52369839e-04 -3.27892041e-04 6.99585653e-04 -3.27892041e-04 1.21869307e-03 -2.10414055e-04 6.99585653e-04 -2.10414055e-04 -1.56551140e-03
1.76620822e-03 -2.88058923e-04 1.16683206e-03 -2.88058923e-04 1.47569018e-03 5.84955123e-05 1.16683206e-03 5.84955123e-05 -2.71937065e-03
1.66535721e-03 -3.69453846e-05 1.60208531e-03 -3.69453846e-05 1.25156838e-03 -3.17045400e-04 1.60208531e-03 -3.17045400e-04 -2.43198680e-03
1.30962077e-03 -2.79491227e-04 5.35829001e-04 -2.79491227e-04 1.27213145e-03 -5.33661686e-04 5.35829001e-04 -5.33661686e-04 -2.18106291e-03
1.43863975e-03 9.22978988e-05 6.62102684e-06 9.22978988e-05 1.40564566e-03 -6.52034899e-04 6.62102684e-06 -6.52034899e-04 -2.39075797e-03
2.08074269e-03 -4.62429695e-04 -2.23423763e-03 -4.62429695e-04 1.66437983e-03 2.29394413e-04 -2.23423763e-03 2.29394413e-04 -3.11050136e-03
1.04131292e-03 1.48575343e-04 -1.02646393e-03 1.48575343e-04 1.02211406e-03 -4.18507145e-04 -1.02646393e-03 -4.18507145e-04 -1.71904618e-03
1.85751758e-03 1.48317311e-04 -1.53101780e-04 1.48317311e-04 1.90677695e-03 5.15887856e-04 -1.53101780e-04 5.15887856e-04 -3.17028794e-03
1.32087121e-03 -2.30035681e-04 -1.53697978e-03 -2.30035681e-04 8.72577413e-04 4.28860288e-04 -1.53697978e-03 4.28860288e-04 -1.81381764e-03
1.54147868e-03 -1.06980990e-04 -2.83454734e-04 -1.06980990e-04 1.49748099e-03 1.70619105e-04 -2.83454734e-04 1.70619105e-04 -2.55769485e-03
1.25132399e-03 7.33959459e-05 -2.98118139e-04 7.33959459e-05 1.19265699e-03 2.29332577e-04 -2.98118139e-04 2.29332577e-04 -2.05886574e-03
1.33848272e-03 4.95638524e-05 -2.04026379e-04 4.95638524e-05 1.21371570e-03 6.65329771e-05 -2.04026379e-04 6.65329771e-05 -2.14815175e-03
1.23358710e-03 1.09935765e-04 -1.80167244e-04 1.09935765e-04 1.02875452e-03 -4.02560272e-04 -1.80167244e-04 -4.02560272e-04 -1.90230168e-03
6.94811605e-04 -3.14058097e-04 1.20331861e-03 -3.14058097e-04 1.12558890e-03 -9.27362125e-05 1.20331861e-03 -9.27362125e-05 -1.49403600e-03
2.31951287e-04 -8.36285708e-05 6.53489667e-04 -8.36285708e-05 8.10854282e-04 5.40309004e-04 6.53489667e-04 5.40309004e-04 -8.64287555e-04
1.52655466e-03 -2.43941326e-04 1.21501766e-03 -2.43941326e-04 1.14700726e-03 -1.18521496e-03 1.21501766e-03 -1.18521496e-03 -2.22236821e-03
9.41835613e-04 3.95759627e-04 1.60545635e-03 3.95759627e-04 9.93591617e-04 -1.78906802e-03 1.60545635e-03 -1.78906802e-03 -1.56818231e-03
1.68216435e-03 -7.82308336e-04 2.28582695e-03 -7.82308336e-04 2.14924139e-03 -2.54039585e-03 2.28582695e-03 -2.54039585e-03 -3.14929005e-03
2.31550569e-03 -5.70516949e-04 1.32930116e-04 -5.70516949e-04 1.54837046e-03 -1.33993417e-03 1.32930116e-04 -1.33993417e-03 -3.21255387e-03
-8.31350102e-04 -2.76037538e-03 -5.82078425e-03 -2.76037538e-03 -4.16990253e-04 -5.58389956e-03 -5.82078425e-03 -5.58389956e-03 1.90826366e-03
5.71030265e-04 -6.98033352e-05 -6.25579557e-04 -6.98033352e-05 1.20586813e-04 -5.15478663e-04 -6.25579557e-04 -5.15478663e-04 -5.97777873e-04
2.39177571e-04 -3.29718033e-05 2.85235737e-04 -3.29718033e-05 4.88700838e-04 4.51868497e-04 2.85235737e-04 4.51868497e-04 -6.03563119e-04
1.56283149e-04 -9.53471863e-05 5.04420710e-04 -9.53471863e-05 3.70570346e-04 2.42290254e-04 5.04420710e-04 2.42290254e-04 -4.24966682e-04
5.43096185e-04 8.19056741e-05 1.11062139e-03 8.19056741e-05 7.13956397e-04 5.39732961e-04 1.11062139e-03 5.39732961e-04 -1.03411986e-03
4.50096275e-04 2.04689790e-04 -1.49736192e-04 2.04689790e-04 7.65263125e-04 -3.38146019e-04 -1.49736192e-04 -3.38146019e-04 -1.03309275e-03
1.59360150e-04 8.29567207e-05 8.41761921e-05 8.29567207e-05 1.37637162e-04 -5.28940709e-05 8.41761921e-05 -5.28940709e-05 -2.48794940e-04
1.06858493e-03 3.01020817e-04 -4.92423415e-04 3.01020817e-04 1.40824142e-03 1.06112240e-03 -4.92423415e-04 1.06112240e-03 -2.04070312e-03
8.03194052e-04 2.58527991e-04 2.87882656e-04 2.58527991e-04 1.36297986e-03 3.67031542e-04 2.87882656e-04 3.67031542e-04 -1.81943006e-03
2.82464129e-04 -1.29598174e-04 5.71837387e-04 -1.29598174e-04 6.21480354e-04 8.31962454e-04 5.71837387e-04 8.31962454e-04 -6.90515712e-04
2.25574616e-03 -3.76776734e-04 3.21357598e-03 -3.76776734e-04 2.04992111e-03 1.83381796e-03 3.21357598e-03 1.83381796e-03 -3.56074737e-03
1.75534753e-03 2.56941811e-04 -1.85518273e-03 2.56941811e-04 2.32910726e-03 -1.19749445e-03 -1.85518273e-03 -1.19749445e-03 -3.35872667e-03
2.96284212e-04 -1.57065206e-05 3.35710683e-04 -1.57065206e-05 4.30051718e-04 1.92831190e-04 3.35710683e-04 1.92831190e-04 -6.05839945e-04
1.32424638e-03 1.02042877e-03 -2.98779985e-04 1.02042877e-03 1.69935575e-03 3.99072007e-04 -2.98779985e-04 3.99072007e-04 -2.55088118e-03
1.05687871e-03 2.12791325e-04 9.97468000e-04 2.12791325e-04 1.80520007e-03 -9.57442564e-04 9.97468000e-04 -9.57442564e-04 -2.39573669e-03
2.14173025e-03 5.26268996e-04 -1.70033786e-03 5.26268996e-04 2.49024772e-03 1.22252354e-03 -1.70033786e-03 1.22252354e-03 -3.86419718e-03
2.22325309e-03 8.54243175e-04 1.18356307e-03 8.54243175e-04 2.60130677e-03 -3.95178841e-03 1.18356307e-03 -3.95178841e-03 -3.99626846e-03
2.30848686e-03 -4.08195536e-04 -1.14006922e-04 -4.08195536e-04 1.83905056e-03 -9.34769334e-04 -1.14006922e-04 -9.34769334e-04 -3.49600924e-03
2.09280825e-03 -6.93208904e-08 2.14848842e-04 -6.93208904e-08 1.01552019e-03 -1.46977705e-04 2.14848842e-04 -1.46977705e-04 -2.60647689e-03
1.92458631e-03 1.35320170e-04 2.62017566e-04 1.35320170e-04 1.09921210e-03 1.16074286e-04 2.62017566e-04 1.16074286e-04 -2.53892381e-03
1.96281976e-03 4.43105595e-04 2.29098598e-04 4.43105595e-04 1.19327374e-03 1.59871763e-04 2.29098598e-04 1.59871763e-04 -2.65017946e-03
2.22631427e-03 7.83065971e-05 4.33099241e-04 7.83065971e-05 1.08295372e-03 -9.73108672e-05 4.33099241e-04 -9.73108672e-05 -2.77483498e-03
1.49707778e-03 2.21089242e-04 7.67202473e-05 2.21089242e-04 1.28081869e-03 2.14058778e-04 7.67202473e-05 2.14058778e-04 -2.33791088e-03
1.42506081e-03 5.83940950e-04 -2.64970186e-05 5.83940950e-04 1.27053483e-03 3.17477370e-05 -2.64970186e-05 3.17477370e-05 -2.26423393e-03
1.03732738e-03 1.32756537e-04 -2.85353424e-04 1.32756537e-04 1.32672803e-03 9.84154749e-05 -2.85353424e-04 9.84154749e-05 -1.98934213e-03
9.56780270e-04 2.90415359e-04 -1.42363770e-04 2.90415359e-04 1.21466181e-03 3.02849905e-05 -1.42363770e-04 3.02849905e-05 -1.82540194e-03
7.91260609e-04 1.18531096e-06 -2.71009187e-04 1.18531096e-06 1.14843491e-03 3.93738264e-06 -2.71009187e-04 3.93738264e-06 -1.63165954e-03
7.07090141e-04 -8.55630351e-05 -2.36123700e-04 -8.55630351e-05 1.00335904e-03 7.37781319e-05 -2.36123700e-04 7.37781319e-05 -1.43726953e-03
7.41553915e-04 -5.22147539e-05 -2.22860373e-04 -5.22147539e-05 9.72575130e-04 4.43056560e-05 -2.22860373e-04 4.43056560e-05 -1.44275793e-03
6.75979973e-04 -1.35044192e-04 -2.87975941e-04 -1.35044192e-04 7.85457160e-04 5.90577627e-05 -2.87975941e-04 5.90577627e-05 -1.22696417e-03
7.10247929e-04 1.79361477e-05 -1.01864993e-04 1.79361477e-05 9.43967141e-04 2.03788375e-04 -1.01864993e-04 2.03788375e-04 -1.39292283e-03
6.99584256e-04 -1.37005830e-04 -5.84738591e-05 -1.37005830e-04 7.62480675e-04 3.14332228e-05 -5.84738591e-05 3.14332228e-05 -1.22923148e-03
2.54785677e-03 6.81689453e-04 1.33795697e-03 6.81689453e-04 1.24213005e-03 -1.43015826e-04 1.33795697e-03 -1.43015826e-04 -3.15503636e-03
2.77005171e-03 3.56800017e-04 1.58964802e-03 3.56800017e-04 1.41600208e-03 -7.77920257e-04 1.58964802e-03 -7.77920257e-04 -3.48790415e-03
1.60319627e-03 6.53213057e-04 -1.74448473e-04 6.53213057e-04 1.17223735e-03 1.81497726e-05 -1.74448473e-04 1.81497726e-05 -2.33385689e-03
6.31739185e-04 2.73306414e-04 -4.38573978e-04 2.73306414e-04 6.67407130e-04 2.37592030e-05 -4.38573978e-04 2.37592030e-05 -1.08756619e-03
3.42435846e-04 -3.02651305e-05 -3.43925981e-04 -3.02651305e-05 5.24306676e-04 -2.35148091e-05 -3.43925981e-04 -2.35148091e-05 -7.25900526e-04
3.77586959e-04 -1.25609938e-04 -5.94856699e-04 -1.25609938e-04 4.97918886e-04 -5.94404070e-05 -5.94856699e-04 -5.94404070e-05 -7.26488338e-04
3.97476775e-04 -2.05082416e-04 -4.90588354e-04 -2.05082416e-04 4.73531999e-04 -2.24126265e-04 -4.90588354e-04 -2.24126265e-04 -7.23114092e-04
2.84065523e-03 -8.72923192e-05 3.27785639e-03 -8.72923192e-05 7.92827471e-04 -7.86345394e-04 3.27785639e-03 -7.86345394e-04 -2.93612730e-03
3.38762308e-03 -5.35010671e-04 3.51455443e-03 -5.35010671e-04 1.32033212e-03 -7.68395257e-04 3.51455443e-03 -7.68395257e-04 -3.86436400e-03
1.57508346e-03 5.53214217e-04 1.07345559e-04 5.53214217e-04 7.97178713e-04 -1.47489951e-03 1.07345559e-04 -1.47489951e-03 -1.97302628e-03
4.15535431e-04 1.67267748e-04 -5.68075198e-04 1.67267748e-04 1.84576643e-04 -3.80359890e-04 -5.68075198e-04 -3.80359890e-04 -4.86160401e-04
4.32436354e-05 -1.10815105e-03 -1.38066127e-03 -1.10815105e-03 -4.92793682e-04 -1.28146308e-03 -1.38066127e-03 -1.28146308e-03 6.31956849e-04
-1.02576849e-04 3.96860425e-05 1.72807600e-04 3.96860425e-05 -5.65332455e-05 5.59091142e-05 1.72807600e-04 5.59091142e-05 1.19747115e-04
2.55462443e-03 3.38015860e-04 -1.25140202e-03 3.38015860e-04 1.62671152e-03 1.29501056e-03 -1.25140202e-03 1.29501056e-03 -3.35751692e-03
2.64607440e-03 2.58162744e-04 -2.06485012e-03 2.58162744e-04 2.35558918e-03 4.67936828e-04 -2.06485012e-03 4.67936828e-04 -4.16512267e-03
2.97588320e-03 4.35623486e-04 1.32592806e-04 4.35623486e-04 1.78201875e-03 -1.87766919e-03 1.32592806e-04 -1.87766919e-03 -4.02857887e-03
3.00203838e-03 4.12188613e-05 -5.85697805e-05 4.12188613e-05 3.61582614e-03 5.49428660e-04 -5.85697805e-05 5.49428660e-04 -5.57911481e-03
2.99830758e-03 -7.72665662e-05 -2.30126949e-04 -7.72665662e-05 3.44941637e-03 -1.01307346e-03 -2.30126949e-04 -1.01307346e-03 -5.43708273e-03
2.92841007e-03 -3.71998489e-04 1.32801157e-03 -3.71998489e-04 2.99675408e-03 1.20051656e-03 1.32801157e-03 1.20051656e-03 -4.96786850e-03
2.87457067e-03 2.75338913e-04 8.89518720e-04 2.75338913e-04 3.11869232e-03 1.67611804e-04 8.89518720e-04 1.67611804e-04 -5.04969154e-03
2.61953168e-03 7.59282470e-04 6.66253291e-04 7.59282470e-04 3.14377836e-03 -4.54473789e-04 6.66253291e-04 -4.54473789e-04 -4.85592609e-03
2.67744908e-03 -8.41697856e-04 4.54398105e-05 -8.41697856e-04 2.25820532e-03 8.11541428e-04 4.54398105e-05 8.11541428e-04 -4.14799969e-03
1.15792427e-03 4.94442236e-04 2.88761914e-04 4.94442236e-04 3.88088376e-04 -3.67542576e-04 2.88761914e-04 -3.67542576e-04 -1.30413327e-03
1.31213952e-03 -5.81274962e-04 -5.78464944e-04 -5.81274962e-04 6.00530213e-04 -1.26678318e-04 -5.78464944e-04 -1.26678318e-04 -1.58198149e-03
-3.45248438e-04 7.50016188e-04 -1.89727507e-04 7.50016188e-04 -4.67885722e-04 -5.26888471e-04 -1.89727507e-04 -5.26888471e-04 7.39232812e-04
1.62529195e-05 -7.97076500e-04 1.82549309e-04 -7.97076500e-04 -4.42540360e-04 -2.25691497e-03 1.82549309e-04 -2.25691497e-03 5.93074597e-04
7.76747038e-06 -1.63775141e-04 -7.09392079e-05 -1.63775141e-04 -8.38791702e-05 2.82278532e-04 -7.09392079e-05 2.82278532e-04 9.95289665e-05
-1.53268285e-04 -7.84669943e-05 5.01875887e-05 -7.84669943e-05 -5.81528633e-05 3.50197370e-05 5.01875887e-05 3.50197370e-05 1.68367666e-04
0.00000000e+00 0.00000000e+00 0.00000000e+00 0.00000000e+00 0.00000000e+00 0.00000000e+00 0.00000000e+00 0.00000000e+00 0.00000000e+00
0.00000000e+00 0.00000000e+00 0.00000000e+00 0.00000000e+00 0.00000000e+00 0.00000000e+00 0.00000000e+00 0.00000000e+00 0.00000000e+00
0.00000000e+00 0.00000000e+00 0.00000000e+00 0.00000000e+00 0.00000000e+00 0.00000000e+00 0.00000000e+00 0.00000000e+00 0.00000000e+00
0.00000000e+00 0.00000000e+00 0.00000000e+00 0.00000000e+00 0.00000000e+00 0.00000000e+00 0.00000000e+00 0.00000000e+00 0.00000000e+00
0.00000000e+00 0.00000000e+00 0.00000000e+00 0.00000000e+00 0.00000000e+00 0.00000000e+00 0.00000000e+00 0.00000000e+00 0.00000000e+00
0.00000000e+00 0.00000000e+00 0.00000000e+00 0.00000000e+00 0.00000000e+00 0.00000000e+00 0.00000000e+00 0.00000000e+00 0.00000000e+00
0.00000000e+00 0.00000000e+00 0.00000000e+00 0.00000000e+00 0.00000000e+00 0.00000000e+00 0.00000000e+00 0.00000000e+00 0.00000000e+00
0.00000000e+00 0.00000000e+00 0.00000000e+00 0.00000000e+00 0.00000000e+00 0.00000000e+00 0.00000000e+00 0.00000000e+00 0.00000000e+00
2.28616619e-03 -2.66912139e-07 4.36157279e-08 -2.66912139e-07 1.08020636e-03 -1.01886144e-08 4.36157279e-08 -1.01886144e-08 -2.82264338e-03
2.00232782e-03 2.39486530e-04 -1.80563347e-07 2.39486530e-04 1.22389471e-03 1.84254553e-04 -1.80563347e-07 1.84254553e-04 -2.71077617e-03
2.29968439e-03 6.53380455e-04 1.98797166e-04 6.53380455e-04 1.14210101e-03 2.93000528e-04 1.98797166e-04 2.93000528e-04 -2.88235536e-03
2.59989547e-03 2.11201797e-04 6.87409956e-05 2.11201797e-04 1.03426262e-03 -1.18567186e-07 6.87409956e-05 -1.18567186e-07 -3.04145762e-03
1.44058955e-03 2.40254631e-04 -1.92728521e-07 2.40254631e-04 1.43980957e-03 2.82000721e-04 -1.92728521e-07 2.82000721e-04 -2.42388691e-03
1.53225049e-03 6.75930693e-04 2.25183659e-04 6.75930693e-04 1.35923564e-03 3.03591689e-04 2.25183659e-04 3.03591689e-04 -2.42784782e-03
9.61073267e-04 1.98071422e-04 2.02480436e-07 1.98071422e-04 1.53412158e-03 1.90406201e-04 2.02480436e-07 1.90406201e-04 -2.09675508e-03
8.54483704e-04 3.99437675e-04 1.61539454e-04 3.99437675e-04 1.30048071e-03 2.49052246e-04 1.61539454e-04 2.49052246e-04 -1.80880717e-03
7.17482908e-04 1.14051014e-04 2.39219503e-07 1.14051014e-04 1.46323699e-03 4.47604925e-05 2.39219503e-07 4.47604925e-05 -1.82994420e-03
5.90438081e-04 1.45791974e-04 2.99687847e-04 1.45791974e-04 1.14763385e-03 1.54187044e-04 2.99687847e-04 1.54187044e-04 -1.45757303e-03
7.99217902e-04 -9.18064470e-05 4.61087382e-07 -9.18064470e-05 1.32256438e-03 4.48113024e-05 4.61087382e-07 4.48113024e-05 -1.78398023e-03
6.04783505e-04 -5.66798417e-05 3.82695573e-04 -5.66798417e-05 1.02518036e-03 7.51369816e-06 3.82695573e-04 7.51369816e-06 -1.36855783e-03
8.25404946e-04 -3.95031151e-04 5.58276724e-07 -3.95031151e-04 1.38669671e-03 2.86694820e-04 5.58276724e-07 2.86694820e-04 -1.85763708e-03
6.80329977e-04 -2.87773000e-04 5.16561791e-04 -2.87773000e-04 1.04356950e-03 -1.23892689e-04 5.16561791e-04 -1.23892689e-04 -1.44374662e-03
2.30285220e-03 1.14884801e-03 -4.46316968e-04 1.14884801e-03 1.66842202e-03 4.39451382e-04 -4.46316968e-04 4.39451382e-04 -3.33161448e-03
2.90712144e-03 1.40113138e-04 -2.29850441e-04 1.40113138e-04 2.06074433e-03 6.08146138e-08 -2.29850441e-04 6.08146138e-08 -4.17544111e-03
1.32031029e-03 1.33011221e-03 -5.33026114e-05 1.33011221e-03 1.07379137e-03 4.69612380e-04 -5.33026114e-05 4.69612380e-04 -1.99412327e-03
5.75033948e-04 4.49148509e-04 2.28496792e-04 4.49148509e-04 7.31162218e-04 2.89803640e-04 2.28496792e-04 2.89803640e-04 -1.09318680e-03
1.33328320e-04 -3.62250457e-05 1.89855113e-04 -3.62250457e-05 3.08079832e-04 1.81188825e-04 1.89855113e-04 1.81188825e-04 -3.69269201e-04
-1.21770083e-05 -6.89004283e-05 1.19201093e-04 -6.89004283e-05 1.20618366e-04 -6.12555687e-06 1.19201093e-04 -6.12555687e-06 -9.09829864e-05
1.34291549e-05 -1.36651529e-04 1.16354411e-04 -1.36651529e-04 1.15392225e-04 -8.37909556e-05 1.16354411e-04 -8.37909556e-05 -1.07134356e-04
3.56033747e-03 1.18192002e-04 2.08489038e-03 1.18192002e-04 3.50037729e-03 1.09371019e-03 2.08489038e-03 1.09371019e-03 -5.94374025e-03
4.31857212e-03 -4.82292467e-04 2.04318110e-03 -4.82292467e-04 3.98510834e-03 6.40790859e-07 2.04318110e-03 6.40790859e-07 -6.98896917e-03
1.02078331e-03 2.85325358e-04 4.67109164e-04 2.85325358e-04 9.39595998e-04 9.48934971e-04 4.67109164e-04 9.48934971e-04 -1.64451043e-03
-4.83128365e-05 -7.04144200e-05 7.87153731e-05 -7.04144200e-05 1.65031138e-05 9.81971511e-05 7.87153731e-05 9.81971511e-05 2.16732133e-05
-3.16103349e-05 4.89552201e-06 -1.34188984e-05 4.89552201e-06 -3.92530262e-05 -2.40800633e-05 -1.34188984e-05 -2.40800633e-05 5.87608051e-05
-1.23991863e-05 5.06350216e-06 8.75709094e-06 5.06350216e-06 -7.96357676e-06 4.48980904e-06 8.75709094e-06 4.48980904e-06 1.69057180e-05
1.77461283e-06 8.65095089e-07 -4.42496861e-06 8.65095089e-07 2.18389079e-06 6.79917605e-07 -4.42496861e-06 6.79917605e-07 -3.31706906e-06
-2.69676366e-05 1.06981734e-05 1.97885856e-05 1.06981734e-05 -3.76295975e-06 6.97349014e-06 1.97885856e-05 6.97349014e-06 2.49937711e-05
5.11264261e-06 -2.81182838e-06 -6.13306383e-06 -2.81182838e-06 8.21268031e-07 -7.25212544e-07 -6.13306383e-06 -7.25212544e-07 -4.82711039e-06
2.29018831e-04 -1.32107103e-04 -3.87792534e-04 -1.32107103e-04 -1.28262931e-04 -9.56480988e-04 -3.87792534e-04 -9.56480988e-04 2.92058030e-05
-2.39411639e-04 4.81492680e-06 1.34205027e-04 4.81492680e-06 -1.57753831e-04 1.18918397e-04 1.34205027e-04 1.18918397e-04 3.01912722e-04
6.61410450e-04 3.55359196e-04 -3.66413326e-04 3.55359196e-04 9.44952189e-04 1.33265043e-03 -3.66413326e-04 1.33265043e-03 -1.33477722e-03
6.04373478e-06 -9.90670984e-06 2.19187374e-05 -9.90670984e-06 2.39090847e-07 -3.13564863e-05 2.19187374e-05 -3.13564863e-05 -1.03592732e-05
-1.61941368e-06 2.65449459e-06 -5.87310751e-06 2.65449459e-06 -6.40642005e-08 8.40194480e-06 -5.87310751e-06 8.40194480e-06 2.77575873e-06
0.00000000e+00 0.00000000e+00 0.00000000e+00 0.00000000e+00 0.00000000e+00 0.00000000e+00 0.00000000e+00 0.00000000e+00 0.00000000e+00
0.00000000e+00 0.00000000e+00 0.00000000e+00 0.00000000e+00 0.00000000e+00 0.00000000e+00 0.00000000e+00 0.00000000e+00 0.00000000e+00
0.00000000e+00 0.00000000e+00 0.00000000e+00 0.00000000e+00 0.00000000e+00 0.00000000e+00 0.00000000e+00 0.00000000e+00 0.00000000e+00
0.00000000e+00 0.00000000e+00 0.00000000e+00 0.00000000e+00 0.00000000e+00 0.00000000e+00 0.00000000e+00 0.00000000e+00 0.00000000e+00
6.12633675e-03 1.15783315e-03 -2.48187105e-03 1.15783315e-03 6.21436071e-03 7.79567017e-07 -2.48187105e-03 7.79567017e-07 -1.03969416e-02
6.69736136e-03 -1.29180867e-03 -1.60675100e-03 -1.29180867e-03 5.64223295e-03 4.65449365e-03 -1.60675100e-03 4.65449365e-03 -1.03530353e-02
3.80701354e-03 -1.13058369e-03 1.49118827e-03 -1.13058369e-03 3.83764319e-03 1.83390512e-03 1.49118827e-03 1.83390512e-03 -6.41546305e-03
4.29596880e-03 2.48467768e-05 1.38949684e-03 2.48467768e-05 5.16271242e-03 -4.55749614e-07 1.38949684e-03 -4.55749614e-07 -7.96194584e-03
0.00000000e+00 0.00000000e+00 0.00000000e+00 0.00000000e+00 0.00000000e+00 0.00000000e+00 0.00000000e+00 0.00000000e+00 0.00000000e+00
-3.81810557e-05 8.12681052e-06 -8.62168993e-07 8.12681052e-06 -1.90817688e-05 -5.17208173e-06 -8.62168993e-07 -5.17208173e-06 4.63175626e-05
0.00000000e+00 0.00000000e+00 0.00000000e+00 0.00000000e+00 0.00000000e+00 0.00000000e+00 0.00000000e+00 0.00000000e+00 0.00000000e+00
4.48808190e-03 -1.55567715e-03 4.69877908e-04 -1.55567715e-03 2.64776312e-03 1.99554476e-03 4.69877908e-04 1.99554476e-03 -5.97813749e-03
4.43603098e-03 -1.24534243e-03 1.99353183e-03 -1.24534243e-03 3.28177004e-03 1.18308526e-06 1.99353183e-03 1.18308526e-06 -6.48336904e-03
1.95897551e-03 6.84843690e-04 2.19202317e-04 6.84843690e-04 2.07320426e-03 9.59167373e-04 2.19202317e-04 9.59167373e-04 -3.40247329e-03
2.60772812e-03 -4.35861381e-04 -6.74281706e-04 -4.35861381e-04 1.89563097e-03 1.70966046e-03 -6.74281706e-04 1.70966046e-03 -3.76938621e-03
5.51046891e-04 2.02105835e-04 -1.23188714e-04 2.02105835e-04 1.24769256e-04 5.26464049e-04 -1.23188714e-04 5.26464049e-04 -5.69741271e-04
4.29333442e-04 -4.19391623e-04 -1.54266869e-04 -4.19391623e-04 3.62011007e-04 4.75103341e-04 -1.54266869e-04 4.75103341e-04 -6.58707679e-04
3.33512025e-06 2.41465677e-05 2.33300307e-05 2.41465677e-05 -8.76549675e-05 5.79672769e-06 2.33300307e-05 5.79672769e-06 6.57345081e-05
0.00000000e+00 0.00000000e+00 0.00000000e+00 0.00000000e+00 0.00000000e+00 0.00000000e+00 0.00000000e+00 0.00000000e+00 0.00000000e+00
0.00000000e+00 0.00000000e+00 0.00000000e+00 0.00000000e+00 0.00000000e+00 0.00000000e+00 0.00000000e+00 0.00000000e+00 0.00000000e+00
</DataArray>
<DataArray type="Float32" Name="Spatial_displacement" NumberOfComponents="3" format="ascii">
3.24006542e-04 4.62963851e-03 -1.99926738e-03
6.88709901e-04 4.50117653e-03 -1.37659127e-03
5.32938691e-04 5.09031489e-03 -1.99946924e-03
1.63952645e-04 5.00724465e-03 -2.43484695e-03
2.40632507e-04 5.12430631e-03 -2.84834858e-03
5.56887011e-04 5.26272692e-03 -2.74667516e-03
1.39234180e-04 6.17362745e-03 -3.67030851e-03
7.88570615e-05 5.22753596e-03 -3.00953211e-03
1.06372032e-03 4.35924623e-03 -1.11350557e-03
1.07830786e-03 4.90081497e-03 -1.63206074e-03
1.41335430e-03 4.67350055e-03 -2.28077825e-03
2.86073354e-03 7.44346995e-03 -6.86146738e-03
1.23151042e-03 5.17086871e-03 7.84406438e-07
1.23143476e-03 5.64971659e-03 -2.94591300e-05
7.47768616e-04 5.65759279e-03 1.91503204e-05
7.36727030e-04 5.17487433e-03 3.72820068e-05
1.25683972e-03 5.12342062e-03 -7.99610280e-06
1.25388685e-03 5.61209302e-03 -2.81508546e-05
7.68193859e-04 5.60692511e-03 1.44762453e-05
7.73208099e-04 5.12009766e-03 4.76303976e-05
0.00000000e+00 0.00000000e+00 -7.03095458e-03
1.16087310e-03 0.00000000e+00 -7.29455659e-03
1.09169260e-03 1.13379047e-03 -6.76106941e-03
0.00000000e+00 1.18185068e-03 -6.51979726e-03
0.00000000e+00 0.00000000e+00 -9.42780077e-03
1.72566832e-03 0.00000000e+00 -9.52774659e-03
1.74615649e-03 9.96199436e-04 -9.52289067e-03
0.00000000e+00 9.89311840e-04 -9.14507732e-03
2.50885030e-03 0.00000000e+00 -8.04987457e-03
2.22168304e-03 8.09863152e-04 -7.31974980e-03
3.34331905e-03 0.00000000e+00 -9.97813698e-03
3.40431137e-03 1.05127716e-03 -1.03354957e-02
3.87437502e-03 0.00000000e+00 -8.77963472e-03
3.85750039e-03 5.54304570e-04 -8.51340499e-03
4.85567609e-03 0.00000000e+00 -1.08449496e-02
4.82655503e-03 9.51183436e-04 -1.11015216e-02
5.44214202e-03 0.00000000e+00 -9.50303115e-03
5.43236732e-03 6.21185929e-04 -9.80729051e-03
6.10550027e-03 0.00000000e+00 -1.15842540e-02
6.12014253e-03 7.43056880e-04 -1.19127072e-02
6.72022952e-03 0.00000000e+00 -1.03867743e-02
6.85602240e-03 7.31475244e-04 -1.03067532e-02
7.08076591e-03 0.00000000e+00 -1.18497759e-02
7.13813864e-03 5.89880510e-04 -1.24048628e-02
7.62272580e-03 0.00000000e+00 -1.08070411e-02
7.92608038e-03 4.92866733e-04 -1.06167067e-02
7.73617672e-03 0.00000000e+00 -1.19756050e-02
8.02453235e-03 3.84878193e-04 -1.24210864e-02
6.18062622e-04 2.17122422e-03 -5.60920872e-03
0.00000000e+00 2.59489124e-03 -5.34891617e-03
1.75600732e-03 2.32552411e-03 -8.08026828e-03
0.00000000e+00 2.36704946e-03 -7.73596670e-03
1.83914602e-03 1.97817176e-03 -7.62501825e-03
3.69563792e-03 2.35606823e-03 -9.89961810e-03
3.32889846e-03 2.21069041e-03 -9.47699044e-03
4.94216941e-03 2.12072860e-03 -1.28755607e-02
5.64478524e-03 2.65488517e-03 -9.19777248e-03
5.91689674e-03 1.57383352e-03 -1.33844148e-02
7.25456420e-03 2.11455440e-03 -9.91998706e-03
7.30632339e-03 1.86561723e-03 -1.26831122e-02
8.50760750e-03 1.58854248e-03 -9.99601278e-03
8.61550122e-03 1.42344064e-03 -1.27816442e-02
2.84540351e-04 3.72770894e-03 -3.50309396e-03
0.00000000e+00 3.82902217e-03 -4.24409611e-03
1.09028246e-03 3.96364834e-03 -7.12536462e-03
0.00000000e+00 3.47665977e-03 -4.92749084e-03
1.61948963e-03 3.44062154e-03 -5.52260270e-03
3.84793617e-03 4.12329193e-03 -1.11120585e-02
1.22338836e-03 2.36300542e-03 -1.69111863e-02
6.11196971e-03 3.15076788e-03 -1.41412150e-02
2.00102397e-04 4.60687559e-03 -2.64653820e-03
0.00000000e+00 4.78451978e-03 -3.06573627e-03
4.87779675e-04 4.87852376e-03 -4.22743056e-03
0.00000000e+00 4.60330863e-03 -3.77496914e-03
0.00000000e+00 4.91067488e-03 -2.72758608e-03
5.57222171e-04 5.65609988e-03 -3.28879082e-03
0.00000000e+00 5.31601161e-03 -3.76907922e-03
5.43059141e-04 4.69561853e-03 -1.50130072e-03
1.52393384e-03 5.41833881e-03 -5.08676562e-03
2.00485508e-03 5.55911753e-03 -4.02050326e-03
0.00000000e+00 5.26314043e-03 -3.38947913e-03
9.36772965e-04 7.40990695e-03 -6.39077788e-03
0.00000000e+00 7.16304779e-03 -5.18123666e-03
2.62987800e-03 8.77843425e-03 -7.44625460e-03
4.90860129e-03 4.96933889e-03 -1.22246500e-02
6.62284438e-03 7.31701497e-03 -1.10537447e-02
0.00000000e+00 0.00000000e+00 -1.24924630e-02
2.28153914e-03 0.00000000e+00 -1.26684085e-02
2.44390685e-03 1.07658503e-03 -1.23402197e-02
0.00000000e+00 9.85003775e-04 -1.22368671e-02
4.15112730e-03 0.00000000e+00 -1.29798558e-02
4.42318479e-03 1.34313281e-03 -1.28702987e-02
5.50836651e-03 0.00000000e+00 -1.32753663e-02
5.67695685e-03 1.51197822e-03 -1.36189964e-02
6.46311650e-03 0.00000000e+00 -1.36141479e-02
6.46728603e-03 1.33796711e-03 -1.39434226e-02
7.25985179e-03 0.00000000e+00 -1.36877634e-02
7.18804961e-03 1.07829541e-03 -1.39768291e-02
7.99915567e-03 0.00000000e+00 -1.37221236e-02
8.03049374e-03 1.06061401e-03 -1.38638355e-02
2.98422715e-03 2.57382262e-03 -1.24151967e-02
0.00000000e+00 2.16007419e-03 -1.15277469e-02
5.14072366e-03 2.85066641e-03 -1.35679133e-02
6.25191815e-03 2.68682698e-03 -1.43720377e-02
6.68131746e-03 2.29711807e-03 -1.51932221e-02
7.15438370e-03 1.87471067e-03 -1.54670961e-02
7.62380613e-03 1.85062760e-03 -1.52747352e-02
3.32313171e-03 3.21334857e-03 -9.06140357e-03
0.00000000e+00 3.83250881e-03 -8.19756463e-03
5.87580586e-03 3.58399586e-03 -1.37201343e-02
7.00911367e-03 3.16371652e-03 -1.56493708e-02
6.39654929e-03 1.03018596e-03 -1.71288103e-02
7.33651035e-03 2.65664631e-03 -1.59409028e-02
2.64971657e-03 3.73035553e-03 -5.53690549e-03
0.00000000e+00 3.40648345e-03 -6.08117692e-03
6.49247319e-03 4.92135342e-03 -1.30203310e-02
3.04316962e-03 6.89764507e-03 -9.03392863e-03
0.00000000e+00 6.99460693e-03 -7.93999806e-03
3.24998796e-03 1.07968440e-02 -9.49407741e-03
0.00000000e+00 1.05011119e-02 -9.68706235e-03
5.88886999e-03 6.37530815e-03 -1.16705969e-02
7.65264872e-03 9.24868137e-03 -1.14832260e-02
7.56722642e-03 5.05732093e-03 -1.50051285e-02
9.84483119e-03 5.37620764e-03 -1.45726912e-02
4.69396077e-03 3.76565848e-03 -1.75991002e-02
7.19430298e-03 3.68744880e-03 -1.70672778e-02
8.47157277e-03 3.08114127e-03 -1.61625836e-02
9.82814841e-03 3.43347038e-03 -1.59734879e-02
8.71658046e-03 2.20205216e-03 -1.59961004e-02
8.71987361e-03 1.35372835e-03 -1.59795377e-02
9.55089461e-03 1.37276284e-03 -1.60029102e-02
9.51912161e-03 2.21963739e-03 -1.59642231e-02
8.69585853e-03 2.19894107e-03 -1.59843676e-02
8.71212315e-03 1.40110590e-03 -1.59829818e-02
9.53726750e-03 1.37109065e-03 -1.59939937e-02
9.60501935e-03 2.17301771e-03 -1.59733184e-02
0.00000000e+00 0.00000000e+00 -1.59812700e-02
2.49911333e-03 0.00000000e+00 -1.59812700e-02
2.79076654e-03 1.31155294e-03 -1.59812700e-02
0.00000000e+00 1.06055546e-03 -1.59812700e-02
4.49499534e-03 0.00000000e+00 -1.59812700e-02
4.78629395e-03 1.61644770e-03 -1.59812700e-02
5.74388541e-03 0.00000000e+00 -1.59812700e-02
5.99030824e-03 1.71450665e-03 -1.59812700e-02
6.51858654e-03 0.00000000e+00 -1.59812700e-02
6.66756090e-03 1.72915054e-03 -1.59812700e-02
7.31851207e-03 0.00000000e+00 -1.59812700e-02
7.19415816e-03 1.58801151e-03 -1.59812700e-02
8.35554674e-03 0.00000000e+00 -1.59812700e-02
7.85560906e-03 1.75287272e-03 -1.59812700e-02
3.49120563e-03 2.06310675e-03 -1.59812700e-02
0.00000000e+00 1.91443018e-03 -1.59812700e-02
5.71860885e-03 2.78158672e-03 -1.59812700e-02
6.64092740e-03 2.99522770e-03 -1.59812700e-02
7.04162614e-03 2.64511886e-03 -1.59812700e-02
7.15236692e-03 2.25377665e-03 -1.59812700e-02
7.26808421e-03 2.17497582e-03 -1.59812700e-02
4.55256226e-03 5.56680467e-03 -1.59812700e-02
0.00000000e+00 6.10151421e-03 -1.59812700e-02
7.08992220e-03 4.20601107e-03 -1.59812700e-02
7.38527393e-03 3.42303794e-03 -1.59812700e-02
7.36160297e-03 2.75653438e-03 -1.59812700e-02
7.38503737e-03 2.09093001e-03 -1.60744786e-02
7.41423341e-03 2.23958446e-03 -1.59812700e-02
7.43626105e-03 1.78081100e-03 -1.60434376e-02
7.41261849e-03 1.91144762e-03 -1.59812700e-02
7.92076252e-03 3.35324788e-03 -1.65351443e-02
8.11382011e-03 3.51570360e-03 -1.59812700e-02
8.39484856e-03 4.33784537e-03 -1.59812700e-02
7.97656644e-03 2.73232395e-03 -1.59314778e-02
7.90021010e-03 2.80231377e-03 -1.59812700e-02
7.86925014e-03 2.26353249e-03 -1.59756392e-02
7.89296161e-03 2.23481562e-03 -1.59812700e-02
7.91252218e-03 1.58737670e-03 -1.60029903e-02
7.91087747e-03 1.55557739e-03 -1.59812700e-02
0.00000000e+00 7.21267716e-04 -1.59812700e-02
7.66080990e-03 1.96590764e-03 -1.59812700e-02
5.02037536e-03 8.51015002e-03 -1.59812700e-02
0.00000000e+00 8.48779362e-03 -1.59812700e-02
8.64005275e-03 2.19088001e-03 -1.59812700e-02
8.63213371e-03 3.12536163e-03 -1.59812700e-02
8.72085616e-03 1.42673613e-03 -1.59812700e-02
5.41460188e-03 1.13006886e-02 -1.59812700e-02
0.00000000e+00 1.26557471e-02 -1.59812700e-02
6.96783373e-03 6.61632605e-03 -1.59812700e-02
9.58027877e-03 8.47215392e-03 -1.59812700e-02
8.41186754e-03 4.83914278e-03 -1.59812700e-02
1.05528478e-02 5.11566363e-03 -1.59812700e-02
1.00100609e-02 3.18743894e-03 -1.59812700e-02
9.59338620e-03 2.14241678e-03 -1.59812700e-02
9.52790305e-03 1.38706772e-03 -1.59812700e-02
</DataArray>
<DataArray type="Float32" Name="Spatial_acceleration" NumberOfComponents="3" format="ascii">
2.45966521e-06 -2.20676256e-07 -3.14935050e-06
3.05261210e-06 -1.85275076e-06 -2.62975686e-06
-7.85589236e-07 3.73738999e-06 -2.39149722e-06
-7.17878322e-07 -1.11631550e-06 -2.27419537e-06
9.76522756e-07 -1.42365695e-06 -3.01965065e-06
1.48282732e-06 1.22624351e-06 -2.46901732e-06
2.68777200e-07 1.51014331e-06 -4.99025964e-06
1.01514661e-06 -2.50875951e-06 -3.63667800e-06
-4.43434692e-06 -7.17759121e-07 3.50983942e-06
8.57700888e-06 -1.50068604e-06 -2.20870970e-06
1.55798591e-06 1.07150606e-06 -2.33544256e-06
7.19070442e-07 1.68816246e-06 -2.43504837e-06
-1.90689843e-06 1.44787909e-05 3.25926135e-06
4.77636831e-07 1.90095398e-05 6.71493490e-06
-9.82764504e-07 1.86654997e-05 -2.01536955e-06
-1.06725099e-06 1.39512322e-05 -1.11580093e-05
-6.85170653e-06 2.71031458e-05 5.81200038e-06
-1.54392037e-05 2.18120149e-05 4.94768209e-08
-8.12442249e-06 1.90691499e-05 8.36508843e-06
-1.00937568e-05 3.20619183e-05 -1.65346282e-05
0.00000000e+00 0.00000000e+00 -1.30589797e-06
7.31950024e-07 0.00000000e+00 3.98953745e-07
-8.44798990e-07 8.06013759e-07 -2.68777200e-07
0.00000000e+00 1.92360085e-06 2.04308822e-06
0.00000000e+00 0.00000000e+00 -2.96719872e-06
-6.99599582e-07 0.00000000e+00 -3.11183931e-06
1.19074491e-06 7.29560838e-08 1.16189324e-06
0.00000000e+00 1.64600215e-06 -1.48646041e-06
-1.07924144e-07 0.00000000e+00 2.85720830e-06
6.87340901e-07 -2.58366271e-07 -6.75519289e-07
2.10307030e-06 0.00000000e+00 5.23567167e-07
1.62392359e-06 1.21516985e-06 -4.49657449e-07
-6.69558844e-08 0.00000000e+00 1.16189324e-06
-5.14785427e-07 -2.67028810e-07 -1.81229905e-06
3.06806464e-06 0.00000000e+00 1.77701310e-07
9.37625771e-07 -6.79095606e-08 -1.30335494e-07
2.29557349e-06 0.00000000e+00 1.25026702e-06
5.80529388e-07 5.77787546e-07 -1.64063772e-06
-3.41693550e-07 0.00000000e+00 5.57581586e-07
3.53076052e-06 -1.39137103e-06 -1.95439657e-06
3.28171245e-06 0.00000000e+00 4.34239695e-07
1.63326661e-06 -7.39127415e-07 -1.04586286e-06
3.62900892e-06 0.00000000e+00 7.55627923e-07
2.42265060e-06 7.20421440e-07 1.31320951e-06
8.39610891e-07 0.00000000e+00 -2.78282164e-06
2.92557479e-06 1.06076399e-07 -4.15801992e-07
4.00019690e-06 0.00000000e+00 -1.26393638e-06
3.77174206e-06 -3.07234131e-06 -2.26910902e-06
9.59873205e-07 -1.50402393e-08 -1.11516317e-06
0.00000000e+00 1.16125739e-06 -3.08259314e-06
-1.76946315e-07 3.24805569e-07 -2.43536624e-06
0.00000000e+00 8.94625998e-07 1.65430708e-06
6.02540524e-07 -1.25317342e-06 -2.37782797e-06
-3.81867096e-07 -3.66330767e-07 -3.43306851e-06
-1.36591598e-06 2.51261383e-07 -3.22036749e-06
1.60809918e-06 3.31697009e-07 -3.52895813e-06
2.29358670e-06 3.50038221e-07 4.31060784e-07
-5.50651578e-07 4.36147047e-08 -6.11546830e-06
2.02099477e-06 -2.52564746e-07 6.18616752e-07
1.71907743e-06 3.94344312e-07 -1.99063606e-06
-1.73894557e-06 1.53213733e-07 1.61234539e-06
8.13477254e-06 2.66879783e-06 -4.34239701e-06
-1.58537000e-06 -1.86211719e-06 2.03450526e-07
0.00000000e+00 2.31703120e-06 -1.54876705e-06
8.40141681e-08 1.87288015e-06 -2.31624790e-06
0.00000000e+00 -3.48091120e-08 -2.78154999e-07
-1.16316471e-06 1.10300380e-06 -1.84313456e-06
2.71962494e-06 -6.70623763e-07 -4.13767521e-06
-1.07324126e-06 -4.30583941e-06 -9.63600451e-06
-5.85582541e-07 7.99179077e-07 -2.69148086e-06
4.28923528e-07 1.39627002e-06 -3.03613569e-06
0.00000000e+00 -7.94410710e-07 -3.02076342e-06
-8.22967991e-07 1.38645703e-06 -3.85517569e-06
0.00000000e+00 6.08464106e-08 -2.91252127e-06
0.00000000e+00 -1.07840697e-06 -5.34343735e-06
4.19412345e-07 9.13722147e-07 -2.31679269e-06
0.00000000e+00 -1.72746184e-06 -1.13264718e-06
-6.32603928e-07 2.75135051e-07 8.04901106e-07
-2.93900570e-07 1.68609620e-06 2.67028799e-08
2.67003384e-06 -2.78155010e-08 -7.65991217e-07
0.00000000e+00 -2.69337488e-06 7.76926640e-07
-1.07181074e-06 1.50974586e-06 -6.89252192e-06
0.00000000e+00 -1.80443124e-06 -4.14530450e-06
-1.23425320e-06 3.93541632e-06 -5.28208420e-06
2.34762820e-06 9.27045585e-06 -2.22693552e-06
1.96846327e-06 4.55093368e-06 -5.25410996e-06
0.00000000e+00 0.00000000e+00 -5.42958560e-07
-4.55240411e-07 0.00000000e+00 -1.30144758e-06
2.66770530e-06 4.19916574e-07 -3.20625304e-06
0.00000000e+00 -1.57713885e-06 -1.08591712e-06
3.81045538e-06 0.00000000e+00 -2.11747488e-06
9.51091465e-07 2.55823124e-07 -2.28548038e-06
-1.46389013e-07 0.00000000e+00 2.41343173e-06
3.25576457e-06 3.45494345e-06 -3.48218282e-06
2.39010660e-06 0.00000000e+00 8.68797315e-07
1.76192316e-06 3.77098708e-08 -8.41776512e-07
5.04100308e-06 0.00000000e+00 -2.05707556e-06
3.39198118e-06 4.12782015e-07 -3.23295581e-06
6.62557295e-06 0.00000000e+00 -3.27428182e-07
4.95151653e-06 1.39105316e-06 -1.44322712e-06
1.30204353e-06 1.15489956e-06 -9.13302074e-07
0.00000000e+00 1.62478284e-06 -1.09608970e-06
1.49285790e-06 2.41472321e-06 -1.20353695e-06
2.75731077e-06 1.61314006e-06 -4.35765560e-06
2.23073494e-06 4.76110557e-07 -3.51751419e-06
1.49093739e-06 2.74965510e-06 -4.82092946e-06
1.31363345e-06 1.17863556e-06 -8.46354214e-06
1.68397696e-06 2.40982899e-06 -4.19871003e-06
0.00000000e+00 1.62315371e-06 -1.26987038e-06
-1.75105200e-07 -5.64787115e-07 -4.88874639e-06
1.95409189e-06 4.05629493e-07 -4.76413288e-06
-2.27634109e-06 -3.14871471e-07 -1.04247929e-05
1.79910660e-06 4.69144197e-06 -5.28004966e-06
-3.05016840e-07 6.09397887e-07 -4.31378658e-06
0.00000000e+00 3.87541468e-06 1.38939754e-06
1.85922534e-06 1.22300787e-06 -1.52587893e-06
6.28577368e-07 1.99604028e-06 -1.68100996e-06
0.00000000e+00 2.80233212e-06 -4.71496560e-06
-2.12748844e-07 1.77927814e-06 -4.79189566e-06
0.00000000e+00 3.30988564e-06 -4.44348643e-06
1.73368051e-06 8.86223734e-06 -1.67401629e-06
-4.35545053e-06 7.48678031e-06 -9.27861493e-06
-7.78476362e-07 9.33504089e-06 -1.94295239e-06
2.03800209e-06 1.21786597e-05 -3.55466204e-06
3.19854416e-06 4.80027984e-06 -1.41425926e-06
4.29105739e-06 9.66715834e-06 -5.85814291e-07
-3.07782489e-06 7.15047099e-06 -8.88446948e-07
1.91285881e-06 5.59499540e-06 -5.35106665e-06
6.49676394e-06 2.42929036e-05 -1.23017080e-05
8.05658510e-06 9.47069566e-06 1.20062941e-06
7.81918061e-06 1.18001899e-05 -1.28335569e-06
1.11234576e-05 1.78292885e-05 6.82570044e-06
4.05820202e-07 2.47202320e-06 -7.22447794e-06
6.55002077e-06 9.20470575e-06 1.69542103e-09
-1.71067813e-06 1.06092639e-05 4.88347814e-06
3.53664836e-06 5.47522995e-06 -1.48151980e-06
0.00000000e+00 0.00000000e+00 -3.21340985e-06
3.96778159e-06 0.00000000e+00 -3.21340985e-06
1.39657652e-06 8.38519384e-07 -3.21340985e-06
0.00000000e+00 2.40023928e-06 -3.21340985e-06
3.36289389e-07 0.00000000e+00 -3.21340985e-06
3.07416917e-06 2.40564350e-06 -3.21340985e-06
2.38800044e-06 0.00000000e+00 -3.21340985e-06
1.96111205e-06 2.85728765e-06 -3.21340985e-06
2.77511276e-06 0.00000000e+00 -3.21340985e-06
3.22033952e-06 1.55146915e-06 -3.21340985e-06
5.86462011e-06 0.00000000e+00 -3.21340985e-06
4.64685763e-06 1.86602279e-07 -3.21340985e-06
6.20464243e-06 0.00000000e+00 -3.21340985e-06
4.28541489e-06 4.97500105e-06 -3.21340985e-06
-9.59237383e-08 2.99263002e-06 -3.21340985e-06
0.00000000e+00 9.96271751e-07 -3.21340985e-06
3.25814881e-06 -2.71916377e-07 -3.21340985e-06
3.68340807e-06 1.44306819e-06 -3.21340985e-06
5.02467128e-06 2.39443784e-06 -3.21340985e-06
2.92905179e-06 5.63065221e-08 -3.21340985e-06
1.37599307e-06 4.05947367e-06 -3.21340985e-06
4.85964620e-06 1.81941186e-06 -3.21340985e-06
0.00000000e+00 7.00859209e-06 -3.21340985e-06
4.63003607e-06 -3.80582293e-07 -3.21340985e-06
1.38409928e-06 3.84012850e-07 -3.21340985e-06
-1.22753772e-06 -1.82449810e-07 -3.21340985e-06
-7.32938418e-07 1.28769875e-06 -1.71327588e-06
5.48880564e-07 3.11891245e-06 -3.21340985e-06
-4.45018213e-06 5.65600385e-06 -4.21667073e-06
-3.19242474e-07 8.98996973e-07 -3.21340985e-06
-3.50650157e-06 1.41795476e-06 -1.87683099e-06
-3.23295581e-07 1.05110803e-06 -3.21340985e-06
-5.00295573e-06 -7.16217846e-06 -3.21340985e-06
-2.13464105e-07 5.09919073e-06 -5.02289686e-06
-5.19424020e-06 2.07689072e-06 -3.21340985e-06
-3.69187183e-06 5.52360189e-06 2.98295413e-06
-4.06459958e-06 3.62364449e-06 -3.21340985e-06
-1.04954142e-05 -2.08854672e-07 -8.49737717e-06
3.57353679e-06 5.83680458e-06 -3.21340985e-06
0.00000000e+00 4.13954285e-06 -3.21340985e-06
1.75416474e-07 1.45166121e-06 -3.21340985e-06
2.03842592e-06 4.21412778e-06 -3.21340985e-06
0.00000000e+00 3.78060327e-06 -3.21340985e-06
-2.63726702e-06 5.42994076e-06 -3.21340985e-06
-3.42933345e-06 7.20214848e-06 -3.21340985e-06
-4.74603985e-06 -1.63825348e-06 -3.21340985e-06
-4.52439008e-06 7.16110071e-06 -3.21340985e-06
0.00000000e+00 -1.07648475e-06 -3.21340985e-06
5.97039843e-07 1.26769146e-05 -3.21340985e-06
-7.97510154e-07 9.75068360e-06 -3.21340985e-06
9.12378198e-07 1.34078664e-05 -3.21340985e-06
-3.79387529e-06 1.18769012e-05 -3.21340985e-06
4.54139717e-06 8.06164735e-06 -3.21340985e-06
-2.42789588e-06 2.85196302e-06 -3.21340985e-06
5.29105478e-07 -1.12942359e-06 -3.21340985e-06
</DataArray>
<DataArray type="Float32" Name="Spatial_velocity" NumberOfComponents="3" format="ascii">
7.54541861e-06 1.01945829e-04 -3.24688444e-05
1.62535016e-05 9.87534004e-05 -2.03205764e-05
1.39786544e-05 1.14579430e-04 -3.38928294e-05
4.39757468e-06 1.11609566e-04 -4.02810438e-05
6.36183267e-06 1.10702342e-04 -4.66267156e-05
1.60727850e-05 1.13642149e-04 -4.63146498e-05
7.66422272e-06 1.33940586e-04 -5.94963531e-05
4.06123263e-06 1.16378716e-04 -4.95930035e-05
2.80466156e-05 9.45553547e-05 -1.37485804e-05
2.93092289e-05 1.11103443e-04 -2.53291364e-05
3.52220413e-05 1.01489873e-04 -3.96784271e-05
6.60845180e-05 1.58565424e-04 -1.26871819e-04
3.50735972e-05 1.22781232e-04 1.37495026e-05
3.78035329e-05 1.30021406e-04 9.86298346e-07
2.75876810e-05 1.31914334e-04 -1.39154163e-05
2.96741728e-05 1.21576675e-04 -3.69095369e-06
5.22037481e-05 1.41679629e-04 1.95843641e-05
5.05602220e-05 1.53255212e-04 1.81810094e-06
4.00989229e-05 1.50410138e-04 -1.64221656e-05
3.97679032e-05 1.43734811e-04 -7.26371309e-06
0.00000000e+00 0.00000000e+00 -1.31276785e-04
2.53329927e-05 0.00000000e+00 -1.35490933e-04
2.50379308e-05 2.51605870e-05 -1.25273829e-04
0.00000000e+00 2.46146119e-05 -1.21079596e-04
0.00000000e+00 0.00000000e+00 -1.75529320e-04
3.70390371e-05 0.00000000e+00 -1.76130910e-04
3.76616517e-05 2.18906971e-05 -1.76182381e-04
0.00000000e+00 2.22204726e-05 -1.68782921e-04
5.57317253e-05 0.00000000e+00 -1.50909909e-04
4.96176799e-05 1.84255041e-05 -1.34378875e-04
7.24152196e-05 0.00000000e+00 -1.83130323e-04
7.34553250e-05 2.34591898e-05 -1.90486608e-04
8.48314157e-05 0.00000000e+00 -1.63970515e-04
8.48137352e-05 1.29084456e-05 -1.58809416e-04
1.05033134e-04 0.00000000e+00 -2.00006441e-04
1.04911021e-04 2.11196275e-05 -2.03505580e-04
1.19418910e-04 0.00000000e+00 -1.77127527e-04
1.19563621e-04 1.41467672e-05 -1.83965647e-04
1.32234200e-04 0.00000000e+00 -2.13723033e-04
1.31842549e-04 1.66509744e-05 -2.21052920e-04
1.46838182e-04 0.00000000e+00 -1.95329310e-04
1.49612577e-04 1.64946487e-05 -1.93652100e-04
1.53639776e-04 0.00000000e+00 -2.18645539e-04
1.54483176e-04 1.36986073e-05 -2.29190788e-04
1.66490863e-04 0.00000000e+00 -2.03945689e-04
1.72283137e-04 1.15705143e-05 -1.99630478e-04
1.67827326e-04 0.00000000e+00 -2.20714282e-04
1.74915986e-04 9.06751575e-06 -2.29176323e-04
1.51321501e-05 4.71036255e-05 -1.00919904e-04
0.00000000e+00 5.67924653e-05 -9.67393935e-05
3.79000157e-05 5.09026613e-05 -1.46473758e-04
0.00000000e+00 5.09913407e-05 -1.42837394e-04
4.37729432e-05 4.45671940e-05 -1.36285336e-04
7.98406036e-05 5.21949005e-05 -1.78944480e-04
7.55250148e-05 5.15898355e-05 -1.72774045e-04
1.08216278e-04 4.71288949e-05 -2.35485961e-04
1.22959973e-04 5.87170871e-05 -1.74193177e-04
1.28410727e-04 3.58400575e-05 -2.47166696e-04
1.59168296e-04 4.68137769e-05 -1.84582226e-04
1.56918104e-04 4.10908469e-05 -2.38407971e-04
1.85027951e-04 3.40125152e-05 -1.86646255e-04
1.86916455e-04 3.44711843e-05 -2.37920336e-04
7.55149313e-06 8.10739512e-05 -6.05464884e-05
0.00000000e+00 8.19187117e-05 -7.46250807e-05
2.60198212e-05 8.31278157e-05 -1.23343721e-04
0.00000000e+00 7.36846705e-05 -8.56471670e-05
3.93212213e-05 7.77546375e-05 -9.75169969e-05
8.56590050e-05 8.82035456e-05 -1.97937028e-04
3.52274874e-05 5.58993343e-05 -3.12216056e-04
1.32051675e-04 6.81143574e-05 -2.62724439e-04
5.80324695e-06 9.85165098e-05 -4.48060018e-05
0.00000000e+00 1.02367223e-04 -4.99411799e-05
1.11483614e-05 1.03406150e-04 -6.89604130e-05
0.00000000e+00 9.94547008e-05 -6.37588164e-05
0.00000000e+00 1.06800988e-04 -4.39000942e-05
1.27419644e-05 1.20591780e-04 -5.43626666e-05
0.00000000e+00 1.13900212e-04 -6.47288180e-05
1.42816662e-05 9.90951012e-05 -2.43185550e-05
4.03349623e-05 1.11311077e-04 -8.67866620e-05
4.40704353e-05 1.18587930e-04 -6.87357169e-05
0.00000000e+00 1.17889685e-04 -5.64905567e-05
2.43957802e-05 1.58350173e-04 -1.12230635e-04
0.00000000e+00 1.55496396e-04 -8.71194643e-05
5.81278509e-05 1.80202071e-04 -1.33412934e-04
1.04671351e-04 9.94696456e-05 -2.22671893e-04
1.41470649e-04 1.49040643e-04 -1.92798499e-04
0.00000000e+00 0.00000000e+00 -2.30485093e-04
4.84317970e-05 0.00000000e+00 -2.34077190e-04
5.12472179e-05 2.36955366e-05 -2.26538352e-04
0.00000000e+00 2.17868546e-05 -2.25687152e-04
8.77032726e-05 0.00000000e+00 -2.39147426e-04
9.41100661e-05 2.94228084e-05 -2.35481246e-04
1.17751180e-04 0.00000000e+00 -2.43465140e-04
1.21165620e-04 3.25521032e-05 -2.49134318e-04
1.38779040e-04 0.00000000e+00 -2.50237063e-04
1.38581730e-04 2.93267221e-05 -2.54650513e-04
1.56374765e-04 0.00000000e+00 -2.51516438e-04
1.54216483e-04 2.32673192e-05 -2.56835308e-04
1.72604618e-04 0.00000000e+00 -2.50361278e-04
1.73648368e-04 2.34830259e-05 -2.54051673e-04
6.27022164e-05 5.63018075e-05 -2.26542732e-04
0.00000000e+00 4.70527157e-05 -2.09018384e-04
1.08980450e-04 6.21185172e-05 -2.47080578e-04
1.33819456e-04 5.90635027e-05 -2.63430295e-04
1.43861762e-04 5.06935539e-05 -2.78178515e-04
1.52532273e-04 4.38991774e-05 -2.86201161e-04
1.63205012e-04 4.26533843e-05 -2.83211266e-04
6.79868099e-05 7.02498801e-05 -1.64088240e-04
0.00000000e+00 8.43043235e-05 -1.47196552e-04
1.24941158e-04 7.75542794e-05 -2.53127771e-04
1.52219916e-04 7.07715299e-05 -2.87118397e-04
1.40055068e-04 2.52837617e-05 -3.18442675e-04
1.57767092e-04 6.03616863e-05 -2.93673802e-04
5.38433815e-05 8.69181313e-05 -9.37727382e-05
0.00000000e+00 7.35836002e-05 -1.10893969e-04
1.43749203e-04 1.12816459e-04 -2.41293310e-04
6.00159146e-05 1.44671154e-04 -1.61021395e-04
0.00000000e+00 1.49423227e-04 -1.40681048e-04
6.79579098e-05 2.24013929e-04 -1.71263746e-04
0.00000000e+00 2.20296424e-04 -1.75543639e-04
1.15251089e-04 1.24241109e-04 -2.10320708e-04
1.57748320e-04 1.86534904e-04 -2.04089883e-04
1.56728318e-04 9.42978222e-05 -2.80156266e-04
2.00190581e-04 1.02646249e-04 -2.68123491e-04
1.03467828e-04 7.53429194e-05 -3.29530332e-04
1.51480577e-04 7.54883586e-05 -3.15102545e-04
1.80115327e-04 6.12105141e-05 -2.95099133e-04
1.97424684e-04 6.78537399e-05 -2.92893441e-04
1.83551296e-04 6.12457661e-05 -2.99862208e-04
1.85597266e-04 4.96779394e-05 -2.92576617e-04
1.92856853e-04 4.90594357e-05 -2.88452720e-04
1.95364672e-04 6.10328607e-05 -2.84802605e-04
1.81076670e-04 5.27080738e-05 -2.93543737e-04
1.80799165e-04 4.04045350e-05 -2.94183061e-04
1.94162480e-04 4.23609999e-05 -2.87775940e-04
1.93299114e-04 5.21766742e-05 -2.91000702e-04
0.00000000e+00 0.00000000e+00 -2.92768120e-04
5.23705567e-05 0.00000000e+00 -2.92768120e-04
5.82649809e-05 2.85627648e-05 -2.92768120e-04
0.00000000e+00 2.26239008e-05 -2.92768120e-04
9.49922542e-05 0.00000000e+00 -2.92768120e-04
1.00321260e-04 3.49187576e-05 -2.92768120e-04
1.22210258e-04 0.00000000e+00 -2.92768120e-04
1.26939893e-04 3.66038839e-05 -2.92768120e-04
1.39247772e-04 0.00000000e+00 -2.92768120e-04
1.42873381e-04 3.75615418e-05 -2.92768120e-04
1.57515824e-04 0.00000000e+00 -2.92768120e-04
1.54130044e-04 3.49865441e-05 -2.92768120e-04
1.77506372e-04 0.00000000e+00 -2.92768120e-04
1.69268227e-04 3.74795418e-05 -2.92768120e-04
7.30908359e-05 4.59049952e-05 -2.92768120e-04
0.00000000e+00 4.39445103e-05 -2.92768120e-04
1.20552671e-04 6.03215412e-05 -2.92768120e-04
1.40977892e-04 6.56571574e-05 -2.92768120e-04
1.50220309e-04 5.91120843e-05 -2.92768120e-04
1.53947185e-04 4.95323438e-05 -2.92768120e-04
1.55055110e-04 4.62672760e-05 -2.92768120e-04
9.42636179e-05 1.20653152e-04 -2.92768120e-04
0.00000000e+00 1.32160945e-04 -2.92768120e-04
1.48107079e-04 9.21725223e-05 -2.92768120e-04
1.57518676e-04 7.52386113e-05 -2.92768120e-04
1.58653434e-04 6.04939669e-05 -2.92768120e-04
1.59189236e-04 4.88592887e-05 -2.93056044e-04
1.58977753e-04 4.98971021e-05 -2.92768120e-04
1.59609495e-04 4.23445090e-05 -2.92928278e-04
1.60009411e-04 4.39648466e-05 -2.92768120e-04
1.71783133e-04 7.26508370e-05 -3.01318651e-04
1.72817890e-04 7.60995463e-05 -2.92768120e-04
1.79203547e-04 9.73942297e-05 -2.92768120e-04
1.70170126e-04 6.15332756e-05 -2.91489327e-04
1.69255742e-04 6.04730085e-05 -2.92768120e-04
1.68356710e-04 5.07223049e-05 -2.92736018e-04
1.69273902e-04 5.18265733e-05 -2.92768120e-04
1.68867555e-04 4.09044078e-05 -2.92364741e-04
1.67692720e-04 4.11163055e-05 -2.92768120e-04
0.00000000e+00 1.65054371e-05 -2.92768120e-04
1.54901878e-04 4.16835865e-05 -2.92768120e-04
9.82433121e-05 1.77042923e-04 -2.92768120e-04
0.00000000e+00 1.77694514e-04 -2.92768120e-04
1.79842085e-04 5.04834461e-05 -2.92768120e-04
1.78385642e-04 6.45289329e-05 -2.92768120e-04
1.81557829e-04 3.99217970e-05 -2.92768120e-04
1.10099492e-04 2.33533909e-04 -2.92768120e-04
0.00000000e+00 2.63090595e-04 -2.92768120e-04
1.35960159e-04 1.27666615e-04 -2.92768120e-04
1.96767694e-04 1.67436432e-04 -2.92768120e-04
1.71949301e-04 8.77277707e-05 -2.92768120e-04
2.10173283e-04 9.45047796e-05 -2.92768120e-04
1.97932386e-04 6.44651955e-05 -2.92768120e-04
1.92911204e-04 4.94747219e-05 -2.92768120e-04
1.89969374e-04 3.96013165e-05 -2.92768120e-04
</DataArray>
<DataArray type="Float32" Name="Reaction_force" NumberOfComponents="3" format="ascii">
0.00000000e+00 0.00000000e+00 0.00000000e+00
0.00000000e+00 0.00000000e+00 0.00000000e+00
0.00000000e+00 0.00000000e+00 0.00000000e+00
0.00000000e+00 0.00000000e+00 0.00000000e+00
0.00000000e+00 0.00000000e+00 0.00000000e+00
0.00000000e+00 0.00000000e+00 0.00000000e+00
0.00000000e+00 0.00000000e+00 0.00000000e+00
0.00000000e+00 0.00000000e+00 0.00000000e+00
0.00000000e+00 0.00000000e+00 0.00000000e+00
0.00000000e+00 0.00000000e+00 0.00000000e+00
0.00000000e+00 0.00000000e+00 0.00000000e+00
0.00000000e+00 0.00000000e+00 0.00000000e+00
0.00000000e+00 0.00000000e+00 0.00000000e+00
0.00000000e+00 0.00000000e+00 0.00000000e+00
0.00000000e+00 0.00000000e+00 0.00000000e+00
0.00000000e+00 0.00000000e+00 0.00000000e+00
0.00000000e+00 0.00000000e+00 0.00000000e+00
0.00000000e+00 0.00000000e+00 0.00000000e+00
0.00000000e+00 0.00000000e+00 0.00000000e+00
0.00000000e+00 0.00000000e+00 0.00000000e+00
-3.07344973e-01 -1.77770734e-01 0.00000000e+00
0.00000000e+00 8.67334306e-01 0.00000000e+00
0.00000000e+00 0.00000000e+00 0.00000000e+00
6.14649296e-01 0.00000000e+00 0.00000000e+00
-9.93868828e-01 1.91811585e+00 0.00000000e+00
0.00000000e+00 3.75843859e+00 0.00000000e+00
0.00000000e+00 0.00000000e+00 0.00000000e+00
-8.88879478e-01 0.00000000e+00 0.00000000e+00
0.00000000e+00 2.12667799e+00 0.00000000e+00
0.00000000e+00 0.00000000e+00 0.00000000e+00
0.00000000e+00 3.83092499e+00 0.00000000e+00
0.00000000e+00 0.00000000e+00 0.00000000e+00
0.00000000e+00 3.68987203e+00 0.00000000e+00
0.00000000e+00 0.00000000e+00 0.00000000e+00
0.00000000e+00 3.01796341e+00 0.00000000e+00
0.00000000e+00 0.00000000e+00 0.00000000e+00
0.00000000e+00 4.89396763e+00 0.00000000e+00
0.00000000e+00 0.00000000e+00 0.00000000e+00
0.00000000e+00 1.22837663e+00 0.00000000e+00
0.00000000e+00 0.00000000e+00 0.00000000e+00
0.00000000e+00 4.39392519e+00 0.00000000e+00
0.00000000e+00 0.00000000e+00 0.00000000e+00
0.00000000e+00 5.57011306e-01 0.00000000e+00
0.00000000e+00 0.00000000e+00 0.00000000e+00
0.00000000e+00 2.93139291e+00 0.00000000e+00
0.00000000e+00 0.00000000e+00 0.00000000e+00
0.00000000e+00 1.07186294e+00 0.00000000e+00
0.00000000e+00 0.00000000e+00 0.00000000e+00
0.00000000e+00 0.00000000e+00 0.00000000e+00
1.66715455e+00 0.00000000e+00 0.00000000e+00
0.00000000e+00 0.00000000e+00 0.00000000e+00
3.97469401e-01 0.00000000e+00 0.00000000e+00
0.00000000e+00 0.00000000e+00 0.00000000e+00
0.00000000e+00 0.00000000e+00 0.00000000e+00
0.00000000e+00 0.00000000e+00 0.00000000e+00
0.00000000e+00 0.00000000e+00 0.00000000e+00
0.00000000e+00 0.00000000e+00 0.00000000e+00
0.00000000e+00 0.00000000e+00 0.00000000e+00
0.00000000e+00 0.00000000e+00 0.00000000e+00
0.00000000e+00 0.00000000e+00 0.00000000e+00
0.00000000e+00 0.00000000e+00 0.00000000e+00
0.00000000e+00 0.00000000e+00 0.00000000e+00
0.00000000e+00 0.00000000e+00 0.00000000e+00
4.20454311e+00 0.00000000e+00 0.00000000e+00
0.00000000e+00 0.00000000e+00 0.00000000e+00
-5.92463017e-02 0.00000000e+00 0.00000000e+00
0.00000000e+00 0.00000000e+00 0.00000000e+00
0.00000000e+00 0.00000000e+00 0.00000000e+00
0.00000000e+00 0.00000000e+00 0.00000000e+00
0.00000000e+00 0.00000000e+00 0.00000000e+00
0.00000000e+00 0.00000000e+00 0.00000000e+00
1.35878623e+00 0.00000000e+00 0.00000000e+00
0.00000000e+00 0.00000000e+00 0.00000000e+00
-1.45716512e+00 0.00000000e+00 0.00000000e+00
-4.00406122e-03 0.00000000e+00 0.00000000e+00
0.00000000e+00 0.00000000e+00 0.00000000e+00
1.93370008e+00 0.00000000e+00 0.00000000e+00
0.00000000e+00 0.00000000e+00 0.00000000e+00
0.00000000e+00 0.00000000e+00 0.00000000e+00
0.00000000e+00 0.00000000e+00 0.00000000e+00
1.85381293e+00 0.00000000e+00 0.00000000e+00
0.00000000e+00 0.00000000e+00 0.00000000e+00
2.74060869e+00 0.00000000e+00 0.00000000e+00
0.00000000e+00 0.00000000e+00 0.00000000e+00
0.00000000e+00 0.00000000e+00 0.00000000e+00
0.00000000e+00 0.00000000e+00 0.00000000e+00
-1.04869616e+00 3.28171849e+00 0.00000000e+00
0.00000000e+00 5.17306089e+00 0.00000000e+00
0.00000000e+00 0.00000000e+00 0.00000000e+00
-1.84076309e+00 0.00000000e+00 0.00000000e+00
0.00000000e+00 2.27573085e+00 0.00000000e+00
0.00000000e+00 0.00000000e+00 0.00000000e+00
0.00000000e+00 -4.49342847e-01 0.00000000e+00
0.00000000e+00 0.00000000e+00 0.00000000e+00
0.00000000e+00 -2.33637381e+00 0.00000000e+00
0.00000000e+00 0.00000000e+00 0.00000000e+00
0.00000000e+00 -3.37396812e+00 0.00000000e+00
0.00000000e+00 0.00000000e+00 0.00000000e+00
0.00000000e+00 -1.66084731e+00 0.00000000e+00
0.00000000e+00 0.00000000e+00 0.00000000e+00
0.00000000e+00 0.00000000e+00 0.00000000e+00
-7.57690668e-02 0.00000000e+00 0.00000000e+00
0.00000000e+00 0.00000000e+00 0.00000000e+00
0.00000000e+00 0.00000000e+00 0.00000000e+00
0.00000000e+00 0.00000000e+00 0.00000000e+00
0.00000000e+00 0.00000000e+00 0.00000000e+00
0.00000000e+00 0.00000000e+00 0.00000000e+00
0.00000000e+00 0.00000000e+00 0.00000000e+00
-2.24800491e+00 0.00000000e+00 0.00000000e+00
0.00000000e+00 0.00000000e+00 0.00000000e+00
0.00000000e+00 0.00000000e+00 0.00000000e+00
0.00000000e+00 0.00000000e+00 0.00000000e+00
0.00000000e+00 0.00000000e+00 0.00000000e+00
0.00000000e+00 0.00000000e+00 0.00000000e+00
-5.97829580e-01 0.00000000e+00 0.00000000e+00
0.00000000e+00 0.00000000e+00 0.00000000e+00
0.00000000e+00 0.00000000e+00 0.00000000e+00
2.43969679e+00 0.00000000e+00 0.00000000e+00
0.00000000e+00 0.00000000e+00 0.00000000e+00
1.00142872e+00 0.00000000e+00 0.00000000e+00
0.00000000e+00 0.00000000e+00 0.00000000e+00
0.00000000e+00 0.00000000e+00 0.00000000e+00
0.00000000e+00 0.00000000e+00 0.00000000e+00
0.00000000e+00 0.00000000e+00 0.00000000e+00
0.00000000e+00 0.00000000e+00 0.00000000e+00
0.00000000e+00 0.00000000e+00 0.00000000e+00
0.00000000e+00 0.00000000e+00 0.00000000e+00
0.00000000e+00 0.00000000e+00 0.00000000e+00
0.00000000e+00 0.00000000e+00 0.00000000e+00
0.00000000e+00 0.00000000e+00 0.00000000e+00
0.00000000e+00 0.00000000e+00 0.00000000e+00
0.00000000e+00 0.00000000e+00 0.00000000e+00
0.00000000e+00 0.00000000e+00 0.00000000e+00
0.00000000e+00 0.00000000e+00 0.00000000e+00
0.00000000e+00 0.00000000e+00 0.00000000e+00
0.00000000e+00 0.00000000e+00 0.00000000e+00
-4.88884658e-01 1.93944311e+00 -9.02471924e+00
0.00000000e+00 3.29026890e+00 -1.79503994e+01
0.00000000e+00 0.00000000e+00 -3.34686050e+01
-1.09224379e+00 0.00000000e+00 -1.76989460e+01
0.00000000e+00 1.33695209e+00 -1.68871193e+01
0.00000000e+00 0.00000000e+00 -3.06321316e+01
0.00000000e+00 -9.52676892e-01 -1.51976070e+01
0.00000000e+00 0.00000000e+00 -2.85328312e+01
0.00000000e+00 -1.70150781e+00 -1.47122316e+01
0.00000000e+00 0.00000000e+00 -2.62582016e+01
0.00000000e+00 -1.74487507e+00 -1.44531565e+01
0.00000000e+00 0.00000000e+00 -2.55726128e+01
0.00000000e+00 -1.13442266e+00 -6.88788176e+00
0.00000000e+00 0.00000000e+00 -1.33120317e+01
0.00000000e+00 0.00000000e+00 -3.66181335e+01
4.38669771e-01 0.00000000e+00 -1.95416641e+01
0.00000000e+00 0.00000000e+00 -3.00198689e+01
0.00000000e+00 0.00000000e+00 -2.37621841e+01
0.00000000e+00 0.00000000e+00 -1.92864914e+01
0.00000000e+00 0.00000000e+00 -1.82961044e+01
0.00000000e+00 0.00000000e+00 -1.09470339e+01
0.00000000e+00 0.00000000e+00 -1.67760639e+01
7.06798434e-01 0.00000000e+00 -9.25988865e+00
0.00000000e+00 0.00000000e+00 -2.13793411e+01
0.00000000e+00 0.00000000e+00 -1.72441311e+01
0.00000000e+00 0.00000000e+00 -5.63252831e+00
0.00000000e+00 0.00000000e+00 0.00000000e+00
0.00000000e+00 0.00000000e+00 -4.05974150e+00
0.00000000e+00 0.00000000e+00 0.00000000e+00
0.00000000e+00 0.00000000e+00 -1.99402380e+00
0.00000000e+00 0.00000000e+00 0.00000000e+00
0.00000000e+00 0.00000000e+00 -5.12087345e+00
0.00000000e+00 0.00000000e+00 -6.56035328e+00
0.00000000e+00 0.00000000e+00 0.00000000e+00
0.00000000e+00 0.00000000e+00 4.07886314e+00
0.00000000e+00 0.00000000e+00 0.00000000e+00
0.00000000e+00 0.00000000e+00 2.30031252e+00
0.00000000e+00 0.00000000e+00 0.00000000e+00
0.00000000e+00 0.00000000e+00 8.33364487e-01
1.65267038e+00 0.00000000e+00 -1.04844732e+01
0.00000000e+00 0.00000000e+00 -9.00902843e+00
0.00000000e+00 0.00000000e+00 -2.57288799e+01
1.96498024e+00 0.00000000e+00 -1.95631981e+01
0.00000000e+00 0.00000000e+00 2.15200210e+00
0.00000000e+00 0.00000000e+00 -2.94919682e+00
0.00000000e+00 0.00000000e+00 -5.31715214e-01
0.00000000e+00 0.00000000e+00 -1.49359989e+01
9.30963829e-03 0.00000000e+00 -7.93710661e+00
0.00000000e+00 0.00000000e+00 -1.36999769e+01
0.00000000e+00 0.00000000e+00 -1.41131792e+01
0.00000000e+00 0.00000000e+00 -1.15471773e+01
0.00000000e+00 0.00000000e+00 -1.20070868e+01
0.00000000e+00 0.00000000e+00 -4.00713491e+00
0.00000000e+00 0.00000000e+00 1.11597776e+00
0.00000000e+00 0.00000000e+00 -1.09550238e-01
</DataArray>
<DataArray type="Float32" Name="Equivalent_plastic_strain" format="ascii">
3.63179446e-04
4.82415509e-04
7.17976014e-04
3.25192150e-04
1.36816156e-04
7.66660586e-04
2.19145461e-03
9.89723966e-04
4.25319420e-04
1.92946169e-03
3.42552907e-03
4.32487600e-03
0.00000000e+00
0.00000000e+00
0.00000000e+00
0.00000000e+00
0.00000000e+00
0.00000000e+00
0.00000000e+00
0.00000000e+00
1.77136587e-03
1.74481104e-03
1.81115294e-03
1.82363761e-03
2.13417335e-03
2.08819137e-03
2.24418350e-03
2.31070997e-03
1.69517403e-03
1.82583858e-03
1.92267846e-03
2.12722941e-03
1.63903571e-03
1.93795975e-03
1.69596571e-03
1.92032605e-03
1.47080136e-03
2.12694978e-03
1.44379667e-03
1.49344376e-03
1.14679485e-03
1.81324937e-03
1.06857500e-03
1.29977390e-03
8.98973958e-04
1.46088991e-03
8.33815575e-04
1.08600358e-03
1.82601673e-03
1.63102767e-03
2.78924522e-03
2.58854468e-03
2.13887246e-03
2.42088172e-03
3.38759101e-03
1.83828335e-03
3.17073276e-03
2.02645252e-03
2.56900140e-03
2.05572380e-03
2.15669768e-03
1.92187849e-03
1.74211509e-03
9.52911119e-04
2.40843721e-03
1.96032831e-03
3.64109571e-03
3.47674610e-03
3.52264172e-03
5.00920617e-04
6.63586560e-04
5.43866379e-04
1.19000997e-03
9.72922149e-04
2.57301617e-04
2.32800899e-03
1.85087849e-03
1.13927964e-03
3.97633086e-03
3.87391869e-03
6.43186388e-04
2.52337917e-03
2.48928467e-03
4.09833738e-03
4.42137895e-03
3.47786187e-03
2.67891819e-03
2.58832646e-03
2.70056384e-03
2.85280636e-03
2.34862237e-03
2.30256180e-03
2.00026348e-03
1.84717472e-03
1.64431054e-03
1.45820214e-03
1.44856269e-03
1.25160141e-03
1.39478763e-03
1.24285446e-03
3.38932089e-03
3.72660632e-03
2.35708329e-03
1.12940760e-03
7.51806818e-04
7.95445350e-04
7.89453436e-04
3.72250588e-03
4.50301054e-03
2.13109021e-03
6.08266902e-04
9.73678776e-04
-2.10118031e-04
4.39743610e-03
4.46547599e-03
3.89306189e-03
5.54485549e-03
5.39472303e-03
5.10997209e-03
5.03672357e-03
4.84353642e-03
4.20446025e-03
1.29115998e-03
1.76518840e-03
-3.94475966e-04
8.90296767e-04
1.24999457e-04
-2.29816365e-04
0.00000000e+00
0.00000000e+00
0.00000000e+00
0.00000000e+00
0.00000000e+00
0.00000000e+00
0.00000000e+00
0.00000000e+00
2.90235295e-03
2.75140244e-03
2.98615725e-03
3.16382630e-03
2.43689970e-03
2.47488025e-03
2.12673715e-03
1.84772519e-03
1.87241804e-03
1.49727101e-03
1.80314935e-03
1.39538420e-03
1.89205317e-03
1.49543281e-03
3.41450691e-03
4.22989542e-03
2.13508654e-03
1.13701560e-03
3.85080908e-04
9.31901009e-05
1.15767643e-04
5.96226240e-03
7.01770326e-03
1.68610372e-03
-5.41071349e-05
-6.46030413e-05
-1.84534451e-05
3.42392821e-06
-3.06229522e-05
5.90806303e-06
6.93732349e-04
-5.08454599e-04
1.44971325e-03
-2.17598669e-05
5.83053770e-06
0.00000000e+00
0.00000000e+00
0.00000000e+00
0.00000000e+00
1.03754550e-02
1.06042325e-02
6.56142986e-03
7.98934163e-03
0.00000000e+00
-5.84252945e-05
0.00000000e+00
6.17982470e-03
6.58926880e-03
3.36132944e-03
3.91783158e-03
5.66198374e-04
7.08013846e-04
-9.92070127e-05
0.00000000e+00
0.00000000e+00
</DataArray>
<DataArray type="Float32" Name="Stress_Mises" format="ascii">
2.89796705e+01
2.92346408e+01
3.16254086e+01
3.12913752e+01
2.90545628e+01
3.16549849e+01
3.47772083e+01
3.26670303e+01
3.07743897e+01
3.58949776e+01
4.18561249e+01
4.36862602e+01
8.03950042e-01
8.73126358e-01
7.05338746e-01
1.21009910e+00
4.60624576e-01
3.24049026e-01
5.45939863e-01
6.26286864e-01
2.92805595e+01
2.96807494e+01
2.99538679e+01
2.95999050e+01
3.07849312e+01
3.09050460e+01
3.12319353e+01
3.11964154e+01
3.01712828e+01
3.14945593e+01
3.10101886e+01
3.16896467e+01
3.02552104e+01
3.24848251e+01
3.04936304e+01
3.17726619e+01
3.00113454e+01
3.23181798e+01
2.97056379e+01
3.06409023e+01
2.94767504e+01
3.07913120e+01
2.92205272e+01
3.04794676e+01
2.93312817e+01
2.96981058e+01
2.92089605e+01
3.01878772e+01
3.10901525e+01
2.90039692e+01
3.22810550e+01
3.16549816e+01
3.47153408e+01
3.11310816e+01
4.06072113e+01
3.15319767e+01
3.62424269e+01
3.51731956e+01
3.26222577e+01
3.40797930e+01
3.07115355e+01
3.35999823e+01
3.37356148e+01
2.90371037e+01
3.11736333e+01
3.15389819e+01
4.39018860e+01
3.56639999e+01
4.98014488e+01
3.04963722e+01
3.02653024e+01
2.78868546e+01
2.91800677e+01
2.61533117e+01
2.88050909e+01
3.25061997e+01
2.87490783e+01
3.65670805e+01
4.52300949e+01
3.86893574e+01
3.20122414e+01
3.11324477e+01
3.30212288e+01
3.49435768e+01
4.10160605e+01
3.47900047e+01
3.24011383e+01
3.22559042e+01
3.23021860e+01
3.26169720e+01
3.17925215e+01
3.13098238e+01
3.08471503e+01
3.02992539e+01
2.97822504e+01
2.96841445e+01
2.90525670e+01
2.98096731e+01
2.88497162e+01
3.03412824e+01
3.29380922e+01
3.36773586e+01
3.02152989e+01
2.73723776e+01
2.88587388e+01
3.13959090e+01
3.18377806e+01
3.33161408e+01
3.59442838e+01
3.11326056e+01
3.11278181e+01
4.81853981e+01
2.04088610e+01
3.34500756e+01
3.07554283e+01
4.50120983e+01
3.33668009e+01
3.16577702e+01
3.23986454e+01
3.11621580e+01
3.52243690e+01
3.27363119e+01
2.96489720e+01
3.13001242e+01
4.77152748e+01
4.28395042e+01
3.22548246e+01
3.28333874e+01
2.02369022e+00
1.39707875e+00
2.32627392e+00
2.83367252e+00
7.17042665e+00
4.24931526e+00
3.18699324e+00
8.39410051e+00
3.30220947e+01
3.27634754e+01
3.27692976e+01
3.32946663e+01
3.18890657e+01
3.14109650e+01
3.08095293e+01
2.98530297e+01
3.03128166e+01
2.92496500e+01
2.98209610e+01
2.95050187e+01
2.97036438e+01
3.03763590e+01
3.28979263e+01
3.45560932e+01
2.99328523e+01
2.77707982e+01
2.70301018e+01
2.82742252e+01
3.27156448e+01
4.28070374e+01
4.38852654e+01
3.06426264e+01
2.80263748e+01
1.17260851e+01
1.62746334e+01
8.70210993e+00
2.24571071e+01
1.65755792e+01
3.52894325e+01
2.54079275e+01
3.89255600e+01
1.75514205e+01
1.12857075e+01
1.02097343e+01
5.32100576e+00
1.10837402e+01
1.24337282e+01
4.50942841e+01
4.62983627e+01
3.23872471e+01
3.63837223e+01
6.00427455e+00
1.70947434e+01
6.33034205e+00
3.26424389e+01
3.22198563e+01
2.88583088e+01
3.13054056e+01
3.11325521e+01
3.05808764e+01
3.12545519e+01
1.20821135e+01
3.48262763e+00
</DataArray>
<DataArray type="Float32" Name="Stress_Max_Principal" format="ascii">
4.28820768e+00
4.83126217e+00
2.36001564e+00
2.49028149e+00
6.56102014e+00
6.83293588e+00
5.56595910e+00
5.00817287e+00
4.93536776e+00
-1.74470205e+00
1.23983828e+00
-8.90228152e-03
4.21054140e-01
4.43453461e-01
2.79546849e-01
7.44253457e-01
3.12859774e-01
2.39632338e-01
3.66475552e-01
4.47226822e-01
8.86588782e-01
1.02551776e+00
2.10932059e+00
1.42569829e+00
2.32204282e+00
2.07262075e+00
1.11737866e+00
1.18539411e+00
2.69498801e+00
2.43916206e+00
1.63708531e+00
7.58417856e-01
3.89665741e+00
1.90666527e+00
1.78993309e+00
2.24644534e-01
4.10872555e+00
1.57938093e+00
2.33789849e+00
2.21031766e+00
3.17242011e+00
1.77943083e+00
2.26912389e+00
2.11833824e+00
4.51765442e+00
3.02583724e+00
4.02769434e+00
3.37993175e+00
3.70826022e+00
4.98230863e+00
4.73691240e-01
6.04500204e-01
-7.10667201e-02
1.10469955e+00
-3.36235571e+00
3.45287057e+00
-2.81826973e+00
1.12191300e+00
-9.76266444e-01
-1.25997970e+00
2.75402546e-01
-7.31102049e-01
3.83176427e+00
7.62732160e+00
3.65713266e+00
3.91633332e+00
-3.00867538e+00
1.12518263e+00
1.24481268e+01
1.32718528e+01
5.30191490e+00
6.76134449e+00
6.43951843e+00
9.09766781e+00
6.12288129e+00
4.95442831e+00
6.83727014e+00
5.07855022e+00
-6.77513862e+00
6.04049492e-01
3.78296912e+00
5.60676960e+00
2.57170177e+00
1.41712099e+00
8.20167383e-01
4.15527930e+00
2.17616618e+00
1.52429052e+00
1.85195595e+00
2.08698738e+00
2.34215721e-01
1.97355039e+00
1.02775101e+00
2.50170154e+00
2.51573467e+00
2.80903380e+00
2.67514628e+00
2.44450824e+00
3.06959414e+00
2.63245022e+00
2.24892508e+00
9.65851407e-01
3.99086939e+00
6.02047440e+00
7.41960284e+00
7.09881276e+00
6.39509030e+00
3.10894219e+00
5.54469148e-01
6.26617471e+00
1.28302536e+01
1.81007328e+01
1.34956688e+01
3.98019588e+00
5.76434080e+00
-1.32370234e-01
-4.62818523e-01
3.68498087e-01
1.05572808e+00
1.79007053e-02
-6.17316902e-01
3.23589763e+00
1.13522058e+01
9.67191899e+00
3.19008369e+01
2.56521931e+01
2.16033387e+01
1.94784533e+01
1.05723262e+00
6.53752983e-01
1.03556025e+00
1.62388015e+00
5.15064405e+00
7.53445225e-01
1.14948004e+00
3.47397276e+00
1.88162291e+00
9.29108009e-01
2.28442778e+00
2.34981841e+00
1.29216917e-01
2.03147629e+00
2.08340579e+00
3.61641520e+00
3.71452999e+00
4.70700955e+00
3.25535226e+00
3.92915139e+00
4.13034010e+00
4.46092975e+00
3.73338765e+00
4.45324600e-01
6.45970809e+00
7.09678972e+00
9.69402051e+00
1.15204203e+01
1.36586404e+01
-7.02926660e+00
-1.02337475e+01
5.17508475e+00
1.30365551e+01
8.65578544e+00
9.69735026e+00
4.18549909e+00
9.12214136e+00
4.64852059e+00
1.79815912e+01
1.75662141e+01
2.04434156e+00
1.43800731e+01
1.09676194e+01
7.20407033e+00
4.29852298e+00
3.63673615e+00
3.38279641e+00
-1.05181179e+01
-1.01194477e+01
1.92338995e+00
-2.71557659e+00
4.45993730e+00
1.04540707e+01
2.11899471e+00
2.50196058e+00
1.02651167e+00
4.14692408e+00
3.83584261e+00
1.21909595e+01
1.25172868e+01
1.60131946e+01
4.83055007e+00
6.89635277e-01
</DataArray>
<DataArray type="Float32" Name="Stress_Mid_Principal" format="ascii">
-1.68710771e+00
-2.38117216e+00
-2.26677507e+00
-1.12060710e+00
8.55508313e-01
-9.16504025e-01
-7.96528852e+00
-3.88737936e+00
3.57898936e-01
-4.59024060e+00
-1.20962422e+01
-1.44749203e+01
-7.95388012e-02
-6.06057327e-02
6.29107486e-02
-3.63146931e-01
2.15552673e-02
7.11076241e-03
1.19714243e-02
-9.06665996e-02
6.81726396e-01
-1.10436365e-01
-1.45302339e+00
-3.43111686e-01
-3.67358005e+00
-3.63260931e+00
-2.88399830e+00
-3.11056548e+00
-2.41722929e+00
-4.17221022e+00
-3.05109507e+00
-2.82814644e+00
-4.43890584e+00
-5.21995477e+00
-2.37079349e+00
-2.26098525e+00
-3.85236019e+00
-4.71696267e+00
-1.46098083e+00
-2.23906954e+00
-1.56959772e+00
-2.66070214e+00
-2.27969870e-01
-2.07430224e+00
-2.82979918e+00
-1.94736232e+00
-1.85168052e+00
-2.67475031e+00
-4.78388599e+00
-2.58912453e+00
-3.12731743e+00
-1.98521271e+00
-3.47285609e+00
-1.50870162e+00
-7.93859968e+00
-2.21544526e+00
-6.64942634e+00
-4.37272847e+00
-2.87367404e+00
-4.45203215e+00
-7.91609712e-01
-4.25577867e+00
-6.08388821e+00
-2.40789984e+00
-2.51774171e+00
5.79096796e-01
-1.07039349e+01
-6.06580231e+00
-1.09291296e+01
4.74185961e+00
-2.05325186e+00
-1.66820073e+00
7.20825116e-01
2.79687548e+00
6.56439960e-02
-4.24696061e+00
-1.93707414e+00
-6.03671855e+00
-1.35585628e+01
-9.03405609e+00
-3.23726583e+00
-2.59296206e+00
-3.71378034e+00
-6.51207000e+00
-8.50450969e+00
-6.22005010e+00
-6.85445118e+00
-5.69296408e+00
-5.84756386e+00
-6.87070143e+00
-3.20748425e+00
-4.21271011e+00
-2.23265380e+00
-2.79482812e+00
-1.85072479e+00
-1.66995134e+00
-7.74894871e-01
-1.03639120e+00
-5.38956165e-01
-1.67812077e+00
-5.97477936e+00
-6.93197435e+00
-3.45180324e+00
-8.73038225e-01
-1.68939659e-02
-1.73483840e+00
-3.80979721e+00
-6.89295230e+00
-9.73846642e+00
-3.02401148e+00
-5.28261339e-01
-2.16156268e+00
1.74291794e+00
-5.76936625e+00
-5.09048577e+00
-1.25230529e+01
-3.44605899e+00
-1.87943938e+00
-3.66348522e+00
-1.14841223e+00
-5.73499271e+00
-4.94682945e+00
3.84602547e-02
-2.34414710e+00
7.21282864e+00
-6.78652334e+00
-5.51835746e+00
1.92787455e+00
-3.07488590e-01
-2.13976428e-01
6.51715323e-02
-5.65208435e-01
-4.79441571e-01
1.07618570e-02
-6.28097400e-01
1.59830271e+00
-7.70298958e+00
-5.94142985e+00
-7.61614585e+00
-8.79154062e+00
-3.39107287e+00
-4.62678772e+00
-3.65989363e+00
-3.47886819e+00
-4.53323770e+00
-3.11623114e+00
-2.95076883e+00
-2.14168197e+00
-3.53208494e+00
-3.98047948e+00
-7.52949509e+00
-7.84688044e+00
-6.36327720e+00
-2.89151372e+00
1.76716631e+00
9.58981186e-01
-3.38572079e+00
-1.21036067e+01
-1.24399881e+01
-3.91524049e+00
4.22632150e+00
1.31314233e+00
-2.33887032e+00
2.78523564e-02
6.44437790e-01
1.59888244e+00
-6.33802319e+00
2.09842312e+00
-5.16696393e-01
3.73777386e+00
2.98439074e+00
8.65942106e-01
1.37963969e+00
1.25891209e+00
2.52256116e+00
-1.39193983e+01
-1.60205975e+01
-5.13813241e+00
-7.63298297e+00
5.78705467e-01
1.30695724e+00
-1.27016056e+00
-6.67324233e+00
-4.33816099e+00
-1.01407290e-01
-4.32316571e+00
-3.70985270e-02
-3.07311499e+00
-1.94143295e-01
2.66471291e+00
-8.85546148e-01
</DataArray>
<DataArray type="Float32" Name="Stress_Min_Principal" format="ascii">
-2.72052541e+01
-2.72660842e+01
-3.13066754e+01
-3.03994775e+01
-2.48280866e+01
-2.78517759e+01
-3.37100406e+01
-3.07288775e+01
-2.78460965e+01
-3.89755325e+01
-4.51157811e+01
-4.90847740e+01
-5.06280616e-01
-5.47606371e-01
-5.07223204e-01
-5.45872897e-01
-2.18190014e-01
-1.30514383e-01
-2.62213588e-01
-2.40334600e-01
-2.84958591e+01
-2.91982775e+01
-2.94038134e+01
-2.89994130e+01
-3.10175352e+01
-3.12790027e+01
-3.18793108e+01
-3.18960533e+01
-2.97019434e+01
-3.18019171e+01
-3.14418769e+01
-3.25528047e+01
-2.96381249e+01
-3.34640496e+01
-3.05514765e+01
-3.26861184e+01
-2.90575628e+01
-3.33827960e+01
-2.90582776e+01
-3.03946896e+01
-2.83350592e+01
-3.09652615e+01
-2.80723176e+01
-3.02278917e+01
-2.77804089e+01
-2.88154006e+01
-2.76653786e+01
-2.93619347e+01
-3.06804705e+01
-2.70422249e+01
-3.34440017e+01
-3.22650328e+01
-3.63496154e+01
-3.12201304e+01
-4.59927757e+01
-3.04138366e+01
-4.08239899e+01
-3.63985874e+01
-3.45051222e+01
-3.68166866e+01
-3.09548655e+01
-3.59497852e+01
-3.34286780e+01
-2.50466361e+01
-2.99408226e+01
-2.91249928e+01
-5.00832148e+01
-3.74491722e+01
-4.47411842e+01
-2.05068660e+01
-2.76906553e+01
-2.38539758e+01
-2.50576582e+01
-1.95222459e+01
-2.51858792e+01
-3.06738494e+01
-2.49234123e+01
-3.50471692e+01
-5.48238888e+01
-4.15931538e+01
-3.11567430e+01
-2.87472191e+01
-3.31242990e+01
-3.67439632e+01
-4.36823107e+01
-3.45720882e+01
-3.37807579e+01
-3.37104578e+01
-3.35838122e+01
-3.40636320e+01
-3.31228790e+01
-3.19317994e+01
-3.12859282e+01
-3.00741692e+01
-2.91974449e+01
-2.88136001e+01
-2.79449873e+01
-2.89107704e+01
-2.74128523e+01
-2.96039691e+01
-3.39754126e+01
-3.58553696e+01
-2.91278613e+01
-2.40781291e+01
-2.43862926e+01
-2.76836869e+01
-2.90679696e+01
-3.38159107e+01
-3.87219315e+01
-2.81888460e+01
-2.22826705e+01
-3.69070473e+01
-9.74749298e+00
-3.24169693e+01
-2.78388538e+01
-5.00232334e+01
-3.51823212e+01
-3.23504376e+01
-3.34222679e+01
-3.17105150e+01
-3.81164913e+01
-3.27811427e+01
-2.20272942e+01
-2.53647227e+01
-2.31002178e+01
-2.29094009e+01
-1.40324107e+01
-1.81183939e+01
-1.26783144e+00
-9.57869530e-01
-1.61880660e+00
-1.57675493e+00
-2.65937612e+00
-3.78470695e+00
-2.52953243e+00
-5.67603389e+00
-3.48725357e+01
-3.47046108e+01
-3.42008386e+01
-3.50856628e+01
-3.33737202e+01
-3.20897493e+01
-3.11429605e+01
-2.91038489e+01
-2.98684816e+01
-2.75517359e+01
-2.91715689e+01
-2.79056334e+01
-2.86537991e+01
-2.91583796e+01
-3.31381984e+01
-3.72261162e+01
-2.77055688e+01
-2.41704311e+01
-2.01140404e+01
-2.02658963e+01
-2.40041895e+01
-5.21410618e+01
-5.51805191e+01
-2.89277064e+01
-1.81978078e+01
-4.75507021e+00
-8.50916147e+00
-5.70558524e+00
-1.61630044e+01
-1.32141318e+01
-2.23261771e+01
-1.15791926e+01
-3.80984993e+01
-5.48913908e+00
-1.75401696e+00
-4.18486553e+00
-1.79301715e+00
-8.44185495e+00
-9.45157290e+00
-5.72167358e+01
-5.90854645e+01
-3.34043287e+01
-4.12061615e+01
-2.39434242e+00
-8.79530239e+00
-5.12054551e+00
-3.37438698e+01
-3.35389595e+01
-2.65708694e+01
-3.07258549e+01
-2.30751867e+01
-2.25794439e+01
-1.96477532e+01
-8.14187407e+00
-3.30229592e+00
</DataArray>
<DataArray type="Float32" Name="Stress_Pressure" format="ascii">
8.20138490e+00
8.27199805e+00
1.04044780e+01
9.67660093e+00
5.80385262e+00
7.31178121e+00
1.20364568e+01
9.86936128e+00
7.51760978e+00
1.51034918e+01
1.86573947e+01
2.11895323e+01
5.49217705e-02
5.49195409e-02
5.49218673e-02
5.49221318e-02
-3.87416743e-02
-3.87429073e-02
-3.87444608e-02
-3.87418754e-02
8.97584820e+00
9.42773199e+00
9.58250523e+00
9.30560863e+00
1.07896905e+01
1.09463303e+01
1.12153101e+01
1.12737417e+01
9.80806160e+00
1.11783217e+01
1.09519622e+01
1.15408444e+01
1.00601246e+01
1.22591131e+01
1.03774452e+01
1.15741531e+01
9.60039926e+00
1.21734595e+01
9.39378667e+00
1.01411471e+01
8.91074574e+00
1.06155109e+01
8.67705476e+00
1.00612853e+01
8.69751787e+00
9.24564183e+00
8.49645495e+00
9.55225086e+00
1.05853653e+01
8.21634674e+00
1.20325428e+01
1.12152486e+01
1.32978459e+01
1.05413773e+01
1.90979109e+01
9.72547041e+00
1.67638953e+01
1.32164675e+01
1.27850211e+01
1.41762328e+01
1.04903579e+01
1.36455555e+01
1.18936008e+01
6.60907155e+00
9.60047700e+00
8.20985425e+00
2.12652750e+01
1.41299301e+01
1.44073954e+01
8.31051191e-01
8.14733069e+00
6.25361055e+00
5.96577182e+00
2.54256767e+00
6.33245099e+00
9.98879368e+00
6.67440540e+00
1.20017794e+01
2.50525303e+01
1.66743868e+01
1.02036796e+01
8.57780391e+00
1.14221258e+01
1.39463043e+01
1.71222178e+01
1.22122863e+01
1.28196807e+01
1.26263766e+01
1.25264730e+01
1.29491153e+01
1.20320492e+01
1.13903199e+01
1.08302770e+01
1.01224319e+01
9.51081157e+00
9.22483945e+00
8.68157840e+00
9.16755134e+00
8.29407167e+00
9.54987955e+00
1.25670890e+01
1.39404974e+01
9.52959836e+00
6.31023094e+00
5.66119465e+00
7.43990427e+00
8.82755899e+00
1.25333072e+01
1.59686426e+01
8.31556086e+00
3.32689285e+00
6.98929214e+00
-1.83036478e+00
1.14020466e+01
9.05499935e+00
2.08928857e+01
1.30303997e+01
1.12871265e+01
1.20100081e+01
1.09470086e+01
1.48229334e+01
1.14973581e+01
3.54554288e+00
6.01231700e+00
-5.33781528e+00
1.34790993e+00
-6.84190243e-01
-1.09597788e+00
1.72695830e-01
1.72697663e-01
1.72691613e-01
1.72694385e-01
-6.70608816e-01
1.00683326e+00
6.69383287e-01
2.01252759e-01
1.35646343e+01
1.32389779e+01
1.31775188e+01
1.38424616e+01
1.22118587e+01
1.15616870e+01
1.09064827e+01
9.65543389e+00
1.02290635e+01
8.65365243e+00
9.62232876e+00
8.70605457e+00
9.35184765e+00
9.55930996e+00
1.23114355e+01
1.48758912e+01
9.20304608e+00
6.65505171e+00
2.88428450e+00
2.59549819e+00
4.57708991e+00
2.37579775e+01
2.59514198e+01
9.22262065e+00
3.11643869e-01
-1.73795256e+00
3.83560449e-01
4.97411221e-01
2.13214180e+00
2.32224295e+00
3.56087005e+00
-2.69514841e+00
1.21902847e+01
-4.20956930e+00
-4.06599772e+00
-1.29504889e+00
-1.29504846e+00
1.18206891e+00
1.18207169e+00
2.72180843e+01
2.84085026e+01
1.22063570e+01
1.71849060e+01
-8.81433532e-01
-9.88575240e-01
1.42390376e+00
1.26383839e+01
1.22835360e+01
7.50845075e+00
1.04043930e+01
3.64044178e+00
4.37842417e+00
1.27623415e+00
2.15536982e-01
1.16606891e+00
</DataArray>
<DataArray type="Float32" Name="Stress_Tresca" format="ascii">
3.14934616e+01
3.20973465e+01
3.36666913e+01
3.28897591e+01
3.13891072e+01
3.46847115e+01
3.92759991e+01
3.57370505e+01
3.27814636e+01
3.72308311e+01
4.63556201e+01
4.90758724e+01
9.27334726e-01
9.91059840e-01
7.86770046e-01
1.29012638e+00
5.31049788e-01
3.70146722e-01
6.28689170e-01
6.87561393e-01
2.93824472e+01
3.02237949e+01
3.15131345e+01
3.04251113e+01
3.33395786e+01
3.33516235e+01
3.29966891e+01
3.30814466e+01
3.23969307e+01
3.42410793e+01
3.30789614e+01
3.33112226e+01
3.35347824e+01
3.53707144e+01
3.23414097e+01
3.29107628e+01
3.31662884e+01
3.49621768e+01
3.13961759e+01
3.26050079e+01
3.15074797e+01
3.27446918e+01
3.03414412e+01
3.23462298e+01
3.22980633e+01
3.18412380e+01
3.16930733e+01
3.27418661e+01
3.43887308e+01
3.20245328e+01
3.39176931e+01
3.28695321e+01
3.62785484e+01
3.23248301e+01
4.26304199e+01
3.38667079e+01
3.80057201e+01
3.75205009e+01
3.35288563e+01
3.55567064e+01
3.12302685e+01
3.52186832e+01
3.72604425e+01
3.26739578e+01
3.35979546e+01
3.30413265e+01
4.70745392e+01
3.85743546e+01
5.71893120e+01
3.37787183e+01
3.29925698e+01
3.06153197e+01
3.14971765e+01
2.86199141e+01
3.13087602e+01
3.56282774e+01
3.17606826e+01
4.01257191e+01
4.80487499e+01
4.21972038e+01
3.49397125e+01
3.43539886e+01
3.56959991e+01
3.81610851e+01
4.45024783e+01
3.87273674e+01
3.59569244e+01
3.52347488e+01
3.54357681e+01
3.61506195e+01
3.33570948e+01
3.39053493e+01
3.23136792e+01
3.25758705e+01
3.17131801e+01
3.16226332e+01
3.06201334e+01
3.13552787e+01
3.04824467e+01
3.22364197e+01
3.62243373e+01
3.68212204e+01
3.31187305e+01
3.00986035e+01
3.18058951e+01
3.47824996e+01
3.54630597e+01
3.69248524e+01
3.92764002e+01
3.44550206e+01
3.51129239e+01
5.50077820e+01
2.32431620e+01
3.63971663e+01
3.36031946e+01
4.98908634e+01
3.47195024e+01
3.27189364e+01
3.44779949e+01
3.17284145e+01
3.74991751e+01
3.60170403e+01
3.33794994e+01
3.50366411e+01
5.50010529e+01
4.85615921e+01
3.56357503e+01
3.75968488e+01
2.32506418e+00
1.61162257e+00
2.65436697e+00
3.20063496e+00
7.81002016e+00
4.53815206e+00
3.67901242e+00
9.15000629e+00
3.67541580e+01
3.56337185e+01
3.64852657e+01
3.74354820e+01
3.35029373e+01
3.41212254e+01
3.32263680e+01
3.27202644e+01
3.35830116e+01
3.22587457e+01
3.24269199e+01
3.18347845e+01
3.27841377e+01
3.36193104e+01
3.68715858e+01
3.76714401e+01
3.41652775e+01
3.12672219e+01
2.98080606e+01
3.17863169e+01
3.76628304e+01
4.51117954e+01
4.49467697e+01
3.41027921e+01
3.12343626e+01
1.34108559e+01
1.82065117e+01
9.89108419e+00
2.52851458e+01
1.78626518e+01
4.03077679e+01
2.91454067e+01
4.01428413e+01
1.98692128e+01
1.27216361e+01
1.13889359e+01
6.09154010e+00
1.20785913e+01
1.28343687e+01
4.66986160e+01
4.89660187e+01
3.53277194e+01
3.84905853e+01
6.85427976e+00
1.92493738e+01
7.23954010e+00
3.62458305e+01
3.45654716e+01
3.07177935e+01
3.45616980e+01
3.52661457e+01
3.50967293e+01
3.56609478e+01
1.29724240e+01
3.99193120e+00
</DataArray>
<DataArray type="Float32" Name="Stress_Third_Invariant" format="ascii">
-2.75131209e+01
-2.68551672e+01
-3.07935939e+01
-3.06551151e+01
-2.73855803e+01
-2.89265028e+01
-2.44024112e+01
-2.68951931e+01
-2.99114118e+01
-3.56330509e+01
-3.10181726e+01
-3.76600780e+01
4.14512455e-01
-1.38797671e-01
-6.16762936e-01
1.17534059e+00
2.53760934e-01
2.43962064e-01
3.29118013e-01
5.83980799e-01
-2.92789316e+01
-2.96057577e+01
-2.92702508e+01
-2.94211740e+01
-2.94205885e+01
-2.96558766e+01
-3.05090206e+01
-3.03894739e+01
-2.91599221e+01
-2.97434108e+01
-3.01697993e+01
-3.11676171e+01
-2.74274259e+01
-3.03322048e+01
-2.97837415e+01
-3.14552369e+01
-2.73869157e+01
-3.07448523e+01
-2.90678358e+01
-2.98439500e+01
-2.84222846e+01
-2.99726737e+01
-2.88318276e+01
-2.97796123e+01
-2.71093006e+01
-2.86387606e+01
-2.78009129e+01
-2.87218890e+01
-2.80004442e+01
-2.65834317e+01
-3.17835250e+01
-3.14129939e+01
-3.42983150e+01
-3.07877393e+01
-3.97900505e+01
-2.99444820e+01
-3.57823000e+01
-3.39314255e+01
-3.24956465e+01
-3.37198224e+01
-3.06671715e+01
-3.31655436e+01
-2.79305280e+01
-2.43666043e+01
-2.89783442e+01
-3.10328293e+01
-4.17759380e+01
-3.34546700e+01
-3.36939774e+01
-2.72796599e+01
-2.68467650e+01
-2.19740171e+01
-2.74310656e+01
-2.39058776e+01
-2.71577125e+01
-2.30683873e+01
-2.28490701e+01
-2.79061832e+01
-4.34311943e+01
-3.41118469e+01
-3.02065163e+01
-2.83077998e+01
-3.15767756e+01
-3.25623965e+01
-3.69145813e+01
-3.06714198e+01
-2.93569651e+01
-3.02901134e+01
-3.00514839e+01
-2.96155148e+01
-3.13182411e+01
-2.97639146e+01
-3.03485732e+01
-2.91549358e+01
-2.90122094e+01
-2.87554181e+01
-2.85754328e+01
-2.92131007e+01
-2.83296165e+01
-2.95440269e+01
-3.03124044e+01
-3.10931668e+01
-2.74867377e+01
-2.50634916e+01
-2.63890476e+01
-2.80333023e+01
-2.66566308e+01
-2.84946845e+01
-1.99847759e+01
-2.62511635e+01
-1.48761301e+01
-3.65737000e+01
2.70077477e+00
-1.81462336e+01
-1.24546261e+01
-4.08243561e+01
-3.29451831e+01
-3.14686155e+01
-3.15423770e+01
-3.11114073e+01
-3.43596401e+01
-3.01705294e+01
-2.16493087e+01
-1.56729245e+01
-2.67406387e+01
3.49640770e+01
2.94731421e+01
1.13812478e+00
1.34828794e+00
7.12438464e-01
-1.77694404e+00
2.37323093e+00
3.85933254e+00
-3.96453853e+00
-1.15809321e+00
-7.81494308e+00
-2.96418839e+01
-3.10071621e+01
-2.86679330e+01
-2.86203022e+01
-3.14467993e+01
-2.94424744e+01
-2.93929491e+01
-2.77038193e+01
-2.76137304e+01
-2.62802262e+01
-2.82813196e+01
-2.71739697e+01
-2.73443012e+01
-2.71768732e+01
-2.70589013e+01
-3.11036701e+01
-2.20090342e+01
-2.24117880e+01
-2.26781328e+01
-2.05637116e+01
-8.26363564e+00
-4.21026363e+01
-4.37602348e+01
-2.70866922e+01
-2.39081888e+01
5.56983483e+00
6.83819270e+00
-1.74636441e+00
-1.72513866e+01
-1.58355403e+01
2.16057067e+01
4.70542860e+00
-3.87353249e+01
-1.58527867e+00
3.40436840e+00
8.12331617e-01
-1.69664562e-01
-1.04826403e+01
-1.23445466e+01
-4.48043213e+01
-4.54407043e+01
-3.05539405e+01
-3.52948532e+01
1.88640499e+00
-3.52056376e+00
-1.17188787e+00
-2.95156612e+01
-3.11912308e+01
-2.80469961e+01
-2.87010441e+01
-2.37555895e+01
-6.39000368e+00
2.27755547e-01
-1.14653075e+01
-2.46690631e+00
</DataArray>
<DataArray type="Float32" Name="Logarithmic_strain_Max_Principal" format="ascii">
4.70231775e-04
5.74267920e-04
7.22131997e-04
4.03926359e-04
4.03275377e-04
1.04139919e-03
2.24645922e-03
9.88955540e-04
5.25707896e-04
1.39607876e-03
3.07173165e-03
4.08802764e-03
1.07112146e-05
1.12753096e-05
7.23263815e-06
1.85448207e-05
6.85931718e-06
5.06420429e-06
8.72081546e-06
1.00557118e-05
1.20188179e-03
1.23176206e-03
1.42166633e-03
1.33163849e-03
1.73605321e-03
1.68408517e-03
1.68835412e-03
1.74092344e-03
1.41366900e-03
1.58161168e-03
1.50974534e-03
1.60015229e-03
1.52196069e-03
1.67265427e-03
1.33791394e-03
1.40846695e-03
1.37738322e-03
1.74490026e-03
1.16354600e-03
1.23936892e-03
1.00728443e-03
1.43643271e-03
8.67889423e-04
1.07303145e-03
9.07107955e-04
1.21916077e-03
8.10211903e-04
9.95992508e-04
1.68679678e-03
1.52706253e-03
2.05916805e-03
1.83056897e-03
1.72921882e-03
1.76244945e-03
2.59698618e-03
1.58438752e-03
2.29965983e-03
1.66587946e-03
1.76257844e-03
1.51170505e-03
1.47631293e-03
1.41778623e-03
1.67305207e-03
1.13647041e-03
2.08835221e-03
1.58999398e-03
3.11932166e-03
2.91333674e-03
4.93123615e-03
1.61957795e-03
7.68839806e-04
7.09112421e-04
1.22633151e-03
1.09319368e-03
4.23034464e-04
1.98122173e-03
1.70495093e-03
1.24257927e-03
3.03487887e-03
3.25647506e-03
6.94415663e-04
2.38191453e-03
2.07301526e-03
3.37770453e-03
3.72392964e-03
3.18323541e-03
2.29993463e-03
2.12105742e-03
2.24261239e-03
2.43351085e-03
1.71893006e-03
1.87499025e-03
1.50444155e-03
1.51597541e-03
1.32937153e-03
1.20916728e-03
1.14924993e-03
1.02142878e-03
1.11820892e-03
1.03863662e-03
2.86222697e-03
2.99849093e-03
2.06038622e-03
1.11064105e-03
8.40291572e-04
8.65152741e-04
8.66377202e-04
3.25921104e-03
3.70549372e-03
2.10004637e-03
9.36211135e-04
1.63271115e-03
4.07625048e-04
3.73052247e-03
3.68795164e-03
3.58357292e-03
3.82800416e-03
3.59727262e-03
3.75940668e-03
3.34875064e-03
3.62799957e-03
3.58900923e-03
1.66663744e-03
1.93066939e-03
1.47734454e-03
2.14229175e-03
8.06180404e-04
6.07393818e-04
2.74756130e-05
1.83112716e-05
2.68313106e-05
4.13676862e-05
1.15667455e-04
3.02123547e-05
3.57692388e-05
8.59227112e-05
2.49440107e-03
2.20491341e-03
2.61041761e-03
2.82952504e-03
1.78680971e-03
2.03514376e-03
1.73301477e-03
1.61638041e-03
1.67947036e-03
1.39984253e-03
1.52000424e-03
1.25155039e-03
1.66137330e-03
1.41038478e-03
3.12759809e-03
3.41227860e-03
2.19271446e-03
1.21687005e-03
6.06808913e-04
4.48027320e-04
5.36588181e-04
4.20658337e-03
4.52708500e-03
1.67400677e-03
3.30208095e-04
1.48308642e-04
2.30925583e-04
1.03999762e-04
2.35610365e-04
1.35219616e-04
1.29818689e-03
4.45258032e-04
1.23429741e-03
2.79121848e-04
2.11139256e-04
1.57404482e-04
8.78310998e-05
1.00984169e-04
9.54989355e-05
6.87024835e-03
7.43406452e-03
5.12322256e-03
5.72177721e-03
9.64797855e-05
2.05407884e-04
6.83382877e-05
5.12854033e-03
4.89712413e-03
2.59556016e-03
3.32224520e-03
9.65625251e-04
1.13440433e-03
3.30815019e-04
1.18214190e-04
3.01293094e-05
</DataArray>
<DataArray type="Float32" Name="Logarithmic_strain_Min_Principal" format="ascii">
-9.16945319e-04
-1.03338073e-03
-1.38721784e-03
-9.52541712e-04
-7.36180751e-04
-1.53567519e-03
-2.91797015e-03
-1.65895317e-03
-1.05983918e-03
-2.78757821e-03
-4.40487180e-03
-5.43180667e-03
-1.16415927e-05
-1.23101897e-05
-1.16405386e-05
-1.25736847e-05
-5.83502015e-06
-3.96731139e-06
-5.87064778e-06
-6.31789908e-06
-2.35480093e-03
-2.33909249e-03
-2.40486817e-03
-2.41372822e-03
-2.72945943e-03
-2.68954475e-03
-2.87359365e-03
-2.93352571e-03
-2.28498649e-03
-2.45125362e-03
-2.54192052e-03
-2.78475689e-03
-2.18999264e-03
-2.59795264e-03
-2.30275665e-03
-2.58648940e-03
-2.03006525e-03
-2.78770403e-03
-2.02826940e-03
-2.11725890e-03
-1.72108749e-03
-2.42904527e-03
-1.64294930e-03
-1.91431455e-03
-1.45354605e-03
-2.04175277e-03
-1.39702397e-03
-1.68059752e-03
-2.41492473e-03
-2.16196512e-03
-3.48443299e-03
-3.26720276e-03
-3.04205516e-03
-3.09222276e-03
-4.49465392e-03
-2.51822900e-03
-3.98670248e-03
-2.82596005e-03
-3.26167990e-03
-2.79419130e-03
-2.78986688e-03
-2.63569783e-03
-2.42943912e-03
-1.51772061e-03
-3.08912899e-03
-2.73455621e-03
-4.92052425e-03
-4.32597511e-03
-5.41873043e-03
-1.87496868e-03
-1.26715361e-03
-1.02346747e-03
-1.88567517e-03
-1.53294916e-03
-8.07064775e-04
-3.01002628e-03
-2.40136145e-03
-1.88580024e-03
-5.21243433e-03
-4.85602769e-03
-1.28964288e-03
-3.18823551e-03
-3.18804570e-03
-4.91720799e-03
-5.57360069e-03
-4.35095537e-03
-3.26755119e-03
-3.20303184e-03
-3.31564603e-03
-3.45115189e-03
-2.99413787e-03
-2.90750386e-03
-2.61969509e-03
-2.43797511e-03
-2.22731498e-03
-2.03989854e-03
-2.01482658e-03
-1.84660339e-03
-1.95728568e-03
-1.85290587e-03
-4.05633383e-03
-4.38690570e-03
-2.93787059e-03
-1.64297126e-03
-1.28458252e-03
-1.38406359e-03
-1.38333611e-03
-4.37484348e-03
-5.16073157e-03
-2.76568082e-03
-1.14792238e-03
-2.09032674e-03
-3.18434754e-04
-5.07760630e-03
-4.98990707e-03
-5.10760548e-03
-6.33999566e-03
-6.10864267e-03
-5.84080210e-03
-5.71663468e-03
-5.68355958e-03
-4.91676840e-03
-1.94617419e-03
-2.31595626e-03
-1.27376430e-03
-1.49015058e-03
-5.14053321e-04
-6.49178032e-04
-2.85762053e-05
-2.06697168e-05
-3.67871471e-05
-3.55719858e-05
-7.19663461e-05
-7.88345921e-05
-5.27263765e-05
-1.33695515e-04
-3.49676353e-03
-3.38671042e-03
-3.55100993e-03
-3.71747371e-03
-3.08351871e-03
-3.06795695e-03
-2.71663419e-03
-2.39908573e-03
-2.42449250e-03
-2.02638900e-03
-2.36905809e-03
-1.94956592e-03
-2.44117784e-03
-2.05719296e-03
-4.00220760e-03
-4.89462796e-03
-2.56743119e-03
-1.61113983e-03
-8.47947609e-04
-5.61830449e-04
-6.50519098e-04
-7.05879787e-03
-8.10461305e-03
-2.33076284e-03
-4.52856017e-04
-9.70834431e-05
-1.89350931e-04
-1.28452501e-04
-3.48645219e-04
-2.87860850e-04
-1.13900896e-03
-3.94892952e-04
-2.32174899e-03
-1.70579107e-04
-9.04078952e-05
-1.15836352e-04
-5.85264106e-05
-1.88598860e-04
-2.12752457e-04
-1.15645602e-02
-1.17945392e-02
-7.21676322e-03
-8.79214564e-03
-6.78423503e-05
-2.30242358e-04
-1.05732277e-04
-6.74488721e-03
-7.24874018e-03
-3.99145600e-03
-4.51380108e-03
-1.14980584e-03
-1.20889832e-03
-4.55885995e-04
-1.92938634e-04
-6.51769296e-05
</DataArray>
<DataArray type="Float32" Name="Plastic_strain_Max_Principal" format="ascii">
2.68814523e-04
3.59551139e-04
5.42417874e-04
2.30361949e-04
1.88553325e-04
7.91612846e-04
1.96951562e-03
7.54976306e-04
3.21890486e-04
1.25977356e-03
2.82563989e-03
3.83326970e-03
0.00000000e+00
0.00000000e+00
0.00000000e+00
0.00000000e+00
0.00000000e+00
0.00000000e+00
0.00000000e+00
0.00000000e+00
1.07292749e-03
1.09394925e-03
1.25620818e-03
1.18611095e-03
1.55055721e-03
1.50309142e-03
1.52680844e-03
1.57703165e-03
1.23126956e-03
1.38883023e-03
1.33895475e-03
1.44379257e-03
1.30759110e-03
1.47975760e-03
1.17013065e-03
1.26482040e-03
1.16303761e-03
1.56086373e-03
9.94721660e-04
1.06434008e-03
8.23716415e-04
1.26605648e-03
7.09412314e-04
9.01346801e-04
6.93959941e-04
1.03554249e-03
6.11365656e-04
8.00078749e-04
1.47054734e-03
1.30943680e-03
1.90528769e-03
1.68286767e-03
1.57482589e-03
1.61012592e-03
2.45528894e-03
1.38543163e-03
2.16770865e-03
1.48210209e-03
1.63356811e-03
1.37355513e-03
1.34378666e-03
1.27252220e-03
1.43913353e-03
8.73897137e-04
1.88730048e-03
1.39864186e-03
2.94024765e-03
2.71924457e-03
4.44252463e-03
1.36920701e-03
5.44967246e-04
4.72470310e-04
1.00635083e-03
8.44799535e-04
2.02965073e-04
1.74450243e-03
1.46200595e-03
9.81148551e-04
2.90824269e-03
3.04327393e-03
4.81966039e-04
2.14217886e-03
1.87518570e-03
3.17507249e-03
3.50244941e-03
2.93604083e-03
2.09396170e-03
1.93268288e-03
2.04757783e-03
2.22800387e-03
1.56915205e-03
1.69103488e-03
1.35005868e-03
1.33455462e-03
1.15507821e-03
1.03135066e-03
9.80849567e-04
8.52882171e-04
9.45281063e-04
8.60833272e-04
2.65785915e-03
2.80761521e-03
1.85076069e-03
8.90492476e-04
5.95232518e-04
6.07880905e-04
6.07254706e-04
3.03532420e-03
3.50548086e-03
1.85021360e-03
5.90102953e-04
1.11312338e-03
1.71122797e-04
3.49932519e-03
3.44412797e-03
3.34683980e-03
3.68551980e-03
3.45356209e-03
3.58882331e-03
3.21501365e-03
3.47014470e-03
3.37174017e-03
1.35810841e-03
1.64486587e-03
8.25863099e-04
1.52115768e-03
3.02205997e-04
2.36353371e-04
0.00000000e+00
0.00000000e+00
0.00000000e+00
0.00000000e+00
0.00000000e+00
0.00000000e+00
0.00000000e+00
0.00000000e+00
2.28616619e-03
2.02336116e-03
2.39814218e-03
2.60701100e-03
1.63681404e-03
1.84792673e-03
1.55255228e-03
1.41365267e-03
1.46757386e-03
1.18326339e-03
1.32669322e-03
1.05579440e-03
1.44979754e-03
1.19081233e-03
2.88885407e-03
3.22178600e-03
1.92653525e-03
9.67467640e-04
3.49566057e-04
1.62121097e-04
1.96927569e-04
4.09534189e-03
4.46724705e-03
1.43959098e-03
8.78110004e-05
6.44231766e-05
1.86381367e-05
3.83751433e-06
2.85087663e-05
5.56481791e-06
8.25809868e-04
3.65717657e-04
1.04159175e-03
2.06397381e-05
5.94595258e-06
0.00000000e+00
0.00000000e+00
0.00000000e+00
0.00000000e+00
6.80077681e-03
7.34284474e-03
4.92972462e-03
5.58096543e-03
0.00000000e+00
4.64013525e-05
0.00000000e+00
4.91780182e-03
4.72270045e-03
2.40608759e-03
3.10915860e-03
6.32981406e-04
7.94220643e-04
6.68472130e-05
0.00000000e+00
0.00000000e+00
</DataArray>
<DataArray type="Float32" Name="Plastic_strain_Min_Principal" format="ascii">
-3.62802817e-04
-4.78814154e-04
-7.61264600e-04
-3.41367597e-04
-2.36587739e-04
-9.58636029e-04
-2.25468015e-03
-1.05156604e-03
-4.82485695e-04
-2.03475170e-03
-3.54698615e-03
-4.50694421e-03
0.00000000e+00
0.00000000e+00
0.00000000e+00
0.00000000e+00
0.00000000e+00
0.00000000e+00
0.00000000e+00
0.00000000e+00
-1.77894760e-03
-1.75128866e-03
-1.81455722e-03
-1.82933986e-03
-2.11468810e-03
-2.07049257e-03
-2.24321481e-03
-2.30355759e-03
-1.69043045e-03
-1.82278988e-03
-1.91877765e-03
-2.14228602e-03
-1.59970389e-03
-1.94234239e-03
-1.69449821e-03
-1.94116715e-03
-1.44808050e-03
-2.13271996e-03
-1.44371658e-03
-1.51004436e-03
-1.14828079e-03
-1.81367646e-03
-1.07367196e-03
-1.31001559e-03
-8.91825068e-04
-1.46159276e-03
-8.35719024e-04
-1.09084848e-03
-1.80628033e-03
-1.61199213e-03
-2.82650525e-03
-2.62825476e-03
-2.33081625e-03
-2.46959942e-03
-3.61910453e-03
-1.90556327e-03
-3.20727075e-03
-2.11220777e-03
-2.58759770e-03
-2.08077073e-03
-2.17389874e-03
-1.93671114e-03
-1.77038023e-03
-9.99081123e-04
-2.48724427e-03
-2.13565302e-03
-3.97701061e-03
-3.59636215e-03
-4.53298585e-03
-1.46781801e-03
-7.01486395e-04
-5.27275904e-04
-1.35800937e-03
-1.09654326e-03
-2.80191047e-04
-2.39564738e-03
-1.88548637e-03
-1.19070814e-03
-4.20018472e-03
-4.05808755e-03
-6.65948464e-04
-2.60499644e-03
-2.53311940e-03
-4.20092902e-03
-4.74074390e-03
-3.66686572e-03
-2.61081674e-03
-2.54563463e-03
-2.66006749e-03
-2.78938777e-03
-2.34362727e-03
-2.27774537e-03
-1.99873533e-03
-1.83765586e-03
-1.64066066e-03
-1.45927095e-03
-1.44841103e-03
-1.26318613e-03
-1.39899598e-03
-1.25736586e-03
-3.39250622e-03
-3.69393907e-03
-2.35320245e-03
-1.14136068e-03
-7.67897586e-04
-8.09564406e-04
-7.93387633e-04
-3.71541397e-03
-4.42214357e-03
-2.19042058e-03
-6.57414332e-04
-1.29001297e-03
-1.23992668e-04
-4.43964801e-03
-4.43414199e-03
-4.16185218e-03
-5.65287479e-03
-5.47045527e-03
-5.17808180e-03
-5.08692604e-03
-4.94675653e-03
-4.26616205e-03
-1.46306462e-03
-1.78576345e-03
-7.93252955e-04
-9.91767156e-04
-1.79501105e-04
-2.18152398e-04
0.00000000e+00
0.00000000e+00
0.00000000e+00
0.00000000e+00
0.00000000e+00
0.00000000e+00
0.00000000e+00
0.00000000e+00
-2.82264338e-03
-2.71258142e-03
-2.88853876e-03
-3.04174784e-03
-2.42906169e-03
-2.43633724e-03
-2.09972973e-03
-1.81629468e-03
-1.83014089e-03
-1.46885909e-03
-1.78417499e-03
-1.38413187e-03
-1.86530990e-03
-1.47226121e-03
-3.35309078e-03
-4.17768594e-03
-2.01293683e-03
-1.11115517e-03
-4.00559442e-04
-1.26442407e-04
-1.60309137e-04
-6.08787523e-03
-7.08330469e-03
-1.74762495e-03
-1.13988241e-04
-4.32935771e-05
-1.58593698e-05
-4.35261950e-06
-2.81750836e-05
-6.24359609e-06
-6.47907422e-04
-2.93744048e-04
-1.55737437e-03
-2.21905963e-05
-5.53040081e-06
0.00000000e+00
0.00000000e+00
0.00000000e+00
0.00000000e+00
-1.04892459e-02
-1.06959315e-02
-6.56047929e-03
-7.99923413e-03
0.00000000e+00
-3.90798038e-05
0.00000000e+00
-6.08386728e-03
-6.58443756e-03
-3.44625989e-03
-3.90293368e-03
-6.41739112e-04
-7.22383746e-04
-9.00349041e-05
0.00000000e+00
0.00000000e+00
</DataArray>
</PointData>
<Cells>
<DataArray type="Int32" Name="connectivity" format="ascii">
0 1 2 3 4 5 6 7
1 8 9 2 5 10 11 6
12 13 14 15 16 17 18 19
20 21 22 23 24 25 26 27
21 28 29 22 25 30 31 26
28 32 33 29 30 34 35 31
32 36 37 33 34 38 39 35
36 40 41 37 38 42 43 39
40 44 45 41 42 46 47 43
23 22 48 49 27 26 50 51
22 29 52 48 26 31 53 50
29 33 54 52 31 35 55 53
33 37 56 54 35 39 57 55
37 41 58 56 39 43 59 57
41 45 60 58 43 47 61 59
49 48 62 63 51 50 64 65
48 52 66 62 50 53 67 64
52 54 68 66 53 55 69 67
63 62 70 71 65 64 72 73
71 70 4 74 73 72 75 76
70 77 5 4 72 78 79 75
74 4 7 80 76 75 81 82
4 5 6 7 75 79 83 81
5 10 11 6 79 84 85 83
24 25 26 27 86 87 88 89
25 30 31 26 87 90 91 88
30 34 35 31 90 92 93 91
34 38 39 35 92 94 95 93
38 42 43 39 94 96 97 95
42 46 47 43 96 98 99 97
27 26 50 51 89 88 100 101
26 31 53 50 88 91 102 100
31 35 55 53 91 93 103 102
35 39 57 55 93 95 104 103
39 43 59 57 95 97 105 104
43 47 61 59 97 99 106 105
51 50 64 65 101 100 107 108
50 53 67 64 100 102 109 107
53 55 69 67 102 103 110 109
55 57 111 69 103 104 112 110
65 64 72 73 108 107 113 114
64 67 78 72 107 109 115 113
73 72 75 76 114 113 116 117
76 75 81 82 117 116 118 119
75 79 83 81 116 120 121 118
79 84 85 83 120 122 123 121
84 124 125 85 122 126 127 123
128 129 130 131 132 133 134 135
86 87 88 89 136 137 138 139
87 90 91 88 137 140 141 138
90 92 93 91 140 142 143 141
92 94 95 93 142 144 145 143
94 96 97 95 144 146 147 145
96 98 99 97 146 148 149 147
89 88 100 101 139 138 150 151
88 91 102 100 138 141 152 150
91 93 103 102 141 143 153 152
93 95 104 103 143 145 154 153
95 97 105 104 145 147 155 154
97 99 106 105 147 149 156 155
101 100 107 108 151 150 157 158
100 102 109 107 150 152 159 157
102 103 110 109 152 153 160 159
103 104 112 110 153 154 161 160
104 105 162 112 154 155 163 161
105 106 164 162 155 156 165 163
109 110 166 115 159 160 167 168
110 112 169 166 160 161 170 167
112 162 171 169 161 163 172 170
162 164 173 171 163 165 174 172
114 113 116 117 175 176 177 178
169 171 132 126 170 172 179 180
171 173 133 132 172 174 181 179
117 116 118 119 178 177 182 183
116 120 121 118 177 184 185 182
120 122 123 121 184 186 187 185
122 126 127 123 186 180 188 187
126 132 135 127 180 179 189 188
132 133 134 135 179 181 190 189
</DataArray>
<DataArray type="Int32" Name="offsets" format="ascii">
8
16
24
32
40
48
56
64
72
80
88
96
104
112
120
128
136
144
152
160
168
176
184
192
200
208
216
224
232
240
248
256
264
272
280
288
296
304
312
320
328
336
344
352
360
368
376
384
392
400
408
416
424
432
440
448
456
464
472
480
488
496
504
512
520
528
536
544
552
560
568
576
584
592
600
608
616
624
632
</DataArray>
<DataArray type="UInt8" Name="types" format="ascii">
12
12
12
12
12
12
12
12
12
12
12
12
12
12
12
12
12
12
12
12
12
12
12
12
12
12
12
12
12
12
12
12
12
12
12
12
12
12
12
12
12
12
12
12
12
12
12
12
12
12
12
12
12
12
12
12
12
12
12
12
12
12
12
12
12
12
12
12
12
12
12
12
12
12
12
12
12
12
12
</DataArray>
</Cells>
</Piece>
</UnstructuredGrid>
</VTKFile>
