<VTKFile type="UnstructuredGrid" version="0.1" byte_order="LittleEndian">
<UnstructuredGrid>
<Piece NumberOfPoints="173" NumberOfCells="80">
<Points>
<DataArray type="Float64" NumberOfComponents="3" format="ascii">
 0.00000000e+00  0.00000000e+00  0.00000000e+00
 1.04520380e+00  0.00000000e+00  0.00000000e+00
 1.04823411e+00  1.08105254e+00  0.00000000e+00
 0.00000000e+00  1.07815039e+00  0.00000000e+00
 0.00000000e+00  0.00000000e+00  9.04247344e-01
 1.04437840e+00  0.00000000e+00  9.00605738e-01
 1.04535162e+00  1.07562137e+00  9.05208826e-01
 0.00000000e+00  1.07451260e+00  9.07009482e-01
 2.09474516e+00  0.00000000e+00  0.00000000e+00
 2.09597325e+00  1.08697581e+00  0.00000000e+00
 2.09235120e+00  0.00000000e+00  8.94155622e-01
 2.09474516e+00  1.07898462e+00  8.99435461e-01
 3.14542651e+00  0.00000000e+00  0.00000000e+00
 3.15019870e+00  1.09538352e+00  0.00000000e+00
 3.15117478e+00  0.00000000e+00  8.88375401e-01
 3.14541149e+00  1.08191371e+00  8.88922751e-01
 4.21271801e+00  0.00000000e+00  0.00000000e+00
 4.20002842e+00  1.10150194e+00  0.00000000e+00
 4.21680689e+00  0.00000000e+00  8.79896402e-01
 4.20257616e+00  1.08230984e+00  8.83009791e-01
 5.27776337e+00  0.00000000e+00  0.00000000e+00
 5.26271439e+00  1.10862839e+00  0.00000000e+00
 5.28388977e+00  0.00000000e+00  8.71602058e-01
 5.27261972e+00  1.08531880e+00  8.77012312e-01
 6.35069656e+00  0.00000000e+00  0.00000000e+00
 6.30865049e+00  1.13479519e+00  0.00000000e+00
 6.34723377e+00  0.00000000e+00  8.70385289e-01
 6.33687878e+00  1.10996330e+00  8.65037262e-01
 1.05245304e+00  2.14512706e+00  0.00000000e+00
 0.00000000e+00  2.14278030e+00  0.00000000e+00
 1.04829800e+00  2.14044738e+00  9.16752934e-01
 0.00000000e+00  2.13679862e+00  9.17586803e-01
 2.10428882e+00  2.15741587e+00  0.00000000e+00
 2.09572482e+00  2.14746332e+00  9.15457129e-01
 3.14652705e+00  2.16811705e+00  0.00000000e+00
 3.13984394e+00  2.15568733e+00  9.23969328e-01
 4.18177843e+00  2.18974495e+00  0.00000000e+00
 4.18467188e+00  2.15473890e+00  9.20990169e-01
 5.20509529e+00  2.19062591e+00  0.00000000e+00
 5.22143126e+00  2.15980363e+00  9.25686181e-01
 6.23865271e+00  2.22852063e+00  0.00000000e+00
 6.26579857e+00  2.19493914e+00  9.25974607e-01
 1.05598259e+00  3.18506384e+00  0.00000000e+00
 0.00000000e+00  3.18175173e+00  0.00000000e+00
 1.05036247e+00  3.18625450e+00  9.31533456e-01
 0.00000000e+00  3.18431449e+00  9.32823777e-01
 2.11253977e+00  3.18761230e+00  0.00000000e+00
 2.10256767e+00  3.18881559e+00  9.45676863e-01
 3.14380193e+00  3.19645739e+00  0.00000000e+00
 3.13713813e+00  3.19367909e+00  9.84087944e-01
 4.15050602e+00  3.20341706e+00  0.00000000e+00
 4.14183187e+00  3.19192171e+00  1.00635064e+00
 5.16650200e+00  3.19578409e+00  0.00000000e+00
 5.16853428e+00  3.17432261e+00  1.01538002e+00
 6.16901731e+00  3.23632193e+00  0.00000000e+00
 6.17593527e+00  3.23309612e+00  1.00483859e+00
 1.05850148e+00  4.20694494e+00  0.00000000e+00
 0.00000000e+00  4.21153355e+00  0.00000000e+00
 1.05116892e+00  4.20956755e+00  9.40375924e-01
 0.00000000e+00  4.21508169e+00  9.38517392e-01
 2.11189055e+00  4.20277405e+00  0.00000000e+00
 2.10005569e+00  4.19877100e+00  9.58049178e-01
 3.13882494e+00  4.19632292e+00  0.00000000e+00
 3.13014770e+00  4.19497156e+00  9.92020905e-01
 4.13548994e+00  4.20215702e+00  0.00000000e+00
 4.13510513e+00  4.20215130e+00  9.99964714e-01
 6.13540220e+00  4.20556116e+00  0.00000000e+00
 5.13545847e+00  4.20368052e+00  0.00000000e+00
 6.13552427e+00  4.20559072e+00  9.99726474e-01
 5.13552380e+00  4.20361853e+00  1.00001752e+00
 1.05632234e+00  5.22770882e+00  0.00000000e+00
 0.00000000e+00  5.23787212e+00  0.00000000e+00
 1.05303478e+00  5.23525429e+00  9.38112676e-01
 0.00000000e+00  5.23956537e+00  9.30801272e-01
 2.10987496e+00  5.21007919e+00  0.00000000e+00
 2.09378648e+00  5.21364307e+00  9.51552629e-01
 3.13026738e+00  5.19755077e+00  0.00000000e+00
 3.12354422e+00  5.20177031e+00  9.87896442e-01
 4.13392639e+00  5.20224905e+00  0.00000000e+00
 4.13369083e+00  5.20226383e+00  1.00024390e+00
 5.13377523e+00  5.20378542e+00  0.00000000e+00
 5.13387012e+00  5.20376444e+00  1.00002861e+00
 6.13389444e+00  5.20531988e+00  0.00000000e+00
 6.13391161e+00  5.20525455e+00  1.00000799e+00
 1.06361854e+00  6.26367760e+00  0.00000000e+00
 0.00000000e+00  6.26833391e+00  0.00000000e+00
 1.05719078e+00  6.26497269e+00  9.24945116e-01
 0.00000000e+00  6.27531290e+00  9.18609440e-01
 2.11823654e+00  6.23343992e+00  0.00000000e+00
 2.09704995e+00  6.25278664e+00  9.30781245e-01
 3.13619423e+00  6.20870161e+00  0.00000000e+00
 3.12894726e+00  6.22551107e+00  9.68722105e-01
 4.13342047e+00  6.20288420e+00  0.00000000e+00
 4.13275003e+00  6.20290422e+00  1.00053704e+00
 5.13241053e+00  6.20363760e+00  0.00000000e+00
 5.13252211e+00  6.20372438e+00  9.99966562e-01
 6.13237476e+00  6.20527744e+00  0.00000000e+00
 6.13240194e+00  6.20524883e+00  9.99995112e-01
 0.00000000e+00  0.00000000e+00  1.81628287e+00
 1.04472113e+00  0.00000000e+00  1.80899131e+00
 1.04410815e+00  1.06370044e+00  1.81655931e+00
 0.00000000e+00  1.06449950e+00  1.81746650e+00
 2.09970641e+00  0.00000000e+00  1.79964137e+00
 2.08951092e+00  1.05698061e+00  1.80427217e+00
 3.15469551e+00  0.00000000e+00  1.78762102e+00
 3.15471339e+00  1.05656719e+00  1.78671479e+00
 4.22578144e+00  0.00000000e+00  1.76884377e+00
 4.22007418e+00  1.05700862e+00  1.78074217e+00
 5.29894781e+00  0.00000000e+00  1.75595772e+00
 5.29155445e+00  1.05905783e+00  1.76935792e+00
 6.35731888e+00  0.00000000e+00  1.75053608e+00
 6.36964750e+00  1.06693912e+00  1.75858235e+00
 1.03845072e+00  2.12502575e+00  1.83369160e+00
 0.00000000e+00  2.13164759e+00  1.83880520e+00
 2.08658171e+00  2.12408066e+00  1.82710266e+00
 3.13938642e+00  2.12842822e+00  1.82253945e+00
 4.20980597e+00  2.14359927e+00  1.80410242e+00
 5.28271580e+00  2.14591694e+00  1.81021261e+00
 6.34624004e+00  2.15702581e+00  1.79790652e+00
 1.03381658e+00  3.18129921e+00  1.86222637e+00
 0.00000000e+00  3.18427420e+00  1.86720681e+00
 2.07351851e+00  3.18294644e+00  1.87619829e+00
 3.06557751e+00  3.15697360e+00  2.01071358e+00
 1.03620625e+00  4.22782326e+00  1.88765156e+00
 0.00000000e+00  4.22188330e+00  1.87826788e+00
 2.07991409e+00  4.20790815e+00  1.91759801e+00
 3.10262394e+00  4.17540789e+00  1.96375740e+00
 1.04490745e+00  5.24701834e+00  1.87881100e+00
 0.00000000e+00  5.25468731e+00  1.87151682e+00
 2.07478476e+00  5.23463821e+00  1.90103340e+00
 3.12677836e+00  5.21698761e+00  1.92348576e+00
 1.03957868e+00  6.29047775e+00  1.84801090e+00
 0.00000000e+00  6.28937864e+00  1.84240615e+00
 2.07642293e+00  6.29690647e+00  1.85690975e+00
 3.13759494e+00  6.28370523e+00  1.86012959e+00
 5.13390827e+00  5.20381069e+00  2.00003386e+00
 6.13390875e+00  5.20527267e+00  2.00003195e+00
 6.13244486e+00  6.20528030e+00  1.99998271e+00
 5.13241720e+00  6.20382452e+00  1.99996555e+00
 0.00000000e+00  0.00000000e+00  2.72617841e+00
 1.05208182e+00  0.00000000e+00  2.72419167e+00
 1.05520391e+00  1.05719519e+00  2.73007822e+00
 0.00000000e+00  1.05501294e+00  2.73529172e+00
 2.11562347e+00  0.00000000e+00  2.70994949e+00
 2.10331035e+00  1.04912984e+00  2.71897364e+00
 3.17203116e+00  0.00000000e+00  2.69427729e+00
 3.17319202e+00  1.04444826e+00  2.69812632e+00
 4.23994446e+00  0.00000000e+00  2.68070602e+00
 4.24292755e+00  1.04615879e+00  2.67579985e+00
 5.31161642e+00  0.00000000e+00  2.66408825e+00
 5.31202650e+00  1.04903603e+00  2.66641665e+00
 6.37794781e+00  0.00000000e+00  2.65877557e+00
 6.37740993e+00  1.04991782e+00  2.66042137e+00
 1.03911686e+00  2.10819340e+00  2.75134706e+00
 0.00000000e+00  2.12301350e+00  2.75475979e+00
 2.10320020e+00  2.11028910e+00  2.72962260e+00
 3.16263437e+00  2.11681247e+00  2.68674588e+00
 4.23801279e+00  2.12903166e+00  2.67566037e+00
 5.30618525e+00  2.12165642e+00  2.67803216e+00
 6.36473179e+00  2.12948918e+00  2.67252970e+00
 1.03503215e+00  3.18516684e+00  2.79570556e+00
 0.00000000e+00  3.18188548e+00  2.79180622e+00
 2.09275413e+00  3.16263914e+00  2.76451159e+00
 1.03552914e+00  4.22935629e+00  2.82832193e+00
 0.00000000e+00  4.23783159e+00  2.82078981e+00
 2.08314347e+00  4.22993612e+00  2.86320996e+00
 1.03648734e+00  5.28479767e+00  2.81429625e+00
 0.00000000e+00  5.27838993e+00  2.80999041e+00
 2.08007860e+00  5.28028536e+00  2.82493711e+00
 3.09742975e+00  4.28427029e+00  3.02144647e+00
 3.12163925e+00  5.27147388e+00  2.80240536e+00
 1.03991270e+00  6.32766438e+00  2.77748394e+00
 0.00000000e+00  6.33197641e+00  2.76602697e+00
</DataArray>
</Points>
<PointData Tensors="Stress_Components,Plastic_strain_components" Vevtors="Spatial_displacement,Reaction_force" Scalars="Equivalent_plastic_strain,Stress_Mises,Stress_Max_Principal,Stress_Mid_Principal,Stress_Min_Principal,Stress_Pressure,Stress_Tresca,Stress_Third_Invariant,Plastic_strain_Max_Principal,Plastic_strain_Min_Principal">
<DataArray type="Float32" Name="Stress_Components" NumberOfComponents="9" format="ascii">
-3.13928580e+00 -1.06997686e-02 -1.21321920e-02 -1.06997686e-02 4.09468412e-01 8.07147007e-03 -1.21321920e-02 8.07147007e-03 -3.27492981e+01
-9.03516430e+00 2.15449587e-01 -5.54861967e-03 2.15449587e-01 -4.68529403e+00 -2.50969715e-01 -5.54861967e-03 -2.50969715e-01 -4.45888014e+01
-4.31262207e+00 4.10421845e-01 -3.67552795e-01 4.10421845e-01 -1.70106262e+00 -3.17316860e-01 -3.67552795e-01 -3.17316860e-01 -3.63734189e+01
-5.46236396e+00 9.22970548e-02 -3.82391453e-01 9.22970548e-02 -3.07714272e+00 1.70804216e-02 -3.82391453e-01 1.70804216e-02 -3.91456594e+01
-1.10179985e+00 -6.54974207e-03 -8.30387585e-02 -6.54974207e-03 2.14638859e+00 -2.26199061e-01 -8.30387585e-02 -2.26199061e-01 -2.86890297e+01
-6.08016169e+00 1.26263842e-01 3.43466081e-01 1.26263842e-01 -2.24124247e+00 -5.59450373e-01 3.43466081e-01 -5.59450373e-01 -3.87700448e+01
-2.87393082e+00 3.03680707e-01 -1.38543438e-01 3.03680707e-01 -2.91843846e-01 -3.24893233e-01 -1.38543438e-01 -3.24893233e-01 -3.32995583e+01
-4.59994483e+00 9.86602362e-02 -2.70411674e-01 9.86602362e-02 -2.00574756e+00 1.79573780e-01 -2.70411674e-01 1.79573780e-01 -3.70255663e+01
-1.16578125e+01 1.82566579e-01 -1.72740743e-02 1.82566579e-01 -6.61741209e+00 -4.49524760e-01 -1.72740743e-02 -4.49524760e-01 -4.94504957e+01
-1.28040676e+01 9.17067507e-01 -6.33218113e-01 9.17067507e-01 -8.56019354e+00 -4.68097422e-01 -6.33218113e-01 -4.68097422e-01 -5.28342907e+01
-7.54481494e+00 1.44701244e-01 3.99429180e-01 1.44701244e-01 -4.18386215e+00 -7.61734098e-02 3.99429180e-01 -7.61734098e-02 -4.25658469e+01
-7.22938150e+00 2.55322269e-01 -7.56745214e-01 2.55322269e-01 -3.67556247e+00 -1.13639911e+00 -7.56745214e-01 -1.13639911e+00 -4.15288260e+01
-1.46501045e+01 5.52459419e-01 -7.05222944e-02 5.52459419e-01 -9.66961408e+00 4.14452761e-01 -7.05222944e-02 4.14452761e-01 -5.60523052e+01
-2.08860252e+01 5.99942178e-01 -1.29364337e+00 5.99942178e-01 -1.46546690e+01 -1.18800311e+00 -1.29364337e+00 -1.18800311e+00 -6.80154507e+01
-6.76859772e+00 -5.05496863e-01 -6.17971227e-01 -5.05496863e-01 -4.83277315e+00 -6.67470554e-02 -6.17971227e-01 -6.67470554e-02 -4.25126547e+01
-1.25137814e+01 -4.38465368e-01 -3.70104190e-01 -4.38465368e-01 -7.84902848e+00 -9.13582645e-01 -3.70104190e-01 -9.13582645e-01 -5.16660069e+01
-1.91207703e+01 -1.42793298e+00 -1.03963651e-01 -1.42793298e+00 -1.48559699e+01 1.38888551e-01 -1.03963651e-01 1.38888551e-01 -6.65387373e+01
-3.01019629e+01 -1.33238664e+00 -2.48326674e+00 -1.33238664e+00 -1.88019052e+01 -1.75575361e-01 -2.48326674e+00 -1.75575361e-01 -8.16467936e+01
-8.39192462e+00 -1.35586165e+00 -2.97329228e-01 -1.35586165e+00 -7.20109487e+00 -1.14601959e-01 -2.97329228e-01 -1.14601959e-01 -4.68066936e+01
1.36962533e-01 -1.00457005e+00 -5.37163330e-01 -1.00457005e+00 1.47660938e+00 2.82110709e-01 -5.37163330e-01 2.82110709e-01 -2.81974790e+01
-1.95292891e+01 -4.61731527e-01 -2.15626732e-01 -4.61731527e-01 -1.31708523e+01 1.15264824e+00 -2.15626732e-01 1.15264824e+00 -6.49733620e+01
-1.24615459e+01 -3.09122460e+00 -2.11348993e+00 -3.09122460e+00 -6.80461180e+00 4.90069672e-01 -2.11348993e+00 4.90069672e-01 -4.96421990e+01
-1.49869895e+00 -5.14437582e-01 -2.51424801e-01 -5.14437582e-01 -4.07723010e-01 1.20811915e+00 -2.51424801e-01 1.20811915e+00 -3.19930134e+01
3.75160965e+00 -1.77453668e+00 -2.64038848e-01 -1.77453668e+00 4.09364980e+00 2.74027275e-01 -2.64038848e-01 2.74027275e-01 -2.13107529e+01
-4.76846657e+01 -4.68725204e+00 -2.20578581e-01 -4.68725204e+00 -3.49199295e+01 5.18200278e-01 -2.20578581e-01 5.18200278e-01 -1.17974716e+02
-6.36834087e+01 -5.19095075e+00 -3.02163768e+00 -5.19095075e+00 -3.83857441e+01 5.27357602e+00 -3.02163768e+00 5.27357602e+00 -1.35339867e+02
-2.67883542e+01 -5.69718197e-01 -1.81798500e+00 -5.69718197e-01 -1.84126419e+01 2.80953211e+00 -1.81798500e+00 2.80953211e+00 -7.79579268e+01
-2.48891857e+01 -1.77762368e+00 -1.13385101e+00 -1.77762368e+00 -1.82315505e+01 2.89089544e+00 -1.13385101e+00 2.89089544e+00 -7.53354113e+01
-1.54476857e+00 8.53047267e-01 -5.18174652e-01 8.53047267e-01 -3.57161617e+00 -4.01284011e-01 -5.18174652e-01 -4.01284011e-01 -3.53949428e+01
1.65502071e-01 1.90448288e-01 -5.06921753e-01 1.90448288e-01 -1.81913090e+00 5.74686937e-03 -5.06921753e-01 5.74686937e-03 -3.16829059e+01
-1.42127352e+00 5.21010607e-01 4.00620045e-02 5.21010607e-01 -1.66230904e+00 -7.33389508e-01 4.00620045e-02 -7.33389508e-01 -3.33004569e+01
1.71338677e+00 1.89198125e-01 8.23434766e-01 1.89198125e-01 1.22121668e+00 5.11369826e-02 8.23434766e-01 5.11369826e-02 -2.67999375e+01
-6.19164920e+00 2.56906077e+00 -8.68508434e-01 2.56906077e+00 -8.80030680e+00 -1.16556969e+00 -8.68508434e-01 -1.16556969e+00 -4.56508231e+01
-4.43249160e+00 2.00234792e+00 1.77293033e+00 2.00234792e+00 -5.29696885e+00 -3.41732778e-01 1.77293033e+00 -3.41732778e-01 -3.95346713e+01
1.98298335e+01 1.37445751e+00 -1.59422308e+00 1.37445751e+00 1.82100139e+01 -5.39487809e-01 -1.59422308e+00 -5.39487809e-01 1.00633344e+01
5.68654905e+00 1.57967269e+00 3.78389125e+00 1.57967269e+00 6.80009862e+00 -2.81067895e-01 3.78389125e+00 -2.81067895e-01 -1.70429205e+01
2.97699726e+01 -8.61582510e-01 -4.61667728e+00 -8.61582510e-01 2.42257217e+01 -1.94256078e-01 -4.61667728e+00 -1.94256078e-01 2.73948814e+01
-1.47038662e+01 -6.81384843e+00 8.70637573e+00 -6.81384843e+00 -1.11305094e+01 5.50582274e-01 8.70637573e+00 5.50582274e-01 -5.25634650e+01
2.91795130e+01 9.95551080e-01 -3.93463749e+00 9.95551080e-01 2.81022524e+01 2.81457059e-01 -3.93463749e+00 2.81457059e-01 2.96024823e+01
-3.87308788e+00 -4.99420599e+00 9.32136192e+00 -4.99420599e+00 -9.01627827e+00 2.59140952e+00 9.32136192e+00 2.59140952e+00 -3.60539314e+01
1.68553591e+01 -5.06094825e+00 -6.90779328e+00 -5.06094825e+00 5.62730789e+00 1.91173971e+00 -6.90779328e+00 1.91173971e+00 -4.50590134e+00
-4.12331988e+01 -1.18263339e+01 1.21117207e+01 -1.18263339e+01 -3.24910965e+01 5.85337698e+00 1.21117207e+01 5.85337698e+00 -9.97099482e+01
4.81184125e-02 6.22117668e-01 1.72667779e-01 6.22117668e-01 -8.99672270e+00 -8.28064978e-01 1.72667779e-01 -8.28064978e-01 -3.84049710e+01
7.10765171e+00 2.74479311e-01 2.93694720e-01 2.74479311e-01 2.55230761e+00 1.43021159e-03 2.93694720e-01 1.43021159e-03 -1.91383424e+01
2.83618906e+00 1.02463634e-01 1.01106636e+00 1.02463634e-01 -3.93794483e+00 -6.30511919e-01 1.01106636e+00 -6.30511919e-01 -3.03984380e+01
7.32551995e+00 9.79563287e-02 8.35430279e-01 9.79563287e-02 4.44623911e+00 -3.20083946e-01 8.35430279e-01 -3.20083946e-01 -1.70156263e+01
1.73012240e+01 -1.47154137e-01 -8.02323967e-02 -1.47154137e-01 9.72191757e+00 -1.09817421e+00 -8.02323967e-02 -1.09817421e+00 -7.13448524e-02
1.52863180e+01 -1.56258505e-01 1.07166452e+00 -1.56258505e-01 5.14813799e+00 1.56767994e+00 1.07166452e+00 1.56767994e+00 -7.36887568e+00
3.02359312e+01 -4.30292640e-01 9.89912115e-02 -4.30292640e-01 2.86537206e+01 -2.32226248e+00 9.89912115e-02 -2.32226248e+00 3.23378468e+01
2.91033696e+01 -1.74591831e+00 -2.96365678e-01 -1.74591831e+00 2.60610275e+01 2.90310351e+00 -2.96365678e-01 2.90310351e+00 3.09292145e+01
2.36020031e+01 -2.63620063e+00 -2.29653597e-01 -2.63620063e+00 2.18434467e+01 -2.55558522e+00 -2.29653597e-01 -2.55558522e+00 2.94995162e+01
3.21337315e+01 6.81091309e-01 -1.02935896e+01 6.81091309e-01 3.31625446e+01 3.84531425e+00 -1.02935896e+01 3.84531425e+00 5.18727714e+01
3.37668031e+01 -9.37772095e-01 3.47877586e+00 -9.37772095e-01 3.49761079e+01 -4.19031501e-01 3.47877586e+00 -4.19031501e-01 3.48040498e+01
2.71864916e+01 4.88490327e+00 -9.57986005e+00 4.88490327e+00 3.55399818e+01 -1.14902566e+00 -9.57986005e+00 -1.14902566e+00 4.47519958e+01
1.82748927e+01 3.41556954e+00 -5.06903410e-01 3.41556954e+00 8.03202438e+00 1.45631850e+00 -5.06903410e-01 1.45631850e+00 3.04112332e+01
4.34170990e+01 1.02586756e+01 -5.34691167e+00 1.02586756e+01 3.15566376e+01 -1.68208933e+00 -5.34691167e+00 -1.68208933e+00 5.99312735e+01
2.98685765e+00 -8.00430596e-01 2.06426054e-01 -8.00430596e-01 -8.34171540e+00 -1.19990715e+00 2.06426054e-01 -1.19990715e+00 -3.36945610e+01
2.74014378e+00 -8.27545881e-01 2.67359272e-01 -8.27545881e-01 -5.09364462e+00 -4.86919377e-02 2.67359272e-01 -4.86919377e-02 -3.14844170e+01
8.59252864e+00 -1.15888445e+00 1.37366850e+00 -1.15888445e+00 1.99969721e+00 3.29574235e-02 1.37366850e+00 3.29574235e-02 -1.72424260e+01
5.60140884e+00 -6.60443246e-01 2.62364432e-01 -6.60443246e-01 6.16821036e-01 -1.30878119e-01 2.62364432e-01 -1.30878119e-01 -2.27979586e+01
1.59196835e+01 -2.26816199e+00 -9.51535148e-01 -2.26816199e+00 1.02028517e+01 -2.18904778e+00 -9.51535148e-01 -2.18904778e+00 -3.30780029e-01
1.84658059e+01 -1.05112890e+00 -7.95356952e-01 -1.05112890e+00 1.36840788e+01 2.85118605e+00 -7.95356952e-01 2.85118605e+00 7.17712474e+00
1.96041374e+01 -2.04693034e-01 5.05202934e-01 -2.04693034e-01 2.50937080e+01 -2.79333445e+00 5.05202934e-01 -2.79333445e+00 1.96009738e+01
2.85352616e+01 7.52671008e-01 -4.53284015e-01 7.52671008e-01 3.34386811e+01 -2.09485436e+00 -4.53284015e-01 -2.09485436e+00 3.40448236e+01
2.09451561e+01 1.43606438e+00 7.54671908e-01 1.43606438e+00 2.49044097e+01 -2.20237945e+00 7.54671908e-01 -2.20237945e+00 2.54412254e+01
1.39866753e+01 3.21082244e+00 2.17599695e-01 3.21082244e+00 1.04858774e+01 2.27781439e+00 2.17599695e-01 2.27781439e+00 3.78524830e+00
-1.02821841e+01 -7.51990747e+00 1.62819445e-01 -7.51990747e+00 -3.10736177e+01 1.42649004e+00 1.62819445e-01 1.42649004e+00 -1.46583338e+01
1.27345181e+01 2.27988903e+00 -7.98575670e-01 2.27988903e+00 1.85329399e+01 9.32453655e-01 -7.98575670e-01 9.32453655e-01 1.48482374e+01
7.93270826e-01 -5.87475586e+00 1.38405514e+00 -5.87475586e+00 -2.08151827e+01 -1.84596843e+00 1.38405514e+00 -1.84596843e+00 -4.98566031e+00
2.38477357e+00 -2.64733823e+00 -2.54280186e+00 -2.64733823e+00 8.98657199e+00 -7.81836058e-01 -2.54280186e+00 -7.81836058e-01 -3.02757583e+00
4.02065282e+00 -2.19595377e+00 1.11882542e+00 -2.19595377e+00 -5.09425184e+00 -4.02644116e-01 1.11882542e+00 -4.02644116e-01 -2.92825599e+01
1.72393751e+00 -1.52378801e+00 4.55141947e-01 -1.52378801e+00 -6.45676947e+00 -1.35490899e-02 4.55141947e-01 -1.35490899e-02 -3.39100897e+01
1.01948806e+01 -1.35445868e+00 8.12553596e-01 -1.35445868e+00 6.10849631e+00 2.82026299e-01 8.12553596e-01 2.82026299e-01 -1.16185625e+01
4.80481005e+00 -7.34749258e-01 8.26507807e-04 -7.34749258e-01 -1.48264694e+00 7.87547462e-01 8.26507807e-04 7.87547462e-01 -2.55577986e+01
1.51552055e+01 -2.26315927e+00 4.16063589e-01 -2.26315927e+00 9.53477335e+00 -2.61623778e+00 4.16063589e-01 -2.61623778e+00 -1.47186017e+00
9.73023981e+00 -2.33484202e+00 -7.19679859e-01 -2.33484202e+00 5.78162280e+00 2.62432455e+00 -7.19679859e-01 2.62432455e+00 -1.14498885e+01
1.52575985e+01 2.22995999e+00 2.76325965e+00 2.22995999e+00 1.41099811e+01 -1.60700528e+00 2.76325965e+00 -1.60700528e+00 2.14793301e+00
1.55531796e+01 -1.89288970e+00 -1.40975814e+00 -1.89288970e+00 1.32091966e+01 3.28582943e+00 -1.40975814e+00 3.28582943e+00 3.56516202e+00
1.39935364e+01 2.81265694e+00 -2.65120272e-01 2.81265694e+00 1.89738724e+01 -1.97125862e+00 -2.65120272e-01 -1.97125862e+00 2.05516416e+01
1.31796650e+01 2.99947366e+00 3.32948162e+00 2.99947366e+00 7.94246066e+00 -8.16476613e-01 3.32948162e+00 -8.16476613e-01 8.89510101e+00
-1.95230246e-01 7.51151323e-01 -3.59822981e-01 7.51151323e-01 2.50138789e+00 1.73670679e+00 -3.59822981e-01 1.73670679e+00 4.43505652e+00
3.39571954e+00 6.03106403e-01 -8.09359378e-01 6.03106403e-01 9.76131672e-01 -6.74700302e-01 -8.09359378e-01 -6.74700302e-01 2.79534709e-01
2.92864370e+00 4.35807586e-01 -1.35640794e+00 4.35807586e-01 -7.94783497e+00 3.62051100e-01 -1.35640794e+00 3.62051100e-01 -1.75995612e+00
9.72805192e-01 -1.11839867e+00 9.95840222e-01 -1.11839867e+00 -5.58959063e+00 -2.28001848e-01 9.95840222e-01 -2.28001848e-01 -2.47534017e-01
-2.19097447e+01 -2.81317651e+00 1.34162229e+00 -2.81317651e+00 -3.28981056e+01 -1.45760524e+00 1.34162229e+00 -1.45760524e+00 -8.77914410e+01
-1.95149364e+01 -1.26167667e+00 1.64276505e+00 -1.26167667e+00 -3.45000496e+01 -3.73114049e-02 1.64276505e+00 -3.73114049e-02 -8.64778519e+01
-9.83309136e+00 -1.55681244e+00 1.38548315e-02 -1.55681244e+00 -1.67297034e+01 -1.03905666e+00 1.38548315e-02 -1.03905666e+00 -5.80011244e+01
-2.02113800e+01 -1.53611809e+00 2.07296968e-01 -1.53611809e+00 -3.07932234e+01 9.43639755e-01 2.07296968e-01 9.43639755e-01 -8.41559105e+01
-3.15435143e+01 -6.80452418e+00 5.94708109e+00 -6.80452418e+00 -4.09345198e+01 -5.76676369e+00 5.94708109e+00 -5.76676369e+00 -1.05088650e+02
-1.68253970e+01 -4.35910038e+00 3.54273036e-01 -4.35910038e+00 -1.70459819e+01 2.24681094e-01 3.54273036e-01 2.24681094e-01 -6.57809420e+01
1.33751488e+00 3.91319275e-01 5.40806758e+00 3.91319275e-01 1.47519760e+01 -2.88337046e+00 5.40806758e+00 -2.88337046e+00 -1.11894798e+01
-3.89741516e+01 -9.47293419e+00 3.53309453e-01 -9.47293419e+00 -3.35464363e+01 1.26415096e+01 3.53309453e-01 1.26415096e+01 -1.03020531e+02
2.45291781e+01 2.99834400e+00 -1.20801221e+00 2.99834400e+00 3.42994223e+01 -5.68486571e+00 -1.20801221e+00 -5.68486571e+00 4.57364318e+01
-1.52037301e+01 -1.00938127e+01 2.07147408e+00 -1.00938127e+01 -1.48230317e+01 8.75897026e+00 2.07147408e+00 8.75897026e+00 -1.78613250e+01
-5.29118815e+00 -9.30320978e-01 1.33030868e+00 -9.30320978e-01 2.22070479e+00 1.81533074e+00 1.33030868e+00 1.81533074e+00 5.37703614e+00
-3.55976836e+00 -6.30931298e-01 6.79748605e-01 -6.30931298e-01 2.84845318e+00 -2.60451007e+00 6.79748605e-01 -2.60451007e+00 3.60405984e+00
-1.90908301e+00 2.49847960e+00 -5.94403982e-01 2.49847960e+00 -2.17252564e+00 5.68362296e-01 -5.94403982e-01 5.68362296e-01 -6.29566312e-01
-4.08295679e+00 3.02174568e-01 -2.10507095e-01 3.02174568e-01 6.87805831e-01 1.40091795e+00 -2.10507095e-01 1.40091795e+00 5.22235306e-01
-1.68165541e+00 2.95403833e-03 -1.88509483e-01 2.95403833e-03 1.15669823e+00 -3.95251885e-01 -1.88509483e-01 -3.95251885e-01 -3.04414811e+01
-2.86902584e-01 8.53969585e-02 4.42578904e-01 8.53969585e-02 1.49049181e+00 -3.99164852e-01 4.42578904e-01 -3.99164852e-01 -2.86287899e+01
2.70693883e+00 -1.87677983e-01 -2.88891364e-02 -1.87677983e-01 4.72291310e+00 2.12015329e-01 -2.88891364e-02 2.12015329e-01 -2.18713354e+01
-2.16876066e+00 3.57403047e-03 -2.32189309e-01 3.57403047e-03 8.52604985e-01 1.99386705e-01 -2.32189309e-01 1.99386705e-01 -3.12556789e+01
5.17983741e+00 -7.83440277e-01 4.70278092e-01 -7.83440277e-01 5.17325178e+00 3.22191458e-01 4.70278092e-01 3.22191458e-01 -1.87839942e+01
3.87255047e+00 -3.80256120e-01 -3.57652844e-01 -3.80256120e-01 5.00310206e+00 -7.90158830e-01 -3.57652844e-01 -7.90158830e-01 -2.02263703e+01
3.03369427e+00 -4.18966366e-02 -3.44725512e-01 -4.18966366e-02 2.76062453e+00 6.68814629e-02 -3.44725512e-01 6.68814629e-02 -2.37276489e+01
6.82941473e+00 -3.13440395e-01 -5.62248584e-01 -3.13440395e-01 6.25866508e+00 -4.25889812e-01 -5.62248584e-01 -4.25889812e-01 -1.58151106e+01
4.16999310e+00 -2.87625019e-01 8.36577686e-02 -2.87625019e-01 2.59925225e+00 -1.92658162e-01 8.36577686e-02 -1.92658162e-01 -2.26590245e+01
5.47524321e+00 -5.44050316e-01 -2.59699258e-01 -5.44050316e-01 5.23593700e+00 7.42864159e-01 -2.59699258e-01 7.42864159e-01 -1.83275326e+01
1.06168356e+01 -4.97116528e-01 4.19110805e-02 -4.97116528e-01 9.42294366e+00 5.52844580e-01 4.19110805e-02 5.52844580e-01 -8.25956082e+00
4.86826620e+00 -4.17177053e-01 -1.70718599e-02 -4.17177053e-01 3.85081944e+00 6.17282474e-01 -1.70718599e-02 6.17282474e-01 -2.05669521e+01
8.40847325e+00 4.24317002e-01 -2.69485265e-01 4.24317002e-01 9.26010561e+00 1.67246181e+00 -2.69485265e-01 1.67246181e+00 -1.06779270e+01
4.36238229e+00 2.64102191e-01 -9.89195291e-01 2.64102191e-01 3.63082445e+00 1.04411118e+00 -9.89195291e-01 1.04411118e+00 -2.11861379e+01
5.82236244e+00 -4.36910352e-01 2.69260951e-01 -4.36910352e-01 7.02368048e+00 -7.81273867e-01 2.69260951e-01 -7.81273867e-01 -1.60192553e+01
-1.32042046e+00 -5.15780039e-01 1.34281202e+00 -5.15780039e-01 1.02340722e+00 2.48964985e-02 1.34281202e+00 2.48964985e-02 -3.00835830e+01
-9.23597033e+00 -1.90260836e-01 -3.95083919e-01 -1.90260836e-01 -5.42253684e+00 -8.68594497e-02 -3.95083919e-01 -8.68594497e-02 -4.88312626e+01
-6.33355503e+01 -8.96957488e+00 1.83565083e+01 -8.96957488e+00 -6.43805165e+01 6.84884191e-01 1.83565083e+01 6.84884191e-01 -1.47500560e+02
-4.40043354e+01 -6.94918162e-01 7.37008043e-01 -6.94918162e-01 -3.96641402e+01 2.51251236e+00 7.37008043e-01 2.51251236e+00 -1.20297165e+02
-4.06380661e+01 -1.47700586e+00 2.64743382e+00 -1.47700586e+00 -3.37642645e+01 5.07911205e+00 2.64743382e+00 5.07911205e+00 -1.09043065e+02
-4.72886715e+01 -4.41154361e+00 2.35309601e+00 -4.41154361e+00 -3.65585794e+01 6.53081298e+00 2.35309601e+00 6.53081298e+00 -1.17880444e+02
1.43492190e+01 -3.85576067e-02 7.84294125e-01 -3.85576067e-02 1.57547064e+01 -9.51573784e-01 7.84294125e-01 -9.51573784e-01 2.40180242e+00
1.15594279e+01 -2.42205223e-01 9.87451710e-01 -2.42205223e-01 1.13929124e+01 8.01184205e-02 9.87451710e-01 8.01184205e-02 -5.07222843e+00
-3.64654056e+01 -2.03882990e+00 5.92312010e+00 -2.03882990e+00 -3.17700562e+01 1.30293363e+01 5.92312010e+00 1.30293363e+01 -8.71596322e+01
5.91196213e+01 5.83878100e+00 -1.44357638e+01 5.83878100e+00 5.87218189e+01 -6.13723600e+00 -1.44357638e+01 -6.13723600e+00 8.94394493e+01
1.52649658e+01 -4.24943654e-01 1.85412644e+00 -4.24943654e-01 1.34518902e+01 5.46787398e-01 1.85412644e+00 5.46787398e-01 2.04710442e+00
1.59332133e+01 8.43013808e-01 1.65546633e-01 8.43013808e-01 1.57475721e+01 4.78751423e-01 1.65546633e-01 4.78751423e-01 4.25918335e+00
3.14936970e+01 -1.58892279e+00 -3.61938819e-01 -1.58892279e+00 2.97731944e+01 -1.02206716e+00 -3.61938819e-01 -1.02206716e+00 3.32847755e+01
2.54867134e+01 -6.15835818e-01 -4.64450256e+00 -6.15835818e-01 2.69394792e+01 -1.71912521e-01 -4.64450256e+00 -1.71912521e-01 2.70165540e+01
1.75418697e+01 5.94254807e-02 1.82746183e-01 5.94254807e-02 1.46521957e+01 4.12288848e-02 1.82746183e-01 4.12288848e-02 5.00322360e+00
1.10442472e+01 -6.98751077e-01 4.75760866e-01 -6.98751077e-01 8.97470963e+00 4.20461928e-01 4.75760866e-01 4.20461928e-01 -8.20468712e+00
5.58846474e+00 -2.80345901e+00 8.99121493e-01 -2.80345901e+00 4.78375846e+00 2.47346435e+00 8.99121493e-01 2.47346435e+00 -1.63542843e+01
-2.21055689e+01 -1.98929931e+00 -1.89377738e-01 -1.98929931e+00 -2.01510389e+01 6.29124835e+00 -1.89377738e-01 6.29124835e+00 -7.80248272e+01
-2.97483605e+00 -8.93371850e-01 1.28252730e-02 -8.93371850e-01 -3.55678511e+00 -6.77508824e-02 1.28252730e-02 -6.77508824e-02 -3.71442471e+01
-5.32085705e+00 -6.18211418e-01 -3.07281554e-01 -6.18211418e-01 -8.57539630e+00 1.54462248e+00 -3.07281554e-01 1.54462248e+00 -4.48090687e+01
-1.24729223e+01 -3.93728696e-01 1.40566102e+00 -3.93728696e-01 -5.92178917e+00 -2.81927961e+00 1.40566102e+00 -2.81927961e+00 -4.92694874e+01
-9.02666321e+01 -4.19998074e+00 -6.50449109e+00 -4.19998074e+00 -8.47213650e+01 4.85403347e+00 -6.50449109e+00 4.85403347e+00 -2.19246277e+02
-2.37200573e-01 -5.97363889e-01 -2.74064235e-01 -5.97363889e-01 3.21947120e-01 2.68538103e-01 -2.74064235e-01 2.68538103e-01 -4.69840318e-01
-4.31051027e-01 -4.01312578e-02 -9.25607383e-02 -4.01312578e-02 -1.19628660e-01 -2.32745528e-01 -9.25607383e-02 -2.32745528e-01 1.65732555e-01
6.95883423e-01 -1.63946360e-01 -1.25635874e-01 -1.63946360e-01 -1.07268315e-01 5.76575316e-01 -1.25635874e-01 5.76575316e-01 -9.73632634e-01
3.70423496e-01 -7.21386731e-01 3.26218307e-02 -7.21386731e-01 -1.84960058e-01 -5.17522484e-01 3.26218307e-02 -5.17522484e-01 -5.70591688e-01
1.38535810e+00 3.97147443e-02 1.51563298e-01 3.97147443e-02 2.15432072e+00 -1.00258393e-02 1.51563298e-01 -1.00258393e-02 -2.61953487e+01
2.11562560e+00 4.68194142e-01 2.86849523e-02 4.68194142e-01 2.09191471e+00 2.73376405e-01 2.86849523e-02 2.73376405e-01 -2.54155331e+01
6.53994734e+00 -1.95176559e-01 3.52627859e-02 -1.95176559e-01 7.13032975e+00 4.55216413e-01 3.52627859e-02 4.55216413e-01 -1.51776473e+01
1.91576439e+00 1.87665569e-01 1.41352612e-01 1.87665569e-01 3.32783574e+00 -1.98805528e-01 1.41352612e-01 -1.98805528e-01 -2.43063990e+01
7.14347982e+00 -8.00277725e-01 1.65665871e-01 -8.00277725e-01 6.42014861e+00 -6.14775503e-02 1.65665871e-01 -6.14775503e-02 -1.53091427e+01
6.04009420e+00 -4.93711507e-01 8.30561431e-01 -4.93711507e-01 6.02979660e+00 8.89991660e-01 8.30561431e-01 8.89991660e-01 -1.67231244e+01
6.55880970e+00 1.26920233e-01 2.78378321e-01 1.26920233e-01 5.60135019e+00 6.35264333e-01 2.78378321e-01 6.35264333e-01 -1.67555928e+01
1.13623911e+01 -4.22779839e-02 5.60244883e-02 -4.22779839e-02 9.93371564e+00 -6.64686359e-02 5.60244883e-02 -6.64686359e-02 -6.96659555e+00
9.10865177e+00 9.42315590e-02 -1.79286330e-01 9.42315590e-02 7.18914628e+00 4.80470320e-01 -1.79286330e-01 4.80470320e-01 -1.22485131e+01
5.86470705e+00 5.75607829e-03 -4.76750073e-01 5.75607829e-03 3.76947296e+00 1.25605045e-01 -4.76750073e-01 1.25605045e-01 -1.94864344e+01
1.23561366e+01 -1.94427943e-01 -3.65398801e-02 -1.94427943e-01 1.07963525e+01 3.14491652e-02 -3.65398801e-02 3.14491652e-02 -4.87595224e+00
1.00202761e+01 5.52902627e-02 -3.13832262e-01 5.52902627e-02 7.46486306e+00 9.70409280e-02 -3.13832262e-01 9.70409280e-02 -1.09884663e+01
1.28638773e+01 -9.47965905e-02 -1.24070289e-01 -9.47965905e-02 1.21786101e+01 -2.64867067e-01 -1.24070289e-01 -2.64867067e-01 -2.78809261e+00
1.77016077e+01 3.31007450e-01 -4.34152635e-01 3.31007450e-01 1.57205745e+01 6.77890889e-02 -4.34152635e-01 6.77890889e-02 6.12096882e+00
2.45833230e+00 -7.57104989e-01 1.34465474e+00 -7.57104989e-01 4.75249022e+00 1.68774053e-02 1.34465474e+00 1.68774053e-02 -2.16910202e+01
3.69927502e+00 -1.06944404e+00 8.83891139e-01 -1.06944404e+00 6.99331212e+00 -2.54220887e-01 8.83891139e-01 -2.54220887e-01 -1.81020877e+01
1.74336194e+01 2.94240838e+00 4.32409810e+00 2.94240838e+00 1.58748582e+01 3.57023811e+00 4.32409810e+00 3.57023811e+00 -9.65270315e-01
-8.28610558e+01 -7.14037060e+00 -1.82218377e+01 -7.14037060e+00 -8.37050186e+01 -2.15520437e+00 -1.82218377e+01 -2.15520437e+00 -1.89163260e+02
-5.28256493e+01 -1.36270404e+00 -4.00695580e+00 -1.36270404e+00 -4.80998225e+01 1.08827795e+00 -4.00695580e+00 1.08827795e+00 -1.38698296e+02
-3.52233896e+01 -1.71378189e+00 -1.43107343e-01 -1.71378189e+00 -3.07092028e+01 1.59989095e+00 -1.43107343e-01 1.59989095e+00 -1.01077240e+02
-3.00464802e+01 -2.76699388e+00 -7.72333816e-01 -2.76699388e+00 -2.09311247e+01 3.38866949e-01 -7.72333816e-01 3.38866949e-01 -8.42644958e+01
3.32389648e+00 1.30099283e-01 2.70487396e+00 1.30099283e-01 5.92634565e+00 5.85230524e-01 2.70487396e+00 5.85230524e-01 -1.92710333e+01
1.28753273e+01 7.01763660e-02 1.10380967e+00 7.01763660e-02 1.38943915e+01 -2.58133367e-01 1.10380967e+00 -2.58133367e-01 -8.99424314e-01
-1.12432240e+02 -1.23192668e+01 8.94514674e+00 -1.23192668e+01 -1.02570315e+02 -1.58592997e+01 8.94514674e+00 -1.58592997e+01 -2.34766365e+02
2.45226460e+01 -6.48530083e-02 -2.41664803e+00 -6.48530083e-02 2.45992275e+01 2.22300368e-01 -2.41664803e+00 2.22300368e-01 2.23460391e+01
1.39546635e+01 -3.81709229e-01 1.21155338e+00 -3.81709229e-01 1.42066953e+01 6.63945299e-01 1.21155338e+00 6.63945299e-01 8.27253819e-01
-6.01778553e+01 2.00043805e+00 6.07922513e+00 2.00043805e+00 -5.63204350e+01 1.95734695e+01 6.07922513e+00 1.95734695e+01 -1.35001066e+02
1.63300523e+01 6.37147939e-02 8.78819831e-01 6.37147939e-02 1.69681221e+01 -3.26415017e-01 8.78819831e-01 -3.26415017e-01 5.96165729e+00
1.47218054e+01 -5.50504830e-02 7.40817469e-02 -5.50504830e-02 1.46517818e+01 2.52770849e-01 7.40817469e-02 2.52770849e-01 1.81406474e+00
2.32344674e+01 -2.42046744e+00 3.21505129e+00 -2.42046744e+00 2.58161779e+01 2.04399228e-01 3.21505129e+00 2.04399228e-01 1.86487075e+01
4.72147293e+01 5.30416667e-01 1.14347954e+01 5.30416667e-01 5.04426765e+01 3.79384422e+00 1.14347954e+01 3.79384422e+00 9.41590881e+01
-7.47639618e+01 8.97932911e+00 -2.79390846e+01 8.97932911e+00 -7.92278681e+01 -1.94187911e+00 -2.79390846e+01 -1.94187911e+00 -1.75467714e+02
1.21372390e+01 -2.62326494e-01 3.65176322e-01 -2.62326494e-01 1.08031772e+01 4.84448775e-01 3.65176322e-01 4.84448775e-01 -5.59175730e+00
4.10189152e+00 -4.40637559e-01 -3.16989586e-01 -4.40637559e-01 6.14220810e+00 7.77533546e-01 -3.16989586e-01 7.77533546e-01 -1.89257431e+01
</DataArray>
<DataArray type="Float32" Name="Logarithmic_strain_components" NumberOfComponents="9" format="ascii">
4.41470481e-02 -1.48496474e-06 1.71421323e-06 -1.48496474e-06 7.51838833e-02 -1.55416492e-05 1.71421323e-06 -1.55416492e-05 -1.00727074e-01
4.60490379e-02 2.88894086e-03 4.67753216e-06 2.88894086e-03 7.77042806e-02 -7.86293618e-04 4.67753216e-06 -7.86293618e-04 -1.04962755e-01
4.70997123e-02 7.57200387e-03 -5.02923271e-03 7.57200387e-03 7.02731889e-02 -2.72233720e-03 -5.02923271e-03 -2.72233720e-03 -9.93264336e-02
4.68337368e-02 2.70796928e-03 -3.37856659e-03 2.70796928e-03 6.86910190e-02 3.92099173e-06 -3.37856659e-03 3.92099173e-06 -9.79192369e-02
4.31169719e-02 4.34468348e-06 3.02642398e-03 4.34468348e-06 7.15708733e-02 -3.95738357e-03 3.02642398e-03 -3.95738357e-03 -9.66974869e-02
4.52885646e-02 9.39268837e-04 5.06916631e-03 9.39268837e-04 7.30436742e-02 -5.79298742e-03 5.06916631e-03 -5.79298742e-03 -1.00183615e-01
4.61433013e-02 3.97346911e-03 7.69519505e-04 3.97346911e-03 6.77640652e-02 -6.09857071e-03 7.69519505e-04 -6.09857071e-03 -9.63150067e-02
4.50960342e-02 1.03610425e-03 9.34750547e-04 1.03610425e-03 6.69034347e-02 -2.01382313e-03 9.34750547e-04 -2.01382313e-03 -9.48176421e-02
4.87157442e-02 1.16645853e-03 6.91165224e-06 1.16645853e-03 8.32215287e-02 -2.27686926e-03 6.91165224e-06 -2.27686926e-03 -1.12090226e-01
4.94057834e-02 1.11745284e-02 -7.36298738e-03 1.11745284e-02 7.54658710e-02 -1.11918477e-03 -7.36298738e-03 -1.11918477e-03 -1.06351219e-01
5.09207165e-02 2.26906873e-03 5.84979088e-03 2.26906873e-03 7.49417264e-02 -4.41575100e-03 5.84979088e-03 -4.41575100e-03 -1.06813595e-01
4.91928761e-02 4.56191902e-03 -2.17713446e-03 4.56191902e-03 7.16337934e-02 -1.20188405e-02 -2.17713446e-03 -1.20188405e-02 -1.02459419e-01
5.44637553e-02 4.49681282e-03 -1.25056031e-05 4.49681282e-03 8.83598179e-02 5.39777637e-03 -1.25056031e-05 5.39777637e-03 -1.21745080e-01
5.24168834e-02 7.23021274e-03 -1.23256210e-02 7.23021274e-03 8.24054871e-02 -4.47281566e-03 -1.23256210e-02 -4.47281566e-03 -1.15778333e-01
5.83132179e-02 -5.43729519e-03 5.91188902e-04 -5.43729519e-03 7.66971521e-02 -3.61754157e-03 5.91188902e-04 -3.61754157e-03 -1.14669019e-01
5.39170518e-02 -3.88269156e-03 1.81676983e-03 -3.88269156e-03 7.64246760e-02 -7.07367150e-03 1.81676983e-03 -7.07367150e-03 -1.10845314e-01
6.07853755e-02 -1.19456067e-02 2.30431415e-05 -1.19456067e-02 9.34182964e-02 3.81001330e-03 2.30431415e-05 3.81001330e-03 -1.31971866e-01
5.43937134e-02 -8.62817792e-03 -1.73931178e-02 -8.62817792e-03 9.03244819e-02 2.30474182e-03 -1.73931178e-02 2.30474182e-03 -1.25006789e-01
6.46202583e-02 -1.33307972e-02 3.47718829e-03 -1.33307972e-02 7.93516990e-02 -3.36704357e-03 3.47718829e-03 -3.36704357e-03 -1.22385491e-01
6.19712188e-02 -1.37200699e-02 2.39972770e-03 -1.37200699e-02 7.48120742e-02 2.40623282e-03 2.39972770e-03 2.40623282e-03 -1.15534632e-01
6.40396420e-02 -1.40772611e-02 5.51002631e-05 -1.40772611e-02 1.00431316e-01 5.66222123e-03 5.51002631e-05 5.66222123e-03 -1.40757702e-01
5.61049050e-02 -1.92774751e-02 -2.09943340e-02 -1.92774751e-02 9.36335791e-02 9.03455471e-03 -2.09943340e-02 9.03455471e-03 -1.28227051e-01
6.58370946e-02 -1.05512079e-02 6.16424251e-03 -1.05512079e-02 8.43571853e-02 4.43345605e-03 6.16424251e-03 4.43345605e-03 -1.26970733e-01
6.61287648e-02 -1.67346764e-02 7.38603971e-03 -1.67346764e-02 7.76061555e-02 2.30071598e-03 7.38603971e-03 2.30071598e-03 -1.21094245e-01
5.95326722e-02 -3.94583531e-02 -4.27947089e-05 -3.94583531e-02 1.15551367e-01 -3.35244415e-03 -4.27947089e-05 -3.35244415e-03 -1.52540892e-01
4.97058071e-02 -3.01189991e-02 -2.16121897e-02 -3.01189991e-02 1.11540485e-01 2.62695402e-02 -2.16121897e-02 2.62695402e-02 -1.41198806e-01
5.81254512e-02 -9.64990212e-03 -5.96119417e-03 -9.64990212e-03 1.01164028e-01 1.68955489e-03 -5.96119417e-03 1.68955489e-03 -1.37151398e-01
6.13916172e-02 -1.64701135e-02 3.36855184e-04 -1.64701135e-02 9.12196897e-02 1.32746303e-02 3.36855184e-04 1.32746303e-02 -1.30283795e-01
5.11239199e-02 1.06447403e-02 -4.41418402e-03 1.06447403e-02 5.09973802e-02 -3.91368254e-03 -4.41418402e-03 -3.91368254e-03 -8.65663737e-02
5.11180051e-02 2.23114982e-03 -5.67397592e-03 2.23114982e-03 5.04859332e-02 8.59035208e-06 -5.67397592e-03 8.59035208e-06 -8.60227533e-02
4.72930232e-02 7.52638810e-03 4.82668655e-03 7.52638810e-03 5.44085917e-02 -7.79699860e-03 4.82668655e-03 -7.79699860e-03 -8.61360533e-02
4.67942758e-02 3.45270307e-03 8.72653141e-03 3.45270307e-03 5.30663310e-02 -9.28038426e-04 8.72653141e-03 -9.28038426e-04 -8.43750108e-02
4.85880673e-02 1.88606679e-02 -9.35916207e-03 1.88606679e-02 5.16838366e-02 -8.04035971e-03 -9.35916207e-03 -8.04035971e-03 -8.53224099e-02
4.69860607e-02 1.11109124e-02 9.44546703e-03 1.11109124e-02 5.57450396e-02 -4.39632332e-03 9.44546703e-03 -4.39632332e-03 -8.75877636e-02
4.01713736e-02 1.23350207e-02 -1.17883282e-02 1.23350207e-02 5.15164640e-02 -6.36074098e-03 -1.17883282e-02 -6.36074098e-03 -7.66811632e-02
4.52264468e-02 -7.71585453e-05 3.21794936e-02 -7.71585453e-05 5.85559154e-02 1.91439043e-04 3.21794936e-02 1.91439043e-04 -8.79418871e-02
3.50679620e-02 -1.31986171e-02 -3.31362961e-02 -1.31986171e-02 5.57144270e-02 2.58754368e-03 -3.31362961e-02 2.58754368e-03 -7.59467687e-02
4.46342813e-02 -2.33671417e-02 3.29674703e-02 -2.33671417e-02 6.30693100e-02 9.60062233e-03 3.29674703e-02 9.60062233e-03 -8.96433455e-02
3.57790757e-02 -2.82389074e-02 -2.91341119e-02 -2.82389074e-02 4.95365034e-02 1.53819178e-02 -2.91341119e-02 1.53819178e-02 -6.99326238e-02
4.62355415e-02 -3.15117609e-02 4.39935389e-02 -3.15117609e-02 5.78784623e-02 2.98255890e-02 4.39935389e-02 2.98255890e-02 -8.47580129e-02
3.76500497e-02 -3.17287054e-02 -3.15101445e-02 -3.17287054e-02 5.23606949e-02 2.57073147e-02 -3.15101445e-02 2.57073147e-02 -7.46252015e-02
4.67172923e-02 -4.30528348e-02 4.12403022e-02 -4.30528348e-02 6.74935343e-02 3.83875109e-02 4.12403022e-02 3.83875109e-02 -9.46267471e-02
5.42653902e-02 5.71732351e-03 1.16665589e-03 5.71732351e-03 2.99301199e-02 -5.31252963e-03 1.16665589e-03 -5.31252963e-03 -7.14816749e-02
5.27957231e-02 3.20632826e-03 2.47156736e-03 3.20632826e-03 3.20949862e-02 -7.06734863e-06 2.47156736e-03 -7.06734863e-06 -7.14369044e-02
5.01336204e-02 3.59175832e-03 1.08766448e-02 3.59175832e-03 3.40092962e-02 -3.63031920e-03 1.08766448e-02 -3.63031920e-03 -7.12153539e-02
4.73799370e-02 1.86984483e-03 1.24332359e-02 1.86984483e-03 3.65712140e-02 -1.40337492e-03 1.24332359e-02 -1.40337492e-03 -7.06477575e-02
4.34663305e-02 9.26053594e-03 1.21612567e-03 9.26053594e-03 2.29191193e-02 -9.54304170e-03 1.21612567e-03 -9.54304170e-03 -5.53478254e-02
4.47996920e-02 5.71775093e-03 2.06141548e-02 5.71775093e-03 2.72955078e-02 9.35812463e-03 2.06141548e-02 9.35812463e-03 -6.10476597e-02
1.60582778e-02 4.14462306e-03 -2.72866304e-03 4.14462306e-03 1.12590277e-02 -6.57786056e-03 -2.72866304e-03 -6.57786056e-03 -1.89295430e-02
1.41117291e-02 -1.43315308e-03 2.08577729e-02 -1.43315308e-03 8.49197467e-03 5.91091563e-03 2.08577729e-02 5.91091563e-03 -1.19977965e-02
4.34009863e-03 -2.34842350e-02 -1.16590553e-02 -2.34842350e-02 3.06152320e-03 -8.73600878e-03 -1.16590553e-02 -8.73600878e-03 6.14018490e-04
-7.07179851e-04 -3.76174655e-02 4.38577930e-02 -3.76174655e-02 1.40242856e-02 8.30578990e-03 4.38577930e-02 8.30578990e-03 -4.98984491e-03
2.01814187e-04 -1.16219582e-02 -2.15176760e-02 -1.16219582e-02 -5.79547855e-04 2.02806868e-03 -2.15176760e-02 2.02806868e-03 7.90822289e-03
4.81299901e-04 -1.33053176e-02 3.27019716e-02 -1.33053176e-02 5.61663571e-03 -3.97755159e-03 3.27019716e-02 -3.97755159e-03 3.17991374e-03
6.75564550e-03 -1.05375415e-02 -3.31851700e-03 -1.05375415e-02 -7.98318582e-03 7.04588438e-03 -3.31851700e-03 7.04588438e-03 7.66339619e-03
5.33717987e-03 -6.28931820e-03 3.32199261e-02 -6.28931820e-03 1.58277340e-03 -6.30390563e-03 3.32199261e-02 -6.30390563e-03 1.34266308e-03
5.36087826e-02 -4.14080947e-03 2.56607746e-03 -4.14080947e-03 2.02337462e-02 -6.92909432e-03 2.56607746e-03 -6.92909432e-03 -6.24337224e-02
5.40322755e-02 -4.47526132e-03 3.45647347e-03 -4.47526132e-03 2.47820746e-02 7.50647450e-06 3.45647347e-03 7.50647450e-06 -6.66341856e-02
4.76083150e-02 -6.81246052e-03 1.35930682e-02 -6.81246052e-03 2.29671169e-02 -2.22420902e-04 1.35930682e-02 -2.22420902e-04 -5.91748897e-02
4.91084261e-02 -5.35898958e-03 3.95555561e-03 -5.35898958e-03 2.64459304e-02 1.99119799e-03 3.95555561e-03 1.99119799e-03 -6.36646431e-02
3.96962804e-02 -6.49257354e-03 -3.98817088e-03 -6.49257354e-03 1.14996074e-02 -1.13774803e-02 -3.98817088e-03 -1.13774803e-02 -4.25592856e-02
3.86925293e-02 -1.15390099e-02 5.49730464e-03 -1.15390099e-02 1.22159208e-02 1.15019729e-02 5.49730464e-03 1.15019729e-02 -4.17960016e-02
1.16263741e-02 -7.00990418e-03 -1.39208575e-03 -7.00990418e-03 4.53377492e-04 -8.59344122e-03 -1.39208575e-03 -8.59344122e-03 -8.12590262e-03
1.96325924e-02 -6.71230028e-03 -5.41084694e-03 -6.71230028e-03 2.18176816e-03 1.12168592e-02 -5.41084694e-03 1.12168592e-02 -1.64191871e-02
-1.03986047e-03 -1.66464922e-03 -1.96632967e-06 -1.66464922e-03 8.15041368e-04 -3.94834535e-04 -1.96632967e-06 -3.94834535e-04 1.13693571e-03
1.43288893e-03 2.08288783e-03 -1.91695241e-03 2.08288783e-03 1.48747424e-03 4.95876767e-03 -1.91695241e-03 4.95876767e-03 -2.03502967e-03
5.72812398e-03 -1.54781608e-02 3.95454654e-05 -1.54781608e-02 -1.01006445e-02 1.14786013e-04 3.95454654e-05 1.14786013e-04 5.32729941e-03
-5.61139075e-04 -9.74011947e-03 -4.94657264e-05 -9.74011947e-03 1.99956455e-03 4.04450693e-05 -4.94657264e-05 4.04450693e-05 -6.01026840e-04
5.35490586e-03 -1.88335495e-02 -2.30815387e-03 -1.88335495e-02 -9.10839156e-03 -1.20434772e-04 -2.30815387e-03 -1.20434772e-04 4.79142481e-03
-2.79520931e-03 -1.04306675e-02 -5.18140517e-03 -1.04306675e-02 6.62004937e-03 -5.99666479e-05 -5.18140517e-03 -5.99666479e-05 -3.04219449e-03
5.17183263e-02 -1.11251285e-02 7.31592206e-03 -1.11251285e-02 2.62464662e-02 -3.06945457e-03 7.31592206e-03 -3.06945457e-03 -6.58564661e-02
5.53459637e-02 -9.88034206e-03 1.63647626e-03 -9.88034206e-03 2.86175665e-02 8.20145033e-06 1.63647626e-03 8.20145033e-06 -7.10602030e-02
4.61612428e-02 -9.77169117e-03 1.04791342e-03 -9.77169117e-03 2.78148591e-02 5.55152876e-03 1.04791342e-03 5.55152876e-03 -6.19986290e-02
5.08419732e-02 -4.18623490e-03 -2.48616652e-03 -4.18623490e-03 2.88774366e-02 7.79496972e-03 -2.48616652e-03 7.79496972e-03 -6.72635306e-02
3.86665068e-02 -1.18220235e-02 3.42005020e-03 -1.18220235e-02 1.76972705e-02 -1.54843584e-02 3.42005020e-03 -1.54843584e-02 -4.71568862e-02
3.45545639e-02 -1.79423430e-02 -2.70508103e-03 -1.79423430e-02 2.66368478e-02 9.17847501e-03 -2.70508103e-03 9.17847501e-03 -5.04143876e-02
1.15060793e-02 -5.24150499e-03 4.19923617e-03 -5.24150499e-03 5.73287433e-03 -6.67182903e-03 4.19923617e-03 -6.67182903e-03 -1.26528710e-02
2.22678403e-02 -8.19016349e-03 -4.34087328e-03 -8.19016349e-03 1.47656262e-02 2.59130934e-02 -4.34087328e-03 2.59130934e-02 -3.01611782e-02
1.25851207e-03 2.08532417e-03 1.79710582e-05 2.08532417e-03 -1.26226299e-04 -2.38264081e-04 1.79710582e-05 -2.38264081e-04 -2.48813903e-04
3.50873630e-03 -1.74453586e-04 3.36213299e-04 -1.74453586e-04 -1.25631693e-03 5.85081569e-03 3.36213299e-04 5.85081569e-03 -1.37939066e-03
1.13018751e-05 1.11194131e-05 -2.11035567e-05 1.11194131e-05 5.75566219e-06 9.49440455e-05 -2.11035567e-05 9.49440455e-05 5.47614102e-05
6.35415097e-05 2.41461326e-05 -4.07003892e-05 2.41461326e-05 1.11755071e-06 -1.47678747e-05 -4.07003892e-05 -1.47678747e-05 -1.01992284e-05
9.73204333e-05 2.12944983e-05 -6.48176792e-05 2.12944983e-05 -1.63795703e-04 1.72689861e-05 -6.48176792e-05 1.72689861e-05 -1.56486135e-05
4.22059205e-05 -5.39654702e-05 4.77981662e-05 -5.39654702e-05 -1.15112188e-04 -1.02791023e-05 4.77981662e-05 -1.02791023e-05 1.32157461e-05
5.64920008e-02 -9.95102176e-03 1.17543526e-03 -9.95102176e-03 3.45472023e-02 -6.05778978e-03 1.17543526e-03 -6.05778978e-03 -7.90651254e-02
6.35418296e-02 -4.52563167e-03 6.74384600e-03 -4.52563167e-03 3.19526084e-02 2.56045605e-05 6.74384600e-03 2.56045605e-05 -8.27459767e-02
5.19737713e-02 -7.08382542e-03 -1.31454156e-03 -7.08382542e-03 3.40580689e-02 -4.92299238e-03 -1.31454156e-03 -4.92299238e-03 -7.38093797e-02
5.66901304e-02 -9.95796686e-03 -3.10436430e-03 -9.95796686e-03 3.63340024e-02 6.82459259e-03 -3.10436430e-03 6.82459259e-03 -8.07033964e-02
4.26842822e-02 -1.88737856e-02 1.85558787e-02 -1.88737856e-02 3.05791311e-02 -2.01723902e-02 1.85558787e-02 -2.01723902e-02 -6.40942566e-02
3.88347786e-02 -1.63568461e-02 7.70358968e-03 -1.63568461e-02 4.24867524e-02 3.32969031e-03 7.70358968e-03 3.32969031e-03 -6.97714631e-02
1.35607938e-02 -9.32144439e-03 1.65716549e-02 -9.32144439e-03 1.72593351e-02 -7.12010497e-03 1.65716549e-02 -7.12010497e-03 -2.56134989e-02
2.83774943e-02 -1.98421745e-02 8.86997324e-03 -1.98421745e-02 3.07417537e-02 3.57643254e-02 8.86997324e-03 3.57643254e-02 -5.14376188e-02
-1.25097553e-03 -3.02375907e-03 5.99572068e-05 -3.02375907e-03 1.25423569e-03 -6.75970368e-04 5.99572068e-05 -6.75970368e-04 1.16567445e-03
1.02837826e-03 -1.18275531e-02 2.55972482e-04 -1.18275531e-02 8.84287438e-05 1.49636699e-02 2.55972482e-04 1.49636699e-02 4.92802064e-05
-2.69430050e-04 -1.68885017e-04 8.60558939e-05 -1.68885017e-04 1.05699586e-04 1.12132027e-04 8.60558939e-05 1.12132027e-04 2.18765812e-04
-7.23744961e-05 -5.84550338e-05 2.89938604e-05 -5.84550338e-05 4.35355428e-05 -1.31475516e-04 2.89938604e-05 -1.31475516e-04 5.99757407e-05
-2.71159097e-05 1.20423654e-04 -2.91680517e-05 1.20423654e-04 -3.36412959e-05 2.71728313e-05 -2.91680517e-05 2.71728313e-05 2.42174360e-06
-8.59349930e-05 1.44483720e-05 -1.16040219e-05 1.44483720e-05 2.81639914e-05 6.32711781e-05 -1.16040219e-05 6.32711781e-05 2.41072903e-05
4.49595582e-02 4.22111407e-06 1.29423331e-03 4.22111407e-06 6.37050085e-02 -7.97566399e-03 1.29423331e-03 -7.97566399e-03 -9.18353796e-02
4.83026141e-02 -5.66890885e-04 8.26467783e-03 -5.66890885e-04 6.13956209e-02 -5.44046445e-03 8.26467783e-03 -5.44046445e-03 -9.26973391e-02
4.50842362e-02 -6.56493078e-03 4.85818554e-03 -6.56493078e-03 6.19379268e-02 -2.52102679e-03 4.85818554e-03 -2.52102679e-03 -9.00362330e-02
4.29260544e-02 -7.53799497e-04 3.16347042e-03 -7.53799497e-04 6.35283301e-02 -9.76586380e-04 3.16347042e-03 -9.76586380e-04 -8.99435077e-02
5.53193996e-02 -9.66459862e-03 5.07050077e-03 -9.66459862e-03 5.70910135e-02 -7.47238111e-04 5.07050077e-03 -7.47238111e-04 -9.45591312e-02
5.32820001e-02 -9.58941868e-03 1.04268437e-03 -9.58941868e-03 5.97453001e-02 -1.23594847e-02 1.04268437e-03 -1.23594847e-02 -9.49729187e-02
6.25649597e-02 2.11769739e-05 -9.98807052e-04 2.11769739e-05 5.64300455e-02 -7.18723604e-03 -9.98807052e-04 -7.18723604e-03 -1.00311361e-01
6.15646108e-02 -7.38972164e-03 1.75075419e-03 -7.38972164e-03 6.05137623e-02 -1.41962868e-04 1.75075419e-03 -1.41962868e-04 -1.02022455e-01
6.94851093e-02 -5.27537474e-03 1.31305312e-02 -5.27537474e-03 5.51863788e-02 -6.78231589e-03 1.31305312e-02 -6.78231589e-03 -1.04990683e-01
6.45879209e-02 -6.63812310e-03 2.84516090e-03 -6.63812310e-03 6.76725679e-02 9.02561331e-03 2.84516090e-03 9.02561331e-03 -1.11285150e-01
6.65941192e-02 -6.92765345e-03 1.48602573e-02 -6.92765345e-03 6.01588413e-02 2.71740492e-03 1.48602573e-02 2.71740492e-03 -1.06095323e-01
6.89689387e-02 -3.27337990e-03 1.33993943e-02 -3.27337990e-03 6.71714670e-02 5.71940205e-03 1.33993943e-02 5.71940205e-03 -1.14685748e-01
6.02893252e-02 1.16049349e-02 8.92784307e-03 1.16049349e-02 6.81876205e-02 8.43104883e-03 8.92784307e-03 8.43104883e-03 -1.07700545e-01
6.84278030e-02 1.59698096e-03 -1.41608878e-03 1.59698096e-03 6.89296005e-02 6.51125307e-03 -1.41608878e-03 6.51125307e-03 -1.15848953e-01
4.32354934e-02 -8.38804094e-03 9.56736409e-03 -8.38804094e-03 5.80782522e-02 -1.07898066e-02 9.56736409e-03 -1.07898066e-02 -8.50555822e-02
3.91117334e-02 -6.20000705e-03 2.04738821e-02 -6.20000705e-03 5.94496280e-02 -5.48382977e-03 2.04738821e-02 -5.48382977e-03 -8.30799155e-02
4.95746130e-02 -5.59470410e-03 1.93225598e-02 -5.59470410e-03 6.22961468e-02 -4.46413857e-03 1.93225598e-02 -4.46413857e-03 -9.58859122e-02
6.44187346e-02 -1.72975479e-02 5.34305394e-02 -1.72975479e-02 6.59413613e-02 -3.98380764e-03 5.34305394e-02 -3.98380764e-03 -1.12763910e-01
6.86534364e-02 -1.93167338e-03 1.46752198e-02 -1.93167338e-03 8.23202804e-02 1.75366576e-02 1.46752198e-02 1.75366576e-02 -1.31572660e-01
6.72217384e-02 -3.14932925e-03 2.88040643e-02 -3.14932925e-03 8.40136968e-02 3.55954499e-02 2.88040643e-02 3.55954499e-02 -1.30854668e-01
6.46994971e-02 -1.33838402e-02 1.48701444e-02 -1.33838402e-02 8.86088572e-02 3.13070623e-02 1.48701444e-02 3.13070623e-02 -1.32545859e-01
3.56882266e-02 -1.65231656e-03 2.83220510e-02 -1.65231656e-03 4.94576381e-02 -2.52109936e-03 2.83220510e-02 -2.52109936e-03 -7.06631541e-02
3.63238622e-02 -2.78904481e-03 1.99582195e-02 -2.78904481e-03 4.70513655e-02 -5.28945727e-03 1.99582195e-02 -5.28945727e-03 -6.95696939e-02
3.38997570e-02 -1.12151792e-02 3.81546207e-02 -1.12151792e-02 5.18343948e-02 4.49147636e-02 3.81546207e-02 4.49147636e-02 -7.24319300e-02
-1.62525158e-02 -4.26957663e-02 3.13706510e-02 -4.26957663e-02 9.91239515e-03 5.83182871e-02 3.13706510e-02 5.83182871e-02 2.82184510e-02
3.86434926e-02 -1.65650132e-03 1.82477897e-02 -1.65650132e-03 3.17578968e-02 1.33292003e-02 1.82477897e-02 1.33292003e-02 -5.79889282e-02
3.63850491e-02 5.67930157e-03 1.32538838e-02 5.67930157e-03 3.54455952e-02 9.91680543e-03 1.32538838e-02 9.91680543e-03 -5.97505337e-02
3.34145711e-02 -2.52216047e-02 2.21375433e-02 -2.52216047e-02 2.50198431e-02 2.91972215e-02 2.21375433e-02 2.91972215e-02 -4.75171751e-02
7.29362449e-03 -4.46025717e-03 -2.21408332e-02 -4.46025717e-03 1.94863124e-02 2.66364478e-02 -2.21408332e-02 2.66364478e-02 -1.53206357e-02
3.93514526e-02 -8.26259324e-03 2.72660839e-03 -8.26259324e-03 3.37919670e-02 7.72130669e-03 2.72660839e-03 7.72130669e-03 -6.06359858e-02
4.29405803e-02 -7.40016939e-03 -3.31325224e-04 -7.40016939e-03 3.23762745e-02 7.74968532e-03 -3.31325224e-04 7.74968532e-03 -6.31536702e-02
3.79518629e-02 -1.61795962e-02 -6.37572055e-04 -1.61795962e-02 4.19270375e-02 1.73033521e-02 -6.37572055e-04 1.73033521e-02 -6.70106583e-02
5.16910283e-02 2.65987124e-04 -2.45912091e-02 2.65987124e-04 5.46384668e-02 2.30695857e-02 -2.45912091e-02 2.30695857e-02 -9.46875960e-02
4.02324349e-02 -1.70417847e-03 -3.08475253e-03 -1.70417847e-03 4.56233844e-02 -3.10824253e-04 -3.08475253e-03 -3.10824253e-04 -7.30759483e-02
4.46194969e-02 1.07965770e-03 -4.06016875e-03 1.07965770e-03 4.03651800e-02 6.01706980e-03 -4.06016875e-03 6.01706980e-03 -7.23685361e-02
4.41760030e-02 -2.30705738e-03 2.61334097e-03 -2.30705738e-03 5.79864429e-02 -7.50581786e-03 2.61334097e-03 -7.50581786e-03 -8.65766443e-02
6.55859858e-02 -6.61213431e-04 -2.09648460e-02 -6.61213431e-04 7.18753561e-02 2.49265381e-02 -2.09648460e-02 2.49265381e-02 -1.23553380e-01
-4.31342369e-06 -2.82318060e-05 -1.33600909e-05 -2.82318060e-05 8.57010923e-06 1.17328236e-05 -1.33600909e-05 1.17328236e-05 -1.02862869e-05
-8.46280579e-06 -2.17692934e-06 -4.29412648e-06 -2.17692934e-06 -1.64628705e-06 -1.25030961e-05 -4.29412648e-06 -1.25030961e-05 5.90752120e-06
1.79568005e-05 -8.27659960e-06 -5.63552885e-06 -8.27659960e-06 -1.55586889e-06 2.71181216e-05 -5.63552885e-06 2.71181216e-05 -2.13731464e-05
1.07889650e-05 -3.47829882e-05 1.01549267e-06 -3.47829882e-05 -2.27477619e-06 -2.58732343e-05 1.01549267e-06 -2.58732343e-05 -1.34479346e-05
5.36289942e-02 8.58664771e-06 9.96682933e-03 8.58664771e-06 5.63851874e-02 -2.17747700e-03 9.96682933e-03 -2.17747700e-03 -9.28325057e-02
5.52969631e-02 2.94018193e-03 6.42991613e-03 2.94018193e-03 5.46447774e-02 3.05218867e-03 6.42991613e-03 3.05218867e-03 -9.28018671e-02
5.34100230e-02 -8.99359980e-03 1.18227280e-02 -8.99359980e-03 5.55657502e-02 4.19168486e-03 1.18227280e-02 4.19168486e-03 -9.14249830e-02
5.19398889e-02 2.06690171e-03 1.04737838e-02 2.06690171e-03 5.78958001e-02 -5.70079009e-03 1.04737838e-02 -5.70079009e-03 -9.26987175e-02
5.94112957e-02 -1.16169285e-02 9.86190396e-03 -1.16169285e-02 4.89257509e-02 5.11931503e-04 9.86190396e-03 5.11931503e-04 -9.09091029e-02
5.80922547e-02 -1.18331244e-02 1.25542821e-02 -1.18331244e-02 5.41734952e-02 5.59439512e-03 1.25542821e-02 5.59439512e-03 -9.42490026e-02
6.31817402e-02 1.08896560e-03 4.20764706e-03 1.08896560e-03 4.61625783e-02 6.32023526e-03 4.20764706e-03 6.32023526e-03 -9.17143337e-02
6.39044219e-02 -5.84304790e-03 -5.81629627e-03 -5.84304790e-03 5.29595003e-02 -4.64372840e-03 -5.81629627e-03 -4.64372840e-03 -9.75931678e-02
6.64668493e-02 2.79934402e-03 -5.37965284e-03 2.79934402e-03 4.39655501e-02 -2.95936479e-05 -5.37965284e-03 -2.95936479e-05 -9.25196074e-02
6.45760871e-02 1.12758257e-03 -8.75359944e-03 1.12758257e-03 5.97632276e-02 7.50258623e-05 -8.75359944e-03 7.50258623e-05 -1.04668490e-01
6.43780073e-02 3.91205074e-04 2.52644788e-03 3.91205074e-04 4.54557361e-02 -3.00305660e-03 2.52644788e-03 -3.00305660e-03 -9.18972772e-02
6.47982643e-02 -8.83831410e-04 3.69370653e-04 -8.83831410e-04 5.86904106e-02 3.43356206e-03 3.69370653e-04 3.43356206e-03 -1.03532576e-01
6.20895233e-02 -5.29625511e-04 1.78166246e-03 -5.29625511e-04 4.64903209e-02 -2.54685758e-03 1.78166246e-03 -2.54685758e-03 -9.07321535e-02
6.05195230e-02 -5.47043269e-03 -3.15567938e-03 -5.47043269e-03 5.99095812e-02 -2.17005516e-03 -3.15567938e-03 -2.17005516e-03 -1.00397237e-01
4.94641489e-02 -1.55707954e-02 3.14423871e-02 -1.55707954e-02 6.07922957e-02 1.92774841e-03 3.14423871e-02 1.92774841e-03 -9.22069186e-02
4.17350456e-02 -1.38874783e-02 2.32134894e-02 -1.38874783e-02 6.47628000e-02 -3.54238600e-03 2.32134894e-02 -3.54238600e-03 -8.91779047e-02
6.19757670e-02 -4.24034844e-04 2.40817506e-02 -4.24034844e-04 5.71032081e-02 -3.49883296e-03 2.40817506e-02 -3.49883296e-03 -1.02335377e-01
7.04954207e-02 -1.70124973e-02 -6.62958281e-02 -1.70124973e-02 6.38970841e-02 -1.33808404e-03 -6.62958281e-02 -1.33808404e-03 -1.19917908e-01
6.99200314e-02 -2.57952302e-03 -1.94708391e-02 -2.57952302e-03 8.02284479e-02 1.23206534e-02 -1.94708391e-02 1.23206534e-02 -1.31680369e-01
6.87300265e-02 -5.48134447e-03 -1.56974792e-03 -5.48134447e-03 7.74274748e-02 1.15960270e-02 -1.56974792e-03 1.15960270e-02 -1.26334839e-01
6.16832934e-02 -4.89621586e-03 -4.38872434e-03 -4.89621586e-03 8.13730694e-02 3.71282431e-03 -4.38872434e-03 3.71282431e-03 -1.23002708e-01
4.28836630e-02 -9.45487888e-03 4.38333707e-02 -9.45487888e-03 5.95938893e-02 2.24883395e-03 4.38333707e-02 2.24883395e-03 -8.55692721e-02
3.80529910e-02 3.05028976e-03 3.42351175e-02 3.05028976e-03 5.90974241e-02 4.19014727e-03 3.42351175e-02 4.19014727e-03 -8.05135071e-02
5.27552844e-02 -2.94646681e-02 5.73182129e-02 -2.94646681e-02 7.18288943e-02 -6.64449797e-02 5.73182129e-02 -6.64449797e-02 -1.06577141e-01
3.71645633e-02 -3.67376185e-03 1.63422233e-02 -3.67376185e-03 4.67077371e-02 2.83842924e-02 1.63422233e-02 2.83842924e-02 -6.86006812e-02
3.68710798e-02 -8.18236289e-03 2.77905973e-02 -8.18236289e-03 4.89594033e-02 8.15711683e-03 2.77905973e-02 8.15711683e-03 -7.12454878e-02
3.57639524e-02 9.12691260e-03 1.91438196e-02 9.12691260e-03 5.15981363e-02 8.23734105e-02 1.91438196e-02 8.23734105e-02 -7.57589862e-02
3.95087064e-02 3.05329889e-03 1.22372889e-02 3.05329889e-03 4.89534051e-02 9.93706053e-03 1.22372889e-02 9.93706053e-03 -7.26584774e-02
3.86082372e-02 6.13375427e-03 -3.40925693e-03 6.13375427e-03 4.89927391e-02 4.60072642e-03 -3.40925693e-03 4.60072642e-03 -7.32940920e-02
3.92265559e-02 -1.33765078e-02 -1.58107018e-02 -1.33765078e-02 6.27279920e-02 1.52544182e-02 -1.58107018e-02 1.52544182e-02 -8.48866722e-02
-6.10710401e-03 8.56293291e-02 -9.95661542e-02 8.56293291e-02 -2.50536278e-02 1.46699861e-01 -9.95661542e-02 1.46699861e-01 6.45934194e-02
6.97387072e-02 3.24684270e-02 -1.03099038e-01 3.24684270e-02 6.25964670e-02 -1.98802508e-02 -1.03099038e-01 -1.98802508e-02 -1.14373945e-01
4.40812912e-02 1.72655222e-02 5.88644511e-03 1.72655222e-02 5.40830791e-02 1.63683626e-02 5.88644511e-03 1.63683626e-02 -8.25033970e-02
4.04123943e-02 -4.11904370e-03 6.91247568e-03 -4.11904370e-03 5.49881775e-02 1.24454680e-02 6.91247568e-03 1.24454680e-02 -7.94527493e-02
</DataArray>
<DataArray type="Float32" Name="Plastic_strain_components" NumberOfComponents="9" format="ascii">
4.40883413e-02 -4.82476025e-07 4.12054362e-07 -4.82476025e-07 7.50391632e-02 -1.27591193e-06 4.12054362e-07 -1.27591193e-06 -1.00065909e-01
4.61197067e-02 2.87964661e-03 1.72083026e-06 2.87964661e-03 7.76677243e-02 -7.70482351e-04 1.72083026e-06 -7.70482351e-04 -1.03994723e-01
4.70901672e-02 7.55756383e-03 -5.01897139e-03 7.55756383e-03 7.01899882e-02 -2.70711409e-03 -5.01897139e-03 -2.70711409e-03 -9.85915791e-02
4.68294006e-02 2.70359206e-03 -3.36333469e-03 2.70359206e-03 6.86036944e-02 2.06169352e-06 -3.36333469e-03 2.06169352e-06 -9.70703773e-02
4.30090055e-02 4.87983652e-06 3.04226496e-03 4.87983652e-06 7.13793859e-02 -3.98982828e-03 3.04226496e-03 -3.98982828e-03 -9.61115360e-02
4.53087967e-02 9.34153562e-04 5.05330088e-03 9.34153562e-04 7.29815643e-02 -5.76383527e-03 5.05330088e-03 -5.76383527e-03 -9.94129926e-02
4.60843858e-02 3.96274435e-03 7.87816007e-04 3.96274435e-03 6.76366729e-02 -6.09131137e-03 7.87816007e-04 -6.09131137e-03 -9.56203965e-02
4.51061763e-02 1.03358648e-03 9.68201159e-04 1.03358648e-03 6.68597957e-02 -1.99298648e-03 9.68201159e-04 -1.99298648e-03 -9.41387191e-02
4.88670040e-02 1.15897215e-03 3.68185192e-06 1.15897215e-03 8.32477547e-02 -2.24763760e-03 3.68185192e-06 -2.24763760e-03 -1.10996861e-01
4.95831333e-02 1.11378765e-02 -7.34467688e-03 1.11378765e-02 7.55221397e-02 -1.08993112e-03 -7.34467688e-03 -1.08993112e-03 -1.05145615e-01
5.09228706e-02 2.26643920e-03 5.83544129e-03 2.26643920e-03 7.48591851e-02 -4.42632180e-03 5.83544129e-03 -4.42632180e-03 -1.05795328e-01
4.92551401e-02 4.55762257e-03 -2.11296343e-03 4.55762257e-03 7.16166161e-02 -1.19651555e-02 -2.11296343e-03 -1.19651555e-02 -1.01639520e-01
5.45792896e-02 4.46181418e-03 -5.05845674e-06 4.46181418e-03 8.82787853e-02 5.39103081e-03 -5.05845674e-06 5.39103081e-03 -1.20072901e-01
5.53106871e-02 7.89827947e-03 -1.30581700e-02 7.89827947e-03 8.75834059e-02 -4.83210210e-03 -1.30581700e-02 -4.83210210e-03 -1.21365568e-01
5.82589293e-02 -5.39990014e-03 6.57909026e-04 -5.39990014e-03 7.65777770e-02 -3.60307729e-03 6.57909026e-04 -3.60307729e-03 -1.13500809e-01
5.50110270e-02 -4.08415115e-03 2.20497954e-03 -4.08415115e-03 7.79183917e-02 -7.25057247e-03 2.20497954e-03 -7.25057247e-03 -1.12156969e-01
6.10207617e-02 -1.18357902e-02 2.98658797e-05 -1.18357902e-02 9.34570059e-02 3.80813621e-03 2.98658797e-05 3.80813621e-03 -1.29887462e-01
5.69384564e-02 -9.73887788e-03 -1.98386433e-02 -9.73887788e-03 9.69150849e-02 2.51842086e-03 -1.98386433e-02 2.51842086e-03 -1.30628454e-01
6.47412101e-02 -1.32704463e-02 3.50355293e-03 -1.32704463e-02 7.94708934e-02 -3.37065548e-03 3.50355293e-03 -3.37065548e-03 -1.21419940e-01
6.35183882e-02 -1.42595627e-02 2.02316605e-03 -1.42595627e-02 7.73274703e-02 2.51917314e-03 2.02316605e-03 2.51917314e-03 -1.19265455e-01
6.37799576e-02 -1.41207017e-02 2.61019268e-04 -1.41207017e-02 9.96384770e-02 5.47229801e-03 2.61019268e-04 5.47229801e-03 -1.37137815e-01
6.12603026e-02 -2.33621465e-02 -2.43631811e-02 -2.33621465e-02 1.04785101e-01 1.08898669e-02 -2.43631811e-02 1.08898669e-02 -1.42121397e-01
6.71263039e-02 -1.04189860e-02 5.85539907e-03 -1.04189860e-02 8.62809233e-02 4.52788250e-03 5.85539907e-03 4.52788250e-03 -1.29587399e-01
6.57804734e-02 -1.83194471e-02 8.58336140e-03 -1.83194471e-02 7.74528533e-02 2.57693260e-03 8.58336140e-03 2.57693260e-03 -1.20543655e-01
6.06900603e-02 -3.88748348e-02 -7.90386403e-05 -3.88748348e-02 1.15983903e-01 -3.36731970e-03 -7.90386403e-05 -3.36731970e-03 -1.48285821e-01
5.41393887e-02 -3.38734258e-02 -2.45439857e-02 -3.38734258e-02 1.22609992e-01 2.89899670e-02 -2.45439857e-02 2.89899670e-02 -1.50003612e-01
5.81066366e-02 -9.70739825e-03 -5.64142619e-03 -9.70739825e-03 1.00578554e-01 1.36208208e-03 -5.64142619e-03 1.36208208e-03 -1.33104719e-01
6.43506628e-02 -1.77185817e-02 6.52083661e-04 -1.77185817e-02 9.57680568e-02 1.41324450e-02 6.52083661e-04 1.41324450e-02 -1.35528605e-01
5.10648629e-02 1.06057870e-02 -4.38793469e-03 1.06057870e-02 5.09523060e-02 -3.89855867e-03 -4.38793469e-03 -3.89855867e-03 -8.58432222e-02
5.10120448e-02 2.22228933e-03 -5.64666488e-03 2.22228933e-03 5.03835212e-02 8.57093983e-06 -5.64666488e-03 8.57093983e-06 -8.53526965e-02
4.72436626e-02 7.50455807e-03 4.84870974e-03 7.50455807e-03 5.43472562e-02 -7.76375149e-03 4.84870974e-03 -7.76375149e-03 -8.54877355e-02
4.66335760e-02 3.44335928e-03 8.69507447e-03 3.44335928e-03 5.28999027e-02 -9.30114940e-04 8.69507447e-03 -9.30114940e-04 -8.37915484e-02
4.98093618e-02 1.92629704e-02 -9.11114202e-03 1.92629704e-02 5.28942766e-02 -7.87433831e-03 -9.11114202e-03 -7.87433831e-03 -8.65994804e-02
4.80617452e-02 1.10310130e-02 9.66384762e-03 1.10310130e-02 5.73366075e-02 -3.41427165e-03 9.66384762e-03 -3.41427165e-03 -8.89423732e-02
3.36649766e-02 1.06799620e-02 -8.49979463e-03 1.06799620e-02 3.69716141e-02 -5.48165150e-03 -8.49979463e-03 -5.48165150e-03 -5.63529753e-02
4.28405262e-02 1.37806280e-04 3.68423761e-02 1.37806280e-04 5.48374238e-02 1.89435449e-03 3.68423761e-02 1.89435449e-03 -8.14637669e-02
2.97852096e-02 -1.37802828e-02 -2.40705451e-02 -1.37802828e-02 3.46271722e-02 9.12567732e-04 -2.40705451e-02 9.12567732e-04 -5.03684639e-02
3.62860584e-02 -2.17479199e-02 3.81299181e-02 -2.17479199e-02 5.06218982e-02 9.14406206e-03 3.81299181e-02 9.14406206e-03 -6.89506906e-02
2.44065411e-02 -1.63750010e-02 -2.00314032e-02 -1.63750010e-02 1.68367977e-02 1.01718815e-02 -2.00314032e-02 1.01718815e-02 -2.69551720e-02
3.63113664e-02 -2.53303179e-02 4.54194793e-02 -2.53303179e-02 4.17757164e-02 2.61842081e-02 4.54194793e-02 2.61842081e-02 -5.98970670e-02
2.71289913e-02 -2.27866557e-02 -1.82523597e-02 -2.27866557e-02 1.48763407e-02 1.57116421e-02 -1.82523597e-02 1.57116421e-02 -2.69082282e-02
3.86857806e-02 -3.53161522e-02 3.92882526e-02 -3.53161522e-02 5.36905987e-02 3.34834789e-02 3.92882526e-02 3.34834789e-02 -7.25368174e-02
5.41263763e-02 5.67945687e-03 1.16003913e-03 5.67945687e-03 2.99968612e-02 -5.27284888e-03 1.16003913e-03 -5.27284888e-03 -7.06266090e-02
5.24614956e-02 3.18593637e-03 2.45868007e-03 3.18593637e-03 3.19004040e-02 -5.69482290e-06 2.45868007e-03 -5.69482290e-06 -7.09143877e-02
4.98382663e-02 3.61669081e-03 1.07600644e-02 3.61669081e-03 3.39535258e-02 -3.59142140e-03 1.07600644e-02 -3.59142140e-03 -7.03892307e-02
4.70729582e-02 1.86063434e-03 1.23612426e-02 1.86063434e-03 3.63291507e-02 -1.37424946e-03 1.23612426e-02 -1.37424946e-03 -7.01479595e-02
3.90628618e-02 7.60214974e-03 4.04025777e-04 7.60214974e-03 1.88932056e-02 -9.93284839e-03 4.04025777e-04 -9.93284839e-03 -4.74171066e-02
4.27679763e-02 5.67555226e-03 1.85715106e-02 5.67555226e-03 2.22568470e-02 5.71040146e-03 1.85715106e-02 5.71040146e-03 -5.36877599e-02
6.97393541e-03 5.53835707e-05 -3.97129194e-03 5.53835707e-05 -1.92395848e-03 -3.99437875e-03 -3.97129194e-03 -3.99437875e-03 1.32190017e-03
3.93905141e-03 1.13733672e-03 1.76262522e-03 1.13733672e-03 -4.49004292e-04 2.23260885e-03 1.76262522e-03 2.23260885e-03 4.13246437e-03
-2.93025118e-03 9.95284257e-04 -8.72394551e-03 9.95284257e-04 -5.53508398e-03 -3.73484953e-03 -8.72394551e-03 -3.73484953e-03 1.47955381e-02
-1.23246006e-03 -2.58816223e-02 2.06400647e-02 -2.58816223e-02 7.29889624e-03 5.94830878e-03 2.06400647e-02 5.94830878e-03 -2.42635331e-04
-5.26566229e-03 8.01337681e-03 -5.06819587e-03 8.01337681e-03 -2.35918979e-03 -2.67098565e-03 -5.06819587e-03 -2.67098565e-03 1.37569332e-02
-2.98404616e-03 -6.32080094e-03 4.20990897e-03 -6.32080094e-03 2.37767639e-03 -2.91115247e-03 4.20990897e-03 -2.91115247e-03 6.69117712e-03
2.21945159e-03 8.93979659e-03 -9.21938359e-03 8.93979659e-03 -1.52312675e-02 2.14689691e-03 -9.21938359e-03 2.14689691e-03 1.82745061e-02
5.48992888e-03 -6.96851686e-03 2.92055081e-02 -6.96851686e-03 -1.47732347e-03 -5.40353043e-03 2.92055081e-02 -5.40353043e-03 3.11789569e-04
5.33881355e-02 -4.09814651e-03 2.55140848e-03 -4.09814651e-03 2.03155493e-02 -6.86855917e-03 2.55140848e-03 -6.86855917e-03 -6.16524192e-02
5.37172612e-02 -4.42326930e-03 3.43657762e-03 -4.42326930e-03 2.47382279e-02 1.05400723e-05 3.43657762e-03 1.05400723e-05 -6.57607168e-02
4.78123929e-02 -6.88207679e-03 1.37899339e-02 -6.88207679e-03 2.29703186e-02 -2.28255580e-04 1.37899339e-02 -2.28255580e-04 -5.93897030e-02
4.88706855e-02 -5.32563112e-03 3.93543168e-03 -5.32563112e-03 2.63338396e-02 1.99578871e-03 3.93543168e-03 1.99578871e-03 -6.31371681e-02
4.15497031e-02 -7.48902536e-03 -4.01747291e-03 -7.48902536e-03 1.10741965e-02 -1.14644715e-02 -4.01747291e-03 -1.14644715e-02 -4.43668468e-02
3.74790169e-02 -1.12355265e-02 4.01758443e-03 -1.12355265e-02 1.17685587e-02 1.23019898e-02 4.01758443e-03 1.23019898e-02 -4.07211240e-02
3.25961214e-03 -2.91078463e-03 -1.14819501e-03 -2.91078463e-03 1.02586171e-03 -7.72987679e-03 -1.14819501e-03 -7.72987679e-03 -1.31995301e-03
1.19382595e-02 -4.55779752e-03 -2.66087560e-03 -4.55779752e-03 -5.50011056e-04 5.57279458e-03 -2.66087560e-03 5.57279458e-03 -7.30588242e-03
-1.25875580e-03 -1.73496661e-03 -4.26544831e-05 -1.73496661e-03 4.99495489e-04 -2.84554122e-04 -4.26544831e-05 -2.84554122e-04 8.08508741e-04
1.21497798e-03 1.92710241e-03 -1.92697499e-03 1.92710241e-03 1.35005661e-03 4.84493262e-03 -1.92697499e-03 4.84493262e-03 -1.99944077e-03
6.06278190e-03 -1.52929910e-02 5.55314007e-04 -1.52929910e-02 -9.44481418e-03 4.98772170e-06 5.55314007e-04 4.98772170e-06 5.52910799e-03
-8.43226608e-04 -9.78610335e-03 -1.32330236e-03 -9.78610335e-03 1.70699985e-03 1.03885583e-04 -1.32330236e-03 1.03885583e-04 -3.39106704e-04
5.37939603e-03 -1.87074132e-02 -2.55594170e-03 -1.87074132e-02 -8.61572009e-03 -2.34212675e-05 -2.55594170e-03 -2.34212675e-05 5.01151010e-03
-2.65729536e-03 -1.01884393e-02 -4.69053828e-03 -1.01884393e-02 6.55678876e-03 -5.36981685e-05 -4.69053828e-03 -5.36981685e-05 -2.92162880e-03
5.14471242e-02 -1.10037577e-02 7.25741277e-03 -1.10037577e-02 2.62212399e-02 -3.05434369e-03 7.25741277e-03 -3.05434369e-03 -6.51086997e-02
5.52236978e-02 -9.81053477e-03 1.61601673e-03 -9.81053477e-03 2.86742570e-02 6.80959602e-06 1.61601673e-03 6.80959602e-06 -7.04017133e-02
4.59024785e-02 -9.72476400e-03 1.00890972e-03 -9.72476400e-03 2.76569580e-02 5.54722257e-03 1.00890972e-03 5.54722257e-03 -6.17606128e-02
5.06073041e-02 -4.14502015e-03 -2.48957102e-03 -4.14502015e-03 2.88071041e-02 7.75405252e-03 -2.48957102e-03 7.75405252e-03 -6.66663069e-02
4.05402374e-02 -1.31241351e-02 3.89553065e-03 -1.31241351e-02 1.85856674e-02 -1.57002690e-02 3.89553065e-03 -1.57002690e-02 -5.01852306e-02
2.95941739e-02 -1.59103385e-02 -2.52565276e-03 -1.59103385e-02 2.10057484e-02 6.53637743e-03 -2.52565276e-03 6.53637743e-03 -4.03821950e-02
3.39409336e-03 -1.05871412e-04 2.17115815e-03 -1.05871412e-04 1.74557784e-03 -5.24749374e-03 2.17115815e-03 -5.24749374e-03 -1.22110601e-03
2.35158118e-02 -8.99910970e-03 -3.53566701e-03 -8.99910970e-03 1.54863858e-02 2.50523780e-02 -3.53566701e-03 2.50523780e-02 -3.26848490e-02
7.56710317e-04 1.74213953e-03 -4.08917554e-05 1.74213953e-03 -5.21068378e-04 -3.71406001e-04 -4.08917554e-05 -3.71406001e-04 -1.03277605e-05
3.40407598e-03 -2.59854502e-04 1.92855625e-04 -2.59854502e-04 -1.28109979e-03 5.93394542e-03 1.92855625e-04 5.93394542e-03 -1.61569710e-03
4.24422040e-05 -2.48085123e-05 -3.73786800e-06 -2.48085123e-05 -2.76076701e-05 1.16796188e-05 -3.73786800e-06 1.16796188e-05 -2.47489775e-05
5.24165716e-07 -4.96643765e-06 -5.13112124e-06 -4.96643765e-06 -3.75776171e-06 1.89168926e-05 -5.13112124e-06 1.89168926e-05 1.71801582e-06
0.00000000e+00 0.00000000e+00 0.00000000e+00 0.00000000e+00 0.00000000e+00 0.00000000e+00 0.00000000e+00 0.00000000e+00 0.00000000e+00
0.00000000e+00 0.00000000e+00 0.00000000e+00 0.00000000e+00 0.00000000e+00 0.00000000e+00 0.00000000e+00 0.00000000e+00 0.00000000e+00
5.67263030e-02 -9.81856859e-03 1.11906405e-03 -9.81856859e-03 3.50722428e-02 -5.98810473e-03 1.11906405e-03 -5.98810473e-03 -7.71081373e-02
6.39300719e-02 -4.47141426e-03 6.67125499e-03 -4.47141426e-03 3.26398537e-02 2.32482707e-05 6.67125499e-03 2.32482707e-05 -8.10353979e-02
5.22830589e-02 -7.04859034e-03 -1.32405385e-03 -7.04859034e-03 3.44734248e-02 -4.88676180e-03 -1.32405385e-03 -4.88676180e-03 -7.29224179e-02
5.70376310e-02 -9.89718782e-03 -3.12140261e-03 -9.89718782e-03 3.69104408e-02 6.79922872e-03 -3.12140261e-03 6.79922872e-03 -7.89798312e-02
4.44220826e-02 -1.93296401e-02 1.88731123e-02 -1.93296401e-02 3.21230944e-02 -2.01354371e-02 1.88731123e-02 -2.01354371e-02 -6.43109418e-02
4.10765363e-02 -1.70252088e-02 7.53022969e-03 -1.70252088e-02 4.53294981e-02 4.71758819e-03 7.53022969e-03 4.71758819e-03 -7.35419933e-02
9.17516160e-03 -6.91527753e-03 1.44366766e-02 -6.91527753e-03 1.41565441e-02 -6.46606507e-03 1.44366766e-02 -6.46606507e-03 -1.83180608e-02
3.03245243e-02 -2.01936644e-02 8.74742159e-03 -2.01936644e-02 3.18822972e-02 3.60070914e-02 8.74742159e-03 3.60070914e-02 -5.20465858e-02
-1.24168783e-03 -3.06558433e-03 1.49213495e-04 -3.06558433e-03 8.99888852e-04 -2.70158365e-04 1.49213495e-04 -2.70158365e-04 1.98560883e-04
1.13100174e-03 -1.13626753e-02 1.51276450e-04 -1.13626753e-02 2.07573445e-04 1.44979764e-02 1.51276450e-04 1.44979764e-02 3.47857022e-04
-1.33143389e-04 -1.24100814e-04 2.27358378e-05 -1.24100814e-04 6.16883553e-05 2.45989395e-05 2.27358378e-05 2.45989395e-05 9.67969972e-05
2.49577254e-05 -2.83706710e-05 -6.97486090e-06 -2.83706710e-05 -1.29886515e-05 -4.32247634e-06 -6.97486090e-06 -4.32247634e-06 -1.54685767e-05
0.00000000e+00 0.00000000e+00 0.00000000e+00 0.00000000e+00 0.00000000e+00 0.00000000e+00 0.00000000e+00 0.00000000e+00 0.00000000e+00
0.00000000e+00 0.00000000e+00 0.00000000e+00 0.00000000e+00 0.00000000e+00 0.00000000e+00 0.00000000e+00 0.00000000e+00 0.00000000e+00
4.49373554e-02 4.27306031e-06 1.31139043e-03 4.27306031e-06 6.36437610e-02 -7.96330953e-03 1.31139043e-03 -7.96330953e-03 -9.13473330e-02
4.81784837e-02 -5.66412753e-04 8.25134385e-03 -5.66412753e-04 6.12344835e-02 -5.42100715e-03 8.25134385e-03 -5.42100715e-03 -9.20901448e-02
4.49536550e-02 -6.55880882e-03 4.88195068e-03 -6.55880882e-03 6.17826008e-02 -2.55282284e-03 4.88195068e-03 -2.55282284e-03 -8.97635678e-02
4.28454662e-02 -7.52422231e-04 3.18392110e-03 -7.52422231e-04 6.33665361e-02 -1.00471676e-03 3.18392110e-03 -1.00471676e-03 -8.92991424e-02
5.51616959e-02 -9.63467639e-03 5.05510624e-03 -9.63467639e-03 5.69430329e-02 -7.79853057e-04 5.05510624e-03 -7.79853057e-04 -9.44266431e-02
5.30094411e-02 -9.57470297e-03 1.04575226e-03 -9.57470297e-03 5.94622446e-02 -1.23332394e-02 1.04575226e-03 -1.23332394e-02 -9.45669049e-02
6.24403078e-02 1.83819020e-05 -9.79741686e-04 1.83819020e-05 5.63402651e-02 -7.22226565e-03 -9.79741686e-04 -7.22226565e-03 -1.00028718e-01
5.60959917e-02 -6.42106671e-03 7.43101817e-04 -6.42106671e-03 5.47882076e-02 -9.16610530e-04 7.43101817e-04 -9.16610530e-04 -9.15187048e-02
6.92552272e-02 -5.26558922e-03 1.31645249e-02 -5.26558922e-03 5.50160762e-02 -6.80842056e-03 1.31645249e-02 -6.80842056e-03 -1.04582502e-01
6.55392166e-02 -6.84575408e-03 3.09266354e-03 -6.84575408e-03 6.86554271e-02 9.18026423e-03 3.09266354e-03 9.18026423e-03 -1.13445358e-01
6.64266432e-02 -6.91824942e-03 1.49426328e-02 -6.91824942e-03 6.00263001e-02 2.67132554e-03 1.49426328e-02 2.67132554e-03 -1.06399998e-01
6.85392185e-02 -3.23110251e-03 1.33022936e-02 -3.23110251e-03 6.67273984e-02 5.64212917e-03 1.33022936e-02 5.64212917e-03 -1.13834345e-01
6.02265652e-02 1.16179199e-02 8.97312677e-03 1.16179199e-02 6.81652147e-02 8.30273482e-03 8.97312677e-03 8.30273482e-03 -1.08049218e-01
6.78028874e-02 1.64705003e-03 -1.48513727e-03 1.64705003e-03 6.82842731e-02 6.37875323e-03 -1.48513727e-03 6.37875323e-03 -1.14460608e-01
4.38969024e-02 -8.49911146e-03 1.00841699e-02 -8.49911146e-03 5.89810694e-02 -1.06933349e-02 1.00841699e-02 -1.06933349e-02 -8.68378887e-02
3.90728293e-02 -6.18085871e-03 2.04734104e-02 -6.18085871e-03 5.93686178e-02 -5.50176564e-03 2.04734104e-02 -5.50176564e-03 -8.26049224e-02
4.92669552e-02 -5.56890939e-03 1.90023717e-02 -5.56890939e-03 6.16583308e-02 -4.87903000e-03 1.90023717e-02 -4.87903000e-03 -9.32184958e-02
6.75525948e-02 -1.71551646e-02 5.23426445e-02 -1.71551646e-02 6.91270381e-02 -3.45594189e-03 5.23426445e-02 -3.45594189e-03 -1.14337040e-01
6.89442195e-02 -1.75326585e-03 1.44953739e-02 -1.75326585e-03 8.24486557e-02 1.72853264e-02 1.44953739e-02 1.72853264e-02 -1.27132012e-01
6.81897439e-02 -3.04542831e-03 2.87562152e-02 -3.04542831e-03 8.48141946e-02 3.52764601e-02 2.87562152e-02 3.52764601e-02 -1.28417941e-01
6.57368079e-02 -1.31865712e-02 1.47894500e-02 -1.31865712e-02 8.94067213e-02 3.09574655e-02 1.47894500e-02 3.09574655e-02 -1.30218193e-01
3.34692226e-02 -1.62421422e-03 2.76339136e-02 -1.62421422e-03 4.61453181e-02 -1.90499741e-03 2.76339136e-02 -1.90499741e-03 -6.59324068e-02
3.61261507e-02 -2.77804246e-03 1.99806802e-02 -2.77804246e-03 4.68773041e-02 -5.30706707e-03 1.99806802e-02 -5.30706707e-03 -6.97126221e-02
3.63801535e-02 -1.10931832e-02 3.98870455e-02 -1.10931832e-02 5.58350918e-02 4.62096392e-02 3.98870455e-02 4.62096392e-02 -7.69142595e-02
-1.58218108e-02 -4.49290918e-02 3.64263952e-02 -4.49290918e-02 7.24729232e-03 5.65540269e-02 3.64263952e-02 5.65540269e-02 1.71239981e-02
3.29759022e-02 3.28051974e-05 1.36351664e-02 3.28051974e-05 2.66188090e-02 1.00231008e-02 1.36351664e-02 1.00231008e-02 -4.80064780e-02
3.60637736e-02 5.63602860e-03 1.32723546e-02 5.63602860e-03 3.51273175e-02 9.90857207e-03 1.32723546e-02 9.90857207e-03 -5.98744778e-02
3.01113133e-02 -2.23750500e-02 2.30897474e-02 -2.23750500e-02 2.05721383e-02 1.92997398e-02 2.30897474e-02 1.92997398e-02 -4.06007373e-02
1.04588910e-02 -7.91910617e-03 -3.55330451e-02 -7.91910617e-03 1.55239706e-02 7.62796650e-05 -3.55330451e-02 7.62796650e-05 -1.69919388e-02
3.90423909e-02 -8.27664254e-03 2.76464212e-03 -8.27664254e-03 3.35317075e-02 7.76542686e-03 2.76464212e-03 7.76542686e-03 -6.09078314e-02
4.26364671e-02 -7.36620871e-03 -3.51922587e-04 -7.36620871e-03 3.21323154e-02 7.72678549e-03 -3.51922587e-04 7.72678549e-03 -6.28832681e-02
3.34066520e-02 -1.55761643e-02 6.40515471e-04 -1.55761643e-02 3.59299332e-02 1.68307671e-02 6.40515471e-04 1.68307671e-02 -5.59970834e-02
5.53115578e-02 2.61180685e-04 -2.22517170e-02 2.61180685e-04 6.03103638e-02 2.99394992e-02 -2.22517170e-02 2.99394992e-02 -9.98424869e-02
4.03142739e-02 -1.67210914e-03 -3.12308624e-03 -1.67210914e-03 4.57393564e-02 -3.06998962e-04 -3.12308624e-03 -3.06998962e-04 -7.24864397e-02
4.48246803e-02 1.09720987e-03 -4.10136022e-03 1.09720987e-03 4.06231228e-02 5.97659056e-03 -4.10136022e-03 5.97659056e-03 -7.19291344e-02
3.63511071e-02 5.79822663e-04 1.87643559e-03 5.79822663e-04 4.99462327e-02 -5.53442637e-03 1.87643559e-03 -5.53442637e-03 -7.01097986e-02
7.17940945e-02 -1.90152373e-03 -2.05906658e-02 -1.90152373e-03 7.79876895e-02 2.36624340e-02 -2.05906658e-02 2.36624340e-02 -1.27575554e-01
0.00000000e+00 0.00000000e+00 0.00000000e+00 0.00000000e+00 0.00000000e+00 0.00000000e+00 0.00000000e+00 0.00000000e+00 0.00000000e+00
0.00000000e+00 0.00000000e+00 0.00000000e+00 0.00000000e+00 0.00000000e+00 0.00000000e+00 0.00000000e+00 0.00000000e+00 0.00000000e+00
0.00000000e+00 0.00000000e+00 0.00000000e+00 0.00000000e+00 0.00000000e+00 0.00000000e+00 0.00000000e+00 0.00000000e+00 0.00000000e+00
0.00000000e+00 0.00000000e+00 0.00000000e+00 0.00000000e+00 0.00000000e+00 0.00000000e+00 0.00000000e+00 0.00000000e+00 0.00000000e+00
5.36301993e-02 8.79689424e-06 1.00092338e-02 8.79689424e-06 5.63657880e-02 -2.18665903e-03 1.00092338e-02 -2.18665903e-03 -9.26274806e-02
5.50806578e-02 2.92113557e-03 6.43526658e-03 2.92113557e-03 5.44307642e-02 3.05255334e-03 6.43526658e-03 3.05255334e-03 -9.22074839e-02
5.33014992e-02 -9.00325819e-03 1.18957951e-02 -9.00325819e-03 5.54387080e-02 4.16317572e-03 1.18957951e-02 4.16317572e-03 -9.14923809e-02
5.17183347e-02 2.07093358e-03 1.04571645e-02 2.07093358e-03 5.76087022e-02 -5.69758809e-03 1.04571645e-02 -5.69758809e-03 -9.20378845e-02
5.91747360e-02 -1.15810046e-02 9.87545168e-03 -1.15810046e-02 4.86955065e-02 4.99116722e-04 9.87545168e-03 4.99116722e-04 -9.07737277e-02
5.78606678e-02 -1.18216735e-02 1.25344669e-02 -1.18216735e-02 5.39534427e-02 5.58136601e-03 1.25344669e-02 5.58136601e-03 -9.40168304e-02
6.30396502e-02 1.07939128e-03 4.20636556e-03 1.07939128e-03 4.60107718e-02 6.28479110e-03 4.20636556e-03 6.28479110e-03 -9.17430688e-02
5.84947104e-02 -5.40684807e-03 -4.63981519e-03 -5.40684807e-03 4.75340255e-02 -4.60499807e-03 -4.63981519e-03 -4.60499807e-03 -8.75596160e-02
6.60513435e-02 2.78920331e-03 -5.35982172e-03 2.78920331e-03 4.36197314e-02 -6.97654905e-05 -5.35982172e-03 -6.97654905e-05 -9.22262073e-02
6.60396526e-02 9.50376329e-04 -9.23178754e-03 9.50376329e-04 6.12456300e-02 6.89936569e-05 -9.23178754e-03 6.89936569e-05 -1.07760828e-01
6.38637040e-02 3.97661308e-04 2.54778983e-03 3.97661308e-04 4.50231638e-02 -3.01261574e-03 2.54778983e-03 -3.01261574e-03 -9.16139428e-02
6.42462657e-02 -8.57302017e-04 4.53773100e-04 -8.57302017e-04 5.81682180e-02 3.42581303e-03 4.53773100e-04 3.42581303e-03 -1.03012322e-01
6.15923144e-02 -5.32105565e-04 1.81026396e-03 -5.32105565e-04 4.60392572e-02 -2.50512315e-03 1.81026396e-03 -2.50512315e-03 -9.05271471e-02
5.98703166e-02 -5.45516772e-03 -3.12825176e-03 -5.45516772e-03 5.92598980e-02 -2.19382689e-03 -3.12825176e-03 -2.19382689e-03 -1.00268755e-01
4.89620124e-02 -1.55160710e-02 3.12391176e-02 -1.55160710e-02 6.01479798e-02 1.95530339e-03 3.12391176e-02 1.95530339e-03 -9.12038172e-02
4.16677129e-02 -1.38577106e-02 2.33191219e-02 -1.38577106e-02 6.46664770e-02 -3.54478840e-03 2.33191219e-02 -3.54478840e-03 -8.92431438e-02
6.26787410e-02 -5.49838512e-04 2.36763869e-02 -5.49838512e-04 5.77512692e-02 -3.63533844e-03 2.36763869e-02 -3.63533844e-03 -1.02103851e-01
7.44644970e-02 -1.68235175e-02 -6.46617569e-02 -1.68235175e-02 6.81104429e-02 -8.74749664e-04 -6.46617569e-02 -8.74749664e-04 -1.18475346e-01
7.01987613e-02 -2.40266765e-03 -1.89222822e-02 -2.40266765e-03 8.04027338e-02 1.23158372e-02 -1.89222822e-02 1.23158372e-02 -1.26408366e-01
7.00251386e-02 -5.44457781e-03 -1.58124114e-03 -5.44457781e-03 7.86896404e-02 1.15978119e-02 -1.58124114e-03 1.15978119e-02 -1.25238689e-01
6.25565164e-02 -4.80620191e-03 -4.34500491e-03 -4.80620191e-03 8.21108334e-02 3.70289024e-03 -4.34500491e-03 3.70289024e-03 -1.21738255e-01
4.46085036e-02 -9.59583016e-03 4.53850989e-02 -9.59583016e-03 6.16624723e-02 2.98597358e-03 4.53850989e-02 2.98597358e-03 -8.93741378e-02
3.71717792e-02 3.14063602e-03 3.36699290e-02 3.14063602e-03 5.82023896e-02 3.82078293e-03 3.36699290e-02 3.82078293e-03 -7.96315894e-02
5.29981550e-02 -2.90929312e-02 5.95983053e-02 -2.90929312e-02 7.24544637e-02 -6.68286553e-02 5.95983053e-02 -6.68286553e-02 -1.01978861e-01
3.30779644e-02 -3.47191972e-03 1.22641471e-02 -3.47191972e-03 4.20676715e-02 2.61754906e-02 1.22641471e-02 2.61754906e-02 -6.14668404e-02
3.89940441e-02 -8.51764251e-03 3.04087428e-02 -8.51764251e-03 5.12952898e-02 9.62515501e-03 3.04087428e-02 9.62515501e-03 -7.63663333e-02
3.87387048e-02 7.82150067e-03 1.81631590e-02 7.82150067e-03 5.48999794e-02 8.61727698e-02 1.81631590e-02 8.61727698e-02 -7.61118289e-02
2.13445066e-02 5.69947384e-04 1.47718637e-02 5.69947384e-04 2.71882336e-02 6.42244268e-04 1.47718637e-02 6.42244268e-04 -3.40402224e-02
4.14937101e-02 6.99379109e-03 -3.59553611e-03 6.99379109e-03 5.21637574e-02 5.85907430e-03 -3.59553611e-03 5.85907430e-03 -7.98321832e-02
2.62744065e-02 -9.16296955e-03 -6.77454586e-03 -9.16296955e-03 4.00971237e-02 2.40930267e-02 -6.77454586e-03 2.40930267e-02 -4.99534490e-02
-1.37503641e-02 8.63863379e-02 -8.81697759e-02 8.63863379e-02 -2.86798198e-02 1.67854995e-01 -8.81697759e-02 1.67854995e-01 5.35025299e-02
8.19603602e-02 3.02761182e-02 -1.11699538e-01 3.02761182e-02 8.07149758e-02 -2.64660514e-02 -1.11699538e-01 -2.64660514e-02 -1.39495589e-01
5.38630001e-02 1.88052959e-02 4.46393993e-03 1.88052959e-02 6.59789816e-02 2.16071052e-02 4.46393993e-03 2.16071052e-02 -1.04260543e-01
3.83793153e-02 -4.56862641e-03 7.06866058e-03 -4.56862641e-03 5.28398789e-02 1.16793537e-02 7.06866058e-03 1.16793537e-02 -7.61222877e-02
</DataArray>
<DataArray type="Float32" Name="Spatial_displacement" NumberOfComponents="3" format="ascii">
0.00000000e+00 0.00000000e+00 0.00000000e+00
4.52038571e-02 0.00000000e+00 0.00000000e+00
4.82341275e-02 8.10525715e-02 0.00000000e+00
0.00000000e+00 7.81503767e-02 0.00000000e+00
0.00000000e+00 0.00000000e+00 -9.57526416e-02
4.43784520e-02 0.00000000e+00 -9.93942767e-02
4.53516394e-02 7.56213069e-02 -9.47911888e-02
0.00000000e+00 7.45125711e-02 -9.29905176e-02
9.47450772e-02 0.00000000e+00 0.00000000e+00
9.59731489e-02 8.69757980e-02 0.00000000e+00
9.23512727e-02 0.00000000e+00 -1.05844393e-01
9.47452337e-02 7.89845660e-02 -1.00564554e-01
1.45426512e-01 0.00000000e+00 0.00000000e+00
1.50198683e-01 9.53835472e-02 0.00000000e+00
1.51174724e-01 0.00000000e+00 -1.11624599e-01
1.45411387e-01 8.19137469e-02 -1.11077249e-01
2.12717831e-01 0.00000000e+00 0.00000000e+00
2.00028658e-01 1.01501927e-01 0.00000000e+00
2.16806769e-01 0.00000000e+00 -1.20103583e-01
2.02576220e-01 8.23098347e-02 -1.16990238e-01
2.77763605e-01 0.00000000e+00 0.00000000e+00
2.62714297e-01 1.08628348e-01 0.00000000e+00
2.83889860e-01 0.00000000e+00 -1.28397912e-01
2.72619516e-01 8.53187442e-02 -1.22987688e-01
3.50696564e-01 0.00000000e+00 0.00000000e+00
3.08650643e-01 1.34795249e-01 0.00000000e+00
3.47233802e-01 0.00000000e+00 -1.29614711e-01
3.36878568e-01 1.09963343e-01 -1.34962752e-01
5.24530634e-02 1.45127103e-01 0.00000000e+00
0.00000000e+00 1.42780393e-01 0.00000000e+00
4.82979789e-02 1.40447468e-01 -8.32470804e-02
0.00000000e+00 1.36798561e-01 -8.24132115e-02
1.04288891e-01 1.57415882e-01 0.00000000e+00
9.57248062e-02 1.47463232e-01 -8.45428854e-02
1.46527067e-01 1.68117061e-01 0.00000000e+00
1.39843971e-01 1.55687332e-01 -7.60306567e-02
1.81778207e-01 1.89744845e-01 0.00000000e+00
1.84671864e-01 1.54738799e-01 -7.90098161e-02
2.05095470e-01 1.90625831e-01 0.00000000e+00
2.21431285e-01 1.59803644e-01 -7.43138194e-02
2.38652766e-01 2.28520706e-01 0.00000000e+00
2.65798628e-01 1.94939107e-01 -7.40253776e-02
5.59826046e-02 1.85063928e-01 0.00000000e+00
0.00000000e+00 1.81751743e-01 0.00000000e+00
5.03624529e-02 1.86254472e-01 -6.84665591e-02
0.00000000e+00 1.84314519e-01 -6.71762526e-02
1.12539664e-01 1.87612325e-01 0.00000000e+00
1.02567777e-01 1.88815668e-01 -5.43231517e-02
1.43801838e-01 1.96457267e-01 0.00000000e+00
1.37138218e-01 1.93679169e-01 -1.59120560e-02
1.50506154e-01 2.03417003e-01 0.00000000e+00
1.41831785e-01 1.91921607e-01 6.35060668e-03
1.66502059e-01 1.95784152e-01 0.00000000e+00
1.68534160e-01 1.74322605e-01 1.53800249e-02
1.69017255e-01 2.36321926e-01 0.00000000e+00
1.75935104e-01 2.33096182e-01 4.83861566e-03
5.85015416e-02 2.06945002e-01 0.00000000e+00
0.00000000e+00 2.11533338e-01 0.00000000e+00
5.11689410e-02 2.09567696e-01 -5.96240610e-02
0.00000000e+00 2.15081856e-01 -6.14826232e-02
1.11890480e-01 2.02773973e-01 0.00000000e+00
1.00055769e-01 1.98770851e-01 -4.19508070e-02
1.38824821e-01 1.96322903e-01 0.00000000e+00
1.30147696e-01 1.94971457e-01 -7.97909498e-03
1.35490000e-01 2.02156872e-01 0.00000000e+00
1.35105222e-01 2.02151477e-01 -3.52859497e-05
1.35401979e-01 2.05561310e-01 0.00000000e+00
1.35458559e-01 2.03680515e-01 0.00000000e+00
1.35524109e-01 2.05590740e-01 -2.73525715e-04
1.35524020e-01 2.03618735e-01 1.75535679e-05
5.63223958e-02 2.27708638e-01 0.00000000e+00
0.00000000e+00 2.37872303e-01 0.00000000e+00
5.30347973e-02 2.35254303e-01 -6.18873090e-02
0.00000000e+00 2.39565521e-01 -6.91987574e-02
1.09874994e-01 2.10079223e-01 0.00000000e+00
9.37865376e-02 2.13642985e-01 -4.84473854e-02
1.30267471e-01 1.97550640e-01 0.00000000e+00
1.23544134e-01 2.01770112e-01 -1.21035576e-02
1.33926407e-01 2.02249050e-01 0.00000000e+00
1.33691013e-01 2.02263981e-01 2.43902206e-04
1.33775234e-01 2.03785494e-01 0.00000000e+00
1.33870304e-01 2.03764483e-01 2.86698341e-05
1.33894414e-01 2.05319718e-01 0.00000000e+00
1.33911774e-01 2.05254704e-01 7.95722008e-06
6.36185780e-02 2.63677448e-01 0.00000000e+00
0.00000000e+00 2.68333703e-01 0.00000000e+00
5.71907684e-02 2.64972925e-01 -7.50548691e-02
0.00000000e+00 2.75312990e-01 -8.13905448e-02
1.18236504e-01 2.33440071e-01 0.00000000e+00
9.70498472e-02 2.52786815e-01 -6.92187399e-02
1.36194214e-01 2.08701745e-01 0.00000000e+00
1.28947377e-01 2.25510940e-01 -3.12778950e-02
1.33420333e-01 2.02884316e-01 0.00000000e+00
1.32749885e-01 2.02904433e-01 5.37067652e-04
1.32410511e-01 2.03637600e-01 0.00000000e+00
1.32522225e-01 2.03724295e-01 -3.34382057e-05
1.32374704e-01 2.05277368e-01 0.00000000e+00
1.32401973e-01 2.05248773e-01 -4.88758087e-06
0.00000000e+00 0.00000000e+00 -1.83717161e-01
4.47211191e-02 0.00000000e+00 -1.91008717e-01
4.41081896e-02 6.37004152e-02 -1.83440715e-01
0.00000000e+00 6.44994751e-02 -1.82533488e-01
9.97064710e-02 0.00000000e+00 -2.00358644e-01
8.95109475e-02 5.69806695e-02 -1.95727855e-01
1.54695481e-01 0.00000000e+00 -2.12378919e-01
1.54713497e-01 5.65671623e-02 -2.13285267e-01
2.25781411e-01 0.00000000e+00 -2.31156200e-01
2.20074147e-01 5.70086166e-02 -2.19257832e-01
2.98947692e-01 0.00000000e+00 -2.44042292e-01
2.91554391e-01 5.90577796e-02 -2.30642140e-01
3.57318789e-01 0.00000000e+00 -2.49463901e-01
3.69647652e-01 6.69391230e-02 -2.41417646e-01
3.84507701e-02 1.25025690e-01 -1.66308343e-01
0.00000000e+00 1.31647676e-01 -1.61194861e-01
8.65817443e-02 1.24080606e-01 -1.72897339e-01
1.39386326e-01 1.28428236e-01 -1.77460551e-01
2.09805936e-01 1.43599376e-01 -1.95897564e-01
2.82715797e-01 1.45916983e-01 -1.89787328e-01
3.46239954e-01 1.57025814e-01 -2.02093512e-01
3.38166207e-02 1.81299299e-01 -1.37773678e-01
0.00000000e+00 1.84274077e-01 -1.32793233e-01
7.35186040e-02 1.82946339e-01 -1.23801738e-01
6.55773953e-02 1.56973630e-01 1.07134581e-02
3.62061858e-02 2.27823421e-01 -1.12348482e-01
0.00000000e+00 2.21883327e-01 -1.21732086e-01
7.99141154e-02 2.07908168e-01 -8.24019909e-02
1.02623910e-01 1.75407782e-01 -3.62425596e-02
4.49074581e-02 2.47018144e-01 -1.21189028e-01
0.00000000e+00 2.54687220e-01 -1.28483146e-01
7.47846961e-02 2.34638184e-01 -9.89665687e-02
1.26778468e-01 2.16987818e-01 -7.65142739e-02
3.95786390e-02 2.90477991e-01 -1.51989132e-01
0.00000000e+00 2.89378583e-01 -1.57593831e-01
7.64230266e-02 2.96906352e-01 -1.43090233e-01
1.37594879e-01 2.83705294e-01 -1.39870360e-01
1.33908093e-01 2.03810453e-01 3.39150429e-05
1.33908644e-01 2.05272511e-01 3.19778919e-05
1.32444710e-01 2.05280498e-01 -1.73151493e-05
1.32417426e-01 2.03824431e-01 -3.44514847e-05
0.00000000e+00 0.00000000e+00 -2.73821622e-01
5.20818606e-02 0.00000000e+00 -2.75808394e-01
5.52038774e-02 5.71952462e-02 -2.69921720e-01
0.00000000e+00 5.50129563e-02 -2.64708340e-01
1.15623385e-01 0.00000000e+00 -2.90050417e-01
1.03310317e-01 4.91298810e-02 -2.81026244e-01
1.72031268e-01 0.00000000e+00 -3.05722684e-01
1.73192054e-01 4.44482341e-02 -3.01873773e-01
2.39944428e-01 0.00000000e+00 -3.19294006e-01
2.42927551e-01 4.61588204e-02 -3.24200273e-01
3.11616600e-01 0.00000000e+00 -3.35911632e-01
3.12026560e-01 4.90360633e-02 -3.33583385e-01
3.77947956e-01 0.00000000e+00 -3.41224521e-01
3.77409816e-01 4.99178171e-02 -3.39578688e-01
3.91168073e-02 1.08193442e-01 -2.48653024e-01
0.00000000e+00 1.23013534e-01 -2.45240256e-01
1.03200242e-01 1.10289007e-01 -2.70377398e-01
1.62634268e-01 1.16812475e-01 -3.13254207e-01
2.38012865e-01 1.29031673e-01 -3.24339688e-01
3.06185305e-01 1.21656343e-01 -3.21967810e-01
3.64731729e-01 1.29489258e-01 -3.27470213e-01
3.50321457e-02 1.85166806e-01 -2.04294398e-01
0.00000000e+00 1.81885391e-01 -2.08193749e-01
9.27542150e-02 1.62639186e-01 -2.35488445e-01
3.55291888e-02 2.29356259e-01 -1.71678111e-01
0.00000000e+00 2.37831756e-01 -1.79210097e-01
8.31435099e-02 2.29936212e-01 -1.36790067e-01
3.64873633e-02 2.84797847e-01 -1.85703754e-01
0.00000000e+00 2.78390110e-01 -1.90009594e-01
8.00786763e-02 2.80285537e-01 -1.75062969e-01
9.74297747e-02 2.84270406e-01 2.14465261e-02
1.21639162e-01 2.71473676e-01 -1.97594553e-01
3.99126410e-02 3.27664465e-01 -2.22516045e-01
0.00000000e+00 3.31976593e-01 -2.33972922e-01
</DataArray>
<DataArray type="Float32" Name="Spatial_acceleration" NumberOfComponents="3" format="ascii">
0.00000000e+00 0.00000000e+00 0.00000000e+00
-3.29494469e-07 0.00000000e+00 0.00000000e+00
-3.18427880e-07 -4.47948764e-07 0.00000000e+00
0.00000000e+00 -4.49697183e-07 0.00000000e+00
0.00000000e+00 0.00000000e+00 5.31514502e-07
-2.95599307e-07 0.00000000e+00 5.51223764e-07
-3.20081909e-07 -4.29573163e-07 5.38825986e-07
0.00000000e+00 -4.14450966e-07 5.56945793e-07
-6.55055032e-07 0.00000000e+00 0.00000000e+00
-6.42975181e-07 -4.67558692e-07 0.00000000e+00
-6.28153487e-07 0.00000000e+00 5.69025644e-07
-6.26345468e-07 -4.34180095e-07 5.48998514e-07
-9.39846018e-07 0.00000000e+00 0.00000000e+00
-9.79582410e-07 -4.94003302e-07 0.00000000e+00
-9.71257691e-07 0.00000000e+00 5.60124704e-07
-9.40442078e-07 -4.35551016e-07 5.95410654e-07
-1.35482594e-06 0.00000000e+00 0.00000000e+00
-1.27712883e-06 -4.85072519e-07 0.00000000e+00
-1.36220456e-06 0.00000000e+00 5.86191788e-07
-1.28380452e-06 -4.23471135e-07 5.87781244e-07
-1.68402983e-06 0.00000000e+00 0.00000000e+00
-1.65589654e-06 -5.19355126e-07 0.00000000e+00
-1.72122316e-06 0.00000000e+00 5.67118320e-07
-1.68287750e-06 -4.16278823e-07 5.81582356e-07
-2.05110518e-06 0.00000000e+00 0.00000000e+00
-1.87889736e-06 -5.96046448e-07 0.00000000e+00
-2.05024071e-06 0.00000000e+00 5.28971327e-07
-2.01813373e-06 -5.37594133e-07 5.97000110e-07
-3.38713335e-07 -8.45392549e-07 0.00000000e+00
0.00000000e+00 -8.32368926e-07 0.00000000e+00
-3.40228269e-07 -8.19377590e-07 5.13394696e-07
0.00000000e+00 -8.14020609e-07 5.31514502e-07
-6.76631942e-07 -9.11076881e-07 0.00000000e+00
-6.32206593e-07 -8.66611799e-07 5.22295636e-07
-9.79185074e-07 -9.62336799e-07 0.00000000e+00
-9.28441693e-07 -8.92911601e-07 4.90461048e-07
-1.19256970e-06 -1.07256574e-06 0.00000000e+00
-1.21251742e-06 -8.33087483e-07 4.93791390e-07
-1.34042898e-06 -9.86417149e-07 0.00000000e+00
-1.42602460e-06 -8.26067378e-07 4.91672097e-07
-1.55766804e-06 -1.20131176e-06 0.00000000e+00
-1.66426764e-06 -9.88960323e-07 4.73870188e-07
-3.77337130e-07 -1.11285840e-06 0.00000000e+00
0.00000000e+00 -1.09330813e-06 0.00000000e+00
-3.36170189e-07 -1.12901125e-06 4.48862693e-07
0.00000000e+00 -1.11059342e-06 4.31378680e-07
-7.71045677e-07 -1.12402438e-06 0.00000000e+00
-7.21772494e-07 -1.11871952e-06 3.85920202e-07
-9.83079303e-07 -1.12875307e-06 0.00000000e+00
-9.50533490e-07 -1.15023056e-06 7.69297301e-08
-1.04798210e-06 -1.14928355e-06 0.00000000e+00
-1.00199384e-06 -1.09863288e-06 -7.52343112e-08
-1.11526913e-06 -1.09328164e-06 0.00000000e+00
-1.13572014e-06 -8.80771211e-07 -1.25461156e-07
-1.14727015e-06 -1.24486291e-06 0.00000000e+00
-1.17333730e-06 -1.25983354e-06 -3.84648651e-08
-3.82026030e-07 -1.29228829e-06 0.00000000e+00
0.00000000e+00 -1.31249431e-06 0.00000000e+00
-3.39090832e-07 -1.29010277e-06 4.02927384e-07
0.00000000e+00 -1.32253763e-06 3.95774833e-07
-7.93298057e-07 -1.23251971e-06 0.00000000e+00
-7.01506906e-07 -1.19590754e-06 3.01361069e-07
-1.00642444e-06 -1.11412999e-06 0.00000000e+00
-9.50389449e-07 -1.12231578e-06 5.78562442e-08
-9.71582267e-07 -1.13042199e-06 0.00000000e+00
-9.82284519e-07 -1.13932288e-06 2.50074610e-08
-9.65992626e-07 -1.08400980e-06 0.00000000e+00
-9.76006163e-07 -1.11080544e-06 0.00000000e+00
-9.63687853e-07 -1.05476374e-06 -7.78833975e-09
-9.82205052e-07 -1.10361896e-06 1.31395126e-08
-3.69071955e-07 -1.42085548e-06 0.00000000e+00
0.00000000e+00 -1.49438779e-06 0.00000000e+00
-3.69469319e-07 -1.47690378e-06 4.00940564e-07
0.00000000e+00 -1.51457391e-06 4.48226928e-07
-8.03033515e-07 -1.23719371e-06 0.00000000e+00
-6.77347202e-07 -1.31320951e-06 3.56992075e-07
-9.34441857e-07 -1.12998487e-06 0.00000000e+00
-9.24958158e-07 -1.18207936e-06 1.08930799e-07
-9.72032581e-07 -1.14854174e-06 0.00000000e+00
-1.02567674e-06 -1.14711122e-06 9.69568870e-09
-9.76800948e-07 -1.13022327e-06 0.00000000e+00
-9.86798568e-07 -1.09051462e-06 1.33921700e-08
-1.02877618e-06 -1.06525420e-06 0.00000000e+00
-9.54919415e-07 -1.08620861e-06 -5.73562247e-08
-4.32173408e-07 -1.65088966e-06 0.00000000e+00
0.00000000e+00 -1.73047431e-06 0.00000000e+00
-4.10000467e-07 -1.67731446e-06 5.00996919e-07
0.00000000e+00 -1.71776605e-06 5.35329150e-07
-8.15232568e-07 -1.40889483e-06 0.00000000e+00
-7.48793298e-07 -1.58786770e-06 4.99089538e-07
-1.07153255e-06 -1.27840042e-06 0.00000000e+00
-9.49647699e-07 -1.38537087e-06 2.83135307e-07
-1.07256574e-06 -1.15712487e-06 0.00000000e+00
-1.01141131e-06 -1.11865995e-06 6.03993744e-09
-1.08742711e-06 -1.10769270e-06 0.00000000e+00
-1.04676349e-06 -1.10316273e-06 -1.76537363e-08
-9.43402426e-07 -1.08190375e-06 0.00000000e+00
-1.09736129e-06 -1.09666587e-06 1.70056396e-08
0.00000000e+00 0.00000000e+00 1.04141236e-06
-2.79247757e-07 0.00000000e+00 1.04777018e-06
-3.04897611e-07 -3.80302453e-07 1.04252501e-06
0.00000000e+00 -3.69349948e-07 1.05349227e-06
-6.44331180e-07 0.00000000e+00 1.06779737e-06
-5.89688625e-07 -3.63985691e-07 1.04904177e-06
-9.66668154e-07 0.00000000e+00 1.08846029e-06
-9.70204610e-07 -3.54190661e-07 1.10594431e-06
-1.37156246e-06 0.00000000e+00 1.13964074e-06
-1.33709113e-06 -3.44067814e-07 1.12199780e-06
-1.79336462e-06 0.00000000e+00 1.13296505e-06
-1.75511832e-06 -3.54230394e-07 1.13995873e-06
-2.11294491e-06 0.00000000e+00 1.10626218e-06
-2.18705327e-06 -4.09801800e-07 1.11993154e-06
-2.79585521e-07 -7.58806834e-07 9.96271751e-07
0.00000000e+00 -7.93218589e-07 9.84827693e-07
-5.87690465e-07 -7.55355472e-07 1.02342881e-06
-8.98265853e-07 -7.56136558e-07 1.03658044e-06
-1.28881140e-06 -8.13196095e-07 1.07574465e-06
-1.66340669e-06 -8.16265754e-07 1.02615354e-06
-1.96899964e-06 -9.22709717e-07 1.04141236e-06
-2.45769826e-07 -1.07530752e-06 8.74837212e-07
0.00000000e+00 -1.10332167e-06 8.80559298e-07
-5.24944710e-07 -1.11309691e-06 8.60426155e-07
-4.42504870e-07 -8.08556877e-07 -1.01168951e-07
-2.61684249e-07 -1.41057251e-06 7.64052061e-07
0.00000000e+00 -1.35647258e-06 8.11258928e-07
-6.07376990e-07 -1.23727887e-06 6.05537764e-07
-7.62939464e-07 -1.01470948e-06 2.56856282e-07
-3.40620687e-07 -1.56231715e-06 8.27312476e-07
0.00000000e+00 -1.62180515e-06 8.62121567e-07
-5.45303010e-07 -1.44958494e-06 7.10169445e-07
-8.86599196e-07 -1.34857498e-06 5.23249298e-07
-3.31560756e-07 -1.82827307e-06 9.77834020e-07
0.00000000e+00 -1.87476473e-06 1.06175742e-06
-5.80986352e-07 -1.85545287e-06 9.80377195e-07
-9.65833692e-07 -1.73036256e-06 9.58760552e-07
-1.02772071e-06 -1.13130704e-06 -1.80030867e-07
-1.03760760e-06 -1.09319888e-06 8.92827927e-08
-9.77719765e-07 -1.06875473e-06 -9.22630221e-08
-1.01713340e-06 -1.17307900e-06 1.02251768e-07
0.00000000e+00 0.00000000e+00 1.54368081e-06
-2.97586126e-07 0.00000000e+00 1.53668725e-06
-3.42498225e-07 -3.42498225e-07 1.54431655e-06
0.00000000e+00 -3.33388641e-07 1.52460734e-06
-6.78022673e-07 0.00000000e+00 1.58945716e-06
-6.20851893e-07 -3.20283078e-07 1.56847636e-06
-1.01466480e-06 0.00000000e+00 1.63904826e-06
-1.02138517e-06 -3.24487672e-07 1.61361697e-06
-1.41564999e-06 0.00000000e+00 1.67020164e-06
-1.41572946e-06 -3.15109872e-07 1.67242683e-06
-1.83916586e-06 0.00000000e+00 1.69595080e-06
-1.83244549e-06 -3.18328546e-07 1.69245402e-06
-2.27904320e-06 0.00000000e+00 1.66765847e-06
-2.24328028e-06 -3.52482004e-07 1.71375268e-06
-2.58604672e-07 -6.58273677e-07 1.48646041e-06
0.00000000e+00 -7.49111166e-07 1.48487095e-06
-6.73657382e-07 -6.94184052e-07 1.51189170e-06
-9.77834020e-07 -7.19324760e-07 1.63726804e-06
-1.37150289e-06 -7.93457048e-07 1.68546035e-06
-1.74017748e-06 -7.62065270e-07 1.67655946e-06
-2.05299261e-06 -8.60373177e-07 1.69372561e-06
-2.84263052e-07 -1.11212046e-06 1.34604318e-06
0.00000000e+00 -1.11349425e-06 1.34181971e-06
-6.17027297e-07 -9.80695063e-07 1.41461692e-06
-2.82696305e-07 -1.41280032e-06 1.15312844e-06
0.00000000e+00 -1.46752598e-06 1.24041242e-06
-5.92549611e-07 -1.41356384e-06 1.00580849e-06
-2.77876865e-07 -1.78444384e-06 1.28821534e-06
0.00000000e+00 -1.78416565e-06 1.32910407e-06
-5.83103713e-07 -1.71888439e-06 1.19163872e-06
-6.87599197e-07 -1.87810258e-06 -1.25249230e-07
-7.63575258e-07 -1.68609620e-06 1.30377873e-06
-3.17414589e-07 -2.08874530e-06 1.51888526e-06
0.00000000e+00 -2.12955479e-06 1.55258181e-06
</DataArray>
<DataArray type="Float32" Name="Spatial_velocity" NumberOfComponents="3" format="ascii">
0.00000000e+00 0.00000000e+00 0.00000000e+00
2.93869216e-05 0.00000000e+00 0.00000000e+00
3.05612230e-05 4.16596558e-05 0.00000000e+00
0.00000000e+00 4.10640932e-05 0.00000000e+00
0.00000000e+00 0.00000000e+00 -4.95800814e-05
2.82737583e-05 0.00000000e+00 -5.07926998e-05
2.89656291e-05 3.97743715e-05 -4.90820239e-05
0.00000000e+00 3.92382062e-05 -5.01020586e-05
5.89552910e-05 0.00000000e+00 0.00000000e+00
5.98735678e-05 4.30508444e-05 0.00000000e+00
5.72663739e-05 0.00000000e+00 -5.08878111e-05
5.82452194e-05 4.03398153e-05 -4.93650477e-05
8.81955493e-05 0.00000000e+00 0.00000000e+00
9.07497670e-05 4.46183258e-05 0.00000000e+00
9.02335014e-05 0.00000000e+00 -4.97602341e-05
8.69727446e-05 3.98845114e-05 -5.29624704e-05
1.24731450e-04 0.00000000e+00 0.00000000e+00
1.18106356e-04 4.48594219e-05 0.00000000e+00
1.25539606e-04 0.00000000e+00 -5.12742918e-05
1.18089614e-04 3.86643878e-05 -5.23896997e-05
1.54803114e-04 0.00000000e+00 0.00000000e+00
1.51329965e-04 4.65925732e-05 0.00000000e+00
1.58525814e-04 0.00000000e+00 -5.03977244e-05
1.54853537e-04 3.89111337e-05 -5.22494847e-05
1.88540260e-04 0.00000000e+00 0.00000000e+00
1.71979613e-04 5.39069661e-05 0.00000000e+00
1.88838065e-04 0.00000000e+00 -4.72624306e-05
1.84803925e-04 4.92283652e-05 -5.38799140e-05
3.23470194e-05 7.77317910e-05 0.00000000e+00
0.00000000e+00 7.67360907e-05 0.00000000e+00
3.05592912e-05 7.51133703e-05 -4.61840209e-05
0.00000000e+00 7.39117386e-05 -4.66527381e-05
6.34778917e-05 8.18602130e-05 0.00000000e+00
5.92894685e-05 7.80514602e-05 -4.78463080e-05
8.99782826e-05 8.61410299e-05 0.00000000e+00
8.62249435e-05 8.09795383e-05 -4.57631868e-05
1.11425688e-04 9.69544926e-05 0.00000000e+00
1.11630769e-04 7.58581518e-05 -4.59178336e-05
1.25204446e-04 9.10468516e-05 0.00000000e+00
1.32216679e-04 7.63037169e-05 -4.39959149e-05
1.43906684e-04 1.09064225e-04 0.00000000e+00
1.54150504e-04 8.98052022e-05 -4.23193924e-05
3.44249966e-05 1.02595142e-04 0.00000000e+00
0.00000000e+00 1.00781726e-04 0.00000000e+00
3.13764394e-05 1.02966056e-04 -4.13159687e-05
0.00000000e+00 1.01973637e-04 -3.93573209e-05
7.13440168e-05 1.02825812e-04 0.00000000e+00
6.69551300e-05 1.02743244e-04 -3.67848224e-05
9.26880675e-05 1.04539664e-04 0.00000000e+00
8.85387853e-05 1.04102437e-04 -7.28061423e-06
9.64121718e-05 1.05154031e-04 0.00000000e+00
9.13506374e-05 1.00428952e-04 4.33555078e-06
1.03957987e-04 1.00333971e-04 0.00000000e+00
1.06575979e-04 8.11986538e-05 9.22727850e-06
1.04176128e-04 1.14989984e-04 0.00000000e+00
1.09457113e-04 1.15888761e-04 2.69416978e-06
3.63426916e-05 1.17155774e-04 0.00000000e+00
0.00000000e+00 1.21000645e-04 0.00000000e+00
3.22274318e-05 1.18516524e-04 -3.69118570e-05
0.00000000e+00 1.22246507e-04 -3.65775340e-05
7.36163274e-05 1.12790949e-04 0.00000000e+00
6.52708331e-05 1.09092412e-04 -2.77480849e-05
9.24849955e-05 1.03502083e-04 0.00000000e+00
8.84859619e-05 1.03927006e-04 -4.30471664e-06
9.02085594e-05 1.05222796e-04 0.00000000e+00
9.03059990e-05 1.05225918e-04 -1.12226324e-07
9.02815300e-05 9.87731182e-05 0.00000000e+00
9.03076070e-05 1.01986334e-04 0.00000000e+00
9.03233231e-05 9.88019383e-05 1.38530454e-09
9.02663014e-05 1.01967518e-04 4.90486016e-08
3.63603904e-05 1.29985288e-04 0.00000000e+00
0.00000000e+00 1.37157127e-04 0.00000000e+00
3.51316303e-05 1.35060080e-04 -3.74030715e-05
0.00000000e+00 1.39102791e-04 -4.12499139e-05
7.35473368e-05 1.16565869e-04 0.00000000e+00
6.32939409e-05 1.19508913e-04 -3.36793382e-05
8.87921851e-05 1.04010738e-04 0.00000000e+00
8.49677890e-05 1.09057313e-04 -1.03448174e-05
9.35590288e-05 1.05196290e-04 0.00000000e+00
9.34789350e-05 1.05196086e-04 -7.33888816e-09
9.34872514e-05 1.02013131e-04 0.00000000e+00
9.34882555e-05 1.02027923e-04 -8.63919958e-09
9.34869822e-05 9.87731692e-05 0.00000000e+00
9.34824857e-05 9.87872263e-05 -3.62935459e-10
4.13088783e-05 1.52255292e-04 0.00000000e+00
0.00000000e+00 1.55705246e-04 0.00000000e+00
3.75241143e-05 1.55574118e-04 -4.61804993e-05
0.00000000e+00 1.60302123e-04 -4.84437223e-05
7.72114508e-05 1.33153517e-04 0.00000000e+00
6.66967535e-05 1.45341066e-04 -4.63195356e-05
9.73447895e-05 1.14756294e-04 0.00000000e+00
9.01399617e-05 1.26147948e-04 -2.73083915e-05
9.66642037e-05 1.05215709e-04 0.00000000e+00
9.66980660e-05 1.05381579e-04 -4.09339584e-08
9.67154992e-05 1.02023543e-04 0.00000000e+00
9.66992666e-05 1.02008911e-04 -8.64599858e-09
9.67306842e-05 9.87956737e-05 0.00000000e+00
9.67140295e-05 9.87956955e-05 1.08168887e-08
0.00000000e+00 0.00000000e+00 -9.61131227e-05
2.63221918e-05 0.00000000e+00 -9.82146303e-05
2.68374715e-05 3.49639158e-05 -9.58944511e-05
0.00000000e+00 3.48475769e-05 -9.70408364e-05
5.85788621e-05 0.00000000e+00 -9.97037860e-05
5.34507381e-05 3.22730812e-05 -9.70041583e-05
8.94160039e-05 0.00000000e+00 -9.94406000e-05
8.90043812e-05 3.30848234e-05 -1.02217055e-04
1.26387720e-04 0.00000000e+00 -1.02129008e-04
1.23577876e-04 3.23201166e-05 -1.01835954e-04
1.65184145e-04 0.00000000e+00 -1.01805621e-04
1.61106189e-04 3.23470886e-05 -1.02665283e-04
1.96447640e-04 0.00000000e+00 -9.83439168e-05
2.01247312e-04 3.87404543e-05 -1.03150196e-04
2.62194189e-05 6.80110170e-05 -9.15138153e-05
0.00000000e+00 7.09915839e-05 -9.18719379e-05
5.51105550e-05 6.81582969e-05 -9.37975856e-05
8.19123889e-05 6.80017693e-05 -9.56270305e-05
1.18832701e-04 7.44811623e-05 -9.84775470e-05
1.53602174e-04 7.51498737e-05 -9.40969039e-05
1.81059382e-04 8.33649174e-05 -9.41218314e-05
2.43433806e-05 9.92665082e-05 -8.12703074e-05
0.00000000e+00 1.01765690e-04 -8.07717443e-05
4.82205360e-05 1.00719582e-04 -7.96463282e-05
3.95244788e-05 7.37481896e-05 8.66475693e-06
2.44884104e-05 1.29489636e-04 -7.00296732e-05
0.00000000e+00 1.24748462e-04 -7.46386650e-05
5.70198972e-05 1.14000839e-04 -5.66970775e-05
7.11555695e-05 9.37451114e-05 -2.55456434e-05
3.21466287e-05 1.43252473e-04 -7.67527672e-05
0.00000000e+00 1.48716499e-04 -7.99535555e-05
5.16896180e-05 1.33005626e-04 -6.68699504e-05
8.26562464e-05 1.22342899e-04 -4.77604226e-05
3.06767906e-05 1.70188054e-04 -9.15683122e-05
0.00000000e+00 1.72324901e-04 -9.77302552e-05
5.41961817e-05 1.71385007e-04 -9.20248276e-05
8.96812344e-05 1.58947863e-04 -8.76354970e-05
9.34582131e-05 1.02015416e-04 -5.37780842e-09
9.34682757e-05 9.87775202e-05 8.90559093e-09
9.66864536e-05 9.87918902e-05 1.31744562e-08
9.66926527e-05 1.02019199e-04 -5.67668756e-09
0.00000000e+00 0.00000000e+00 -1.41456971e-04
2.79149444e-05 0.00000000e+00 -1.41430675e-04
3.09746065e-05 3.16800360e-05 -1.41619093e-04
0.00000000e+00 3.00418833e-05 -1.40561315e-04
6.28276903e-05 0.00000000e+00 -1.45430386e-04
5.71254714e-05 2.97489714e-05 -1.43995698e-04
9.31446048e-05 0.00000000e+00 -1.49371001e-04
9.39142556e-05 2.97418355e-05 -1.47523751e-04
1.29678461e-04 0.00000000e+00 -1.50777734e-04
1.30640081e-04 2.97388488e-05 -1.52458568e-04
1.70350730e-04 0.00000000e+00 -1.52359906e-04
1.68718441e-04 3.02963927e-05 -1.53170622e-04
2.08998797e-04 0.00000000e+00 -1.50277177e-04
2.07212361e-04 3.34244687e-05 -1.53096014e-04
2.42226270e-05 6.12365475e-05 -1.37496376e-04
0.00000000e+00 6.81406527e-05 -1.36448376e-04
6.14639503e-05 6.47005945e-05 -1.39137192e-04
8.98453145e-05 6.55152180e-05 -1.50310399e-04
1.25437742e-04 7.08533844e-05 -1.54606169e-04
1.59076444e-04 6.99808297e-05 -1.50948079e-04
1.87602564e-04 8.10115525e-05 -1.52586683e-04
2.57802967e-05 1.02139777e-04 -1.23390389e-04
0.00000000e+00 1.01520513e-04 -1.23481179e-04
5.61704510e-05 9.06702480e-05 -1.29151871e-04
2.73422775e-05 1.29409163e-04 -1.07152016e-04
0.00000000e+00 1.34126618e-04 -1.14562179e-04
5.55443876e-05 1.29032953e-04 -9.29193557e-05
2.58939162e-05 1.64149766e-04 -1.18837605e-04
0.00000000e+00 1.61675052e-04 -1.21804340e-04
5.28941819e-05 1.57856950e-04 -1.07692518e-04
6.17096739e-05 1.77155234e-04 1.50952401e-05
7.02831821e-05 1.55015121e-04 -1.18334858e-04
2.83498030e-05 1.91647021e-04 -1.40038406e-04
0.00000000e+00 1.96005145e-04 -1.42990059e-04
</DataArray>
<DataArray type="Float32" Name="Reaction_force" NumberOfComponents="3" format="ascii">
4.31002676e-01 -1.77115142e-01 8.86540127e+00
0.00000000e+00 -5.65828979e-01 1.81715736e+01
0.00000000e+00 0.00000000e+00 3.46167908e+01
4.22066867e-01 0.00000000e+00 1.75282059e+01
9.00166154e-01 -3.90408456e-01 0.00000000e+00
0.00000000e+00 -7.38513708e-01 0.00000000e+00
0.00000000e+00 0.00000000e+00 0.00000000e+00
8.81488085e-01 0.00000000e+00 0.00000000e+00
0.00000000e+00 -7.56992698e-01 1.82939529e+01
0.00000000e+00 0.00000000e+00 3.64020767e+01
0.00000000e+00 -4.64645833e-01 0.00000000e+00
0.00000000e+00 0.00000000e+00 0.00000000e+00
0.00000000e+00 -5.39154053e-01 1.93541031e+01
0.00000000e+00 0.00000000e+00 3.59327583e+01
0.00000000e+00 -1.47273690e-01 0.00000000e+00
0.00000000e+00 0.00000000e+00 0.00000000e+00
0.00000000e+00 -7.98979998e-01 1.90481949e+01
0.00000000e+00 0.00000000e+00 3.51691666e+01
0.00000000e+00 -4.41987455e-01 0.00000000e+00
0.00000000e+00 0.00000000e+00 0.00000000e+00
0.00000000e+00 -1.22652221e+00 1.67929802e+01
0.00000000e+00 0.00000000e+00 3.16094894e+01
0.00000000e+00 -1.60085595e+00 0.00000000e+00
0.00000000e+00 0.00000000e+00 0.00000000e+00
0.00000000e+00 -2.31172800e+00 1.07095070e+01
0.00000000e+00 0.00000000e+00 2.00025253e+01
0.00000000e+00 -3.14933372e+00 0.00000000e+00
0.00000000e+00 0.00000000e+00 0.00000000e+00
0.00000000e+00 0.00000000e+00 3.25687866e+01
-5.07399082e-01 0.00000000e+00 1.60638142e+01
0.00000000e+00 0.00000000e+00 0.00000000e+00
-4.29142505e-01 0.00000000e+00 0.00000000e+00
0.00000000e+00 0.00000000e+00 2.96136246e+01
0.00000000e+00 0.00000000e+00 0.00000000e+00
0.00000000e+00 0.00000000e+00 2.35065842e+01
0.00000000e+00 0.00000000e+00 0.00000000e+00
0.00000000e+00 0.00000000e+00 1.92487392e+01
0.00000000e+00 0.00000000e+00 0.00000000e+00
0.00000000e+00 0.00000000e+00 1.87971878e+01
0.00000000e+00 0.00000000e+00 0.00000000e+00
0.00000000e+00 0.00000000e+00 1.53268242e+01
0.00000000e+00 0.00000000e+00 0.00000000e+00
0.00000000e+00 0.00000000e+00 2.93069649e+01
-1.01284087e+00 0.00000000e+00 1.46971016e+01
0.00000000e+00 0.00000000e+00 0.00000000e+00
-1.49382162e+00 0.00000000e+00 0.00000000e+00
0.00000000e+00 0.00000000e+00 2.13696766e+01
0.00000000e+00 0.00000000e+00 0.00000000e+00
0.00000000e+00 0.00000000e+00 1.25491028e+01
0.00000000e+00 0.00000000e+00 0.00000000e+00
0.00000000e+00 0.00000000e+00 4.89444399e+00
0.00000000e+00 0.00000000e+00 0.00000000e+00
0.00000000e+00 0.00000000e+00 3.79781437e+00
0.00000000e+00 0.00000000e+00 0.00000000e+00
0.00000000e+00 0.00000000e+00 3.27233839e+00
0.00000000e+00 0.00000000e+00 0.00000000e+00
0.00000000e+00 0.00000000e+00 2.66047974e+01
-1.63464558e+00 0.00000000e+00 1.45543861e+01
0.00000000e+00 0.00000000e+00 0.00000000e+00
-2.52406645e+00 0.00000000e+00 0.00000000e+00
0.00000000e+00 0.00000000e+00 1.94539089e+01
0.00000000e+00 0.00000000e+00 0.00000000e+00
0.00000000e+00 0.00000000e+00 9.39967346e+00
0.00000000e+00 0.00000000e+00 0.00000000e+00
0.00000000e+00 0.00000000e+00 2.82079995e-01
0.00000000e+00 0.00000000e+00 0.00000000e+00
0.00000000e+00 0.00000000e+00 -2.38105774e+00
0.00000000e+00 0.00000000e+00 -3.27849579e+00
0.00000000e+00 0.00000000e+00 0.00000000e+00
0.00000000e+00 0.00000000e+00 0.00000000e+00
0.00000000e+00 0.00000000e+00 2.71207466e+01
-2.24940348e+00 0.00000000e+00 1.42452850e+01
0.00000000e+00 0.00000000e+00 0.00000000e+00
-3.22962379e+00 0.00000000e+00 0.00000000e+00
0.00000000e+00 0.00000000e+00 2.25588112e+01
0.00000000e+00 0.00000000e+00 0.00000000e+00
0.00000000e+00 0.00000000e+00 1.80555153e+01
0.00000000e+00 0.00000000e+00 0.00000000e+00
0.00000000e+00 0.00000000e+00 7.15952110e+00
0.00000000e+00 0.00000000e+00 0.00000000e+00
0.00000000e+00 0.00000000e+00 -4.23382759e+00
0.00000000e+00 0.00000000e+00 0.00000000e+00
0.00000000e+00 0.00000000e+00 1.82985163e+00
0.00000000e+00 0.00000000e+00 0.00000000e+00
0.00000000e+00 0.00000000e+00 1.83444176e+01
-2.17317700e+00 0.00000000e+00 9.08271694e+00
0.00000000e+00 0.00000000e+00 0.00000000e+00
-3.82187009e+00 0.00000000e+00 0.00000000e+00
0.00000000e+00 0.00000000e+00 1.90035019e+01
0.00000000e+00 0.00000000e+00 0.00000000e+00
0.00000000e+00 0.00000000e+00 1.47146416e+01
0.00000000e+00 0.00000000e+00 0.00000000e+00
0.00000000e+00 0.00000000e+00 6.33880329e+00
0.00000000e+00 0.00000000e+00 0.00000000e+00
0.00000000e+00 0.00000000e+00 -2.93584323e+00
0.00000000e+00 0.00000000e+00 0.00000000e+00
0.00000000e+00 0.00000000e+00 3.88362378e-01
0.00000000e+00 0.00000000e+00 0.00000000e+00
4.49774951e-01 -4.87458557e-01 0.00000000e+00
0.00000000e+00 2.93572217e-01 0.00000000e+00
0.00000000e+00 0.00000000e+00 0.00000000e+00
1.43632412e+00 0.00000000e+00 0.00000000e+00
0.00000000e+00 9.48671877e-01 0.00000000e+00
0.00000000e+00 0.00000000e+00 0.00000000e+00
0.00000000e+00 1.18494713e+00 0.00000000e+00
0.00000000e+00 0.00000000e+00 0.00000000e+00
0.00000000e+00 1.67096734e+00 0.00000000e+00
0.00000000e+00 0.00000000e+00 0.00000000e+00
0.00000000e+00 -1.50982589e-01 0.00000000e+00
0.00000000e+00 0.00000000e+00 0.00000000e+00
0.00000000e+00 -1.11931920e+00 0.00000000e+00
0.00000000e+00 0.00000000e+00 0.00000000e+00
0.00000000e+00 0.00000000e+00 0.00000000e+00
4.86784041e-01 0.00000000e+00 0.00000000e+00
0.00000000e+00 0.00000000e+00 0.00000000e+00
0.00000000e+00 0.00000000e+00 0.00000000e+00
0.00000000e+00 0.00000000e+00 0.00000000e+00
0.00000000e+00 0.00000000e+00 0.00000000e+00
0.00000000e+00 0.00000000e+00 0.00000000e+00
0.00000000e+00 0.00000000e+00 0.00000000e+00
-7.98469722e-01 0.00000000e+00 0.00000000e+00
0.00000000e+00 0.00000000e+00 0.00000000e+00
0.00000000e+00 0.00000000e+00 0.00000000e+00
0.00000000e+00 0.00000000e+00 0.00000000e+00
-3.23111653e-01 0.00000000e+00 0.00000000e+00
0.00000000e+00 0.00000000e+00 0.00000000e+00
0.00000000e+00 0.00000000e+00 0.00000000e+00
0.00000000e+00 0.00000000e+00 0.00000000e+00
-1.06512761e+00 0.00000000e+00 0.00000000e+00
0.00000000e+00 0.00000000e+00 0.00000000e+00
0.00000000e+00 0.00000000e+00 0.00000000e+00
0.00000000e+00 0.00000000e+00 0.00000000e+00
-2.14829350e+00 0.00000000e+00 0.00000000e+00
0.00000000e+00 0.00000000e+00 0.00000000e+00
0.00000000e+00 0.00000000e+00 0.00000000e+00
0.00000000e+00 0.00000000e+00 0.00000000e+00
0.00000000e+00 0.00000000e+00 0.00000000e+00
0.00000000e+00 0.00000000e+00 0.00000000e+00
0.00000000e+00 0.00000000e+00 0.00000000e+00
9.42545980e-02 -1.30508155e-01 0.00000000e+00
0.00000000e+00 9.80071306e-01 0.00000000e+00
0.00000000e+00 0.00000000e+00 0.00000000e+00
1.82553923e+00 0.00000000e+00 0.00000000e+00
0.00000000e+00 1.57256186e+00 0.00000000e+00
0.00000000e+00 0.00000000e+00 0.00000000e+00
0.00000000e+00 1.99893188e+00 0.00000000e+00
0.00000000e+00 0.00000000e+00 0.00000000e+00
0.00000000e+00 2.73517776e+00 0.00000000e+00
0.00000000e+00 0.00000000e+00 0.00000000e+00
0.00000000e+00 1.04905617e+00 0.00000000e+00
0.00000000e+00 0.00000000e+00 0.00000000e+00
0.00000000e+00 4.32351008e-02 0.00000000e+00
0.00000000e+00 0.00000000e+00 0.00000000e+00
0.00000000e+00 0.00000000e+00 0.00000000e+00
1.48692703e+00 0.00000000e+00 0.00000000e+00
0.00000000e+00 0.00000000e+00 0.00000000e+00
0.00000000e+00 0.00000000e+00 0.00000000e+00
0.00000000e+00 0.00000000e+00 0.00000000e+00
0.00000000e+00 0.00000000e+00 0.00000000e+00
0.00000000e+00 0.00000000e+00 0.00000000e+00
0.00000000e+00 0.00000000e+00 0.00000000e+00
2.13522613e-02 0.00000000e+00 0.00000000e+00
0.00000000e+00 0.00000000e+00 0.00000000e+00
0.00000000e+00 0.00000000e+00 0.00000000e+00
8.91748667e-01 0.00000000e+00 0.00000000e+00
0.00000000e+00 0.00000000e+00 0.00000000e+00
0.00000000e+00 0.00000000e+00 0.00000000e+00
4.50868905e-01 0.00000000e+00 0.00000000e+00
0.00000000e+00 0.00000000e+00 0.00000000e+00
0.00000000e+00 0.00000000e+00 0.00000000e+00
0.00000000e+00 0.00000000e+00 0.00000000e+00
0.00000000e+00 0.00000000e+00 0.00000000e+00
-6.80909216e-01 0.00000000e+00 0.00000000e+00
</DataArray>
<DataArray type="Float32" Name="Equivalent_plastic_strain" format="ascii">
1.01746686e-01
1.05658513e-01
9.97508410e-02
9.80223715e-02
9.75824110e-02
1.00780953e-01
9.66089778e-02
9.51470416e-02
1.12718344e-01
1.06530081e-01
1.06701024e-01
1.02666747e-01
1.21621251e-01
1.20738639e-01
1.13893732e-01
1.12720189e-01
1.31232083e-01
1.30340239e-01
1.21707950e-01
1.18826341e-01
1.38975725e-01
1.40832279e-01
1.29342949e-01
1.21764210e-01
1.52208820e-01
1.53188922e-01
1.35431886e-01
1.37167588e-01
8.63175970e-02
8.56102630e-02
8.59586699e-02
8.40244554e-02
8.74551646e-02
8.92801546e-02
6.15655486e-02
8.50385098e-02
5.82202850e-02
7.90224758e-02
4.21718624e-02
7.56097337e-02
4.38884785e-02
8.68565018e-02
7.20521584e-02
7.17854835e-02
7.14011882e-02
7.07462858e-02
5.05509940e-02
5.71232942e-02
8.14775581e-03
5.85862497e-03
-1.37056860e-03
2.14599579e-02
-3.34025508e-03
1.91240273e-02
4.68164869e-03
2.49906536e-02
6.43062592e-02
6.77330308e-02
6.13702778e-02
6.44174740e-02
4.66933167e-02
4.46372288e-02
6.17484434e-03
1.31404024e-02
2.63069284e-04
3.01954048e-03
1.11373160e-02
3.60725475e-03
9.56229772e-03
5.00379133e-03
6.70352560e-02
7.20461719e-02
6.29897714e-02
6.80503231e-02
5.15242759e-02
4.55553529e-02
7.03733094e-03
3.58904279e-02
4.23500032e-05
3.01850973e-03
-5.29256060e-05
-8.08924888e-06
0.00000000e+00
0.00000000e+00
7.84300342e-02
8.28808099e-02
7.38427378e-02
7.99201392e-02
6.66522942e-02
7.29598254e-02
2.15584943e-02
5.60448691e-02
-1.42390403e-04
8.83481317e-03
1.35266891e-04
-1.86847149e-05
0.00000000e+00
0.00000000e+00
9.19924602e-02
9.24855955e-02
9.05821007e-02
9.02901739e-02
9.43668149e-02
9.55695473e-02
1.00084204e-01
9.52028125e-02
1.05128204e-01
1.12959908e-01
1.07042965e-01
1.14403006e-01
1.08592194e-01
1.15439247e-01
8.71966137e-02
8.45309738e-02
9.33543657e-02
1.21328908e-01
1.28333548e-01
1.31240968e-01
1.33070767e-01
6.94329794e-02
7.09420703e-02
8.51864368e-02
6.53162152e-02
5.34799923e-02
6.03975374e-02
4.74977823e-02
2.09730789e-02
6.22786717e-02
6.34385608e-02
6.22614605e-02
9.62375626e-02
7.24187437e-02
7.21560679e-02
7.42720691e-02
1.24910444e-01
0.00000000e+00
0.00000000e+00
0.00000000e+00
0.00000000e+00
9.27213542e-02
9.23811495e-02
9.20626884e-02
9.22930650e-02
9.12679899e-02
9.50099975e-02
9.24287997e-02
9.09514739e-02
9.31093246e-02
1.07209999e-01
9.21971053e-02
1.03309792e-01
9.13051404e-02
1.00694751e-01
9.51674115e-02
9.12262257e-02
9.84464533e-02
1.29395799e-01
1.27535695e-01
1.25430722e-01
1.22387286e-01
9.36722319e-02
8.29228982e-02
1.21627934e-01
6.67013321e-02
7.84645658e-02
9.66532659e-02
4.54651152e-02
7.88469277e-02
5.82834625e-02
8.44002739e-02
1.43104225e-01
1.00269642e-01
7.78542794e-02
</DataArray>
<DataArray type="Float32" Name="Stress_Mises" format="ascii">
3.15345249e+01
3.79205265e+01
3.34699037e+01
3.49515963e+01
2.93495121e+01
3.47889776e+01
3.18176399e+01
3.38208218e+01
4.05575171e+01
4.23731866e+01
3.68351316e+01
3.67319928e+01
4.41373081e+01
5.06432047e+01
3.67855632e+01
4.18160778e+01
4.97607946e+01
5.82805972e+01
3.91012875e+01
2.91614851e+01
4.89942474e+01
4.34333441e+01
3.56955285e+01
3.21208289e+01
7.78956070e+01
8.83274956e+01
5.61598845e+01
5.50133295e+01
3.29692911e+01
3.09610510e+01
3.18318239e+01
2.83211648e+01
3.87782307e+01
3.75183256e+01
2.64673443e+01
3.92526304e+01
2.53567753e+01
5.57923489e+01
1.93507853e+01
4.71600232e+01
4.72049856e+01
8.98018678e+01
3.49097257e+01
2.43028855e+01
3.06270646e+01
2.31176058e+01
4.05311604e+01
3.14647876e+01
2.18100272e+01
2.16284586e+01
1.38435745e+01
3.40774994e+01
8.42506989e+00
2.72025553e+01
2.47720118e+01
3.57665186e+01
3.26389971e+01
3.11052599e+01
2.37476066e+01
2.63427124e+01
2.13683012e+01
2.61055198e+01
1.44533954e+01
2.25602479e+01
1.13238958e+01
2.04530703e+01
3.43472729e+01
9.89717611e+00
3.35205936e+01
2.19728276e+01
3.02056313e+01
3.24544153e+01
2.39696325e+01
2.78676808e+01
2.19175647e+01
2.87610602e+01
2.38735559e+01
4.29634684e+01
1.57270718e+01
2.35459747e+01
1.24857742e+01
8.61116676e+00
1.00218914e+01
7.64632154e+00
6.15894337e+01
6.09755211e+01
4.53922243e+01
5.94952908e+01
7.19594116e+01
5.55998986e+01
5.60466766e+01
7.45587045e+01
2.65523911e+01
3.96427135e+01
1.83264885e+01
1.44333986e+01
4.77492428e+00
5.43929386e+00
3.02885656e+01
2.93076754e+01
2.56738583e+01
3.07379756e+01
2.40831227e+01
2.54552133e+01
2.66540785e+01
2.88432256e+01
2.60912666e+01
2.58115879e+01
1.92968709e+01
2.58605614e+01
1.97895880e+01
2.54904308e+01
2.48780365e+01
3.01359081e+01
4.21426222e+01
9.99685394e+01
7.87513809e+01
7.30810099e+01
7.81555099e+01
3.02278778e+01
1.66758857e+01
6.75342604e+01
4.43826847e+01
1.68717773e+01
1.35110739e+01
2.15910389e+01
1.18886258e+01
1.89087396e+01
1.89768886e+01
2.93056311e+01
6.09464970e+01
3.45800261e+01
3.81809711e+01
6.33518171e+01
1.32929585e+02
1.71405774e+00
1.26558852e+00
2.09717667e+00
2.95710182e+00
2.79751196e+01
2.75783432e+01
2.30020674e+01
2.69988866e+01
2.21595390e+01
2.45214763e+01
2.29281273e+01
2.45579252e+01
2.08577490e+01
2.71260887e+01
1.65206307e+01
3.09999552e+01
1.54413786e+01
2.52501906e+01
2.58365240e+01
2.51076891e+01
4.46923700e+01
1.20125851e+02
8.87621136e+01
6.84301128e+01
5.95358601e+01
2.47938410e+01
2.90671562e+01
1.47032129e+02
2.67840993e+01
1.77810500e+01
9.23517895e+01
2.41111585e+01
2.24542427e+01
3.91060125e+01
4.99894600e+01
1.19937613e+02
2.83371068e+01
3.93213973e+01
</DataArray>
<DataArray type="Float32" Name="Stress_Max_Principal" format="ascii">
4.09505129e-01
-4.67457855e+00
-1.61944950e+00
-3.06887937e+00
2.14663422e+00
-2.23415285e+00
-2.41483673e-01
-1.99196541e+00
-6.61071467e+00
-8.31630445e+00
-4.17169315e+00
-3.41814497e+00
-9.59346366e+00
-1.45568260e+01
-4.69566983e+00
-7.73544565e+00
-1.44160342e+01
-1.85218985e+01
-6.30512953e+00
2.17975464e+00
-1.31076688e+01
-3.70562959e+00
2.26418996e+00
9.20829151e+00
-3.33820229e+01
-3.70509310e+01
-1.83048309e+01
-1.64121983e+01
-1.01286006e+00
4.60432053e-01
-7.54859209e-01
1.97075462e+00
-4.22679901e+00
-1.32894922e+00
2.92620442e+01
1.57786787e+01
4.03880160e+01
1.29641914e+00
3.90487649e+01
6.14686584e+00
3.21298499e+01
-1.30196902e+01
1.19992256e-01
7.12490749e+00
2.89692111e+00
7.33309135e+00
3.08156822e+01
2.13965727e+01
4.34582081e+01
4.13028295e+01
3.23104356e+01
6.10744298e+01
3.96902237e+01
5.33893464e+01
3.21482410e+01
6.53191643e+01
3.08391663e+00
2.82911921e+00
8.89619052e+00
5.69115770e+00
2.00506917e+01
2.76737680e+01
2.88797889e+01
4.49183941e+01
2.87917566e+01
2.14714108e+01
-1.89901042e+00
2.12935264e+01
7.34809399e+00
1.69347452e+01
4.57998343e+00
2.00548077e+00
1.27701793e+01
4.91177690e+00
1.97490736e+01
1.54957923e+01
2.35150614e+01
3.46932119e+01
2.70430250e+01
2.35129533e+01
8.63504770e+00
6.66861103e+00
2.96684206e+00
1.44645812e+00
-2.06620917e+01
-1.94089985e+01
-9.25984590e+00
-1.99798908e+01
-2.67783680e+01
-9.42451596e+00
3.17521830e+01
-2.39149380e+01
4.88063102e+01
7.00294495e+00
8.63666606e+00
7.91922291e+00
4.61156100e-01
1.44047201e+00
1.15785694e+00
1.50193250e+00
4.76720064e+00
8.69329363e-01
5.98105222e+00
5.85432190e+00
3.32579434e+00
1.03904862e+01
4.22801006e+00
7.15583694e+00
1.13096688e+01
5.68119797e+00
9.62064505e+00
5.58201122e+00
8.36979041e+00
1.20543283e+00
-4.84933268e+00
-4.99526426e+01
-3.94651523e+01
-3.30715822e+01
-3.49262629e+01
2.46376543e+01
1.19218856e+01
-2.50334141e+01
9.81366653e+01
1.78738705e+01
1.74518851e+01
4.37867967e+01
3.38205795e+01
2.12800429e+01
1.14943235e+01
1.21201121e+01
-1.64589543e+01
-1.86332226e+00
-5.13918710e+00
6.32933807e+00
-8.19136314e+01
9.59222883e-01
6.83332384e-01
1.08370176e+00
1.75994223e+00
2.15796852e+00
2.85283384e+00
8.08978392e+00
3.48909706e+00
7.72999787e+00
7.98669177e+00
6.70146340e+00
1.48608050e+01
9.28344691e+00
7.24176389e+00
1.23887868e+01
1.54004412e+01
1.29540939e+01
2.44577802e+01
5.66329756e+00
8.00853193e+00
3.20026349e+01
-7.23452110e+01
-4.74434266e+01
-2.96629343e+01
-2.01451745e+01
6.77270330e+00
2.15608404e+01
-9.03823566e+01
3.73481763e+01
1.68258054e+01
-4.82177061e+01
2.41311092e+01
1.98685783e+01
4.33494622e+01
9.72595978e+01
-6.09521732e+01
1.72798850e+01
1.40112715e+01
</DataArray>
<DataArray type="Float32" Name="Stress_Mid_Principal" format="ascii">
-3.13931584e+00
-9.04410726e+00
-4.38726819e+00
-5.46656072e+00
-1.09994662e+00
-6.07387221e+00
-2.91622829e+00
-4.60320127e+00
-1.16589745e+01
-1.30335932e+01
-7.54874980e+00
-7.19770722e+00
-1.47218654e+01
-2.09226182e+01
-6.89047909e+00
-1.25467852e+01
-1.95600260e+01
-3.02817551e+01
-9.28436184e+00
-5.34943044e-01
-1.95608212e+01
-1.40666552e+01
-1.65061498e+00
2.18140930e+00
-4.92183342e+01
-6.45586281e+01
-2.66744796e+01
-2.63519096e+01
-4.09061289e+00
-2.10545588e+00
-2.30023360e+00
9.91285086e-01
-1.06264192e+01
-6.97737348e+00
1.79541254e+01
5.42490510e+00
2.81072305e+01
-1.92517880e+01
2.96269089e+01
-9.56507540e+00
7.42208099e+00
-4.71507149e+01
-9.04921877e+00
2.54039192e+00
-3.91011479e+00
4.48536611e+00
1.00971065e+01
5.54738659e+00
2.89817030e+01
2.72998848e+01
2.54780251e+01
3.26545881e+01
3.34616025e+01
3.06121934e+01
2.04202319e+01
4.46026258e+01
-8.39747187e+00
-5.17976046e+00
1.96594653e+00
5.63210040e-01
9.98831260e+00
1.36527930e+01
2.26973102e+01
3.18112823e+01
2.59600032e+01
8.70983966e+00
-1.47826426e+01
1.48735625e+01
-2.50731546e+00
-1.40862934e+00
-5.59266597e+00
-6.73062658e+00
5.51376173e+00
-1.53934288e+00
8.63647589e+00
4.70954368e+00
1.17719626e+01
1.05837409e+01
1.74830609e+01
9.19108188e+00
3.46237057e+00
8.25041163e-01
-1.34699547e+00
3.12191993e-01
-3.40836277e+01
-3.45541191e+01
-1.72111015e+01
-3.09751282e+01
-4.47903986e+01
-2.11687686e+01
3.94016457e+00
-4.54557184e+01
3.59521811e+01
-1.64921074e+01
4.55952847e+00
3.16004572e+00
-4.63766605e-01
1.95342958e-01
-1.67618752e+00
-2.82008134e-01
2.67747881e+00
-2.16755724e+00
4.42139527e+00
3.41628502e+00
2.48013163e+00
5.97679406e+00
2.54470879e+00
4.67560482e+00
9.29901979e+00
3.51556122e+00
8.20759201e+00
2.51060426e+00
5.69393530e+00
-1.43070295e+00
-9.56366461e+00
-6.81615392e+01
-4.40833664e+01
-4.07095954e+01
-4.80062027e+01
1.47535012e+01
1.10998927e+01
-3.38479646e+01
5.89378452e+01
1.33533953e+01
1.53171410e+01
3.01197592e+01
2.50659933e+01
1.50549432e+01
8.89201832e+00
2.01624393e+00
-2.33281884e+01
-4.31263316e+00
-8.62426519e+00
-1.27020578e+01
-9.25057755e+01
-3.68519623e-01
-3.64766909e-01
-1.31046448e-01
-6.31424338e-01
1.38252950e+00
1.37341467e+00
6.10846116e+00
1.76817596e+00
5.83614171e+00
4.96216320e+00
5.50009871e+00
9.90534076e+00
7.23233789e+00
3.90388215e+00
1.07681956e+01
7.94649494e+00
1.21626089e+01
1.68866118e+01
1.71841687e+00
3.44738388e+00
1.53026317e+01
-8.53690262e+01
-5.32299166e+01
-3.62156582e+01
-3.08058519e+01
2.85377857e+00
1.28514922e+01
-1.12289325e+02
2.43368352e+01
1.37523572e+01
-5.82790919e+01
1.63579382e+01
1.47127872e+01
2.32026245e+01
4.78045273e+01
-7.97750158e+01
1.19388992e+01
4.09341431e+00
</DataArray>
<DataArray type="Float32" Name="Stress_Min_Principal" format="ascii">
-3.27493057e+01
-4.45905752e+01
-3.63803864e+01
-3.91497259e+01
-2.86911297e+01
-3.87834241e+01
-3.33076209e+01
-3.70360923e+01
-4.94560318e+01
-5.28486540e+01
-4.25740812e+01
-4.18179173e+01
-5.60566959e+01
-6.80767009e+01
-4.25278772e+01
-5.17465844e+01
-6.65394201e+01
-8.17470076e+01
-4.68102214e+01
-2.82287192e+01
-6.50050125e+01
-5.11360722e+01
-3.45130091e+01
-2.48551932e+01
-1.17978958e+02
-1.35799461e+02
-7.81796141e+01
-7.56920404e+01
-3.54078548e+01
-3.16915107e+01
-3.33289468e+01
-2.68273748e+01
-4.57895615e+01
-4.09578083e+01
8.87011364e-01
-2.57598564e+01
1.28953288e+01
-6.04424724e+01
1.82085743e+01
-4.55250904e+01
-2.15751629e+01
-1.13263841e+02
-3.84243498e+01
-1.91436825e+01
-3.04869992e+01
-1.70623242e+01
-1.39609919e+01
-1.38783785e+01
1.87875876e+01
1.74908965e+01
1.71565056e+01
2.34400285e+01
3.03951346e+01
2.34769306e+01
4.14967728e+00
2.49832196e+01
-3.37358637e+01
-3.14872761e+01
-1.75123374e+01
-2.28340967e+01
-4.24724865e+00
-1.99955142e+00
1.27217205e+01
1.92890904e+01
1.65390311e+01
-1.92344952e+00
-3.93324819e+01
9.94860490e+00
-2.98483505e+01
-7.18234617e+00
-2.93434758e+01
-3.39177749e+01
-1.35991269e+01
-2.56080698e+01
-5.16743040e+00
-1.61433616e+01
-3.77151155e+00
-1.29494146e+01
8.99296451e+00
-2.68680865e+00
-5.35620424e+00
-2.84226645e+00
-8.39899397e+00
-6.62296939e+00
-8.78535709e+01
-8.65297165e+01
-5.80929708e+01
-8.42054939e+01
-1.05997913e+02
-6.90590353e+01
-3.07923355e+01
-1.06170464e+02
1.98065410e+01
-3.83989244e+01
-1.08896418e+01
-8.18652439e+00
-4.70856428e+00
-4.50873053e+00
-3.04481072e+01
-2.86451254e+01
-2.18861630e+01
-3.12736068e+01
-1.88333521e+01
-2.06213251e+01
-2.37392559e+01
-1.90943110e+01
-2.26624982e+01
-1.94477937e+01
-8.82847047e+00
-2.10446255e+01
-1.08375854e+01
-2.12855469e+01
-1.72369377e+01
-3.01553258e+01
-4.90767725e+01
-1.57102443e+02
-1.20417118e+02
-1.09664219e+02
-1.18795223e+02
-6.88542819e+00
-5.14166641e+00
-9.65137161e+01
5.02063751e+01
-4.63305712e-01
3.17094290e+00
2.06451109e+01
2.05561728e+01
8.62302482e-01
-8.57207155e+00
-2.01184167e+01
-8.04942946e+01
-3.74999132e+01
-4.49418697e+01
-6.12914782e+01
-2.19814865e+02
-9.75797027e-01
-7.03512609e-01
-1.33767283e+00
-1.51364613e+00
-2.61961679e+01
-2.54342415e+01
-1.57056158e+01
-2.43200723e+01
-1.53116541e+01
-1.76020895e+01
-1.67969947e+01
-1.04366344e+01
-1.24664997e+01
-2.09979000e+01
-4.88044596e+00
-1.68502636e+01
-2.86230803e+00
-1.80124140e+00
-2.18619128e+01
-1.88654163e+01
-1.49620609e+01
-1.98015099e+02
-1.38950420e+02
-1.01131241e+02
-8.42910728e+01
-1.96472729e+01
-8.54203701e+00
-2.47097244e+02
9.78290170e+00
-1.58954954e+00
-1.45002557e+02
-1.22921556e+00
-3.39371443e+00
1.14726584e+00
4.67523689e+01
-1.88732352e+02
-1.18701262e+01
-2.67863274e+01
</DataArray>
<DataArray type="Float32" Name="Stress_Pressure" format="ascii">
1.18263721e+01
1.94364200e+01
1.41290343e+01
1.58950558e+01
9.21481371e+00
1.56971496e+01
1.21551111e+01
1.45437531e+01
2.25752394e+01
2.47328510e+01
1.80981746e+01
1.74779234e+01
2.67906752e+01
3.45187149e+01
1.80380092e+01
2.40096063e+01
3.35051594e+01
4.35168862e+01
2.07999048e+01
8.86130250e+00
3.25578341e+01
2.29694523e+01
1.12998123e+01
4.48849757e+00
6.68597717e+01
7.91363411e+01
4.10529761e+01
3.94853818e+01
1.35037764e+01
1.11121783e+01
1.21280131e+01
7.95511127e+00
2.02142588e+01
1.64213771e+01
-1.60343940e+01
1.51875823e+00
-2.71301912e+01
2.61326137e+01
-2.89614154e+01
1.63144323e+01
-5.99225616e+00
5.78114154e+01
1.57845255e+01
3.15946007e+00
1.05000646e+01
1.74795580e+00
-8.98393226e+00
-4.35519320e+00
-3.04091659e+01
-2.86978703e+01
-2.49816554e+01
-3.90563496e+01
-3.45156549e+01
-3.58261569e+01
-1.89060495e+01
-4.49683356e+01
1.30164731e+01
1.12793064e+01
2.21673325e+00
5.52657644e+00
-8.59725213e+00
-1.31090025e+01
-2.14329397e+01
-3.20062558e+01
-2.37635962e+01
-9.41926702e+00
1.86713792e+01
-1.53718981e+01
8.33585715e+00
-2.78125660e+00
1.01187193e+01
1.28809733e+01
-1.56160482e+00
7.41187847e+00
-7.73937321e+00
-1.35399169e+00
-1.05051709e+01
-1.07758465e+01
-1.78396833e+01
-1.00057425e+01
-2.24707139e+00
-1.55046197e+00
2.25971586e+00
1.62143984e+00
4.75330963e+01
4.68309479e+01
2.81879728e+01
4.50535049e+01
5.91888924e+01
3.32174397e+01
-1.63333702e+00
5.85137075e+01
-3.48550114e+01
1.59626949e+01
-7.68850863e-01
-9.64248290e-01
1.57039165e+00
9.57638547e-01
1.03221459e+01
9.14173341e+00
4.81382784e+00
1.08572783e+01
2.81030130e+00
3.78357238e+00
5.97777700e+00
9.09010455e-01
5.29659314e+00
2.53878412e+00
-3.92673957e+00
3.94928885e+00
-2.33021730e+00
4.39764380e+00
1.05773759e+00
1.01268651e+01
2.11632564e+01
9.17388769e+01
6.79885473e+01
6.11484642e+01
6.72425652e+01
-1.08352427e+01
-5.96003717e+00
5.17983636e+01
-6.90936298e+01
-1.02546532e+01
-1.19799894e+01
-3.15172224e+01
-2.64809157e+01
-1.23990963e+01
-3.93808985e+00
1.99402022e+00
4.00938113e+01
1.45586224e+01
1.95684414e+01
2.25547323e+01
1.31411427e+02
1.28364589e-01
1.28315717e-01
1.28339175e-01
1.28376089e-01
7.55189002e+00
7.06933093e+00
5.02456635e-01
6.35426635e+00
5.81838369e-01
1.55107787e+00
1.53181100e+00
-4.77650389e+00
-1.34976172e+00
3.28408492e+00
-6.09217894e+00
-2.16555715e+00
-7.41813174e+00
-1.31810504e+01
4.82673234e+00
2.46983379e+00
-1.07810700e+01
1.18576442e+02
7.98745871e+01
5.56699448e+01
4.50806999e+01
3.34026371e+00
-8.62343109e+00
1.49922974e+02
-2.38226370e+01
-9.66287136e+00
8.38331189e+01
-1.30866107e+01
-1.03958837e+01
-2.25664498e+01
-6.39388313e+01
1.09819848e+02
-5.78288555e+00
2.89388084e+00
</DataArray>
<DataArray type="Float32" Name="Stress_Tresca" format="ascii">
3.31588097e+01
3.99159966e+01
3.47609377e+01
3.60808477e+01
3.08377628e+01
3.65492706e+01
3.30661370e+01
3.50441275e+01
4.28453169e+01
4.45323486e+01
3.84023886e+01
3.83997724e+01
4.64632339e+01
5.35198746e+01
3.78322082e+01
4.40111388e+01
5.21233845e+01
6.32251091e+01
4.05050929e+01
3.04084740e+01
5.18973427e+01
4.74304419e+01
3.67771988e+01
3.40634848e+01
8.45969391e+01
9.87485313e+01
5.98747816e+01
5.92798424e+01
3.43949952e+01
3.21519432e+01
3.25740881e+01
2.87981296e+01
4.15627613e+01
3.96288599e+01
2.83750329e+01
4.15385358e+01
2.74926872e+01
6.17388906e+01
2.08401904e+01
5.16719564e+01
5.37050114e+01
1.00244152e+02
3.85443406e+01
2.62685909e+01
3.33839200e+01
2.43954153e+01
4.47766733e+01
3.52749507e+01
2.46706204e+01
2.38119332e+01
1.51539300e+01
3.76344020e+01
9.29508909e+00
2.99124158e+01
2.79985638e+01
4.03359451e+01
3.68197813e+01
3.43163948e+01
2.64085279e+01
2.85252547e+01
2.42979403e+01
2.96733192e+01
1.61580689e+01
2.56293036e+01
1.22527256e+01
2.33948599e+01
3.74334707e+01
1.13449214e+01
3.71964455e+01
2.41170902e+01
3.39234600e+01
3.59232559e+01
2.63693063e+01
3.05198467e+01
2.49165044e+01
3.16391535e+01
2.72865729e+01
4.76426264e+01
1.80500607e+01
2.61997619e+01
1.39912519e+01
9.51087761e+00
1.13658361e+01
8.06942749e+00
6.71914806e+01
6.71207199e+01
4.88331251e+01
6.42256012e+01
7.92195435e+01
5.96345196e+01
6.25445175e+01
8.22555281e+01
2.89997692e+01
4.54018688e+01
1.95263081e+01
1.61057472e+01
5.16972017e+00
5.94920254e+00
3.16059637e+01
3.01470571e+01
2.66533635e+01
3.21429358e+01
2.48144040e+01
2.64756472e+01
2.70650501e+01
2.94847968e+01
2.68905079e+01
2.66036308e+01
2.01381400e+01
2.67258236e+01
2.04582310e+01
2.68675575e+01
2.56067286e+01
3.13607581e+01
4.42274402e+01
1.07149800e+02
8.09519672e+01
7.65926380e+01
8.38689575e+01
3.15230825e+01
1.70635519e+01
7.14803034e+01
4.79302902e+01
1.83371767e+01
1.42809420e+01
2.31416859e+01
1.32644068e+01
2.04177401e+01
2.00663943e+01
3.22385281e+01
6.40353403e+01
3.56365910e+01
3.98026829e+01
6.76208181e+01
1.37901237e+02
1.93501997e+00
1.38684499e+00
2.42137456e+00
3.27358818e+00
2.83541365e+01
2.82870748e+01
2.37953992e+01
2.78091693e+01
2.30416527e+01
2.55887816e+01
2.34984579e+01
2.52974393e+01
2.17499471e+01
2.82396643e+01
1.72692330e+01
3.22507043e+01
1.58164024e+01
2.62590213e+01
2.75252106e+01
2.68739486e+01
4.69646966e+01
1.25669888e+02
9.15069942e+01
7.14683046e+01
6.41459007e+01
2.64199758e+01
3.01028771e+01
1.56714890e+02
2.75652749e+01
1.84153547e+01
9.67848501e+01
2.53603249e+01
2.32622929e+01
4.22021964e+01
5.05072289e+01
1.27780177e+02
2.91500111e+01
4.07975979e+01
</DataArray>
<DataArray type="Float32" Name="Stress_Third_Invariant" format="ascii">
-3.10805054e+01
-3.73478050e+01
-3.31895530e+01
-3.47417870e+01
-2.89412107e+01
-3.43065176e+01
-3.15494890e+01
-3.35725346e+01
-3.98414497e+01
-4.17697141e+01
-3.64690042e+01
-3.59099119e+01
-4.34145107e+01
-4.97142353e+01
-3.66328883e+01
-4.11785915e+01
-4.91271181e+01
-5.53829031e+01
-3.88428696e+01
-2.88232564e+01
-4.80123234e+01
-3.83503077e+01
-3.11019056e+01
-2.47515641e+01
-7.41428452e+01
-7.74963531e+01
-5.47296333e+01
-5.28482442e+01
-3.26275647e+01
-3.06830692e+01
-3.17403085e+01
-2.82828228e+01
-3.74973107e+01
-3.45171421e+01
-8.89322567e+00
-2.28313734e+01
-3.12602043e+00
-3.84424149e+01
1.30934513e+00
-3.19230700e+01
-1.42993288e+01
-6.05482190e+01
-3.18922083e+01
-2.32998531e+01
-2.85834589e+01
-2.26736732e+01
-1.12385349e+01
-1.36237479e+01
4.03411406e+00
1.43201733e+00
-3.18730466e+00
3.06630789e+01
4.99655159e+00
2.43020229e+01
-6.68603802e+00
5.16710377e+00
-2.74639201e+01
-2.86037254e+01
-2.11147858e+01
-2.51674147e+01
-1.13736278e+01
-6.87278989e+00
-5.58327758e+00
1.52857137e+00
-7.58724689e+00
7.09563732e-01
-1.68250818e+01
3.12321329e+00
-2.92367668e+01
1.92800598e+01
-2.56302579e+01
-2.96105919e+01
-1.87505494e+01
-2.60789969e+01
-9.32520962e+00
-1.79134159e+01
-9.18323952e+00
-8.62034210e+00
4.10072243e+00
-8.88524055e-02
-7.10084844e+00
3.14722013e+00
-4.10412300e+00
-6.46789281e+00
-5.81537495e+01
-5.65065117e+01
-4.37524309e+01
-5.71407337e+01
-6.64586601e+01
-4.80346665e+01
-1.78581810e+01
-6.26311270e+01
7.27459908e-01
1.02177744e+01
-1.06158499e+01
-1.19893208e+01
-4.56680775e+00
-5.08600569e+00
-2.99880314e+01
-2.91490593e+01
-2.54768614e+01
-3.03953414e+01
-2.39327482e+01
-2.46002896e+01
-2.66184511e+01
-2.23574820e+01
-2.59636343e+01
-2.39039391e+01
-1.82695700e+01
-2.47382895e+01
-1.96755695e+01
-2.50063417e+01
-2.24186007e+01
-2.98543513e+01
-4.10675642e+01
-9.37365692e+01
-7.84248638e+01
-7.21516123e+01
-7.56297646e+01
-1.27222741e+01
-1.66051444e+01
-6.61296689e+01
4.17973995e+01
-1.30461117e+01
-1.16215887e+01
4.10529654e+00
4.92555428e+00
-1.06872349e+01
-1.80494127e+01
-2.05030416e+01
-5.98924580e+01
-3.35268226e+01
-3.78164558e+01
-3.94024897e+01
-1.31951912e+02
1.44033939e+00
1.09276366e+00
-1.09847844e-01
2.52808261e+00
-2.79489927e+01
-2.74852042e+01
-2.19700455e+01
-2.68476944e+01
-2.19637914e+01
-2.27118995e+01
-2.28367841e+01
-1.75555391e+01
-2.02538994e+01
-2.42329104e+01
-1.63342360e+01
-1.98025739e+01
-1.53788972e+01
-1.07626855e+01
-2.49221143e+01
-2.29825202e+01
-1.45336823e+01
-1.17118398e+02
-8.83155460e+01
-6.77112341e+01
-5.73288441e+01
-2.37123101e+01
-1.43185738e+01
-1.43154942e+02
-1.78743907e+00
-1.34959468e+01
-9.05115061e+01
-1.08217316e+01
-1.30338960e+01
-2.22867821e+00
4.99645386e+01
-1.14797945e+02
-1.87709138e+01
-2.38903551e+01
</DataArray>
<DataArray type="Float32" Name="Logarithmic_strain_Max_Principal" format="ascii">
7.51838833e-02
7.77703188e-02
7.10381493e-02
6.87994026e-02
7.15844929e-02
7.30873588e-02
6.80428669e-02
6.69595925e-02
8.32313858e-02
7.70855155e-02
7.50415009e-02
7.19926385e-02
8.85162428e-02
8.30775201e-02
7.71033894e-02
7.71696586e-02
9.44784731e-02
9.13088564e-02
8.19472577e-02
7.86748249e-02
1.01756524e-01
1.00077648e-01
8.57929997e-02
8.63614008e-02
1.21803120e-01
1.17216770e-01
1.01737991e-01
1.00427149e-01
5.91306230e-02
5.70264477e-02
5.72720170e-02
5.43226600e-02
6.39249673e-02
6.09353720e-02
5.90876546e-02
6.26626451e-02
6.74191471e-02
7.29776329e-02
6.84286468e-02
7.45955650e-02
7.35025425e-02
8.40312988e-02
5.47175417e-02
5.29247317e-02
5.07506523e-02
4.75641619e-02
4.61033005e-02
4.89487941e-02
2.23046995e-02
3.11527927e-02
1.71414170e-02
4.09218771e-02
2.02564523e-02
4.00243799e-02
1.76666891e-02
3.55340187e-02
5.38790161e-02
5.42030968e-02
4.83512511e-02
4.94322497e-02
4.05821167e-02
4.06643087e-02
1.47792386e-02
2.21733878e-02
2.41839005e-03
4.53681845e-03
9.02537783e-03
5.83066279e-03
1.01959781e-02
9.54329898e-03
5.30856410e-02
5.62339965e-02
4.86758039e-02
5.11894030e-02
4.17437349e-02
4.24870583e-02
1.61695199e-02
2.96762767e-02
2.04562758e-03
5.18008560e-03
1.58507775e-04
1.35060623e-04
9.82406418e-05
5.37150797e-05
5.92876822e-02
6.37034476e-02
5.30290147e-02
5.79409022e-02
5.15442006e-02
4.95948978e-02
2.51078606e-02
4.27938799e-02
2.21610063e-03
1.07087664e-02
2.93529047e-04
1.85573360e-04
2.99226958e-05
4.60550273e-05
6.37077130e-02
6.15180051e-02
6.28589024e-02
6.37474926e-02
6.11604154e-02
6.40544374e-02
6.33984655e-02
6.73645930e-02
7.00966474e-02
7.39677716e-02
6.89378642e-02
7.54456902e-02
7.14681409e-02
7.89717380e-02
5.95159861e-02
6.07807217e-02
6.44619779e-02
8.13524112e-02
8.31778198e-02
8.52483567e-02
9.05870534e-02
5.15474551e-02
4.83837016e-02
6.03778853e-02
8.15378092e-02
4.62281113e-02
3.98862464e-02
4.53244783e-02
4.37832909e-02
4.56815101e-02
4.42864178e-02
5.31888395e-02
6.18960205e-02
4.61436901e-02
4.47632261e-02
6.07720027e-02
7.26314560e-02
2.39289511e-05
1.83119782e-05
2.74066924e-05
4.40447820e-05
5.65518029e-02
5.81539553e-02
6.11337065e-02
5.87083474e-02
6.21249769e-02
6.48303465e-02
6.33319682e-02
6.75132098e-02
6.65754322e-02
7.10966885e-02
6.44683782e-02
6.77368334e-02
6.25278316e-02
6.82524731e-02
6.93209125e-02
6.77464288e-02
6.40169797e-02
8.61346915e-02
8.25021639e-02
7.98618663e-02
8.17781426e-02
6.79017082e-02
6.13275273e-02
9.56549197e-02
4.98013736e-02
5.26094707e-02
6.76344149e-02
5.05636297e-02
5.07344203e-02
6.57785593e-02
1.13925964e-01
9.80369498e-02
6.01147981e-02
5.56856077e-02
</DataArray>
<DataArray type="Float32" Name="Logarithmic_strain_Min_Principal" format="ascii">
-1.00727074e-01
-1.04963779e-01
-9.93754491e-02
-9.79363956e-02
-9.67391171e-02
-1.00282617e-01
-9.64259990e-02
-9.48681571e-02
-1.12098288e-01
-1.06427209e-01
-1.06924249e-01
-1.02828947e-01
-1.21786539e-01
-1.15997497e-01
-1.14693213e-01
-1.11523967e-01
-1.31990716e-01
-1.25363173e-01
-1.22421306e-01
-1.16126908e-01
-1.40796922e-01
-1.28815897e-01
-1.27088858e-01
-1.21969810e-01
-1.52554259e-01
-1.42475940e-01
-1.37243256e-01
-1.32256400e-01
-8.66275635e-02
-8.60823356e-02
-8.63601966e-02
-8.45314972e-02
-8.55883714e-02
-8.80336696e-02
-7.70323463e-02
-9.04823935e-02
-7.82012958e-02
-9.28886073e-02
-7.22434837e-02
-9.20983839e-02
-7.78199732e-02
-1.01366977e-01
-7.15418793e-02
-7.14516938e-02
-7.17513068e-02
-7.10547511e-02
-5.55912908e-02
-6.31729160e-02
-1.93376043e-02
-2.71430978e-02
-1.26199645e-02
-3.11255511e-02
-1.36515487e-02
-3.13402172e-02
-1.67295113e-02
-2.87569063e-02
-6.25551445e-02
-6.66668788e-02
-6.02314183e-02
-6.38600104e-02
-4.30536969e-02
-4.33178912e-02
-9.84648708e-03
-1.91364028e-02
-2.68494191e-03
-3.89690896e-03
-1.33950952e-02
-4.39335048e-03
-1.40198466e-02
-5.79118719e-03
-6.60172943e-02
-7.10669383e-02
-6.22235774e-02
-6.75291959e-02
-4.79000062e-02
-5.15544838e-02
-1.33747156e-02
-3.40447098e-02
-8.80345720e-04
-3.02711165e-03
-1.21541341e-04
-8.93742792e-05
-1.74556848e-04
-1.40123103e-04
-7.91350864e-02
-8.28450620e-02
-7.42243640e-02
-8.08296688e-02
-6.58014491e-02
-7.09402021e-02
-2.73950603e-02
-5.63369902e-02
-2.23996403e-03
-9.64137848e-03
-4.22334750e-04
-2.07521327e-04
-9.47662775e-05
-9.51783004e-05
-9.19542313e-02
-9.28802285e-02
-9.02762264e-02
-9.01574306e-02
-9.46331900e-02
-9.56069045e-02
-1.00472640e-01
-1.02811160e-01
-1.05344202e-01
-1.11559549e-01
-1.06469670e-01
-1.15350313e-01
-1.07962165e-01
-1.16721250e-01
-8.55477052e-02
-8.39082822e-02
-9.70708174e-02
-1.23344484e-01
-1.32454876e-01
-1.33990958e-01
-1.35059781e-01
-7.27554737e-02
-7.06196297e-02
-8.84434233e-02
-7.21008983e-02
-6.06464180e-02
-6.07062457e-02
-5.50424941e-02
-4.44322017e-02
-6.17673923e-02
-6.37066122e-02
-6.88371789e-02
-9.76202935e-02
-7.33333845e-02
-7.28961118e-02
-8.68977532e-02
-1.25106215e-01
-2.22797707e-05
-1.55667690e-05
-3.01612308e-05
-3.59405067e-05
-9.30068493e-02
-9.30069387e-02
-9.18675493e-02
-9.30040628e-02
-9.10914429e-02
-9.49290330e-02
-9.18739289e-02
-9.79553061e-02
-9.25938822e-02
-1.04921462e-01
-9.19973943e-02
-1.03676835e-01
-9.11714323e-02
-1.00531204e-01
-9.47950073e-02
-9.02245957e-02
-1.04221235e-01
-1.37745798e-01
-1.32514488e-01
-1.26677034e-01
-1.23171646e-01
-8.99606698e-02
-8.26388784e-02
-1.35636324e-01
-7.28235213e-02
-7.37585127e-02
-1.02528304e-01
-7.36783277e-02
-7.40410797e-02
-8.71469666e-02
-1.03499733e-01
-1.36994024e-01
-8.36101715e-02
-8.02224986e-02
</DataArray>
<DataArray type="Float32" Name="Plastic_strain_Max_Principal" format="ascii">
7.50391632e-02
7.77335651e-02
7.09543508e-02
6.87120594e-02
7.13932179e-02
7.30251390e-02
6.79150848e-02
6.69158855e-02
8.32575224e-02
7.71390814e-02
7.49590788e-02
7.19757155e-02
8.84336755e-02
8.83038919e-02
7.69801345e-02
7.86940707e-02
9.45042446e-02
9.80533995e-02
8.20469577e-02
8.11086018e-02
1.00993641e-01
1.12003222e-01
8.76533072e-02
8.64157989e-02
1.22133739e-01
1.28724217e-01
1.01162475e-01
1.05201999e-01
5.90429343e-02
5.68945669e-02
5.71957701e-02
5.41442698e-02
6.52846880e-02
6.22444036e-02
5.02570109e-02
5.91035344e-02
4.85818989e-02
6.12419338e-02
4.30639926e-02
5.94116841e-02
4.01036553e-02
6.86334781e-02
5.45758409e-02
5.25897425e-02
5.04573071e-02
4.72562732e-02
4.09688661e-02
4.88395973e-02
2.02091879e-02
2.83878523e-02
1.67138323e-02
2.54120429e-02
1.54661833e-02
2.68500534e-02
1.99774858e-02
3.12260585e-02
5.36560044e-02
5.38856946e-02
4.85587739e-02
4.91924165e-02
4.25193058e-02
3.95051530e-02
6.99682592e-03
1.38209792e-02
2.05723080e-03
4.14090244e-03
9.20179393e-03
5.54240295e-03
1.01257358e-02
9.19594321e-03
5.27992873e-02
5.61051052e-02
4.84070438e-02
5.09518711e-02
4.38188119e-02
4.08956276e-02
1.23390432e-02
3.06886185e-02
1.33431768e-03
4.83058730e-03
4.54082203e-05
1.21081424e-05
0.00000000e+00
0.00000000e+00
5.94942030e-02
6.40893579e-02
5.33337547e-02
5.82871605e-02
5.33299111e-02
5.25261974e-02
1.99591266e-02
4.45436959e-02
1.90395530e-03
1.03270282e-02
1.00397192e-04
2.96944709e-05
0.00000000e+00
0.00000000e+00
6.36465475e-02
6.13570316e-02
6.27037585e-02
6.35865526e-02
6.09939350e-02
6.37606173e-02
6.32795207e-02
6.13974966e-02
6.98684007e-02
7.49832457e-02
6.87743835e-02
7.49672232e-02
7.14418590e-02
7.82322939e-02
6.04471960e-02
6.07008217e-02
6.38928142e-02
8.41082051e-02
8.33203178e-02
8.60399753e-02
9.13520604e-02
4.83557014e-02
4.82065687e-02
6.43443024e-02
8.30011480e-02
4.15925939e-02
3.95504581e-02
4.37015149e-02
4.34177394e-02
4.53865919e-02
4.39776676e-02
5.39019355e-02
6.74659014e-02
4.62527750e-02
4.49710395e-02
5.15299984e-02
7.89598152e-02
0.00000000e+00
0.00000000e+00
0.00000000e+00
0.00000000e+00
5.65340817e-02
5.79214506e-02
6.10093996e-02
5.84223978e-02
6.18763920e-02
6.45833849e-02
6.31884346e-02
6.18727037e-02
6.61593229e-02
7.25827282e-02
6.39543636e-02
6.71792086e-02
6.20279163e-02
6.75797062e-02
6.86632930e-02
6.76527098e-02
6.47110077e-02
8.99647534e-02
8.26767348e-02
8.11146479e-02
8.25082697e-02
6.99467664e-02
6.03991384e-02
9.73122083e-02
4.52053684e-02
5.51740266e-02
7.03580165e-02
5.82842510e-02
5.40333632e-02
6.40173640e-02
1.11550085e-01
1.15344224e-01
7.20279273e-02
5.36354743e-02
</DataArray>
<DataArray type="Float32" Name="Plastic_strain_Min_Principal" format="ascii">
-1.00065909e-01
-1.03995711e-01
-9.86405443e-02
-9.70874801e-02
-9.61539745e-02
-9.95117594e-02
-9.57317147e-02
-9.41891056e-02
-1.11004762e-01
-1.05221637e-01
-1.05906378e-01
-1.02008075e-01
-1.20114602e-01
-1.21600233e-01
-1.13524938e-01
-1.12844826e-01
-1.29906476e-01
-1.31070273e-01
-1.21456195e-01
-1.19810238e-01
-1.37175381e-01
-1.42843254e-01
-1.29701711e-01
-1.21406498e-01
-1.48299530e-01
-1.51478626e-01
-1.33192889e-01
-1.37511002e-01
-8.59041326e-02
-8.54120329e-02
-8.57121162e-02
-8.39478392e-02
-8.68472885e-02
-8.93965075e-02
-6.37640237e-02
-8.49698558e-02
-5.53719841e-02
-7.35093143e-02
-3.72842888e-02
-7.04815772e-02
-3.52621850e-02
-7.97423398e-02
-7.06864037e-02
-7.09291250e-02
-7.09222062e-02
-7.05527496e-02
-4.77912445e-02
-5.95620864e-02
-1.19398042e-02
-1.80226047e-02
-9.27700816e-03
-1.85930245e-02
-8.63742192e-03
-1.96300444e-02
-1.78081570e-02
-2.82273460e-02
-6.17728829e-02
-6.57933652e-02
-6.04636776e-02
-6.33314839e-02
-4.48473636e-02
-4.21648494e-02
-5.13693044e-03
-1.07675514e-02
-2.81777714e-03
-3.72615050e-03
-1.25846025e-02
-4.65693004e-03
-1.33714089e-02
-5.36834076e-03
-6.52683824e-02
-7.04083182e-02
-6.19847300e-02
-6.69309320e-02
-5.09030614e-02
-4.65015568e-02
-8.42221797e-03
-3.60919852e-02
-1.04078070e-03
-3.04628058e-03
-3.01898155e-05
-8.99924253e-06
0.00000000e+00
0.00000000e+00
-7.71772116e-02
-8.11332315e-02
-7.33363573e-02
-7.91061334e-02
-6.60032779e-02
-7.47092143e-02
-2.01048553e-02
-5.68818934e-02
-2.24491436e-03
-8.92802156e-03
-1.52130306e-04
-2.07383758e-05
0.00000000e+00
0.00000000e+00
-9.14663374e-02
-9.22730099e-02
-9.00047254e-02
-8.95140246e-02
-9.45006236e-02
-9.52016227e-02
-1.00190748e-01
-9.24646042e-02
-1.04939222e-01
-1.13724971e-01
-1.06777530e-01
-1.14496215e-01
-1.08308360e-01
-1.15329774e-01
-8.73464718e-02
-8.34365673e-02
-9.44231632e-02
-1.24513392e-01
-1.28009312e-01
-1.31537467e-01
-1.32707037e-01
-6.83350482e-02
-7.07648396e-02
-9.22711603e-02
-8.17368049e-02
-5.22833609e-02
-6.08320013e-02
-5.26658281e-02
-4.60679295e-02
-6.20416137e-02
-6.34345179e-02
-6.47483318e-02
-1.03381924e-01
-7.27454014e-02
-7.24559464e-02
-7.04835821e-02
-1.28881827e-01
0.00000000e+00
0.00000000e+00
0.00000000e+00
0.00000000e+00
-9.28035714e-02
-9.24129523e-02
-9.19379741e-02
-9.23439432e-02
-9.09569599e-02
-9.46958289e-02
-9.19017270e-02
-8.79802110e-02
-9.23000798e-02
-1.08020324e-01
-9.17145424e-02
-1.03158026e-01
-9.09638256e-02
-1.00402212e-01
-9.37950592e-02
-9.02983602e-02
-1.03922737e-01
-1.35965417e-01
-1.27230156e-01
-1.25581482e-01
-1.21908039e-01
-9.39002814e-02
-8.17147158e-02
-1.32209014e-01
-6.58070339e-02
-7.91574009e-02
-1.02543125e-01
-6.47545529e-02
-8.05865601e-02
-7.50932901e-02
-1.13834150e-01
-1.63321103e-01
-1.05454231e-01
-7.69142509e-02
</DataArray>
</PointData>
<Cells>
<DataArray type="Int32" Name="connectivity" format="ascii">
0 1 2 3 4 5 6 7
1 8 9 2 5 10 11 6
8 12 13 9 10 14 15 11
12 16 17 13 14 18 19 15
16 20 21 17 18 22 23 19
20 24 25 21 22 26 27 23
3 2 28 29 7 6 30 31
2 9 32 28 6 11 33 30
9 13 34 32 11 15 35 33
13 17 36 34 15 19 37 35
17 21 38 36 19 23 39 37
21 25 40 38 23 27 41 39
29 28 42 43 31 30 44 45
28 32 46 42 30 33 47 44
32 34 48 46 33 35 49 47
34 36 50 48 35 37 51 49
36 38 52 50 37 39 53 51
38 40 54 52 39 41 55 53
43 42 56 57 45 44 58 59
42 46 60 56 44 47 61 58
46 48 62 60 47 49 63 61
48 50 64 62 49 51 65 63
52 54 66 67 53 55 68 69
57 56 70 71 59 58 72 73
56 60 74 70 58 61 75 72
60 62 76 74 61 63 77 75
62 64 78 76 63 65 79 77
64 67 80 78 65 69 81 79
67 66 82 80 69 68 83 81
71 70 84 85 73 72 86 87
70 74 88 84 72 75 89 86
74 76 90 88 75 77 91 89
76 78 92 90 77 79 93 91
78 80 94 92 79 81 95 93
80 82 96 94 81 83 97 95
4 5 6 7 98 99 100 101
5 10 11 6 99 102 103 100
10 14 15 11 102 104 105 103
14 18 19 15 104 106 107 105
18 22 23 19 106 108 109 107
22 26 27 23 108 110 111 109
7 6 30 31 101 100 112 113
6 11 33 30 100 103 114 112
11 15 35 33 103 105 115 114
15 19 37 35 105 107 116 115
19 23 39 37 107 109 117 116
23 27 41 39 109 111 118 117
31 30 44 45 113 112 119 120
30 33 47 44 112 114 121 119
33 35 49 47 114 115 122 121
45 44 58 59 120 119 123 124
44 47 61 58 119 121 125 123
47 49 63 61 121 122 126 125
59 58 72 73 124 123 127 128
58 61 75 72 123 125 129 127
61 63 77 75 125 126 130 129
73 72 86 87 128 127 131 132
72 75 89 86 127 129 133 131
75 77 91 89 129 130 134 133
81 83 97 95 135 136 137 138
98 99 100 101 139 140 141 142
99 102 103 100 140 143 144 141
102 104 105 103 143 145 146 144
104 106 107 105 145 147 148 146
106 108 109 107 147 149 150 148
108 110 111 109 149 151 152 150
101 100 112 113 142 141 153 154
100 103 114 112 141 144 155 153
103 105 115 114 144 146 156 155
105 107 116 115 146 148 157 156
107 109 117 116 148 150 158 157
109 111 118 117 150 152 159 158
113 112 119 120 154 153 160 161
112 114 121 119 153 155 162 160
120 119 123 124 161 160 163 164
119 121 125 123 160 162 165 163
124 123 127 128 164 163 166 167
123 125 129 127 163 165 168 166
125 126 130 129 165 169 170 168
128 127 131 132 167 166 171 172
</DataArray>
<DataArray type="Int32" Name="offsets" format="ascii">
8
16
24
32
40
48
56
64
72
80
88
96
104
112
120
128
136
144
152
160
168
176
184
192
200
208
216
224
232
240
248
256
264
272
280
288
296
304
312
320
328
336
344
352
360
368
376
384
392
400
408
416
424
432
440
448
456
464
472
480
488
496
504
512
520
528
536
544
552
560
568
576
584
592
600
608
616
624
632
640
</DataArray>
<DataArray type="UInt8" Name="types" format="ascii">
12
12
12
12
12
12
12
12
12
12
12
12
12
12
12
12
12
12
12
12
12
12
12
12
12
12
12
12
12
12
12
12
12
12
12
12
12
12
12
12
12
12
12
12
12
12
12
12
12
12
12
12
12
12
12
12
12
12
12
12
12
12
12
12
12
12
12
12
12
12
12
12
12
12
12
12
12
12
12
12
</DataArray>
</Cells>
</Piece>
</UnstructuredGrid>
</VTKFile>
