<VTKFile type="UnstructuredGrid" version="0.1" byte_order="LittleEndian">
<UnstructuredGrid>
<Piece NumberOfPoints="191" NumberOfCells="79">
<Points>
<DataArray type="Float64" NumberOfComponents="3" format="ascii">
 1.01727426e+00  5.11621332e+00  1.94730914e+00
 2.03012633e+00  5.11160707e+00  1.96026003e+00
 2.02998495e+00  6.13909245e+00  1.93991113e+00
 1.01379812e+00  6.13490629e+00  1.93223524e+00
 1.01398838e+00  5.13322973e+00  2.92060137e+00
 2.03312206e+00  5.13341045e+00  2.92262292e+00
 2.02692413e+00  6.16970825e+00  2.89691901e+00
 1.01493001e+00  6.15110207e+00  2.90524578e+00
 3.05348754e+00  5.10366869e+00  1.96791875e+00
 3.05801797e+00  6.13540316e+00  1.94045937e+00
 3.05665207e+00  5.12714243e+00  2.91273355e+00
 3.08275914e+00  6.16536331e+00  2.85889006e+00
 5.05347633e+00  5.10576344e+00  2.00001669e+00
 6.05347919e+00  5.10893488e+00  1.99999881e+00
 6.05029631e+00  6.10894394e+00  1.99999535e+00
 5.05027628e+00  6.10577059e+00  1.99999344e+00
 5.05348587e+00  5.10578060e+00  3.00000453e+00
 6.05347300e+00  5.10896587e+00  3.00000715e+00
 6.05029154e+00  6.10895109e+00  2.99998474e+00
 5.05031013e+00  6.10576630e+00  3.00000334e+00
 0.00000000e+00  0.00000000e+00  2.86196113e+00
 1.02601874e+00  0.00000000e+00  2.86033058e+00
 1.02669454e+00  1.02791762e+00  2.86547971e+00
 0.00000000e+00  1.02721167e+00  2.86924791e+00
 0.00000000e+00  0.00000000e+00  3.81470704e+00
 1.03596056e+00  0.00000000e+00  3.81436706e+00
 1.03663874e+00  1.02694011e+00  3.81643605e+00
 0.00000000e+00  1.02554119e+00  3.82125068e+00
 2.05732036e+00  0.00000000e+00  2.85059786e+00
 2.05055189e+00  1.02239323e+00  2.85790873e+00
 2.06954074e+00  0.00000000e+00  3.80841255e+00
 2.07121658e+00  1.02810848e+00  3.80771041e+00
 3.08530617e+00  0.00000000e+00  2.84018350e+00
 3.08580470e+00  1.01843393e+00  2.84282684e+00
 3.10309076e+00  0.00000000e+00  3.79759026e+00
 3.10031152e+00  1.02474606e+00  3.79739618e+00
 4.11910963e+00  0.00000000e+00  2.83045602e+00
 4.12050247e+00  1.01962304e+00  2.82677436e+00
 4.13154459e+00  0.00000000e+00  3.78881288e+00
 4.13062477e+00  1.02000332e+00  3.78371882e+00
 5.15263414e+00  0.00000000e+00  2.81758809e+00
 5.15401506e+00  1.02155983e+00  2.81993580e+00
 5.15778637e+00  0.00000000e+00  3.78346896e+00
 5.15790367e+00  1.01816821e+00  3.77432656e+00
 6.18224764e+00  0.00000000e+00  2.81212974e+00
 6.18393183e+00  1.02020395e+00  2.81502581e+00
 6.17796659e+00  0.00000000e+00  3.78157187e+00
 6.18525362e+00  1.01643264e+00  3.77430916e+00
 1.01763296e+00  2.05187511e+00  2.88054228e+00
 0.00000000e+00  2.05992723e+00  2.88274884e+00
 1.03628206e+00  2.05594182e+00  3.83403611e+00
 0.00000000e+00  2.05630708e+00  3.83585835e+00
 2.04781079e+00  2.05131984e+00  2.86282063e+00
 2.07608342e+00  2.05840087e+00  3.81243443e+00
 3.07931209e+00  2.05616665e+00  2.83426237e+00
 3.10501623e+00  2.05414724e+00  3.77381039e+00
 4.12008047e+00  2.06297088e+00  2.82872152e+00
 4.12606668e+00  2.04621220e+00  3.76268315e+00
 5.15563679e+00  2.05693316e+00  2.82771897e+00
 5.15782404e+00  2.05233407e+00  3.76536584e+00
 6.18583632e+00  2.05536890e+00  2.82440901e+00
 6.18795490e+00  2.04997778e+00  3.76510501e+00
 1.01325679e+00  3.08998299e+00  2.90887260e+00
 0.00000000e+00  3.08803678e+00  2.90443039e+00
 1.03214788e+00  3.08845592e+00  3.85477710e+00
 0.00000000e+00  3.08634496e+00  3.86666036e+00
 2.04254675e+00  3.07914329e+00  2.88583517e+00
 2.08510971e+00  3.09241509e+00  3.80388594e+00
 3.03636074e+00  3.06945324e+00  2.71022224e+00
 3.12380433e+00  3.07878590e+00  3.73983002e+00
 1.01257598e+00  4.10972548e+00  2.92485428e+00
 0.00000000e+00  4.11407757e+00  2.92312837e+00
 1.02287579e+00  4.12111616e+00  3.89458799e+00
 0.00000000e+00  4.12304878e+00  3.88704205e+00
 0.00000000e+00  5.12924480e+00  2.91962838e+00
 1.02273536e+00  5.15446615e+00  3.88834310e+00
 0.00000000e+00  5.14504337e+00  3.88123894e+00
 2.03343725e+00  4.10994720e+00  2.94568634e+00
 2.05869007e+00  4.12782955e+00  3.87432861e+00
 2.05821419e+00  5.14744425e+00  3.88244367e+00
 0.00000000e+00  6.15204287e+00  2.89762950e+00
 1.03313839e+00  6.18712997e+00  3.84515429e+00
 0.00000000e+00  6.19428873e+00  3.85629272e+00
 2.06017804e+00  6.19847107e+00  3.84000921e+00
 3.08403826e+00  5.13380337e+00  3.79730177e+00
 3.12773061e+00  6.15914774e+00  3.80424476e+00
 0.00000000e+00  0.00000000e+00  4.76138926e+00
 1.04533935e+00  0.00000000e+00  4.75906992e+00
 1.04783666e+00  1.02795160e+00  4.76224518e+00
 0.00000000e+00  1.02591503e+00  4.76366138e+00
 2.08303928e+00  0.00000000e+00  4.75611305e+00
 2.08877635e+00  1.03305674e+00  4.75584459e+00
 3.11366677e+00  0.00000000e+00  4.75157070e+00
 3.11743450e+00  1.03508866e+00  4.74902487e+00
 4.13961744e+00  0.00000000e+00  4.74535847e+00
 4.13767147e+00  1.03165364e+00  4.74386168e+00
 5.16077471e+00  0.00000000e+00  4.74340296e+00
 5.15764523e+00  1.02733791e+00  4.73987198e+00
 6.17810917e+00  0.00000000e+00  4.74320316e+00
 6.17902946e+00  1.02888823e+00  4.74134588e+00
 1.05639195e+00  2.06158590e+00  4.76658344e+00
 0.00000000e+00  2.05503106e+00  4.77370024e+00
 2.10046911e+00  2.06802320e+00  4.75323772e+00
 3.12773514e+00  2.06649160e+00  4.73598576e+00
 4.14240503e+00  2.05887246e+00  4.72269535e+00
 5.15267515e+00  2.05024743e+00  4.71454716e+00
 6.16498375e+00  2.05113268e+00  4.71538544e+00
 1.05837357e+00  3.08376265e+00  4.79555178e+00
 0.00000000e+00  3.09514737e+00  4.80948639e+00
 2.11401033e+00  3.08700466e+00  4.74735832e+00
 3.14696479e+00  3.08151340e+00  4.71074057e+00
 4.13610315e+00  3.03581309e+00  3.67586660e+00
 4.15583515e+00  3.07143784e+00  4.70071983e+00
 1.06065381e+00  4.11575747e+00  4.84587526e+00
 0.00000000e+00  4.10597706e+00  4.82294273e+00
 2.12535858e+00  4.11317587e+00  4.76496315e+00
 1.05145824e+00  5.17754698e+00  4.80212736e+00
 0.00000000e+00  5.18107224e+00  4.80341959e+00
 1.06051743e+00  6.23895693e+00  4.78075695e+00
 0.00000000e+00  6.23652315e+00  4.78912354e+00
 2.09212017e+00  5.15997696e+00  4.79539490e+00
 2.13841438e+00  6.20576429e+00  4.77940893e+00
 3.13873363e+00  5.11414719e+00  4.72503471e+00
 3.19324589e+00  6.12996149e+00  4.74229527e+00
 4.05334568e+00  5.09720182e+00  3.63618398e+00
 4.12123537e+00  6.09967566e+00  3.68088126e+00
 4.17617464e+00  5.07174969e+00  4.69969940e+00
 4.18791962e+00  6.07319069e+00  4.70009470e+00
 5.17664289e+00  5.06152773e+00  3.69981861e+00
 6.17657804e+00  5.05110264e+00  3.69981790e+00
 6.18699980e+00  6.05105639e+00  3.69984889e+00
 5.18701887e+00  6.06151152e+00  3.69989967e+00
 5.17659807e+00  5.06151247e+00  4.69981289e+00
 6.17660618e+00  5.05108500e+00  4.69984198e+00
 6.18699074e+00  6.05103588e+00  4.69983768e+00
 5.18712711e+00  6.06136942e+00  4.69990015e+00
 0.00000000e+00  0.00000000e+00  5.69985485e+00
 1.04847991e+00  0.00000000e+00  5.69985485e+00
 1.05333519e+00  1.03112245e+00  5.69985485e+00
 0.00000000e+00  1.02720201e+00  5.69985485e+00
 2.08974743e+00  0.00000000e+00  5.69985485e+00
 2.09373522e+00  1.03675616e+00  5.69985485e+00
 3.11818933e+00  0.00000000e+00  5.69985485e+00
 3.12384629e+00  1.03959000e+00  5.69985485e+00
 4.14086342e+00  0.00000000e+00  5.69985485e+00
 4.14272404e+00  1.03954923e+00  5.69985485e+00
 5.16142750e+00  0.00000000e+00  5.69985485e+00
 5.15833855e+00  1.03606045e+00  5.69985485e+00
 6.18274641e+00  0.00000000e+00  5.69985485e+00
 6.17142248e+00  1.04094636e+00  5.69985485e+00
 1.06568098e+00  2.05516887e+00  5.69985485e+00
 0.00000000e+00  2.05162477e+00  5.69985485e+00
 2.11304545e+00  2.06802630e+00  5.69985485e+00
 3.13574648e+00  2.07228541e+00  5.69985485e+00
 4.14936209e+00  2.06643057e+00  5.69985485e+00
 5.15199184e+00  2.05845857e+00  5.69985485e+00
 6.15784740e+00  2.05612421e+00  5.69985485e+00
 1.07549655e+00  3.11201239e+00  5.69985485e+00
 0.00000000e+00  3.11762500e+00  5.69985485e+00
 2.13266993e+00  3.09568143e+00  5.69985485e+00
 3.15572166e+00  3.08586454e+00  5.69985485e+00
 4.15619373e+00  3.07221007e+00  5.69985485e+00
 5.15622854e+00  3.06085443e+00  4.69929409e+00
 5.15670156e+00  3.06133437e+00  5.69985485e+00
 6.15761709e+00  3.05264020e+00  4.69883156e+00
 6.15788078e+00  3.05405760e+00  5.69985485e+00
 3.16648936e+00  4.08308125e+00  4.69263506e+00
 3.17042017e+00  4.08753109e+00  5.69985485e+00
 2.16684008e+00  4.10778570e+00  5.69985485e+00
 4.16644049e+00  4.07137156e+00  4.70007896e+00
 4.16658497e+00  4.07161188e+00  5.69985485e+00
 5.16626501e+00  4.06160355e+00  4.69981289e+00
 5.16634464e+00  4.06149960e+00  5.69985485e+00
 6.16614151e+00  4.05144787e+00  4.69985104e+00
 6.16605711e+00  4.05127001e+00  5.69985485e+00
 0.00000000e+00  4.08655119e+00  5.69985485e+00
 1.08931255e+00  4.10198259e+00  5.69985485e+00
 1.07199121e+00  5.19661522e+00  5.69985485e+00
 0.00000000e+00  5.20395803e+00  5.69985485e+00
 5.17654991e+00  5.06150675e+00  5.69985485e+00
 4.17662477e+00  5.07180738e+00  5.69985485e+00
 6.17663336e+00  5.05110741e+00  5.69985485e+00
 1.07687485e+00  6.25139999e+00  5.69985485e+00
 0.00000000e+00  6.25210476e+00  5.69985485e+00
 2.11428380e+00  5.16462278e+00  5.69985485e+00
 2.16894698e+00  6.20292807e+00  5.69985485e+00
 3.15109587e+00  5.10185385e+00  5.69985485e+00
 3.20414639e+00  6.12115288e+00  5.69985485e+00
 4.18835497e+00  6.07234859e+00  5.69985485e+00
 5.18714762e+00  6.06130791e+00  5.69985485e+00
 6.18698168e+00  6.05103779e+00  5.69985485e+00
</DataArray>
</Points>
<PointData Tensors="Stress_Components,Plastic_strain_components" Vevtors="Spatial_displacement,Reaction_force" Scalars="Equivalent_plastic_strain,Stress_Mises,Stress_Max_Principal,Stress_Mid_Principal,Stress_Min_Principal,Stress_Pressure,Stress_Tresca,Stress_Third_Invariant,Plastic_strain_Max_Principal,Plastic_strain_Min_Principal">
<DataArray type="Float32" Name="Stress_Components" NumberOfComponents="9" format="ascii">
9.97670062e+00 -4.94923389e-01 3.77751373e-01 -4.94923389e-01 7.69528764e+00 4.00837715e-01 3.77751373e-01 4.00837715e-01 -1.03921575e+01
-1.48570299e-01 -2.48826072e+00 6.56667702e-01 -2.48826072e+00 -3.73337865e-01 2.35612509e+00 6.56667702e-01 2.35612509e+00 -2.86371360e+01
-3.78523684e+00 3.37318540e-01 1.06244313e+00 3.37318540e-01 1.35924697e+00 -1.13590929e+00 1.06244313e+00 -1.13590929e+00 -3.22759085e+01
9.27174330e-01 -4.31728540e-01 -4.54162654e-01 -4.31728540e-01 1.99002719e+00 -2.66402647e-01 -4.54162654e-01 -2.66402647e-01 -2.69779358e+01
1.64749326e+01 2.26341520e-01 1.34456212e+00 2.26341520e-01 1.77929437e+01 -3.46652914e-01 1.34456212e+00 -3.46652914e-01 7.18472457e+00
1.79666281e+01 -1.35958521e+00 1.83683992e+00 -1.35958521e+00 2.03769282e+01 1.41779331e+00 1.83683992e+00 1.41779331e+00 9.17212159e+00
-1.57035322e+01 3.31611931e-02 6.72291540e-01 3.31611931e-02 -5.60076785e+00 -4.28767756e-01 6.72291540e-01 -4.28767756e-01 -5.11239150e+01
5.42747092e+00 7.34315325e-01 6.80213232e-01 7.34315325e-01 5.86983567e+00 1.88597037e+00 6.80213232e-01 1.88597037e+00 -1.74842205e+01
-1.10487509e+01 -3.80626097e-01 -1.67790364e+00 -3.80626097e-01 -1.07899592e+01 4.93068954e+00 -1.67790364e+00 4.93068954e+00 -5.40365138e+01
-6.16709518e+01 -1.26282197e+00 -2.10487014e+00 -1.26282197e+00 -5.66044769e+01 4.64347875e+00 -2.10487014e+00 4.64347875e+00 -1.58619011e+02
-5.77835251e+01 5.92705178e+00 -2.16892652e+01 5.92705178e+00 -5.96031581e+01 -3.02152995e+00 -2.16892652e+01 -3.02152995e+00 -1.47474445e+02
-4.15545582e+01 1.87301588e+00 -7.08116817e+00 1.87301588e+00 -5.97309399e+01 -1.72794044e+00 -7.08116817e+00 -1.72794044e+00 -1.37123779e+02
-3.63094211e-02 -5.89330435e-01 -1.34158753e-01 -5.89330435e-01 1.50039978e-01 7.75294006e-02 -1.34158753e-01 7.75294006e-02 -5.36464214e-01
-3.05485126e-01 -2.29626372e-01 -1.67029023e-01 -2.29626372e-01 -3.81125957e-02 -1.13015532e-01 -1.67029023e-01 -1.13015532e-01 -7.91281154e-02
5.02794176e-01 -1.89079501e-01 4.24214350e-02 -1.89079501e-01 5.07290885e-02 4.21053715e-01 4.24214350e-02 4.21053715e-01 -9.76244807e-01
2.73739392e-01 -5.48868507e-01 -3.81603241e-02 -5.48868507e-01 -2.59381585e-01 -4.15571570e-01 -3.81603241e-02 -4.15571570e-01 -4.37164336e-01
1.77021027e-01 1.97072774e-01 3.38762611e-01 1.97072774e-01 1.18597828e-01 2.57144481e-01 3.38762611e-01 2.57144481e-01 -4.82635107e-03
-1.03626251e-01 8.17031711e-02 1.76859066e-01 8.17031711e-02 -1.87607810e-01 -7.03176260e-02 1.76859066e-01 -7.03176260e-02 5.82122207e-01
8.47538095e-03 6.88904598e-02 -3.30154747e-01 6.88904598e-02 1.55291289e-01 -4.92142648e-01 -3.30154747e-01 -4.92142648e-01 1.27058759e-01
-2.86062986e-01 1.84294134e-01 -1.16432115e-01 1.84294134e-01 -1.13753021e-01 3.10609460e-01 -1.16432115e-01 3.10609460e-01 6.90582812e-01
-1.94928169e-01 1.64095741e-02 6.76525056e-01 1.64095741e-02 4.31828499e-01 -1.54846560e-01 6.76525056e-01 -1.54846560e-01 -2.97634096e+01
2.60995422e-01 3.16971868e-01 4.21513923e-01 3.16971868e-01 1.45759553e-01 3.69300976e-01 4.21513923e-01 3.69300976e-01 -2.95292420e+01
2.89076950e+00 -7.16323860e-01 7.38327300e-01 -7.16323860e-01 3.50233278e+00 5.02121705e-01 7.38327300e-01 5.02121705e-01 -2.29602939e+01
-1.80048048e-01 1.87734185e-01 8.03238258e-01 1.87734185e-01 1.35165524e+00 -4.38239388e-01 8.03238258e-01 -4.38239388e-01 -2.86849756e+01
4.50916815e+00 -1.97488964e-02 9.93608057e-01 -1.97488964e-02 2.50857091e+00 1.10967677e-01 9.93608057e-01 1.10967677e-01 -2.23149757e+01
6.33662015e-01 1.88585270e-01 2.53854487e-01 1.88585270e-01 -6.26622528e-01 1.14856994e+00 2.53854487e-01 1.14856994e+00 -2.98764520e+01
2.43654725e+00 3.29053149e-01 9.48057268e-01 3.29053149e-01 1.00254771e+00 5.87340995e-01 9.48057268e-01 5.87340995e-01 -2.61714997e+01
2.70869225e-01 4.02128659e-01 1.17852187e+00 4.02128659e-01 -1.91104692e+00 -7.23328508e-01 1.17852187e+00 -7.23328508e-01 -3.16147119e+01
4.21601564e+00 -1.05979052e+00 4.01591986e-01 -1.05979052e+00 2.59463853e+00 1.37227444e-01 4.01591986e-01 1.37227444e-01 -2.25576102e+01
5.07115268e+00 -1.00904215e+00 1.14225263e+00 -1.00904215e+00 4.41285401e+00 9.23942368e-01 1.14225263e+00 9.23942368e-01 -1.93610930e+01
1.24344381e+00 1.64022977e-01 1.18661514e-01 1.64022977e-01 4.88535702e-01 6.44300990e-01 1.18661514e-01 6.44300990e-01 -2.81391582e+01
-1.16089454e+00 1.20147835e-01 1.29609631e+00 1.20147835e-01 -7.90425777e-01 1.91917632e+00 1.29609631e+00 1.91917632e+00 -3.18450418e+01
6.43201625e+00 1.55531213e-01 8.91927816e-02 1.55531213e-01 4.00398010e+00 6.90522950e-01 8.91927816e-02 6.90522950e-01 -1.85332321e+01
8.95401376e+00 -2.78884880e-01 3.10862996e-03 -2.78884880e-01 6.58789912e+00 -3.77091467e-02 3.10862996e-03 -3.77091467e-02 -1.30422781e+01
3.35429162e+00 -6.43342599e-01 1.96321413e-01 -6.43342599e-01 1.78062515e+00 9.73533828e-01 1.96321413e-01 9.73533828e-01 -2.43537421e+01
1.17614104e+00 -7.69673143e-01 1.26776531e-01 -7.69673143e-01 7.61963993e-01 8.21480822e-01 1.26776531e-01 8.21480822e-01 -2.77463489e+01
8.81677550e+00 2.74914443e-01 -2.16257384e-01 2.74914443e-01 5.76881018e+00 2.36027829e-01 -2.16257384e-01 2.36027829e-01 -1.39928041e+01
2.34262800e+00 2.69743281e-01 -8.03076621e-01 2.69743281e-01 -1.84678912e-01 8.83530416e-02 -8.03076621e-01 8.83530416e-02 -2.74486939e+01
4.48192191e+00 -3.20751607e-01 -5.44091091e-01 -3.20751607e-01 1.95362788e+00 6.70453429e-01 -5.44091091e-01 6.70453429e-01 -2.29555132e+01
1.01979527e+01 -7.21391890e-01 -8.75775367e-02 -7.21391890e-01 8.50592679e+00 -4.39137526e-01 -8.75775367e-02 -4.39137526e-01 -9.73742840e+00
1.19811282e+01 -5.42982146e-02 1.46697823e-01 -5.42982146e-02 9.51901388e+00 -2.48974115e-01 1.46697823e-01 -2.48974115e-01 -6.58692539e+00
6.02525842e+00 4.64401990e-02 -3.40142342e-01 4.64401990e-02 3.57183301e+00 3.90210487e-02 -3.40142342e-01 3.90210487e-02 -1.94852813e+01
1.10621663e+01 -2.26128248e-02 -6.21040143e-01 -2.26128248e-02 1.02299411e+01 -2.77059982e-01 -6.21040143e-01 -2.77059982e-01 -6.98786521e+00
6.13098361e+00 -2.62855373e-01 -6.69958721e-01 -2.62855373e-01 4.69726855e+00 -5.13153357e-01 -6.69958721e-01 -5.13153357e-01 -1.80964291e+01
1.65485072e+01 -1.56058490e-01 1.31505422e-01 -1.56058490e-01 1.51473269e+01 -5.26584268e-01 1.31505422e-01 -5.26584268e-01 4.48608398e+00
1.46795863e+01 -1.62035480e-01 -4.77574579e-01 -1.62035480e-01 1.28667660e+01 -2.01065091e-01 -4.77574579e-01 -2.01065091e-01 -1.34830475e-01
1.64839499e+01 8.17194812e-01 -2.46865682e-01 8.17194812e-01 1.66053040e+01 -8.25602770e-01 -2.46865682e-01 -8.25602770e-01 5.83232212e+00
1.16439437e+01 5.15152846e-01 -2.33445913e-02 5.15152846e-01 1.01627667e+01 -7.90856369e-01 -2.33445913e-02 -7.90856369e-01 -6.17512333e+00
1.96782303e+00 -1.32442125e+00 2.22774643e+00 -1.32442125e+00 5.07312536e+00 1.97561856e-01 2.22774643e+00 1.97561856e-01 -2.13159136e+01
1.19907522e+00 -1.25001243e+00 1.76730102e+00 -1.25001243e+00 5.56243108e+00 -3.62957869e-01 1.76730102e+00 -3.62957869e-01 -2.20426505e+01
-4.78458987e+00 2.70895356e-01 3.53449731e+00 2.70895356e-01 -6.68676486e+00 2.03263102e+00 3.53449731e+00 2.03263102e+00 -4.15044942e+01
5.50672531e-01 -1.09723360e-01 1.70475123e+00 -1.09723360e-01 2.85486460e-01 -1.63408214e-01 1.70475123e+00 -1.63408214e-01 -2.89782899e+01
8.16768440e+00 9.93059539e-01 3.22013295e+00 9.93059539e-01 6.64695482e+00 2.01511928e+00 3.22013295e+00 2.01511928e+00 -1.79301744e+01
-3.45341370e+00 1.08839707e+00 6.94348904e-01 1.08839707e+00 -3.51598680e+00 -2.81462356e-01 6.94348904e-01 -2.81462356e-01 -3.66690611e+01
-5.42916603e+01 -3.34625435e+00 -1.17557212e+01 -3.34625435e+00 -5.45699490e+01 -1.53882331e+00 -1.17557212e+01 -1.53882331e+00 -1.37889517e+02
5.81758264e+00 1.08380667e+00 -1.82126688e+00 1.08380667e+00 8.46470410e+00 1.05389547e+00 -1.82126688e+00 1.05389547e+00 -1.65658583e+01
-3.84183946e+01 -6.02545612e-01 -3.85681182e+00 -6.02545612e-01 -3.46744633e+01 1.87573519e+00 -3.85681182e+00 1.87573519e+00 -1.08548510e+02
-2.33252682e+01 -1.11010617e+00 -1.33541586e+01 -1.11010617e+00 -2.86053263e+01 6.65064836e-01 -1.33541586e+01 6.65064836e-01 -7.39225021e+01
-2.40028896e+01 -6.76421724e-01 -1.28869772e-01 -6.76421724e-01 -2.14089513e+01 1.71611030e+00 -1.28869772e-01 1.71611030e+00 -7.90280609e+01
-3.20365081e+01 2.19770501e-01 -4.42401946e+00 2.19770501e-01 -2.78488579e+01 -9.40106012e-01 -4.42401946e+00 -9.40106012e-01 -9.42969437e+01
-1.40408704e+01 -6.39856726e-01 -5.61671317e-01 -6.39856726e-01 -8.86878550e+00 3.71870339e-01 -5.61671317e-01 3.71870339e-01 -5.45189342e+01
-3.07198524e+01 -1.78669327e+00 -4.66132045e+00 -1.78669327e+00 -2.36990914e+01 -3.81165596e+00 -4.66132045e+00 -3.81165596e+00 -8.69899101e+01
-2.30773255e+00 -4.35135108e-01 4.17321147e+00 -4.35135108e-01 1.75922390e+00 8.68153421e-01 4.17321147e+00 8.68153421e-01 -2.87897504e+01
9.77800441e+00 4.09617722e-01 1.95253163e+00 4.09617722e-01 1.25771446e+01 -4.91703623e-01 1.95253163e+00 -4.91703623e-01 -5.27622771e+00
-4.79056158e+00 -5.25226333e-01 4.18887545e+00 -5.25226333e-01 -5.61747074e+00 1.08327934e+00 4.18887545e+00 1.08327934e+00 -3.98049126e+01
7.87547970e+00 1.40104542e-01 2.06431100e+00 1.40104542e-01 9.45489490e+00 -2.62774520e-01 2.06431100e+00 -2.62774520e-01 -1.10148909e+01
-7.72670746e+01 -8.85408747e+00 1.16549434e+01 -8.85408747e+00 -7.02233934e+01 -1.35768062e+01 1.16549434e+01 -1.35768062e+01 -1.71744806e+02
-1.93743480e+01 2.05058081e+00 1.29463119e+00 2.05058081e+00 -2.54677850e+01 -3.80134287e+00 1.29463119e+00 -3.80134287e+00 -7.83735704e+01
2.55253773e+01 -3.60135269e+00 -1.29530783e+01 -3.60135269e+00 2.63113537e+01 -1.14784706e+00 -1.29530783e+01 -1.14784706e+00 6.28826180e+01
1.11727031e+01 -2.44686683e+00 -5.25440296e+00 -2.44686683e+00 1.10978540e+01 -4.91701921e+00 -5.25440296e+00 -4.91701921e+00 -3.36521816e+00
1.53815149e+01 -1.19672416e-01 -6.52576072e-01 -1.19672416e-01 1.66413198e+01 8.79642086e-01 -6.52576072e-01 8.79642086e-01 4.30607966e+00
1.01842158e+01 -6.32965494e-01 1.89344185e+00 -6.32965494e-01 1.20028538e+01 4.65656854e-01 1.89344185e+00 4.65656854e-01 -5.16723818e+00
2.05878340e+01 -4.46423817e-01 3.83626213e-01 -4.46423817e-01 2.31692237e+01 1.31758747e+00 3.83626213e-01 1.31758747e+00 1.84439173e+01
1.21848843e+01 -6.29804462e-01 2.02662685e+00 -6.29804462e-01 1.34896451e+01 1.09388025e+00 2.02662685e+00 1.09388025e+00 -1.79330564e+00
1.16959474e+01 2.41317209e-01 2.55526863e-02 2.41317209e-01 1.26567523e+01 6.24252731e-01 2.55526863e-02 6.24252731e-01 -3.50063539e+00
9.27834905e+00 8.45706280e-01 4.78591962e-01 8.45706280e-01 1.05136967e+01 1.60610688e+00 4.78591962e-01 1.60610688e+00 -8.06945491e+00
9.20170379e+00 1.44500912e+00 9.62259620e-02 1.44500912e+00 1.16762719e+01 5.75216487e-01 9.62259620e-02 5.75216487e-01 -7.11404133e+00
-3.38765598e+01 7.02987021e-01 5.25163186e+00 7.02987021e-01 -3.09787145e+01 1.51755890e+01 5.25163186e+00 1.51755890e+01 -8.76341224e+01
-7.95586433e+01 -3.06768078e+00 1.47660451e+01 -3.06768078e+00 -8.22610817e+01 7.86159015e+00 1.47660451e+01 7.86159015e+00 -2.01534897e+02
-9.81063223e+00 -2.89997580e+00 -2.82488041e+00 -2.89997580e+00 -3.61225739e+00 2.94798660e+00 -2.82488041e+00 2.94798660e+00 -4.23903221e+01
-1.31489372e+00 -2.22195312e-01 1.03638917e-01 -2.22195312e-01 1.67047691e+00 1.16221325e+00 1.03638917e-01 1.16221325e+00 -2.94695005e+01
1.00081921e+01 1.10613378e+00 -7.06266806e-01 1.10613378e+00 9.62943459e+00 6.80289805e-01 -7.06266806e-01 6.80289805e-01 -9.07512856e+00
-2.98296928e+00 -1.58447243e+00 2.44639724e+00 -1.58447243e+00 1.85506821e+00 -6.03065372e-01 2.44639724e+00 -6.03065372e-01 -3.08297558e+01
-1.64071233e+01 -3.00762445e+00 -3.73452498e+00 -3.00762445e+00 -1.29873161e+01 4.93779239e+00 -3.73452498e+00 4.93779239e+00 -5.78639436e+01
-6.93719788e+01 8.17829696e+00 -5.69054266e-01 8.17829696e+00 -4.47820352e+01 -3.17200569e+01 -5.69054266e-01 -3.17200569e+01 -1.12197419e+02
-1.06044162e+01 -2.40430852e+00 -2.16596892e+00 -2.40430852e+00 -1.23272290e+01 -7.83615923e+00 -2.16596892e+00 -7.83615923e+00 -4.46753380e+01
3.27964330e+00 -2.13936754e-02 2.45324984e-01 -2.13936754e-02 -8.05487752e-01 -1.93922274e-01 2.45324984e-01 -1.93922274e-01 -2.70356665e+01
7.70485282e-01 2.65222210e-01 1.27147503e-01 2.65222210e-01 -1.84639215e+00 7.57044204e-01 1.27147503e-01 7.57044204e-01 -3.09939947e+01
4.92406428e-01 9.91181791e-01 5.62235881e-01 9.91181791e-01 -2.39849317e+00 5.14679753e-01 5.62235881e-01 5.14679753e-01 -3.18127550e+01
1.55590281e+00 2.98265787e-01 6.40061408e-01 2.98265787e-01 -2.80658749e+00 -2.83734875e-01 6.40061408e-01 -2.83734875e-01 -3.10110663e+01
-3.99849045e+00 9.11305413e-01 -2.54700974e-01 9.11305413e-01 -3.16336918e+00 1.08550165e+00 -2.54700974e-01 1.08550165e+00 -3.76129308e+01
-4.68897974e+00 1.64584646e+00 5.54817749e-01 1.64584646e+00 -3.82228290e+00 1.27460622e+00 5.54817749e-01 1.27460622e+00 -3.88376503e+01
-5.41545996e+00 5.94607867e-01 5.48859918e-02 5.94607867e-01 -3.09760773e+00 4.19485403e-01 5.48859918e-02 4.19485403e-01 -3.91912928e+01
-8.79898803e+00 7.92626129e-01 1.85111389e-01 7.92626129e-01 -4.01684514e+00 1.64301308e+00 1.85111389e-01 1.64301308e+00 -4.32665711e+01
-3.73864326e+00 -9.04202700e-01 4.96904103e-02 -9.04202700e-01 -1.18770717e+00 4.03965376e-01 4.96904103e-02 4.03965376e-01 -3.52453671e+01
-3.17295238e+00 -6.23184220e-01 -6.22057825e-01 -6.23184220e-01 6.73743784e-01 4.16311547e-02 -6.22057825e-01 4.16311547e-02 -3.23722253e+01
5.81557751e-01 -6.79534569e-01 -3.65137801e-01 -6.79534569e-01 3.69999656e+00 -3.35295040e-01 -3.65137801e-01 -3.35295040e-01 -2.52017667e+01
3.18797673e+00 -1.24401756e+00 -1.12695807e+00 -1.24401756e+00 4.67356718e+00 -2.85039479e-01 -1.12695807e+00 -2.85039479e-01 -2.12714530e+01
-1.22597742e+00 2.54769288e-01 2.09524982e-01 2.54769288e-01 3.97865838e+00 -7.16246160e-01 2.09524982e-01 -7.16246160e-01 -2.66277885e+01
-1.00166875e+00 -1.26451109e+00 -5.52707016e-01 -1.26451109e+00 1.50672889e+00 -1.87819664e+00 -5.52707016e-01 -1.87819664e+00 -2.88086104e+01
-5.08602697e+00 1.72972608e+00 1.60819762e+00 1.72972608e+00 -1.01604879e+01 1.68063078e+00 1.60819762e+00 1.68063078e+00 -4.57566421e+01
-7.02512264e-02 9.01318684e-01 1.26998660e+00 9.01318684e-01 -4.92634583e+00 -3.70008670e-01 1.26998660e+00 -3.70008670e-01 -3.49489155e+01
-3.05183232e+00 2.24713343e+00 4.73507149e-01 2.24713343e+00 -3.83924198e+00 5.19081470e-01 4.73507149e-01 5.19081470e-01 -3.71041044e+01
5.48049289e+00 2.07127734e+00 -3.83045778e+00 2.07127734e+00 6.55970287e+00 -2.85742685e-01 -3.83045778e+00 -2.85742685e-01 -1.48056644e+01
8.71603884e+00 2.49514593e-01 -3.01378240e+00 2.49514593e-01 1.18944262e+01 -2.86963622e-01 -3.01378240e+00 -2.86963622e-01 -7.90942839e+00
-7.23582745e-01 -1.46184320e+00 -5.08993800e+00 -1.46184320e+00 2.61114041e+00 -1.79761029e+00 -5.08993800e+00 -1.79761029e+00 -2.68376776e+01
-3.91160361e+00 -4.16304759e+00 -7.05495453e+00 -4.16304759e+00 -6.37714609e+00 -3.60819539e+00 -7.05495453e+00 -3.60819539e+00 -3.78562012e+01
-1.53525635e+01 6.47469386e-02 5.51559979e+00 6.47469386e-02 -2.49524227e+01 -7.86427746e-01 5.51559979e+00 -7.86427746e-01 -7.13936278e+01
-2.56483154e+01 -1.95500616e+00 6.24653856e+00 -1.95500616e+00 -3.28235173e+01 -1.47396930e+00 6.24653856e+00 -1.47396930e+00 -9.17270508e+01
7.26385752e+00 1.89632661e+00 9.46093698e-02 1.89632661e+00 -1.16183440e-01 -3.81878067e+00 9.46093698e-02 -3.81878067e+00 -2.02856299e+01
2.91066270e+01 1.87243987e+00 -3.33820639e+00 1.87243987e+00 3.05595363e+01 1.28776028e+00 -3.33820639e+00 1.28776028e+00 3.46882140e+01
2.21114902e+01 -4.58581257e+00 -8.41383338e-01 -4.58581257e+00 1.76878395e+01 -8.07540035e+00 -8.41383338e-01 -8.07540035e+00 4.42855492e+01
1.74431934e+01 -6.68601125e-01 -1.54600867e+00 -6.68601125e-01 1.60284412e+01 -3.77890506e+00 -1.54600867e+00 -3.77890506e+00 1.08414992e+01
-1.65713005e+01 -3.32547516e-01 9.63606536e-01 -3.32547516e-01 -1.69623310e+01 6.28910032e+00 9.63606536e-01 6.28910032e+00 -6.23662628e+01
-4.75373205e+00 5.40170506e-01 -2.25700980e+00 5.40170506e-01 -7.23896631e+00 3.46271233e+00 -2.25700980e+00 3.46271233e+00 -4.24592338e+01
-6.99191971e+01 -7.07336020e+00 6.43344331e+00 -7.07336020e+00 -1.05429783e+02 -1.20118845e+01 6.43344331e+00 -1.20118845e+01 -2.13651718e+02
-1.99617632e+01 1.06320610e-01 -1.25608847e+00 1.06320610e-01 -1.61544800e+01 4.55545688e+00 -1.25608847e+00 4.55545688e+00 -6.82674026e+01
-1.01167128e+01 -2.34074859e-01 3.19356236e+00 -2.34074859e-01 -7.28813183e+00 3.65245279e-01 3.19356236e+00 3.65245279e-01 -4.87469301e+01
2.25295812e+00 -2.25602324e-01 1.66509908e+00 -2.25602324e-01 -2.83854485e-01 2.17119360e+00 1.66509908e+00 2.17119360e+00 -2.74290829e+01
4.28373528e+00 1.64963916e-01 1.48504618e+00 1.64963916e-01 3.13738155e+00 -1.17010388e+00 1.48504618e+00 -1.17010388e+00 -2.16867647e+01
-2.40744951e+01 1.15850517e+00 -9.45370309e-01 1.15850517e+00 -2.94895597e+01 -4.66967651e+00 -9.45370309e-01 -4.66967651e+00 -8.61818905e+01
-8.98344231e+00 -1.76546380e+00 -2.38789257e+00 -1.76546380e+00 -1.89880122e+01 5.94330591e+00 -2.38789257e+00 5.94330591e+00 -5.61973078e+01
1.81423922e+01 8.84953536e-01 2.42997028e-01 8.84953536e-01 3.72133589e+00 5.71974471e+00 2.42997028e-01 5.71974471e+00 -1.48098888e+01
9.60280228e+00 -1.75233357e+00 1.56093444e+00 -1.75233357e+00 1.81725247e+01 -1.30478273e+00 1.56093444e+00 -1.30478273e+00 -8.30186903e-02
7.41888046e+01 -1.62777591e+00 1.14287758e+00 -1.62777591e+00 5.49783745e+01 1.77540550e+01 1.14287758e+00 1.77540550e+01 7.40419235e+01
4.88574371e+01 1.60088003e+00 1.04260707e+00 1.60088003e+00 4.24847565e+01 9.25603294e+00 1.04260707e+00 9.25603294e+00 6.25964355e+01
8.01199549e+00 -3.97803414e+00 -1.81303891e+00 -3.97803414e+00 5.60707045e+00 -5.36352396e-03 -1.81303891e+00 -5.36352396e-03 1.41402650e+00
1.69774691e-01 -7.06111949e+00 -1.71094074e+00 -7.06111949e+00 1.13601542e+01 -6.17168144e+00 -1.71094074e+00 -6.17168144e+00 4.09058285e+00
-9.18459713e-01 -1.01394689e+00 1.35994518e+00 -1.01394689e+00 1.12219858e+00 -9.31504488e-01 1.35994518e+00 -9.31504488e-01 -7.08260953e-01
-9.07485366e-01 -6.67583346e-02 2.74336457e-01 -6.67583346e-02 -1.29828393e-01 5.72440982e-01 2.74336457e-01 5.72440982e-01 5.32825410e-01
8.49989057e-01 -6.98099732e-01 2.24891156e-01 -6.98099732e-01 -2.67079026e-01 -1.23692143e+00 2.24891156e-01 -1.23692143e+00 -1.08744979e+00
2.54345506e-01 -1.64575422e+00 -1.26252043e+00 -1.64575422e+00 4.00473237e-01 1.22809613e+00 -1.26252043e+00 1.22809613e+00 -1.15937817e+00
7.03750737e+00 2.60513072e+00 1.42347986e+00 2.60513072e+00 -2.85784969e+00 1.08426811e+00 1.42347986e+00 1.08426811e+00 -7.31314840e-01
1.40608642e+00 -3.72038841e-01 6.23625020e-02 -3.72038841e-01 -5.31909434e+00 1.18082221e+00 6.23625020e-02 1.18082221e+00 -4.92589970e-01
-3.21970260e+00 1.07894915e+00 -2.68150951e-01 1.07894915e+00 4.14909676e-01 -1.49796617e+00 -2.68150951e-01 -1.49796617e+00 3.55026159e-01
-5.24742862e+00 -2.99108855e+00 -2.69855738e-01 -2.99108855e+00 2.12207143e+00 -1.25608540e+00 -2.69855738e-01 -1.25608540e+00 3.26747274e+00
1.53947675e+00 -1.92630757e-02 -5.71622513e-03 -1.92630757e-02 -3.04596257e+00 1.12084113e-03 -5.71622513e-03 1.12084113e-03 -3.12845345e+01
3.26827049e-01 4.25506726e-01 -1.07324577e-02 4.25506726e-01 -2.54717521e+00 4.29311380e-01 -1.07324577e-02 4.29311380e-01 -3.22440243e+01
-1.09258771e-01 1.36952372e+00 3.16432312e-01 1.36952372e+00 -3.85978666e+00 6.06558420e-01 3.16432312e-01 6.06558420e-01 -3.39135914e+01
1.85050297e+00 3.63683566e-01 2.52143204e-01 3.63683566e-01 -3.40843916e+00 -1.06093702e-02 2.52143204e-01 -1.06093702e-02 -3.12362638e+01
-5.74795914e+00 6.03790462e-01 -9.03016375e-03 6.03790462e-01 -4.36916769e+00 1.14805746e+00 -9.03016375e-03 1.14805746e+00 -4.07980862e+01
-5.63977593e+00 2.53428712e+00 3.87587022e-01 2.53428712e+00 -4.95206589e+00 8.33354391e-01 3.87587022e-01 8.33354391e-01 -4.09779823e+01
-1.04222193e+01 1.24097025e+00 2.76080510e-02 1.24097025e+00 -5.12394977e+00 8.90115291e-01 2.76080510e-02 8.90115291e-01 -4.63772469e+01
-1.22496426e+01 1.89442436e+00 1.08143160e+00 1.89442436e+00 -5.97683990e+00 1.64134645e+00 1.08143160e+00 1.64134645e+00 -4.88369541e+01
-9.89745569e+00 -8.80660117e-02 4.33331393e-02 -8.80660117e-02 -3.03971493e+00 3.29585820e-01 4.33331393e-02 3.29585820e-01 -4.34040689e+01
-1.40143559e+01 -2.77817659e-01 2.06311843e+00 -2.77817659e-01 -5.61600423e+00 1.54884535e+00 2.06311843e+00 1.54884535e+00 -5.03043780e+01
-8.35588098e+00 -4.19619918e-01 5.89657612e-02 -4.19619918e-01 -1.63835695e+00 -1.59181535e-01 5.89657612e-02 -1.59181535e-01 -4.02269325e+01
-9.56952572e+00 -2.20982842e+00 2.14568520e+00 -2.20982842e+00 -7.73538351e-01 2.25881785e-01 2.14568520e+00 2.25881785e-01 -3.97731493e+01
-1.94466858e+01 -3.08680606e+00 9.27594230e-02 -3.08680606e+00 -8.42148972e+00 6.02157891e-01 9.27594230e-02 6.02157891e-01 -5.85681000e+01
-1.83259997e+01 -2.36176640e+00 2.92680979e+00 -2.36176640e+00 -6.10016744e+00 -3.22041082e+00 2.92680979e+00 -3.22041082e+00 -5.39326134e+01
1.98415470e+00 3.01139852e+00 -1.13269079e+00 3.01139852e+00 -2.84281683e+00 1.24585208e+00 -1.13269079e+00 1.24585208e+00 -2.99875088e+01
-4.84888649e+00 6.77255243e-01 -5.07201105e-01 6.77255243e-01 -1.35337434e+01 1.20735664e-01 -5.07201105e-01 1.20735664e-01 -4.88692067e+01
-1.31171894e+00 4.00794730e+00 4.38836344e-01 4.00794730e+00 -6.19674981e-01 2.19633149e+00 4.38836344e-01 2.19633149e+00 -3.07364774e+01
4.60924852e+00 2.22271068e+00 1.61703952e+00 2.22271068e+00 7.43826246e+00 1.74487483e+00 1.61703952e+00 1.74487483e+00 -1.62853780e+01
1.55098381e+01 -8.94853003e-01 1.77747168e+00 -8.94853003e-01 1.68265867e+01 9.66578162e-01 1.77747168e+00 9.66578162e-01 4.65557313e+00
1.98527366e+01 2.05263376e-01 2.03176568e+00 2.05263376e-01 1.80875509e+01 -5.97325983e-01 2.03176568e+00 -5.97325983e-01 1.07466815e+01
2.15604498e+01 -1.84096545e+00 2.11285967e+00 -1.84096545e+00 1.17182159e+01 -1.61444098e+00 2.11285967e+00 -1.61444098e+00 6.47780037e+00
-6.59038906e+01 -1.08988074e+00 6.18600011e+00 -1.08988074e+00 -7.84795303e+01 4.17356658e+00 6.18600011e+00 4.17356658e+00 -1.85112007e+02
-8.16885376e+01 -4.68452811e-01 3.84665751e+00 -4.68452811e-01 -8.82365875e+01 1.04298659e-01 3.84665751e+00 1.04298659e-01 -2.13828354e+02
9.01288875e+00 4.76129953e+00 3.41465473e-01 4.76129953e+00 4.30211226e+00 3.56845212e+00 3.41465473e-01 3.56845212e+00 -1.40214462e+01
2.90762663e+01 -1.36186749e+00 1.45640729e+00 -1.36186749e+00 3.06312957e+01 9.73336384e-01 1.45640729e+00 9.73336384e-01 3.09708090e+01
3.08519554e+01 -2.21019571e+00 2.22339795e+00 -2.21019571e+00 2.54606221e+01 5.26988246e-01 2.22339795e+00 5.26988246e-01 3.01119177e+01
2.34596059e+00 -6.83843851e-01 -1.60809743e+00 -6.83843851e-01 7.59933400e+00 -3.28087581e+00 -1.60809743e+00 -3.28087581e+00 -3.47685114e-01
2.39319146e+01 9.08212543e-01 3.36388782e+00 9.08212543e-01 1.67090138e+01 1.58792679e+00 3.36388782e+00 1.58792679e+00 2.38318452e+01
-2.31162405e+00 -7.50608930e+00 -3.07950449e+00 -7.50608930e+00 -1.03573689e+01 -7.26094618e-01 -3.07950449e+00 -7.26094618e-01 -4.70358062e+00
1.71363094e+01 -2.31734817e+00 3.03043920e+00 -2.31734817e+00 2.74466896e+00 8.80315065e-01 3.03043920e+00 8.80315065e-01 1.72040114e+01
7.50614834e+00 5.81411320e+00 -1.03921061e+01 5.81411320e+00 5.76402378e+00 5.44483984e+00 -1.03921061e+01 5.44483984e+00 2.52195906e+01
2.31594744e+01 -2.03079188e+00 4.15361971e+00 -2.03079188e+00 3.12694731e+01 1.38398445e+00 4.15361971e+00 1.38398445e+00 4.52183895e+01
-1.53674421e+01 7.15047312e+00 -1.22967708e+00 7.15047312e+00 -9.14617634e+00 1.77611217e+01 -1.22967708e+00 1.77611217e+01 -5.56284599e+01
1.19410103e+01 4.65565646e+00 -2.88169249e+00 4.65565646e+00 1.99337635e+01 2.49507785e-01 -2.88169249e+00 2.49507785e-01 7.43387222e+00
9.68240432e+00 -1.11932492e+00 3.97709169e+00 -1.11932492e+00 7.91609112e+00 2.29066196e+00 3.97709169e+00 2.29066196e+00 6.50031657e+00
-1.44454747e+00 4.63279092e+00 4.52965909e+00 4.63279092e+00 1.11351689e+01 -7.40051508e-01 4.52965909e+00 -7.40051508e-01 2.50712360e+00
-9.63691294e-01 -5.28783595e+00 -1.03449716e+00 -5.28783595e+00 6.10008913e+00 2.27708602e+00 -1.03449716e+00 2.27708602e+00 9.44761673e+00
4.42448165e+00 -1.69905114e+00 -4.24548864e-01 -1.69905114e+00 -9.61038637e+00 -6.11210629e-01 -4.24548864e-01 -6.11210629e-01 6.58677542e+00
-1.30241036e+00 1.31508827e-01 -1.92251460e+00 1.31508827e-01 -7.64903665e+00 -1.40164775e+00 -1.92251460e+00 -1.40164775e+00 3.69911098e+00
-7.38042679e+01 2.49495482e+00 -2.51628852e+00 2.49495482e+00 -5.39127159e+01 7.39492238e-01 -2.51628852e+00 7.39492238e-01 -1.66402313e+02
-1.03980995e+02 2.64078665e+00 -7.58084834e-01 2.64078665e+00 -9.46471100e+01 2.37634540e+00 -7.58084834e-01 2.37634540e+00 -2.45081650e+02
-2.94520060e-02 -1.40718333e+00 1.55965149e+00 -1.40718333e+00 -1.21356106e+00 2.18607142e+00 1.55965149e+00 2.18607142e+00 -3.11878777e+01
-6.72595882e+00 -1.91081864e+00 3.56821239e+00 -1.91081864e+00 -1.08442373e+01 1.15455434e-01 3.56821239e+00 1.15455434e-01 -4.79009762e+01
1.06469428e+00 2.43224734e+00 -1.28872052e-01 2.43224734e+00 -9.95605588e-02 -7.35273954e-01 -1.28872052e-01 -7.35273954e-01 3.33946931e+00
1.23874137e+01 1.63763467e+00 4.56737677e-02 1.63763467e+00 2.74598316e+01 6.08129160e+00 4.56737677e-02 6.08129160e+00 2.47403288e+01
2.41179049e+00 1.26991642e+00 4.71263096e-01 1.26991642e+00 -5.94056332e+00 5.70695966e-01 4.71263096e-01 5.70695966e-01 -2.82663608e+00
1.87519360e+00 -2.14476728e+00 1.14634110e+00 -2.14476728e+00 -4.13853168e+00 8.82601622e-01 1.14634110e+00 8.82601622e-01 -3.13982944e+01
6.87627554e+00 1.29064155e+00 -2.58194059e-02 1.29064155e+00 1.32015252e+00 -1.85070969e-02 -2.58194059e-02 -1.85070969e-02 -2.06489449e+01
-2.44434452e+00 -1.32900000e+00 3.62600911e-01 -1.32900000e+00 -1.94184208e+00 3.92982021e+00 3.62600911e-01 3.92982021e+00 -3.50945253e+01
-4.94487908e+00 -2.36191016e+00 -3.54797840e-02 -2.36191016e+00 -1.34697294e+01 4.06212676e+00 -3.54797840e-02 4.06212676e+00 -4.78204746e+01
1.59150062e+01 3.13923991e+00 -2.07751375e+00 3.13923991e+00 4.10624695e+00 3.72665048e-01 -2.07751375e+00 3.72665048e-01 -8.06363678e+00
4.67899323e-01 -1.73171884e+00 -1.50134502e+00 -1.73171884e+00 2.01483053e+01 1.66592747e+00 -1.50134502e+00 1.66592747e+00 -3.55594635e+00
2.56815872e+01 4.46125931e+00 -2.75682333e+00 4.46125931e+00 2.78096218e+01 2.65422297e+00 -2.75682333e+00 2.65422297e+00 2.89799497e+01
-6.93282109e+00 1.40657473e+00 -1.16185343e+00 1.40657473e+00 1.96501267e+00 7.21063137e-01 -1.16185343e+00 7.21063137e-01 4.13307294e+00
-4.60070658e+00 1.64509690e+00 4.59051356e-02 1.64509690e+00 -6.00134134e-01 -1.91382661e-01 4.59051356e-02 -1.91382661e-01 8.05672348e-01
</DataArray>
<DataArray type="Float32" Name="Logarithmic_strain_components" NumberOfComponents="9" format="ascii">
1.59058339e-02 -4.42864227e-03 1.35242213e-03 -4.42864227e-03 1.41387415e-02 4.54530675e-03 1.35242213e-03 4.54530675e-03 -2.50647452e-02
1.73820724e-02 -7.15404103e-03 1.09130450e-03 -7.15404103e-03 1.82574317e-02 7.82057567e-03 1.09130450e-03 7.82057567e-03 -3.00660708e-02
2.04797578e-02 -3.17544327e-05 3.57034843e-03 -3.17544327e-05 2.60103140e-02 -1.81165425e-03 3.57034843e-03 -1.81165425e-03 -3.96835050e-02
1.58970007e-02 -3.12816672e-04 -2.04137867e-03 -3.12816672e-04 1.95962992e-02 -3.71709320e-04 -2.04137867e-03 -3.71709320e-04 -3.02198967e-02
1.62899056e-02 3.23186103e-03 8.66339587e-03 3.23186103e-03 2.04940997e-02 4.20754735e-03 8.66339587e-03 4.20754735e-03 -3.00455813e-02
1.96418239e-02 -5.85784874e-03 -7.56310605e-03 -5.85784874e-03 2.92351456e-02 9.17745754e-03 -7.56310605e-03 9.17745754e-03 -4.06977439e-02
3.02905275e-02 1.22496090e-03 1.60545173e-03 1.22496090e-03 3.30517148e-02 -9.67647950e-03 1.60545173e-03 -9.67647950e-03 -5.39603094e-02
1.99045788e-02 9.79643982e-03 9.44462295e-03 9.79643982e-03 2.46050572e-02 9.02548735e-03 9.44462295e-03 9.02548735e-03 -3.75592709e-02
2.35517737e-02 8.73984711e-04 -1.09710431e-02 8.73984711e-04 2.43190925e-02 1.10230818e-02 -1.09710431e-02 1.10230818e-02 -4.21423605e-02
3.27499136e-02 1.34189660e-03 -1.55988502e-03 1.34189660e-03 3.66390636e-02 1.58436983e-02 -1.55988502e-03 1.58436983e-02 -6.26453515e-02
3.54745314e-02 1.62159875e-02 -5.48501189e-02 1.62159875e-02 3.66097248e-02 -5.61515645e-04 -5.48501189e-02 -5.61515645e-04 -6.36953302e-02
5.09377867e-02 2.08510989e-02 -4.61127348e-02 2.08510989e-02 3.30424812e-02 -8.67981225e-03 -4.61127348e-02 -8.67981225e-03 -7.34323859e-02
5.06503739e-07 -2.81642833e-05 -6.32010301e-06 -2.81642833e-05 4.96499288e-06 4.19510798e-06 -6.32010301e-06 4.19510798e-06 -1.13709270e-05
-5.56343065e-06 -1.11467848e-05 -8.18733952e-06 -1.11467848e-05 1.05032200e-06 -5.46790352e-06 -8.18733952e-06 -5.46790352e-06 2.36502729e-08
1.33000713e-05 -8.69177666e-06 1.88593572e-06 -8.69177666e-06 2.89432012e-06 2.06020445e-05 1.88593572e-06 2.06020445e-05 -2.17881452e-05
8.25519942e-06 -2.61970090e-05 -2.33714763e-06 -2.61970090e-05 -4.55715247e-06 -2.04166718e-05 -2.33714763e-06 -2.04166718e-05 -8.56737483e-06
3.30679177e-06 8.93030483e-06 1.61487624e-05 8.93030483e-06 1.99722126e-06 1.24964654e-05 1.61487624e-05 1.24964654e-05 -1.34590971e-06
-3.83746101e-06 4.07957577e-06 8.71936663e-06 4.07957577e-06 -5.70484008e-06 -3.95823190e-06 8.71936663e-06 -3.95823190e-06 1.28117699e-05
-5.67057043e-07 3.73453531e-06 -1.57538107e-05 3.73453531e-06 2.88287788e-06 -2.30552978e-05 -1.57538107e-05 -2.30552978e-05 1.64224036e-06
-8.26247651e-06 8.80737480e-06 -6.33002765e-06 8.80737480e-06 -4.40521171e-06 1.44356536e-05 -6.33002765e-06 1.44356536e-05 1.54864392e-05
2.69114049e-02 6.09924064e-06 7.62850186e-03 6.09924064e-06 2.80601466e-02 -1.70887413e-03 7.62850186e-03 -1.70887413e-03 -4.66699339e-02
2.76528597e-02 6.52091359e-04 5.38699853e-03 6.52091359e-04 2.69018202e-02 1.39055555e-03 5.38699853e-03 1.39055555e-03 -4.63158833e-02
2.65843039e-02 -6.45502246e-03 8.47997822e-03 -6.45502246e-03 2.71660357e-02 2.16162881e-03 8.47997822e-03 2.16162881e-03 -4.53754659e-02
2.55929232e-02 6.94983813e-04 7.71918410e-03 6.94983813e-04 2.87669147e-02 -3.94184852e-03 7.71918410e-03 -3.94184852e-03 -4.61229719e-02
3.55163217e-02 -1.64419544e-06 6.88516488e-03 -1.64419544e-06 2.53997752e-02 -3.55867334e-04 6.88516488e-03 -3.55867334e-04 -5.13769947e-02
3.43639795e-02 6.47690802e-04 2.17503920e-03 6.47690802e-04 2.67357524e-02 6.01372786e-03 2.17503920e-03 6.01372786e-03 -5.17944423e-02
3.50617608e-02 1.38392705e-03 1.03681776e-02 1.38392705e-03 2.75764621e-02 3.06370986e-03 1.03681776e-02 3.06370986e-03 -5.29039409e-02
3.60547407e-02 1.38410248e-03 1.05205592e-02 1.38410248e-03 2.78130695e-02 -5.08413580e-03 1.05205592e-02 -5.08413580e-03 -5.41083906e-02
2.99472013e-02 -6.57486718e-03 7.64293363e-03 -6.57486718e-03 2.27956581e-02 5.48923819e-04 7.64293363e-03 5.48923819e-04 -4.45023170e-02
2.93971840e-02 -9.22422006e-03 6.91719565e-03 -9.22422006e-03 2.55026463e-02 2.68402712e-03 6.91719565e-03 2.68402712e-03 -4.62077665e-02
3.19359442e-02 1.62004688e-03 -7.35796173e-04 1.62004688e-03 2.65683010e-02 3.63628058e-03 -7.35796173e-04 3.63628058e-03 -4.96049151e-02
3.19067275e-02 2.16419162e-03 7.29222375e-03 2.16419162e-03 2.91993788e-02 8.48681718e-03 7.29222375e-03 8.48681718e-03 -5.19420584e-02
3.21097393e-02 4.81206895e-04 2.75970268e-03 4.81206895e-04 1.98640581e-02 3.96738555e-03 2.75970268e-03 3.96738555e-03 -4.37004808e-02
3.21520485e-02 -4.26022016e-03 -3.84692076e-03 -4.26022016e-03 2.53647370e-02 -3.29380915e-03 -3.84692076e-03 -3.29380915e-03 -4.81813056e-02
3.01522003e-02 -2.70220725e-03 -1.97625610e-04 -2.70220725e-03 2.39687138e-02 3.49639522e-03 -1.97625610e-04 3.49639522e-03 -4.57790131e-02
2.95336542e-02 -2.87480010e-03 -4.32092772e-03 -2.87480010e-03 2.68651126e-02 2.73402023e-03 -4.32092772e-03 2.73402023e-03 -4.77162553e-02
3.25361723e-02 1.34799143e-03 -3.84773331e-03 1.34799143e-03 1.87917445e-02 -8.94173048e-04 -3.84773331e-03 -8.94173048e-04 -4.30144193e-02
3.21227780e-02 1.93786192e-03 -4.39159072e-03 1.93786192e-03 2.94958346e-02 -1.38701405e-04 -4.39159072e-03 -1.38701405e-04 -5.20972596e-02
2.84251687e-02 -8.85043599e-04 -5.31460042e-03 -8.85043599e-04 2.12034946e-02 2.60244519e-03 -5.31460042e-03 2.60244519e-03 -4.19507967e-02
2.82079868e-02 -5.85425465e-03 -7.73239799e-03 -5.85425465e-03 2.26287453e-02 -3.67422618e-03 -7.73239799e-03 -3.67422618e-03 -4.24064114e-02
2.95106070e-02 1.34226060e-03 2.43797078e-03 1.34226060e-03 1.97346732e-02 -3.42027348e-03 2.43797078e-03 -3.42027348e-03 -4.11208086e-02
3.14429549e-02 1.68806179e-03 2.16674212e-04 1.68806179e-03 2.82657377e-02 1.59486326e-03 2.16674212e-04 1.59486326e-03 -5.02976952e-02
2.42658160e-02 1.16054682e-04 -9.48757469e-03 1.16054682e-04 1.93085349e-02 2.18079062e-04 -9.48757469e-03 2.18079062e-04 -3.63714518e-02
2.56375298e-02 -1.73851328e-03 -6.61417161e-03 -1.73851328e-03 2.45215548e-02 -3.15565874e-03 -6.61417161e-03 -3.15565874e-03 -4.22209650e-02
2.77786907e-02 1.63517293e-03 3.00230028e-03 1.63517293e-03 1.85777964e-02 -3.71299731e-03 3.00230028e-03 -3.71299731e-03 -3.83637864e-02
2.89721405e-02 4.00836077e-04 -5.76040766e-04 4.00836077e-04 2.68211770e-02 -3.12049355e-03 -5.76040766e-04 -3.12049355e-03 -4.64303168e-02
2.18854118e-02 7.11808936e-03 -7.50123872e-03 7.11808936e-03 1.81817068e-02 -4.00815986e-03 -7.50123872e-03 -4.00815986e-03 -3.30534624e-02
2.49524578e-02 3.13661787e-03 -4.31799050e-03 3.13661787e-03 2.26500039e-02 -2.45411359e-03 -4.31799050e-03 -2.45411359e-03 -3.96955227e-02
2.30731172e-02 -1.07335193e-02 1.98571464e-02 -1.07335193e-02 2.98624255e-02 -4.50909389e-04 1.98571464e-02 -4.50909389e-04 -4.42349557e-02
1.93950720e-02 -7.79222790e-03 1.40747926e-02 -7.79222790e-03 3.18368794e-02 -2.23934866e-03 1.40747926e-02 -2.23934866e-03 -4.31003347e-02
3.78463520e-02 -1.14026485e-03 2.49837872e-02 -1.14026485e-03 3.05385184e-02 6.21508405e-03 2.49837872e-02 6.21508405e-03 -5.81694739e-02
3.58725851e-02 -3.61048020e-04 2.15948364e-02 -3.61048020e-04 3.00584189e-02 -1.92026873e-03 2.15948364e-02 -1.92026873e-03 -5.56186438e-02
3.15473785e-02 -1.95333683e-03 1.32792573e-02 -1.95333683e-03 2.91293407e-02 -3.85945813e-03 1.32792573e-02 -3.85945813e-03 -5.19110677e-02
3.39740666e-02 6.07308168e-03 6.10255083e-03 6.07308168e-03 3.15547502e-02 -6.31076984e-03 6.10255083e-03 -6.31076984e-03 -5.60170137e-02
3.85269068e-02 -8.03349487e-03 -3.79990861e-02 -8.03349487e-03 3.53380509e-02 -3.57124861e-04 -3.79990861e-02 -3.57124861e-04 -6.57429904e-02
2.66589254e-02 4.84713736e-03 -2.32271016e-02 4.84713736e-03 2.81725276e-02 -5.17927988e-03 -2.32271016e-02 -5.17927988e-03 -4.67470043e-02
3.76819838e-02 -1.55414920e-04 -1.06529960e-02 -1.55414920e-04 4.26708441e-02 8.68070195e-03 -1.06529960e-02 8.68070195e-03 -7.07076713e-02
3.01033486e-02 -3.77489522e-03 -3.45819242e-02 -3.77489522e-03 2.34023243e-02 5.74634736e-03 -3.45819242e-02 5.74634736e-03 -4.58694506e-02
3.66462972e-02 -2.20819883e-03 -2.17536179e-03 -2.20819883e-03 3.90878804e-02 6.64280498e-03 -2.17536179e-03 6.64280498e-03 -6.57316418e-02
3.11319265e-02 1.73722184e-03 -1.27341331e-02 1.73722184e-03 3.42243351e-02 -1.78707240e-04 -1.27341331e-02 -1.78707240e-04 -5.75280702e-02
3.31659168e-02 2.37431814e-04 -3.34916334e-03 2.37431814e-04 3.80535703e-02 2.53526069e-03 -3.34916334e-03 2.53526069e-03 -6.11086283e-02
3.01700868e-02 2.86051065e-04 -1.17776226e-02 2.86051065e-04 3.34119778e-02 -1.04491370e-02 -1.17776226e-02 -1.04491370e-02 -5.56287169e-02
1.92729530e-02 -6.19652076e-03 2.40209319e-02 -6.19652076e-03 2.89699583e-02 3.23866494e-04 2.40209319e-02 3.23866494e-04 -4.04481164e-02
1.49069643e-02 1.85135630e-03 1.92143652e-02 1.85135630e-03 2.83422442e-02 4.60325903e-03 1.92143652e-02 4.60325903e-03 -3.57580110e-02
3.93218377e-02 -3.24092566e-03 2.73206958e-02 -3.24092566e-03 3.07891382e-02 -8.31484109e-03 2.73206958e-02 -8.31484109e-03 -5.90956200e-02
2.98132752e-02 2.24712444e-03 3.02717709e-02 2.24712444e-03 3.08185471e-02 -1.24836767e-02 3.02717709e-02 -1.24836767e-02 -5.04324976e-02
3.02203000e-02 -1.55210723e-02 3.52290147e-02 -1.55210723e-02 3.86301978e-02 -3.86827912e-02 3.52290147e-02 -3.86827912e-02 -6.01137383e-02
4.57671560e-02 -9.20343399e-04 9.81382551e-03 -9.20343399e-04 3.26531816e-02 -2.75222873e-02 9.81382551e-03 -2.75222873e-02 -6.81786552e-02
-1.33777261e-02 -5.67109287e-02 -1.13475010e-01 -5.67109287e-02 1.18558027e-03 -8.33826959e-02 -1.13475010e-01 -8.33826959e-02 3.54147516e-02
1.83538056e-02 -4.26480143e-03 -2.88445620e-02 -4.26480143e-03 1.21488955e-02 -2.26816783e-02 -2.88445620e-02 -2.26816783e-02 -2.04489635e-02
1.49663626e-02 -1.85317604e-03 1.00083371e-02 -1.85317604e-03 2.06463752e-02 1.31253959e-02 1.00083371e-02 1.31253959e-02 -2.91686109e-02
1.34532144e-02 -4.27974446e-03 1.59860468e-02 -4.27974446e-03 2.12831451e-02 1.80001074e-03 1.59860468e-02 1.80001074e-03 -2.86317267e-02
2.43151020e-02 -3.88661200e-03 2.04842379e-02 -3.88661200e-03 2.95915641e-02 2.14900568e-02 2.04842379e-02 2.14900568e-02 -4.31043270e-02
2.59055058e-02 -1.89667198e-03 3.85893194e-03 -1.89667198e-03 3.21967867e-02 7.88115780e-03 3.85893194e-03 7.88115780e-03 -4.77342634e-02
1.54100670e-02 3.91273818e-03 -4.43117693e-04 3.91273818e-03 2.03750224e-02 9.88296189e-04 -4.43117693e-04 9.88296189e-04 -2.98080584e-02
3.01384231e-02 8.38733474e-03 -7.71064471e-03 8.38733474e-03 3.48134927e-02 1.81340170e-02 -7.71064471e-03 1.81340170e-02 -5.41772135e-02
2.65701730e-02 9.02355765e-03 8.57098727e-03 9.02355765e-03 3.93383158e-02 7.48850137e-03 8.57098727e-03 7.48850137e-03 -5.52301435e-02
1.61531437e-02 1.83870433e-03 8.03905632e-03 1.83870433e-03 2.41308375e-02 3.98647552e-02 8.03905632e-03 3.98647552e-02 -3.45417052e-02
4.89708167e-02 -6.91896188e-03 4.44274740e-02 -6.91896188e-03 3.94633133e-02 2.11354104e-02 4.44274740e-02 2.11354104e-02 -7.95790665e-02
2.96950851e-02 -7.54614174e-03 -2.12291155e-02 -7.54614174e-03 4.21998296e-02 -1.25723653e-02 -2.12291155e-02 -1.25723653e-02 -6.07190505e-02
1.71539080e-02 -9.36272962e-04 7.22438970e-03 -9.36272962e-04 2.53284331e-02 7.91390939e-03 7.22438970e-03 7.91390939e-03 -3.58117688e-02
3.41729354e-02 1.30508085e-02 -3.64004314e-03 1.30508085e-02 3.73061839e-02 1.29420647e-02 -3.64004314e-03 1.29420647e-02 -5.84127372e-02
2.77648736e-02 -6.81746542e-03 1.39055704e-02 -6.81746542e-03 4.41150349e-02 -1.17208418e-02 1.39055704e-02 -1.17208418e-02 -6.07012566e-02
3.90225886e-02 -1.02676952e-02 -2.73568365e-02 -1.02676952e-02 4.17019697e-02 3.09972304e-02 -2.73568365e-02 3.09972304e-02 -6.89572133e-02
2.79825578e-02 2.17655798e-02 7.90240398e-04 2.17655798e-02 4.54920518e-02 -7.25647832e-02 7.90240398e-04 -7.25647832e-02 -6.25092449e-02
4.38022576e-02 -4.11015497e-03 -9.86735383e-03 -4.11015497e-03 2.60554782e-02 -1.20514217e-02 -9.86735383e-03 -1.20514217e-02 -5.90007491e-02
4.43927795e-02 3.56203600e-06 2.40961148e-03 3.56203600e-06 2.56376108e-02 -2.45657400e-03 2.40961148e-03 -2.45657400e-03 -5.90790901e-02
4.11187205e-02 2.39012373e-03 3.36159801e-03 2.39012373e-03 2.79903808e-02 3.21347675e-03 3.36159801e-03 3.21347675e-03 -5.84937586e-02
4.26023682e-02 8.76463979e-03 5.98760200e-03 8.76463979e-03 2.94463895e-02 3.85170712e-03 5.98760200e-03 3.85170712e-03 -6.10019271e-02
4.67972690e-02 1.98215427e-03 7.35558558e-03 1.98215427e-03 2.72005354e-02 -1.51075289e-03 7.35558558e-03 -1.51075289e-03 -6.25273958e-02
3.34606282e-02 5.54667471e-03 -2.98804007e-04 5.54667471e-03 3.23338634e-02 5.80062540e-03 -2.98804007e-04 5.80062540e-03 -5.60094919e-02
3.34768018e-02 1.19261489e-02 2.61168464e-03 1.19261489e-02 3.26344252e-02 3.86710622e-03 2.61168464e-03 3.86710622e-03 -5.62944603e-02
2.67793024e-02 3.66389385e-03 -2.67477700e-03 3.66389385e-03 3.33434120e-02 1.68460295e-03 -2.67477700e-03 1.68460295e-03 -5.13260933e-02
2.46919983e-02 6.27935089e-03 -1.02174988e-03 6.27935089e-03 3.31743921e-02 5.10597101e-03 -1.02174988e-03 5.10597101e-03 -4.94638858e-02
2.29516476e-02 -1.90276830e-03 -1.56589868e-03 -1.90276830e-03 3.08227013e-02 2.74555365e-04 -1.56589868e-03 2.74555365e-04 -4.58529284e-02
2.03389968e-02 -2.33811368e-03 -2.30475387e-03 -2.33811368e-03 2.94494864e-02 1.10773568e-03 -2.30475387e-03 1.10773568e-03 -4.22926852e-02
2.04064776e-02 -3.06241639e-03 -3.68163123e-03 -3.06241639e-03 2.82954634e-02 6.64814455e-04 -3.68163123e-03 6.64814455e-04 -4.12746547e-02
2.03520244e-02 -5.31381345e-03 -6.25081867e-03 -5.31381345e-03 2.47039748e-02 -1.04373848e-03 -6.25081867e-03 -1.04373848e-03 -3.79309189e-02
1.82558093e-02 9.19287879e-04 -1.94309972e-03 9.19287879e-04 2.95444792e-02 2.13522945e-03 -1.94309972e-03 2.13522945e-03 -4.05694060e-02
2.06502425e-02 -4.98615747e-03 -2.49538408e-03 -4.98615747e-03 2.47294111e-02 -5.11177618e-03 -2.49538408e-03 -5.11177618e-03 -3.83735429e-02
5.07556512e-02 1.12770452e-02 1.73096207e-02 1.12770452e-02 2.91135935e-02 3.03447078e-03 1.73096207e-02 3.03447078e-03 -6.74404241e-02
5.31681692e-02 6.39362819e-03 2.23435143e-02 6.39362819e-03 3.21745463e-02 -7.69239443e-03 2.23435143e-02 -7.69239443e-03 -7.20782615e-02
3.71615819e-02 1.46443144e-02 1.00163772e-04 1.46443144e-02 2.85353109e-02 1.58919021e-03 1.00163772e-04 1.58919021e-03 -5.57443565e-02
2.12260677e-02 1.01415422e-02 -1.09310106e-02 1.01415422e-02 2.31983808e-02 -1.06595410e-03 -1.09310106e-02 -1.06595410e-03 -3.71213625e-02
1.36089095e-02 5.69042517e-04 -1.25416734e-02 5.69042517e-04 2.15743209e-02 -7.87186769e-04 -1.25416734e-02 -7.87186769e-04 -2.95574700e-02
1.19250931e-02 -5.94408996e-03 -1.78436344e-02 -5.94408996e-03 1.92594994e-02 -5.88409859e-03 -1.78436344e-02 -5.88409859e-03 -2.62309673e-02
1.38539200e-02 -1.09386536e-02 -1.98417408e-02 -1.09386536e-02 1.65850342e-02 -1.11968143e-02 -1.98417408e-02 -1.11968143e-02 -2.56181487e-02
5.73512961e-02 -1.70614462e-03 4.47313767e-02 -1.70614462e-03 2.66195179e-02 -1.12787802e-02 4.47313767e-02 -1.12787802e-02 -7.13152159e-02
5.78607731e-02 -1.07333756e-02 4.35693357e-02 -1.07333756e-02 3.06659269e-02 -1.48004545e-02 4.35693357e-02 -1.48004545e-02 -7.63992593e-02
4.29247363e-02 1.12350603e-02 3.73962227e-03 1.12350603e-02 2.05786210e-02 -2.18165352e-02 3.73962227e-03 -2.18165352e-02 -5.32555661e-02
1.79505714e-02 1.12663360e-02 -1.93980122e-02 1.12663360e-02 7.41217864e-03 -1.08307509e-02 -1.93980122e-02 -1.08307509e-02 -1.97398874e-02
4.58158785e-03 -3.37255485e-02 -4.78350669e-02 -3.37255485e-02 -1.72003917e-02 -4.51678410e-02 -4.78350669e-02 -4.51678410e-02 2.15728581e-02
5.63757261e-04 2.23058996e-03 -5.67418474e-03 2.23058996e-03 2.60260289e-03 -2.46038630e-03 -5.67418474e-03 -2.46038630e-03 -6.78785332e-04
5.51925432e-02 3.46969142e-03 -4.39961348e-03 3.46969142e-03 4.04641833e-02 3.10343169e-02 -4.39961348e-03 3.10343169e-02 -8.06131763e-02
5.63762709e-02 9.46818199e-03 -2.64345760e-02 9.46818199e-03 4.95032622e-02 2.50473476e-02 -2.64345760e-02 2.50473476e-02 -9.03256113e-02
5.87275829e-02 -5.34403115e-03 1.02660176e-02 -5.34403115e-03 3.23912147e-02 -3.14909117e-02 1.02660176e-02 -3.14909117e-02 -8.12383257e-02
4.96120670e-02 -4.28600051e-03 -1.18049728e-02 -4.28600051e-03 6.25702186e-02 1.98719098e-02 -1.18049728e-02 1.98719098e-02 -9.54776021e-02
4.97515947e-02 -3.37774557e-03 9.04402940e-03 -3.37774557e-03 6.31714994e-02 -1.42448914e-03 9.04402940e-03 -1.42448914e-03 -9.53344945e-02
5.55893267e-02 -5.41844871e-03 7.42152403e-03 -5.41844871e-03 4.88033714e-02 1.50905284e-02 7.42152403e-03 1.50905284e-02 -8.84460788e-02
5.37471492e-02 2.33920047e-03 1.19485080e-02 2.33920047e-03 4.93629351e-02 -9.12767975e-03 1.19485080e-02 -9.12767975e-03 -8.71221349e-02
4.96116253e-02 1.42759128e-02 -7.38334926e-03 1.42759128e-02 5.12306141e-02 -1.60960522e-02 -7.38334926e-03 -1.60960522e-02 -8.76543596e-02
5.82870729e-02 -8.12489982e-03 -1.35255535e-02 -8.12489982e-03 3.80731672e-02 2.96305881e-02 -1.35255535e-02 2.96305881e-02 -8.16766676e-02
4.23469050e-02 8.46685679e-03 4.84024372e-03 8.46685679e-03 1.58967639e-02 -1.75972225e-02 4.84024372e-03 -1.75972225e-02 -4.96831676e-02
3.23947252e-02 -1.28013939e-02 2.24927976e-03 -1.28013939e-02 2.38461441e-02 -3.66527075e-03 2.24927976e-03 -3.66527075e-03 -4.66047013e-02
-3.37355174e-02 2.98988335e-02 2.32432261e-02 2.98988335e-02 -9.06954519e-03 -2.33028643e-02 2.32432261e-02 -2.33028643e-02 6.21858239e-02
-8.72630440e-03 7.50010228e-03 2.49823667e-02 7.50010228e-03 -1.22526067e-03 -5.13740890e-02 2.49823667e-02 -5.13740890e-02 2.06216089e-02
8.13219177e-03 -1.62524908e-02 -5.68224829e-03 -1.62524908e-02 -1.04174018e-02 1.79536439e-02 -5.68224829e-03 1.79536439e-02 3.44779345e-03
-4.79462357e-03 -3.04705039e-02 -7.76570353e-03 -3.04705039e-02 1.14068719e-03 -5.44778399e-03 -7.76570353e-03 -5.44778399e-03 5.29478691e-03
-2.05732540e-05 -4.92073705e-05 6.54796313e-05 -4.92073705e-05 2.89561558e-05 -4.47281782e-05 6.54796313e-05 -4.47281782e-05 -1.53365891e-05
-1.93120613e-05 -2.90814387e-06 1.29816108e-05 -2.90814387e-06 -8.60154501e-07 2.71579684e-05 1.29816108e-05 2.71579684e-05 1.49029329e-05
2.18949735e-05 -3.35609911e-05 1.04689616e-05 -3.35609911e-05 -4.60299862e-06 -5.89929004e-05 1.04689616e-05 -5.89929004e-05 -2.40823647e-05
8.39873428e-06 -7.80590126e-05 -6.04695524e-05 -7.80590126e-05 1.18736007e-05 5.78643740e-05 -6.04695524e-05 5.78643740e-05 -2.61247333e-05
1.74260464e-04 9.62918028e-05 4.40299819e-05 9.62918028e-05 -1.23160901e-04 1.55474692e-05 4.40299819e-05 1.55474692e-05 -2.24809071e-05
5.17539332e-05 -1.78920333e-05 3.00118306e-06 -1.78920333e-05 -1.09622048e-04 5.66578541e-05 3.00118306e-06 5.66578541e-05 5.86336409e-06
-6.80586290e-05 5.19441983e-05 -1.33425636e-05 5.19441983e-05 1.94093718e-05 -7.18420379e-05 -1.33425636e-05 -7.18420379e-05 1.77141164e-05
-1.57084611e-04 -2.98059220e-04 3.01599963e-07 -2.98059220e-04 5.88698507e-05 -5.60726961e-05 3.01599963e-07 -5.60726961e-05 1.12433649e-04
4.76324074e-02 -2.56035128e-06 1.21227640e-06 -2.56035128e-06 2.71350555e-02 -1.09540997e-06 1.21227640e-06 -1.09540997e-06 -6.31843433e-02
4.31569833e-02 4.64869849e-03 -3.90987407e-06 4.64869849e-03 2.98882937e-02 3.00259050e-03 -3.90987407e-06 3.00259050e-03 -6.18697200e-02
4.67628371e-02 1.28522897e-02 3.04851984e-03 1.28522897e-02 2.81607127e-02 5.22063556e-03 3.04851984e-03 5.22063556e-03 -6.33534770e-02
5.21662980e-02 3.81675898e-03 1.25686068e-03 3.81675898e-03 2.57054605e-02 -3.04448258e-06 1.25686068e-03 -3.04448258e-06 -6.56966679e-02
3.35316453e-02 3.85696697e-03 -1.49279913e-05 3.85696697e-03 3.53558995e-02 6.47760532e-03 -1.49279913e-05 6.47760532e-03 -5.87225966e-02
3.45591349e-02 1.53547849e-02 3.53934325e-03 1.53547849e-02 3.32790902e-02 4.75324749e-03 3.53934325e-03 4.75324749e-03 -5.77454455e-02
2.46381043e-02 5.51867019e-03 -1.15609450e-05 5.51867019e-03 3.82165574e-02 4.40809922e-03 -1.15609450e-05 4.40809922e-03 -5.37666138e-02
2.39510303e-02 9.93790734e-03 4.30663629e-03 9.93790734e-03 3.52194607e-02 6.22847339e-03 4.30663629e-03 6.22847339e-03 -5.07236961e-02
1.96252540e-02 1.82045542e-03 8.79554136e-07 1.82045542e-03 3.70528717e-02 1.21570972e-03 8.79554136e-07 1.21570972e-03 -4.84580286e-02
1.79084146e-02 2.48880591e-03 7.62412720e-03 2.48880591e-03 3.34712858e-02 4.94519656e-03 7.62412720e-03 4.94519656e-03 -4.41807341e-02
1.94699978e-02 -3.02796089e-03 -1.22083975e-06 -3.02796089e-03 3.41825336e-02 6.38935919e-04 -1.22083975e-06 6.38935919e-04 -4.58641965e-02
1.56918201e-02 -3.95535055e-03 8.46691779e-03 -3.95535055e-03 3.02464627e-02 7.03903977e-04 8.46691779e-03 7.03903977e-04 -3.93385328e-02
1.80385727e-02 -1.11035397e-02 1.96484907e-05 -1.11035397e-02 3.70808691e-02 4.56924876e-03 1.96484907e-05 4.56924876e-03 -4.75973152e-02
1.57131003e-02 -7.53546739e-03 1.16812373e-02 -7.53546739e-03 3.02926945e-02 -7.42862211e-03 1.16812373e-02 -7.42862211e-03 -3.96264549e-02
5.10854283e-02 1.83632756e-02 -6.21738599e-03 1.83632756e-02 3.56270340e-02 8.84447806e-03 -6.21738599e-03 8.84447806e-03 -7.34395664e-02
5.83785847e-02 3.38823721e-03 -3.19428451e-03 3.38823721e-03 3.88185298e-02 -8.74677971e-06 -3.19428451e-03 -8.74677971e-06 -8.27229172e-02
3.49387866e-02 2.71357493e-02 -1.90415234e-04 2.71357493e-02 2.93944310e-02 1.21211675e-02 -1.90415234e-04 1.21211675e-02 -5.43468734e-02
1.89547576e-02 1.49140246e-02 5.58916293e-03 1.49140246e-02 2.36924672e-02 7.81894650e-03 5.58916293e-03 7.81894650e-03 -3.59028047e-02
9.27633332e-03 -7.05235434e-05 7.43774616e-03 -7.05235434e-05 1.73732813e-02 6.90951908e-03 7.43774616e-03 6.90951908e-03 -2.19396465e-02
4.81508183e-03 -5.90538548e-03 8.11988907e-03 -5.90538548e-03 1.31407478e-02 -6.52723422e-04 8.11988907e-03 -6.52723422e-04 -1.42245048e-02
8.08773260e-03 -9.06198099e-03 4.93796472e-03 -9.06198099e-03 8.72877473e-03 -7.07077095e-03 4.93796472e-03 -7.07077095e-03 -1.33986478e-02
6.21198807e-02 -1.09286001e-03 2.69013150e-02 -1.09286001e-03 5.32922149e-02 1.59527147e-02 2.69013150e-02 1.59527147e-02 -1.03401676e-01
7.02934563e-02 -5.33237914e-03 2.11589783e-02 -5.33237914e-03 6.15721084e-02 -1.56092756e-05 2.11589783e-02 -1.56092756e-05 -1.19186349e-01
3.45363089e-02 1.20207656e-02 8.45068476e-03 1.20207656e-02 2.26432507e-02 1.79491440e-02 8.45068476e-03 1.79491440e-02 -4.83522813e-02
1.06337132e-02 5.57471963e-03 4.33487550e-03 5.57471963e-03 6.44965269e-03 8.66699684e-03 4.33487550e-03 8.66699684e-03 -1.22095173e-02
3.15289464e-04 -3.62188146e-03 7.86843913e-04 -3.62188146e-03 2.45591013e-03 3.77327917e-04 7.86843913e-04 3.77327917e-04 -1.07243886e-03
-1.17065034e-03 -2.56849907e-03 -6.89795398e-03 -2.56849907e-03 3.59566089e-03 -5.14164721e-04 -6.89795398e-03 -5.14164721e-04 -1.49644506e-03
1.84024266e-04 -1.89119202e-03 4.85699937e-04 -1.89119202e-03 8.76548420e-04 4.73089101e-04 4.85699937e-04 4.73089101e-04 -1.25410801e-04
7.76851550e-04 -7.64077704e-03 -6.34675508e-03 -7.64077704e-03 -4.76060843e-04 -2.06432094e-04 -6.34675508e-03 -2.06432094e-04 4.49483894e-04
1.50350842e-03 -3.19013398e-03 1.42153841e-03 -3.19013398e-03 -2.08697154e-03 2.56501691e-04 1.42153841e-03 2.56501691e-04 1.33793469e-03
1.15378875e-02 -1.83162978e-03 -1.30642108e-02 -1.83162978e-03 -6.74061477e-03 -2.90079988e-02 -1.30642108e-02 -2.90079988e-02 -5.40477689e-04
-1.59486412e-03 -3.24513111e-03 4.44558286e-03 -3.24513111e-03 1.82495685e-04 4.07656375e-03 4.44558286e-03 4.07656375e-03 5.54877520e-03
2.31222510e-02 1.35511532e-02 -5.49322134e-03 1.35511532e-02 3.05576324e-02 4.08367291e-02 -5.49322134e-03 4.08367291e-02 -4.79093790e-02
1.21237065e-04 -1.02283526e-04 -3.43094677e-04 -1.02283526e-04 3.40146255e-04 2.44860538e-03 -3.43094677e-04 2.44860538e-03 -2.70912024e-05
-6.12909496e-04 -1.76142808e-03 2.40181781e-04 -1.76142808e-03 5.14244244e-04 1.43355273e-04 2.40181781e-04 1.43355273e-04 5.52099077e-04
-1.59591762e-04 2.27627846e-04 1.56719027e-04 2.27627846e-04 3.16739252e-04 -3.16455989e-05 1.56719027e-04 -3.16455989e-05 -1.98389680e-05
-1.56822773e-04 -2.43537077e-04 -1.03598119e-04 -2.43537077e-04 1.95244538e-04 7.98073197e-05 -1.03598119e-04 7.98073197e-05 9.89949704e-05
2.16362389e-04 -6.67530097e-04 3.26809917e-04 -6.67530097e-04 -4.31633664e-04 -4.11350629e-05 3.26809917e-04 -4.11350629e-05 2.98714549e-04
3.38477388e-04 -8.64949994e-04 -1.77579044e-04 -8.64949994e-04 -8.42290576e-04 -8.39950444e-05 -1.77579044e-04 -8.39950444e-05 5.85364010e-04
7.11143613e-02 1.39286900e-02 -1.75957009e-02 1.39286900e-02 9.70566496e-02 2.36586551e-04 -1.75957009e-02 2.36586551e-04 -1.49209827e-01
8.56027082e-02 -2.08898424e-03 -1.26716020e-02 -2.08898424e-03 9.02863145e-02 2.62229517e-02 -1.26716020e-02 2.62229517e-02 -1.58359587e-01
6.05961432e-02 -1.67161255e-02 1.78761017e-02 -1.67161255e-02 6.63443146e-02 1.93656453e-02 1.78761017e-02 1.93656453e-02 -1.07681250e-01
6.33277316e-02 -6.83011021e-03 2.10868875e-02 -6.83011021e-03 7.33176619e-02 3.47253517e-05 2.10868875e-02 3.47253517e-05 -1.16775461e-01
5.12749934e-05 5.01863269e-05 -5.67645031e-06 5.01863269e-05 -4.91665596e-05 -4.84306884e-05 -5.67645031e-06 -4.84306884e-05 3.47550720e-05
5.76182249e-03 -5.85319297e-03 4.80551559e-05 -5.85319297e-03 -2.08490168e-03 4.42642786e-04 4.80551559e-05 4.42642786e-04 -2.52955070e-03
8.36487088e-05 6.09665494e-05 2.24591495e-05 6.09665494e-05 -1.16776519e-04 2.68709691e-05 2.24591495e-05 2.68709691e-05 -4.25097660e-05
7.06185773e-02 -1.88871534e-02 1.20809716e-02 -1.88871534e-02 4.31585498e-02 1.52415540e-02 1.20809716e-02 1.52415540e-02 -9.66576785e-02
7.10964650e-02 -6.63894520e-04 1.48673048e-02 -6.63894520e-04 4.40446697e-02 -2.18928326e-05 1.48673048e-02 -2.18928326e-05 -9.70773101e-02
5.17154001e-02 7.00869574e-03 4.48764721e-03 7.00869574e-03 5.01632970e-02 2.09851628e-02 4.48764721e-03 2.09851628e-02 -8.73933658e-02
6.16462138e-02 -1.11008413e-02 -2.46941589e-03 -1.11008413e-02 3.82587183e-02 2.86181597e-02 -2.46941589e-03 2.86181597e-02 -8.46662745e-02
2.63912100e-02 5.76157868e-03 -1.20702805e-02 5.76157868e-03 1.45729515e-02 1.20861284e-02 -1.20702805e-02 1.20861284e-02 -3.15805860e-02
1.77758710e-02 -1.15927719e-02 -8.49969592e-03 -1.15927719e-02 2.81392168e-02 1.06810792e-02 -8.49969592e-03 1.06810792e-02 -3.60880643e-02
-5.38086446e-03 -1.79333393e-02 -8.50611628e-04 -1.79333393e-02 4.24281345e-03 4.37774826e-04 -8.50611628e-04 4.37774826e-04 2.97362093e-03
-3.51334160e-04 -5.17178269e-05 -6.10519091e-05 -5.17178269e-05 1.37786763e-04 2.02828560e-05 -6.10519091e-05 2.02828560e-05 2.33609431e-04
-9.37432997e-05 7.91029015e-05 1.52793200e-06 7.91029015e-05 2.58813679e-06 -8.90751835e-06 1.52793200e-06 -8.90751835e-06 3.61639577e-05
</DataArray>
<DataArray type="Float32" Name="Plastic_strain_components" NumberOfComponents="9" format="ascii">
1.56799624e-02 -4.40534232e-03 1.34636242e-03 -4.40534232e-03 1.39617601e-02 4.53304807e-03 1.34636242e-03 4.53304807e-03 -2.48396390e-02
1.44511112e-02 -6.40406099e-03 1.15312152e-03 -6.40406099e-03 1.46896900e-02 7.15900725e-03 1.15312152e-03 7.15900725e-03 -2.31420246e-02
2.19799210e-02 -4.59523988e-04 3.49136599e-03 -4.59523988e-04 2.77172970e-02 -1.38690093e-03 3.49136599e-03 -1.38690093e-03 -4.25637811e-02
1.57929603e-02 -2.95576683e-04 -2.02779287e-03 -2.95576683e-04 1.94706693e-02 -3.63518891e-04 -2.02779287e-03 -3.63518891e-04 -2.97009824e-02
1.12734294e-02 2.45651290e-03 8.95472528e-03 2.45651290e-03 1.44066601e-02 1.27471672e-03 8.95472528e-03 1.27471672e-03 -1.96648755e-02
1.77678048e-02 -5.02920159e-03 -5.68283880e-03 -5.02920159e-03 2.59435868e-02 1.10658832e-02 -5.68283880e-03 1.10658832e-02 -3.61919262e-02
3.09681119e-02 9.13377618e-04 6.76793949e-04 9.13377618e-04 3.42176720e-02 -1.04647088e-02 6.76793949e-04 -1.04647088e-02 -5.48615530e-02
2.24607312e-02 1.02354158e-02 9.27901534e-03 1.02354158e-02 2.77453088e-02 1.06092402e-02 9.27901534e-03 1.06092402e-02 -4.30660308e-02
2.55076177e-02 6.87489228e-04 -1.05523533e-02 6.87489228e-04 2.68434088e-02 1.35362528e-02 -1.05523533e-02 1.35362528e-02 -4.52045398e-02
3.28274537e-02 1.65415311e-03 -1.51376371e-03 1.65415311e-03 3.64244124e-02 1.54475484e-02 -1.51376371e-03 1.54475484e-02 -5.80401681e-02
3.82443623e-02 1.56915818e-02 -5.58620083e-02 1.56915818e-02 4.03452519e-02 -1.86767584e-03 -5.58620083e-02 -1.86767584e-03 -6.60302776e-02
5.03045768e-02 2.08039936e-02 -4.49948478e-02 2.08039936e-02 3.24168457e-02 -8.39295704e-03 -4.49948478e-02 -8.39295704e-03 -6.86475690e-02
0.00000000e+00 0.00000000e+00 0.00000000e+00 0.00000000e+00 0.00000000e+00 0.00000000e+00 0.00000000e+00 0.00000000e+00 0.00000000e+00
0.00000000e+00 0.00000000e+00 0.00000000e+00 0.00000000e+00 0.00000000e+00 0.00000000e+00 0.00000000e+00 0.00000000e+00 0.00000000e+00
0.00000000e+00 0.00000000e+00 0.00000000e+00 0.00000000e+00 0.00000000e+00 0.00000000e+00 0.00000000e+00 0.00000000e+00 0.00000000e+00
0.00000000e+00 0.00000000e+00 0.00000000e+00 0.00000000e+00 0.00000000e+00 0.00000000e+00 0.00000000e+00 0.00000000e+00 0.00000000e+00
0.00000000e+00 0.00000000e+00 0.00000000e+00 0.00000000e+00 0.00000000e+00 0.00000000e+00 0.00000000e+00 0.00000000e+00 0.00000000e+00
0.00000000e+00 0.00000000e+00 0.00000000e+00 0.00000000e+00 0.00000000e+00 0.00000000e+00 0.00000000e+00 0.00000000e+00 0.00000000e+00
0.00000000e+00 0.00000000e+00 0.00000000e+00 0.00000000e+00 0.00000000e+00 0.00000000e+00 0.00000000e+00 0.00000000e+00 0.00000000e+00
0.00000000e+00 0.00000000e+00 0.00000000e+00 0.00000000e+00 0.00000000e+00 0.00000000e+00 0.00000000e+00 0.00000000e+00 0.00000000e+00
2.68326197e-02 5.51715675e-06 7.60699320e-03 5.51715675e-06 2.79642809e-02 -1.70356949e-03 7.60699320e-03 -1.70356949e-03 -4.61350437e-02
2.75130211e-02 6.38567857e-04 5.36487345e-03 6.38567857e-04 2.67646271e-02 1.37711823e-03 5.36487345e-03 1.37711823e-03 -4.56944751e-02
2.64717133e-02 -6.42860946e-03 8.46500392e-03 -6.42860946e-03 2.70354713e-02 2.13748186e-03 8.46500392e-03 2.13748186e-03 -4.49957550e-02
2.54725320e-02 6.89857436e-04 7.67472456e-03 6.89857436e-04 2.86024739e-02 -3.92172212e-03 7.67472456e-03 -3.92172212e-03 -4.55107307e-02
3.53204962e-02 -7.62471245e-07 6.83737709e-03 -7.62471245e-07 2.52460940e-02 -3.61082188e-04 6.83737709e-03 -3.61082188e-04 -5.09552862e-02
3.42341736e-02 6.38824524e-04 2.16311385e-03 6.38824524e-04 2.66329600e-02 5.95920609e-03 2.16311385e-03 5.95920609e-03 -5.12167737e-02
3.48928254e-02 1.37337318e-03 1.03221330e-02 1.37337318e-03 2.74368974e-02 3.03603187e-03 1.03221330e-02 3.03603187e-03 -5.23969978e-02
3.59178428e-02 1.36496991e-03 1.04651697e-02 1.36496991e-03 2.77211303e-02 -5.04910096e-03 1.04651697e-02 -5.04910096e-03 -5.35013443e-02
2.97716563e-02 -6.52538100e-03 7.62784982e-03 -6.52538100e-03 2.26540095e-02 5.37709107e-04 7.62784982e-03 5.37709107e-04 -4.40877257e-02
2.92062163e-02 -9.17842577e-03 6.86964196e-03 -9.17842577e-03 2.53321428e-02 2.65590304e-03 6.86964196e-03 2.65590304e-03 -4.58263112e-02
3.17618004e-02 1.61347221e-03 -7.46210411e-04 1.61347221e-03 2.64198887e-02 3.60259920e-03 -7.46210411e-04 3.60259920e-03 -4.89867786e-02
3.18385682e-02 2.16224238e-03 7.22783152e-03 2.16224238e-03 2.91213288e-02 8.39677471e-03 7.22783152e-03 8.39677471e-03 -5.13096713e-02
3.19264154e-02 4.72503489e-04 2.75913614e-03 4.72503489e-04 1.97233879e-02 3.93568938e-03 2.75913614e-03 3.93568938e-03 -4.34116423e-02
3.17932505e-02 -4.23472785e-03 -3.81998668e-03 -4.23472785e-03 2.50561088e-02 -3.28422991e-03 -3.81998668e-03 -3.28422991e-03 -4.77984706e-02
2.99558658e-02 -2.66869005e-03 -2.09582409e-04 -2.66869005e-03 2.38181977e-02 3.44727706e-03 -2.09582409e-04 3.44727706e-03 -4.52723270e-02
2.93772032e-02 -2.84104701e-03 -4.31788416e-03 -2.84104701e-03 2.67153489e-02 2.69224356e-03 -4.31788416e-03 2.69224356e-03 -4.71884278e-02
3.22423596e-02 1.33265441e-03 -3.82858812e-03 1.33265441e-03 1.85803869e-02 -9.08945120e-04 -3.82858812e-03 -9.08945120e-04 -4.27064532e-02
3.18964680e-02 1.92730814e-03 -4.34994174e-03 1.92730814e-03 2.93030131e-02 -1.40307064e-04 -4.34994174e-03 -1.40307064e-04 -5.14824879e-02
2.82682395e-02 -8.71199154e-04 -5.29472833e-03 -8.71199154e-04 2.11000675e-02 2.57144927e-03 -5.29472833e-03 2.57144927e-03 -4.15507434e-02
2.78892827e-02 -5.81473022e-03 -7.70962430e-03 -5.81473022e-03 2.23521064e-02 -3.65398759e-03 -7.70962430e-03 -3.65398759e-03 -4.22267425e-02
2.91658300e-02 1.34201776e-03 2.43745564e-03 1.34201776e-03 1.94667182e-02 -3.40437642e-03 2.43745564e-03 -3.40437642e-03 -4.09068819e-02
3.12125408e-02 1.68623263e-03 2.38567358e-04 1.68623263e-03 2.80852786e-02 1.59656022e-03 2.38567358e-04 1.59656022e-03 -4.99263685e-02
2.40270109e-02 1.17582600e-04 -9.46517196e-03 1.17582600e-04 1.90854240e-02 2.30139427e-04 -9.46517196e-03 2.30139427e-04 -3.62576852e-02
2.53952295e-02 -1.72267189e-03 -6.57462822e-03 -1.72267189e-03 2.43001883e-02 -3.12662892e-03 -6.57462822e-03 -3.12662892e-03 -4.17963681e-02
2.73980070e-02 1.64017378e-03 3.00130213e-03 1.64017378e-03 1.82460556e-02 -3.67245963e-03 3.00130213e-03 -3.67245963e-03 -3.83700002e-02
2.86152754e-02 4.09519605e-04 -5.50425400e-04 4.09519605e-04 2.64964928e-02 -3.11800087e-03 -5.50425400e-04 -3.11800087e-03 -4.63930471e-02
2.15999726e-02 7.08887330e-03 -7.49512366e-03 7.08887330e-03 1.78862019e-02 -3.97619425e-03 -7.49512366e-03 -3.97619425e-03 -3.31968069e-02
2.46111904e-02 3.11338510e-03 -4.30498191e-03 3.11338510e-03 2.23331794e-02 -2.40346818e-03 -4.30498191e-03 -2.40346818e-03 -3.94695336e-02
2.29051086e-02 -1.06710386e-02 1.97424388e-02 -1.06710386e-02 2.96104152e-02 -4.39006464e-04 1.97424388e-02 -4.39006464e-04 -4.38014185e-02
1.93205811e-02 -7.74085801e-03 1.40311157e-02 -7.74085801e-03 3.16726859e-02 -2.22532061e-03 1.40311157e-02 -2.22532061e-03 -4.27566776e-02
3.78589593e-02 -1.14461673e-03 2.48239774e-02 -1.14461673e-03 3.05828338e-02 6.11776489e-03 2.48239774e-02 6.11776489e-03 -5.73643055e-02
3.57561931e-02 -3.46744942e-04 2.15365647e-02 -3.46744942e-04 2.99270498e-02 -1.92146908e-03 2.15365647e-02 -1.92146908e-03 -5.50955283e-02
3.16184983e-02 -1.99898794e-03 1.29939739e-02 -1.99898794e-03 2.91937034e-02 -3.96313798e-03 1.29939739e-02 -3.96313798e-03 -5.14918683e-02
3.38043219e-02 6.06493197e-03 6.60351383e-03 6.06493197e-03 3.14815710e-02 -6.14703954e-03 6.60351383e-03 -6.14703954e-03 -5.47984275e-02
3.92216995e-02 -7.85916017e-03 -3.67560986e-02 -7.85916017e-03 3.61709297e-02 -9.77109186e-05 -3.67560986e-02 -9.77109186e-05 -6.24244623e-02
2.76351403e-02 4.58718233e-03 -2.55179529e-02 4.58718233e-03 2.87338064e-02 -6.01382154e-03 -2.55179529e-02 -6.01382154e-03 -4.78209443e-02
3.82299442e-02 -1.23316422e-04 -1.04328053e-02 -1.23316422e-04 4.31396039e-02 8.60070817e-03 -1.04328053e-02 8.60070817e-03 -6.84869308e-02
3.03179082e-02 -3.74212235e-03 -3.39095445e-02 -3.74212235e-03 2.37137624e-02 5.72351981e-03 -3.39095445e-02 5.72351981e-03 -4.45780270e-02
3.70696401e-02 -2.18122786e-03 -2.17497203e-03 -2.18122786e-03 3.94649077e-02 6.59227296e-03 -2.17497203e-03 6.59227296e-03 -6.44409955e-02
3.15667917e-02 1.73251168e-03 -1.25100848e-02 1.73251168e-03 3.45575875e-02 -1.22639263e-04 -1.25100848e-02 -1.22639263e-04 -5.56752943e-02
3.33856363e-02 2.67669755e-04 -3.32762790e-03 2.67669755e-04 3.81700005e-02 2.51917698e-03 -3.32762790e-03 2.51917698e-03 -6.02418575e-02
3.05619137e-02 3.83631821e-04 -1.15431868e-02 3.83631821e-04 3.36353928e-02 -1.02416851e-02 -1.15431868e-02 -1.02416851e-02 -5.39302323e-02
1.92051246e-02 -6.15090251e-03 2.37948639e-02 -6.15090251e-03 2.88026791e-02 3.38557376e-04 2.37948639e-02 3.38557376e-04 -3.98539427e-02
1.46921980e-02 1.83436059e-03 1.91662288e-02 1.83436059e-03 2.80798646e-02 4.61998663e-03 1.91662288e-02 4.61998663e-03 -3.57033405e-02
3.93028903e-02 -3.24002829e-03 2.72411451e-02 -3.24002829e-03 3.07947589e-02 -8.29655890e-03 2.72411451e-02 -8.29655890e-03 -5.86062090e-02
2.95763100e-02 2.23832368e-03 3.01558194e-02 2.23832368e-03 3.05169406e-02 -1.24895943e-02 3.01558194e-02 -1.24895943e-02 -5.01259379e-02
3.06103348e-02 -1.51679995e-02 3.59074641e-02 -1.51679995e-02 3.91272437e-02 -3.82788728e-02 3.59074641e-02 -3.82788728e-02 -5.70394145e-02
4.71742786e-02 -1.26616647e-03 6.35295296e-03 -1.26616647e-03 3.37005381e-02 -2.83787811e-02 6.35295296e-03 -2.83787811e-02 -6.84345260e-02
-1.13729965e-02 -5.75052537e-02 -1.28365815e-01 -5.75052537e-02 5.01047820e-04 -8.76807272e-02 -1.28365815e-01 -8.76807272e-02 1.94514282e-02
8.95165714e-03 -2.35627700e-03 -7.71046368e-03 -2.35627700e-03 5.95395205e-03 -1.53614829e-02 -7.71046368e-03 -1.53614829e-02 -7.14190863e-03
1.46541426e-02 -1.85098038e-03 1.00614631e-02 -1.85098038e-03 2.03067240e-02 1.30520639e-02 1.00614631e-02 1.30520639e-02 -2.91581779e-02
1.32577743e-02 -4.25375695e-03 1.58986369e-02 -4.25375695e-03 2.10461977e-02 1.78495367e-03 1.58986369e-02 1.78495367e-03 -2.85220351e-02
1.75141327e-02 -3.14531343e-03 2.28003582e-02 -3.14531343e-03 2.09224578e-02 1.30073944e-02 2.28003582e-02 1.30073944e-02 -2.90313428e-02
1.62070554e-02 -1.95658102e-03 7.04461068e-03 -1.95658102e-03 2.20859502e-02 4.40077903e-03 7.04461068e-03 4.40077903e-03 -2.86758179e-02
1.54162783e-02 3.96456145e-03 -4.30787099e-04 3.96456145e-03 2.04167578e-02 1.06638530e-03 -4.30787099e-04 1.06638530e-03 -3.01785362e-02
3.36727274e-02 8.70251230e-03 -8.68529640e-03 8.70251230e-03 3.91952513e-02 2.19009181e-02 -8.68529640e-03 2.19009181e-02 -6.24226263e-02
2.90205185e-02 8.97007668e-03 7.78676278e-03 8.97007668e-03 4.18459345e-02 8.37599416e-03 7.78676278e-03 8.37599416e-03 -6.04652185e-02
1.68998531e-02 1.55019243e-03 7.69235776e-03 1.55019243e-03 2.47920980e-02 3.95420752e-02 7.69235776e-03 3.95420752e-02 -3.35012078e-02
5.11514787e-02 -6.96491799e-03 4.48589465e-02 -6.96491799e-03 4.15089149e-02 2.09202643e-02 4.48589465e-02 2.09202643e-02 -7.76521899e-02
3.00375633e-02 -7.84387058e-03 -2.17944492e-02 -7.84387058e-03 4.27523725e-02 -1.35109052e-02 -2.17944492e-02 -1.35109052e-02 -6.06223211e-02
1.69187477e-02 -9.61881131e-04 7.23707292e-03 -9.61881131e-04 2.50326563e-02 7.78950937e-03 7.23707292e-03 7.78950937e-03 -3.51687428e-02
2.71122907e-02 1.14040768e-02 -3.16033722e-03 1.14040768e-02 2.95292046e-02 6.83940612e-03 -3.16033722e-03 6.83940612e-03 -4.52708672e-02
2.76134368e-02 -6.72187842e-03 1.37839639e-02 -6.72187842e-03 4.37739100e-02 -1.16761741e-02 1.37839639e-02 -1.16761741e-02 -6.00438602e-02
4.03042063e-02 -9.44604352e-03 -2.68556543e-02 -9.44604352e-03 4.29714071e-02 3.25110685e-02 -2.68556543e-02 3.25110685e-02 -6.97963005e-02
2.72437688e-02 2.22941159e-02 1.64133784e-03 2.22941159e-02 4.50580145e-02 -7.22898295e-02 1.64133784e-03 -7.22898295e-02 -5.89292826e-02
4.29967899e-02 -2.90383573e-03 -8.32584042e-03 -2.90383573e-03 2.63015411e-02 -1.53580277e-02 -8.32584042e-03 -1.53580277e-02 -5.78308168e-02
4.41920776e-02 4.53123721e-06 2.39801616e-03 4.53123721e-06 2.55309604e-02 -2.44850351e-03 2.39801616e-03 -2.44850351e-03 -5.85706383e-02
4.09716927e-02 2.38008786e-03 3.35782638e-03 2.38008786e-03 2.79068849e-02 3.17611079e-03 3.35782638e-03 3.17611079e-03 -5.79202333e-02
4.24212399e-02 8.71235185e-03 5.95355127e-03 8.71235185e-03 2.93469485e-02 3.82059377e-03 5.95355127e-03 3.82059377e-03 -6.03197152e-02
4.66216467e-02 1.96983520e-03 7.32555072e-03 1.96983520e-03 2.71241195e-02 -1.49274044e-03 7.32555072e-03 -1.49274044e-03 -6.19404083e-02
3.33921914e-02 5.50280488e-03 -2.85870396e-04 5.50280488e-03 3.22495992e-02 5.74552070e-03 -2.85870396e-04 5.74552070e-03 -5.52508943e-02
3.34103769e-02 1.18368111e-02 2.57998816e-03 1.18368111e-02 3.25586463e-02 3.79822223e-03 2.57998816e-03 3.79822223e-03 -5.54606128e-02
2.67251823e-02 3.63245542e-03 -2.67905794e-03 3.63245542e-03 3.32304593e-02 1.65900092e-03 -2.67905794e-03 1.65900092e-03 -5.04782572e-02
2.47339869e-02 6.24213206e-03 -1.03677777e-03 6.24213206e-03 3.31104009e-02 5.02575859e-03 -1.03677777e-03 5.02575859e-03 -4.86240508e-02
2.28959583e-02 -1.85826069e-03 -1.56749625e-03 -1.85826069e-03 3.07094683e-02 2.55788633e-04 -1.56749625e-03 2.55788633e-04 -4.51279124e-02
2.02797388e-02 -2.31830608e-03 -2.28233711e-03 -2.31830608e-03 2.93098579e-02 1.10113262e-03 -2.28233711e-03 1.10113262e-03 -4.16902788e-02
2.03330996e-02 -3.03386484e-03 -3.66512069e-03 -3.03386484e-03 2.81624999e-02 6.82329905e-04 -3.66512069e-03 6.82329905e-04 -4.08137534e-02
2.01527432e-02 -5.22112330e-03 -6.20624574e-03 -5.22112330e-03 2.44234744e-02 -1.02822283e-03 -6.20624574e-03 -1.02822283e-03 -3.74410311e-02
1.82211418e-02 9.03333304e-04 -1.94863166e-03 9.03333304e-04 2.94033606e-02 2.17285363e-03 -1.94863166e-03 2.17285363e-03 -4.00630739e-02
2.04937151e-02 -4.91851015e-03 -2.47772038e-03 -4.91851015e-03 2.44997130e-02 -5.00917842e-03 -2.47772038e-03 -5.00917842e-03 -3.77918985e-02
4.47946269e-02 1.12380887e-02 1.50336318e-02 1.12380887e-02 2.55909563e-02 2.50200475e-03 1.50336318e-02 2.50200475e-03 -5.72256085e-02
5.67382295e-02 6.57257019e-03 2.34216304e-02 6.57257019e-03 3.43047543e-02 -7.40941323e-03 2.34216304e-02 -7.40941323e-03 -7.73808416e-02
3.24702052e-02 1.29040894e-02 -4.60778247e-05 1.29040894e-02 2.62088864e-02 1.47054985e-03 -4.60778247e-05 1.47054985e-03 -4.80361322e-02
2.11895428e-02 1.01488493e-02 -1.08224108e-02 1.01488493e-02 2.29996620e-02 -1.33990648e-03 -1.08224108e-02 -1.33990648e-03 -3.69678305e-02
1.36031974e-02 5.72237685e-04 -1.30870729e-02 5.72237685e-04 2.13548908e-02 -8.73502643e-04 -1.30870729e-02 -8.73502643e-04 -2.96194782e-02
1.19291118e-02 -6.03710115e-03 -1.75896089e-02 -6.03710115e-03 1.94065361e-02 -5.81850267e-03 -1.75896089e-02 -5.81850267e-03 -2.61580326e-02
1.37984785e-02 -1.07880128e-02 -1.95328478e-02 -1.07880128e-02 1.66446903e-02 -1.10890463e-02 -1.95328478e-02 -1.10890463e-02 -2.51547949e-02
5.96088128e-02 -1.69899827e-03 4.53344630e-02 -1.69899827e-03 2.82096090e-02 -1.11351002e-02 4.53344630e-02 -1.11351002e-02 -7.34332241e-02
5.70516388e-02 -1.07261548e-02 4.29523687e-02 -1.07261548e-02 3.05722114e-02 -1.48517694e-02 4.29523687e-02 -1.48517694e-02 -7.24558743e-02
4.43739795e-02 1.17370253e-02 3.44265196e-03 1.17370253e-02 2.13630184e-02 -2.20660022e-02 3.44265196e-03 -2.20660022e-02 -5.54516899e-02
1.73351148e-02 1.10049002e-02 -1.88391904e-02 1.10049002e-02 6.85407908e-03 -9.09509787e-03 -1.88391904e-02 -9.09509787e-03 -1.99522624e-02
4.63013770e-03 -3.35370041e-02 -5.22951111e-02 -3.35370041e-02 -1.72314309e-02 -4.53315563e-02 -5.22951111e-02 -4.53315563e-02 1.68083739e-02
-7.88494298e-04 2.39257794e-03 -1.98087670e-03 2.39257794e-03 1.79590525e-03 -1.65834101e-03 -1.98087670e-03 -1.65834101e-03 8.11851257e-04
6.09081667e-02 2.47447063e-03 -6.93599507e-03 2.47447063e-03 4.77748946e-02 3.53331938e-02 -6.93599507e-03 3.53331938e-02 -9.19670118e-02
6.22879341e-02 9.38538462e-03 -2.71323499e-02 9.38538462e-03 5.70575607e-02 2.63714852e-02 -2.71323499e-02 2.63714852e-02 -1.02449297e-01
5.85044585e-02 -4.90898639e-03 9.87281115e-03 -4.90898639e-03 3.33171068e-02 -3.12036648e-02 9.87281115e-03 -3.12036648e-02 -7.71597885e-02
4.16277628e-02 -2.57209778e-03 -8.48502107e-03 -2.57209778e-03 5.25216712e-02 1.57748223e-02 -8.48502107e-03 1.57748223e-02 -7.59798552e-02
4.22802884e-02 -3.11591983e-03 8.29193770e-03 -3.11591983e-03 5.14427489e-02 -2.58763452e-03 8.29193770e-03 -2.58763452e-03 -7.55597875e-02
5.64567931e-02 -4.96952259e-03 7.20847771e-03 -4.96952259e-03 4.99050179e-02 1.63252397e-02 7.20847771e-03 1.63252397e-02 -9.00293197e-02
5.33770733e-02 2.33786250e-03 1.17763168e-02 2.33786250e-03 4.90074214e-02 -9.00652399e-03 1.17763168e-02 -9.00652399e-03 -8.61734264e-02
5.21593923e-02 1.45960140e-02 -7.10825040e-03 1.45960140e-02 5.27335182e-02 -1.81879348e-02 -7.10825040e-03 -1.81879348e-02 -8.86520389e-02
5.85323395e-02 -8.53574299e-03 -1.30769637e-02 -8.53574299e-03 3.75867914e-02 2.83104468e-02 -1.30769637e-02 2.83104468e-02 -8.05462468e-02
3.63502500e-02 8.01620469e-03 3.92355846e-03 8.01620469e-03 1.41329484e-02 -8.94609978e-03 3.92355846e-03 -8.94609978e-03 -4.14037589e-02
2.72041026e-02 -1.45153827e-02 -5.65799419e-05 -1.45153827e-02 2.25515193e-02 3.68455891e-04 -5.65799419e-05 3.68455891e-04 -4.09236979e-02
-2.33075731e-02 2.34697741e-02 1.81952734e-02 2.34697741e-02 -9.10191517e-03 -2.18878258e-02 1.81952734e-02 -2.18878258e-02 3.62889096e-02
-3.75939324e-03 -6.76214043e-03 7.72763789e-03 -6.76214043e-03 -4.38223919e-03 -1.21805640e-02 7.72763789e-03 -1.21805640e-02 1.26122227e-02
7.06634637e-03 -1.84024083e-02 -6.39731865e-03 -1.84024083e-02 -1.03981719e-02 1.93234484e-02 -6.39731865e-03 1.93234484e-02 5.83570818e-03
-2.45967174e-03 -1.49205296e-02 -1.38721928e-04 -1.49205296e-02 2.64397667e-03 -1.83159467e-02 -1.38721928e-04 -1.83159467e-02 3.13692927e-03
0.00000000e+00 0.00000000e+00 0.00000000e+00 0.00000000e+00 0.00000000e+00 0.00000000e+00 0.00000000e+00 0.00000000e+00 0.00000000e+00
0.00000000e+00 0.00000000e+00 0.00000000e+00 0.00000000e+00 0.00000000e+00 0.00000000e+00 0.00000000e+00 0.00000000e+00 0.00000000e+00
0.00000000e+00 0.00000000e+00 0.00000000e+00 0.00000000e+00 0.00000000e+00 0.00000000e+00 0.00000000e+00 0.00000000e+00 0.00000000e+00
0.00000000e+00 0.00000000e+00 0.00000000e+00 0.00000000e+00 0.00000000e+00 0.00000000e+00 0.00000000e+00 0.00000000e+00 0.00000000e+00
1.94265455e-05 -2.86171700e-05 -2.40605521e-05 -2.86171700e-05 -4.04028886e-05 -3.63732179e-05 -2.40605521e-05 -3.63732179e-05 9.39551537e-06
0.00000000e+00 0.00000000e+00 0.00000000e+00 0.00000000e+00 0.00000000e+00 0.00000000e+00 0.00000000e+00 0.00000000e+00 0.00000000e+00
0.00000000e+00 0.00000000e+00 0.00000000e+00 0.00000000e+00 0.00000000e+00 0.00000000e+00 0.00000000e+00 0.00000000e+00 0.00000000e+00
-3.12868384e-05 -1.54383190e-04 1.33811918e-05 -1.54383190e-04 7.91418643e-06 4.37797280e-06 1.33811918e-05 4.37797280e-06 3.41890991e-05
4.74577807e-02 4.96147550e-07 1.51048880e-06 4.96147550e-07 2.70675253e-02 3.11018084e-07 1.51048880e-06 3.11018084e-07 -6.26034141e-02
4.29716092e-02 4.62625502e-03 -4.82088944e-06 4.62625502e-03 2.97834780e-02 2.98217661e-03 -4.82088944e-06 2.98217661e-03 -6.11906201e-02
4.66475282e-02 1.28063457e-02 3.03679507e-03 1.28063457e-02 2.81286142e-02 5.19810535e-03 3.03679507e-03 5.19810535e-03 -6.27556732e-02
5.19845374e-02 3.80180590e-03 1.24434580e-03 3.80180590e-03 2.56401002e-02 -1.29410000e-06 1.24434580e-03 -1.29410000e-06 -6.51155412e-02
3.34692700e-02 3.82467522e-03 -1.38107207e-05 3.82467522e-03 3.52734122e-02 6.41955761e-03 -1.38107207e-05 6.41955761e-03 -5.78598082e-02
3.45203071e-02 1.52363763e-02 3.52095289e-03 1.52363763e-02 3.32290232e-02 4.71466279e-03 3.52095289e-03 4.71466279e-03 -5.69162965e-02
2.46846946e-02 5.45566808e-03 -1.23473492e-05 5.45566808e-03 3.81307323e-02 4.36278083e-03 -1.23473492e-05 4.36278083e-03 -5.28028198e-02
2.40382012e-02 9.84440697e-03 4.25376149e-03 9.84440697e-03 3.51550081e-02 6.14900759e-03 4.25376149e-03 6.14900759e-03 -4.97069443e-02
1.96604757e-02 1.82252785e-03 -1.81231462e-06 1.82252785e-03 3.68947666e-02 1.19813927e-03 -1.81231462e-06 1.19813927e-03 -4.74905204e-02
1.80397939e-02 2.57230728e-03 7.51272589e-03 2.57230728e-03 3.33371875e-02 4.88567667e-03 7.51272589e-03 4.88567667e-03 -4.31015585e-02
1.94990057e-02 -3.00502148e-03 -3.13730015e-06 -3.00502148e-03 3.40364091e-02 6.47118723e-04 -3.13730015e-06 6.47118723e-04 -4.49865926e-02
1.59014643e-02 -4.09947560e-03 8.44906108e-03 -4.09947560e-03 3.05860653e-02 6.79200370e-04 8.44906108e-03 6.79200370e-04 -3.91297713e-02
1.82277244e-02 -1.09343771e-02 1.33803260e-05 -1.09343771e-02 3.69542092e-02 4.53230925e-03 1.33803260e-05 4.53230925e-03 -4.62636575e-02
1.60149853e-02 -7.50948791e-03 1.15748504e-02 -7.50948791e-03 3.03756380e-02 -7.32569653e-03 1.15748504e-02 -7.32569653e-03 -3.88505012e-02
5.40063204e-02 1.82086218e-02 -4.99351788e-03 1.82086218e-02 3.74147655e-02 9.01973131e-03 -4.99351788e-03 9.01973131e-03 -7.76979290e-02
5.59643246e-02 3.22229485e-03 -3.86674399e-03 3.22229485e-03 3.74796521e-02 -1.45495840e-04 -3.86674399e-03 -1.45495840e-04 -7.79436044e-02
3.66424881e-02 2.74087344e-02 -1.59700357e-04 2.74087344e-02 3.02074626e-02 1.19402811e-02 -1.59700357e-04 1.19402811e-02 -5.63574266e-02
2.01766507e-02 1.57836319e-02 5.68563200e-03 1.57836319e-02 2.40898347e-02 8.07395810e-03 5.68563200e-03 8.07395810e-03 -3.74829555e-02
9.23814974e-03 -2.92676195e-04 7.26557372e-03 -2.92676195e-04 1.78737864e-02 6.84858719e-03 7.26557372e-03 6.84858719e-03 -2.29700557e-02
4.06809291e-03 -5.02917747e-03 7.71525595e-03 -5.02917747e-03 1.12314048e-02 -5.73425139e-04 7.71525595e-03 -5.73425139e-04 -1.22988180e-02
7.48759508e-03 -8.76612868e-03 4.75843251e-03 -8.76612868e-03 8.06864665e-03 -6.86854683e-03 4.75843251e-03 -6.86854683e-03 -1.27557754e-02
6.13567531e-02 -1.03697204e-03 2.57955287e-02 -1.03697204e-03 5.36079258e-02 1.56647405e-02 2.57955287e-02 1.56647405e-02 -9.62939039e-02
7.29502961e-02 -5.20898774e-03 2.11641528e-02 -5.20898774e-03 6.39848486e-02 9.68822569e-05 2.11641528e-02 9.68822569e-05 -1.15644984e-01
3.70788202e-02 1.37558336e-02 8.77326882e-03 1.37558336e-02 2.30697493e-02 1.84109782e-02 8.77326882e-03 1.84109782e-02 -5.12896689e-02
3.71666392e-04 -5.41124202e-04 3.12861730e-03 -5.41124202e-04 3.84852113e-03 6.80864061e-03 3.12861730e-03 6.80864061e-03 -7.58503797e-04
-7.15760121e-04 -3.46837870e-03 1.21657883e-03 -3.46837870e-03 3.72728115e-04 2.59711112e-04 1.21657883e-03 2.59711112e-04 9.40493628e-04
-1.19450274e-03 -2.54456794e-03 -6.80760706e-03 -2.54456794e-03 3.45794290e-03 -3.56472368e-04 -6.80760706e-03 -3.56472368e-04 -1.47090214e-03
-1.38757356e-04 -1.86446465e-03 3.47645244e-04 -1.86446465e-03 6.38841242e-04 4.02051526e-04 3.47645244e-04 4.02051526e-04 -3.66051894e-04
7.58811308e-04 -7.27340214e-03 -6.19462936e-03 -7.27340214e-03 -2.96287006e-04 -1.70960906e-04 -6.19462936e-03 -1.70960906e-04 4.93204876e-04
1.23528804e-03 -3.08189844e-03 1.27363089e-03 -3.08189844e-03 -2.00824218e-03 2.16234002e-04 1.27363089e-03 2.16234002e-04 1.07518386e-03
1.34140549e-02 -2.26588524e-03 -1.23053016e-02 -2.26588524e-03 -6.67592380e-03 -2.96608456e-02 -1.23053016e-02 -2.96608456e-02 -3.47088743e-03
-9.46368277e-03 -2.13934970e-03 3.27901915e-03 -2.13934970e-03 -1.15046398e-03 5.94338169e-03 3.27901915e-03 5.94338169e-03 1.31478917e-02
2.78548021e-02 1.27738426e-02 -4.90918802e-03 1.27738426e-02 3.15055586e-02 3.92431356e-02 -4.90918802e-03 3.92431356e-02 -5.19474819e-02
1.71590364e-06 -3.23808520e-04 -2.07138642e-04 -3.23808520e-04 2.75436590e-05 2.43674452e-03 -2.07138642e-04 2.43674452e-03 -3.94259944e-05
-7.47618769e-04 -1.70978741e-03 4.99765426e-05 -1.70978741e-03 4.23929945e-04 3.50732694e-05 4.99765426e-05 3.50732694e-05 4.96044393e-04
-7.67148779e-05 5.32066224e-06 -6.06650131e-05 5.32066224e-06 9.74097261e-05 4.06790946e-06 -6.06650131e-05 4.06790946e-06 -3.20110031e-05
-7.64967089e-05 1.04935604e-05 -5.39920459e-05 1.04935604e-05 1.06407931e-04 -2.95865683e-05 -5.39920459e-05 -2.95865683e-05 -6.98598268e-05
1.15268675e-04 -5.86566690e-04 3.47413792e-04 -5.86566690e-04 -1.96623238e-04 -1.20137520e-05 3.47413792e-04 -1.20137520e-05 1.45354832e-04
3.48877860e-04 -8.71873170e-04 -8.55686303e-05 -8.71873170e-04 -6.80659025e-04 -1.69096056e-05 -8.55686303e-05 -1.69096056e-05 4.75622888e-04
7.01826662e-02 1.37397535e-02 -1.74199287e-02 1.37397535e-02 9.41737294e-02 -2.29271012e-04 -1.74199287e-02 -2.29271012e-04 -1.37451813e-01
8.49179626e-02 -1.43896451e-03 -1.11606419e-02 -1.43896451e-03 8.86850804e-02 2.47700550e-02 -1.11606419e-02 2.47700550e-02 -1.44899473e-01
6.46683437e-02 -1.76673503e-02 1.62702187e-02 -1.76673503e-02 7.13674588e-02 2.08709991e-02 1.62702187e-02 2.08709991e-02 -1.16018645e-01
6.68445472e-02 -6.83731493e-03 2.12573176e-02 -6.83731493e-03 7.88438097e-02 4.87252371e-04 2.12573176e-02 4.87252371e-04 -1.24141794e-01
4.36827221e-05 -6.62271327e-05 4.79373909e-07 -6.62271327e-05 -2.91047029e-05 -1.31726493e-05 4.79373909e-07 -1.31726493e-05 -2.74639993e-05
4.82105591e-03 -4.94805117e-03 9.53189398e-05 -4.94805117e-03 -2.10907121e-03 3.40040067e-04 9.53189398e-05 3.40040067e-04 -2.01387280e-03
0.00000000e+00 0.00000000e+00 0.00000000e+00 0.00000000e+00 0.00000000e+00 0.00000000e+00 0.00000000e+00 0.00000000e+00 0.00000000e+00
6.99599534e-02 -1.85702639e-02 1.18902735e-02 -1.85702639e-02 4.28573471e-02 1.50614562e-02 1.18902735e-02 1.50614562e-02 -9.46567804e-02
7.06973150e-02 -7.16362614e-04 1.48444697e-02 -7.16362614e-04 4.38493267e-02 -8.58883141e-07 1.48444697e-02 -8.58883141e-07 -9.62620601e-02
5.61642088e-02 5.82989538e-03 3.47034156e-03 5.82989538e-03 5.33435363e-02 2.19712332e-02 3.47034156e-03 2.19712332e-02 -9.39111039e-02
6.54425565e-02 -1.33167985e-02 -2.88669160e-03 -1.33167985e-02 4.02904404e-02 2.93878727e-02 -2.88669160e-03 2.93878727e-02 -8.98104683e-02
1.20888816e-02 1.00143916e-02 -8.16188566e-03 1.00143916e-02 4.24513966e-03 8.20918265e-03 -8.16188566e-03 8.20918265e-03 -7.98377395e-03
1.78148248e-03 -3.79020418e-03 -6.97106565e-03 -3.79020418e-03 1.99934836e-02 6.73683127e-03 -6.97106565e-03 6.73683127e-03 -1.34856157e-02
-5.07090203e-03 -1.64402944e-02 -6.97990297e-04 -1.64402944e-02 3.39680223e-03 6.23462576e-04 -6.97990297e-04 6.23462576e-04 2.78843996e-03
-1.87843238e-04 -1.19467986e-04 -5.73589023e-06 -1.19467986e-04 8.78837745e-05 -1.43596199e-05 -5.73589023e-06 -1.43596199e-05 1.31788809e-04
0.00000000e+00 0.00000000e+00 0.00000000e+00 0.00000000e+00 0.00000000e+00 0.00000000e+00 0.00000000e+00 0.00000000e+00 0.00000000e+00
</DataArray>
<DataArray type="Float32" Name="Spatial_displacement" NumberOfComponents="3" format="ascii">
1.72742829e-02 1.16213441e-01 -5.26908413e-02
3.01262252e-02 1.11606896e-01 -3.97399217e-02
2.99848653e-02 1.39092684e-01 -6.00889176e-02
1.37981027e-02 1.34906381e-01 -6.77646995e-02
1.39883794e-02 1.33229643e-01 -7.93985277e-02
3.31221670e-02 1.33410245e-01 -7.73769990e-02
2.69240774e-02 1.69708222e-01 -1.03080899e-01
1.49299949e-02 1.51102275e-01 -9.47540998e-02
5.34874275e-02 1.03668556e-01 -3.20812017e-02
5.80179468e-02 1.35403007e-01 -5.95406070e-02
5.66521063e-02 1.27142638e-01 -8.72663558e-02
8.27591866e-02 1.65363431e-01 -1.41110003e-01
5.34763038e-02 1.05763435e-01 1.68085098e-05
5.34790531e-02 1.08935013e-01 -1.20699406e-06
5.02965078e-02 1.08944178e-01 -4.63426113e-06
5.02764583e-02 1.05770692e-01 -6.54160976e-06
5.34858778e-02 1.05780587e-01 4.44054604e-06
5.34728318e-02 1.08965896e-01 7.21216202e-06
5.02915233e-02 1.08950868e-01 -1.53779984e-05
5.03101051e-02 1.05766177e-01 3.35276127e-06
0.00000000e+00 0.00000000e+00 -1.38038784e-01
2.60187164e-02 0.00000000e+00 -1.39669433e-01
2.66944878e-02 2.79176310e-02 -1.34520367e-01
0.00000000e+00 2.72116959e-02 -1.30752146e-01
0.00000000e+00 0.00000000e+00 -1.85292974e-01
3.59605700e-02 0.00000000e+00 -1.85632959e-01
3.66387777e-02 2.69400626e-02 -1.83563933e-01
0.00000000e+00 2.55411789e-02 -1.78749263e-01
5.73203787e-02 0.00000000e+00 -1.49402171e-01
5.05519360e-02 2.23932080e-02 -1.42091185e-01
6.95408508e-02 0.00000000e+00 -1.91587508e-01
7.12166429e-02 2.81085111e-02 -1.92289621e-01
8.53061602e-02 0.00000000e+00 -1.59816459e-01
8.58047903e-02 1.84338763e-02 -1.57173038e-01
1.03090748e-01 0.00000000e+00 -2.02409789e-01
1.00311600e-01 2.47460268e-02 -2.02603877e-01
1.19109809e-01 0.00000000e+00 -1.69544011e-01
1.20502532e-01 1.96230039e-02 -1.73225611e-01
1.31544441e-01 0.00000000e+00 -2.11187139e-01
1.30624965e-01 2.00033486e-02 -2.16281191e-01
1.52633965e-01 0.00000000e+00 -1.82411999e-01
1.54015094e-01 2.15598233e-02 -1.80064246e-01
1.57786459e-01 0.00000000e+00 -2.16531038e-01
1.57903552e-01 1.81682110e-02 -2.25673407e-01
1.82247713e-01 0.00000000e+00 -1.87870160e-01
1.83931768e-01 2.02038921e-02 -1.84974104e-01
1.77966595e-01 0.00000000e+00 -2.18428135e-01
1.85253620e-01 1.64326578e-02 -2.25690752e-01
1.76329799e-02 5.18749952e-02 -1.19457647e-01
0.00000000e+00 5.99272549e-02 -1.17251217e-01
3.62821147e-02 5.59419133e-02 -1.65963858e-01
0.00000000e+00 5.63069619e-02 -1.64141744e-01
4.78108525e-02 5.13199419e-02 -1.37179419e-01
7.60834068e-02 5.84007986e-02 -1.87565625e-01
7.93119818e-02 5.61665595e-02 -1.65737644e-01
1.05016179e-01 5.41472733e-02 -2.26189539e-01
1.20080262e-01 6.29707798e-02 -1.71278507e-01
1.26066864e-01 4.62122560e-02 -2.37316787e-01
1.55636951e-01 5.69330975e-02 -1.72281131e-01
1.57823950e-01 5.23341522e-02 -2.34634101e-01
1.85836107e-01 5.53689934e-02 -1.75590932e-01
1.87954932e-01 4.99776602e-02 -2.34894902e-01
1.32567324e-02 8.99828747e-02 -9.11273733e-02
0.00000000e+00 8.80368277e-02 -9.55696106e-02
3.21479365e-02 8.84558484e-02 -1.45222813e-01
0.00000000e+00 8.63448456e-02 -1.33339673e-01
4.25468609e-02 7.91432261e-02 -1.14164725e-01
8.51097852e-02 9.24151391e-02 -1.96114033e-01
3.63607928e-02 6.94531724e-02 -2.89777666e-01
1.23804227e-01 7.87858590e-02 -2.60169983e-01
1.25759281e-02 1.09725498e-01 -7.51457140e-02
0.00000000e+00 1.14077330e-01 -7.68716857e-02
2.28757821e-02 1.21116310e-01 -1.05412126e-01
0.00000000e+00 1.23048611e-01 -1.12957865e-01
0.00000000e+00 1.29244894e-01 -8.03715512e-02
2.27353685e-02 1.54466197e-01 -1.11656956e-01
0.00000000e+00 1.45043463e-01 -1.18761167e-01
3.34372520e-02 1.09947376e-01 -5.43136969e-02
5.86901903e-02 1.27829641e-01 -1.25671357e-01
5.82143068e-02 1.47444308e-01 -1.17556348e-01
0.00000000e+00 1.52043059e-01 -1.02370448e-01
3.31383422e-02 1.87129945e-01 -1.54845610e-01
0.00000000e+00 1.94288582e-01 -1.43707186e-01
6.01780601e-02 1.98470876e-01 -1.59990728e-01
8.40383023e-02 1.33803457e-01 -2.02698320e-01
1.27730668e-01 1.59147710e-01 -1.95755243e-01
0.00000000e+00 0.00000000e+00 -2.38610953e-01
4.53393459e-02 0.00000000e+00 -2.40930080e-01
4.78366688e-02 2.79516056e-02 -2.37754703e-01
0.00000000e+00 2.59150490e-02 -2.36338854e-01
8.30393359e-02 0.00000000e+00 -2.43887067e-01
8.87764171e-02 3.30567434e-02 -2.44155228e-01
1.13666736e-01 0.00000000e+00 -2.48429447e-01
1.17434449e-01 3.50886211e-02 -2.50974983e-01
1.39617562e-01 0.00000000e+00 -2.54641354e-01
1.37671322e-01 3.16535980e-02 -2.56138295e-01
1.60774916e-01 0.00000000e+00 -2.56597102e-01
1.57645106e-01 2.73379348e-02 -2.60128051e-01
1.78109005e-01 0.00000000e+00 -2.56796658e-01
1.79029450e-01 2.88882777e-02 -2.58654147e-01
5.63919470e-02 6.15858957e-02 -2.33416691e-01
0.00000000e+00 5.50309494e-02 -2.26299927e-01
1.00469075e-01 6.80233240e-02 -2.46762127e-01
1.27735093e-01 6.64915666e-02 -2.64014125e-01
1.42404929e-01 5.88723905e-02 -2.77304530e-01
1.52675003e-01 5.02474084e-02 -2.85452783e-01
1.64983600e-01 5.11325970e-02 -2.84614384e-01
5.83736077e-02 8.37625861e-02 -2.04448104e-01
0.00000000e+00 9.51473936e-02 -1.90513551e-01
1.14010341e-01 8.70046020e-02 -2.52641797e-01
1.46964803e-01 8.15133452e-02 -2.89259434e-01
1.36102974e-01 3.58131714e-02 -3.24133337e-01
1.55835301e-01 7.14379176e-02 -2.99280167e-01
6.06538467e-02 1.15757689e-01 -1.54124811e-01
0.00000000e+00 1.05977148e-01 -1.77057132e-01
1.25358626e-01 1.13175780e-01 -2.35037029e-01
5.14582843e-02 1.77546799e-01 -1.97872847e-01
0.00000000e+00 1.81072012e-01 -1.96580261e-01
6.05173968e-02 2.38956779e-01 -2.19243139e-01
0.00000000e+00 2.36523300e-01 -2.10876256e-01
9.21201706e-02 1.59976989e-01 -2.04604954e-01
1.38414472e-01 2.05764383e-01 -2.20591068e-01
1.38733715e-01 1.14146993e-01 -2.74965465e-01
1.93245977e-01 1.29961625e-01 -2.57704526e-01
5.33456132e-02 9.72020179e-02 -3.63816023e-01
1.21235505e-01 9.96756405e-02 -3.19118679e-01
1.76174447e-01 7.17496201e-02 -3.00300568e-01
1.87919706e-01 7.31907487e-02 -2.99905360e-01
1.76642865e-01 6.15278184e-02 -3.00181329e-01
1.76578075e-01 5.11027239e-02 -3.00182104e-01
1.86999843e-01 5.10566011e-02 -3.00151169e-01
1.87018752e-01 6.15115128e-02 -3.00100267e-01
1.76598057e-01 6.15122579e-02 -3.00187260e-01
1.76606059e-01 5.10848202e-02 -3.00157964e-01
1.86990678e-01 5.10358103e-02 -3.00162375e-01
1.87127337e-01 6.13695532e-02 -3.00099730e-01
0.00000000e+00 0.00000000e+00 -3.00145298e-01
4.84798588e-02 0.00000000e+00 -3.00145298e-01
5.33351675e-02 3.11224535e-02 -3.00145298e-01
0.00000000e+00 2.72020660e-02 -3.00145298e-01
8.97474885e-02 0.00000000e+00 -3.00145298e-01
9.37351435e-02 3.67561579e-02 -3.00145298e-01
1.18189298e-01 0.00000000e+00 -3.00145298e-01
1.23846188e-01 3.95899527e-02 -3.00145298e-01
1.40863210e-01 0.00000000e+00 -3.00145298e-01
1.42724067e-01 3.95491756e-02 -3.00145298e-01
1.61427379e-01 0.00000000e+00 -3.00145298e-01
1.58338666e-01 3.60603966e-02 -3.00145298e-01
1.82746202e-01 0.00000000e+00 -3.00145298e-01
1.71422482e-01 4.09463532e-02 -3.00145298e-01
6.56809211e-02 5.51688597e-02 -3.00145298e-01
0.00000000e+00 5.16246781e-02 -3.00145298e-01
1.13045543e-01 6.80263638e-02 -3.00145298e-01
1.35746479e-01 7.22855255e-02 -3.00145298e-01
1.49362221e-01 6.64305612e-02 -3.00145298e-01
1.51991636e-01 5.84586374e-02 -3.00145298e-01
1.57847524e-01 5.61241098e-02 -3.00145298e-01
7.54965171e-02 1.12012461e-01 -3.00145298e-01
0.00000000e+00 1.17624961e-01 -3.00145298e-01
1.32670030e-01 9.56813917e-02 -3.00145298e-01
1.55721664e-01 8.58645216e-02 -3.00145298e-01
1.56193644e-01 7.22101852e-02 -3.00145298e-01
1.56228334e-01 6.08543232e-02 -3.00705850e-01
1.56701386e-01 6.13343194e-02 -3.00145298e-01
1.57617301e-01 5.26402742e-02 -3.01168352e-01
1.57880604e-01 5.40575422e-02 -3.00145298e-01
1.66489452e-01 8.30811039e-02 -3.07364911e-01
1.70420170e-01 8.75312388e-02 -3.00145298e-01
1.66839957e-01 1.07785851e-01 -3.00145298e-01
1.66440547e-01 7.13715628e-02 -2.99921274e-01
1.66584969e-01 7.16120228e-02 -3.00145298e-01
1.66264921e-01 6.16033897e-02 -3.00187260e-01
1.66344583e-01 6.14996850e-02 -3.00145298e-01
1.66141540e-01 5.14476448e-02 -3.00149143e-01
1.66057289e-01 5.12700304e-02 -3.00145298e-01
0.00000000e+00 8.65513831e-02 -3.00145298e-01
8.93124938e-02 1.01982385e-01 -3.00145298e-01
7.19912127e-02 1.96615189e-01 -3.00145298e-01
0.00000000e+00 2.03958258e-01 -3.00145298e-01
1.76549703e-01 6.15065321e-02 -3.00145298e-01
1.76624745e-01 7.18075931e-02 -3.00145298e-01
1.76633447e-01 5.11074364e-02 -3.00145298e-01
7.68748447e-02 2.51400113e-01 -3.00145298e-01
0.00000000e+00 2.52104640e-01 -3.00145298e-01
1.14283890e-01 1.64622933e-01 -3.00145298e-01
1.68946922e-01 2.02928051e-01 -3.00145298e-01
1.51095793e-01 1.01853803e-01 -3.00145298e-01
2.04146460e-01 1.21152773e-01 -3.00145298e-01
1.88355178e-01 7.23484978e-02 -3.00145298e-01
1.87147811e-01 6.13080896e-02 -3.00145298e-01
1.86981469e-01 5.10380119e-02 -3.00145298e-01
</DataArray>
<DataArray type="Float32" Name="Spatial_acceleration" NumberOfComponents="3" format="ascii">
1.66932736e-07 2.11636220e-07 -2.83400226e-07
2.38657009e-07 1.53660778e-07 -4.22477711e-07
2.36491360e-07 3.14156210e-07 -4.14212536e-07
2.31266014e-07 2.79506054e-07 -2.23795567e-07
2.26100283e-07 1.38898685e-07 -4.22437978e-07
2.87555508e-07 1.54222761e-07 -2.92460129e-07
3.97364289e-07 2.75135051e-07 -5.37872324e-07
3.36885449e-07 3.45985086e-07 -3.39031203e-07
3.44912195e-07 2.04766792e-07 -2.93095894e-07
3.53336333e-07 1.87079110e-07 -3.95456937e-07
5.62667850e-08 2.95639040e-07 -2.05145938e-07
3.21070353e-08 4.55379485e-08 1.28428141e-07
3.23714374e-07 -1.67191025e-08 5.69085273e-07
5.18163063e-07 -7.75794206e-07 -1.06848279e-06
2.94014797e-07 -4.30106809e-07 9.79686774e-07
4.83075780e-07 -1.72535579e-07 -7.44710348e-07
3.92012289e-08 -9.10259473e-07 -1.51451547e-06
-2.73595248e-07 -4.37863179e-07 1.60856291e-06
6.05434138e-08 -6.73331328e-07 -1.09249106e-06
1.64244327e-07 -7.91273408e-07 1.00528757e-06
0.00000000e+00 0.00000000e+00 -4.57763676e-08
3.44713520e-08 0.00000000e+00 -1.57674151e-07
6.64691129e-08 2.41299460e-08 -1.90575918e-07
0.00000000e+00 1.79509314e-08 -7.75655096e-08
0.00000000e+00 0.00000000e+00 -1.69118238e-07
1.23977664e-08 0.00000000e+00 -2.09808348e-08
2.44776412e-08 5.30481330e-08 -2.02655784e-07
0.00000000e+00 4.09285228e-09 -1.64031974e-07
1.05877717e-07 0.00000000e+00 -3.21070353e-08
1.20530530e-07 6.75568970e-08 -1.60535180e-07
3.73025744e-09 0.00000000e+00 6.35782893e-09
1.04039906e-07 3.40541213e-08 -3.78290821e-08
1.21414658e-07 0.00000000e+00 1.34785964e-07
1.44243245e-07 1.03433926e-07 -8.10623177e-08
7.93635806e-08 0.00000000e+00 -9.85463444e-08
-5.19057108e-09 1.67215859e-08 1.77701310e-07
6.80089016e-08 0.00000000e+00 1.36057537e-07
1.14878020e-07 6.51280061e-08 1.46547947e-07
-2.41994851e-08 0.00000000e+00 2.14576716e-07
6.39756514e-09 6.83863917e-08 1.30017597e-07
1.42432754e-07 0.00000000e+00 1.50044755e-07
1.74164768e-07 1.07837216e-07 1.39713279e-07
6.74128557e-08 0.00000000e+00 8.01086415e-08
3.19480904e-08 3.70343507e-08 2.35239668e-07
2.13762121e-07 0.00000000e+00 2.25067140e-07
1.83661783e-07 1.17540360e-07 2.69889824e-07
3.06685763e-07 0.00000000e+00 9.09169486e-08
1.79092083e-07 6.19093541e-08 3.11533597e-07
5.60283659e-08 4.18821955e-08 -2.48273210e-07
0.00000000e+00 1.58747042e-08 -1.81198118e-07
1.19566920e-07 2.26497643e-09 -3.08195752e-07
0.00000000e+00 -3.70542210e-08 -2.84194954e-07
1.92642204e-07 1.06402801e-07 -1.83832071e-07
1.01486840e-07 4.29153424e-09 -1.58945723e-09
1.63141891e-07 1.05412802e-07 5.08626308e-10
7.42503570e-09 -7.89279042e-08 3.44775970e-07
1.13825003e-07 7.06513745e-08 7.05719003e-08
6.67572042e-09 1.53859460e-07 8.59578435e-08
5.48958781e-08 9.49700674e-09 1.91370646e-07
-5.22136681e-08 2.26815544e-07 2.14894612e-07
-1.47054593e-07 1.10467271e-08 3.03904216e-07
6.14374898e-08 2.74062160e-07 1.79290765e-07
7.97226321e-08 1.12896871e-07 -3.58218244e-07
0.00000000e+00 1.71820318e-07 -2.98817952e-07
1.29745118e-07 5.26791517e-08 -3.11896912e-07
0.00000000e+00 1.20202699e-07 -5.99225359e-07
1.64508819e-07 4.19616697e-08 -1.23341877e-07
1.00771587e-07 2.31424977e-08 -2.33968098e-08
-3.18288791e-08 1.89145410e-08 3.03268422e-07
1.85436676e-07 8.26517788e-09 1.08506946e-07
1.55494320e-07 1.05358303e-07 -2.09990006e-07
0.00000000e+00 -3.00010043e-08 -3.18209317e-07
2.93307835e-07 -3.73853588e-08 -6.34087485e-07
0.00000000e+00 1.52885917e-07 -8.79287711e-07
0.00000000e+00 2.37286088e-07 -4.63167822e-07
8.34237923e-08 7.72839485e-07 -1.24250136e-07
0.00000000e+00 5.84006330e-07 -2.58763635e-07
2.73386632e-07 2.85108882e-07 -3.59853118e-07
2.21808747e-07 3.08990479e-07 -3.49680590e-07
-6.03993744e-09 1.91593173e-07 -2.81778966e-07
0.00000000e+00 2.65836718e-07 -5.65846733e-07
-1.98682154e-10 2.55346293e-07 -7.81059271e-07
0.00000000e+00 5.54243741e-07 6.12894667e-07
-6.50882725e-08 3.44038000e-07 -1.27156574e-09
8.87976768e-08 2.65121457e-07 -3.17043742e-07
-9.19765881e-08 2.85678453e-07 -4.14954286e-07
0.00000000e+00 0.00000000e+00 -9.28243011e-08
2.81532611e-08 0.00000000e+00 -2.86102289e-08
-2.74976095e-08 -4.83393663e-08 -5.11805212e-08
0.00000000e+00 3.28222924e-08 -8.07444280e-08
-2.48551366e-08 0.00000000e+00 -1.11897783e-07
8.29100628e-08 9.02016950e-09 -1.84377029e-08
4.22000888e-08 0.00000000e+00 -2.33332315e-07
-1.16109845e-07 1.36733050e-07 2.12987260e-07
4.20808774e-08 0.00000000e+00 -4.10715728e-07
-6.70055513e-08 6.93798086e-08 2.13623039e-07
-1.56064829e-07 0.00000000e+00 -2.82605498e-07
1.41501431e-07 5.80151855e-08 1.43051139e-07
1.17838383e-07 0.00000000e+00 -1.65303547e-07
6.50087983e-08 -4.19616697e-08 4.51405846e-08
3.09944159e-09 8.41617549e-08 -1.01725263e-07
0.00000000e+00 -5.66641489e-08 -1.04904174e-07
-6.56445849e-08 -2.62260436e-09 -7.24792457e-08
2.58286796e-08 3.73919811e-08 2.77837103e-07
-1.83332531e-07 -5.91278067e-08 5.04266666e-07
5.71144945e-08 1.51740181e-07 3.11957479e-07
2.94579394e-07 1.23977657e-07 6.18828651e-08
-7.12871540e-08 6.33663575e-08 -2.75505926e-07
0.00000000e+00 -8.05324962e-09 -3.03480363e-07
-1.44879024e-07 -5.72204595e-09 -9.74867120e-08
-7.58965797e-08 1.71661387e-08 -1.15288628e-07
3.77893450e-08 -2.69273926e-07 4.16437764e-08
2.88836162e-07 2.33078012e-07 -3.75620516e-07
-6.13530489e-08 -2.51134242e-08 -2.13623039e-07
0.00000000e+00 1.70389811e-07 -1.58521871e-07
-1.06652578e-07 -2.16563535e-07 -3.81469700e-09
3.07295061e-08 5.09156109e-07 -6.79016125e-07
0.00000000e+00 4.41074377e-07 -6.25610369e-07
7.74065612e-08 -2.86102289e-08 -8.26517734e-08
0.00000000e+00 1.18891400e-07 -8.45591217e-07
1.08162560e-07 4.16219223e-07 -4.03086347e-07
-1.22388201e-07 6.19093541e-08 -4.66664630e-07
-1.83900198e-07 1.47342675e-07 6.23067180e-08
-1.00612638e-07 4.18821969e-07 9.60032125e-08
-5.52654285e-07 5.55256975e-07 3.52064774e-07
-7.24395122e-08 9.38574445e-08 3.85920202e-07
-2.63253838e-07 6.64790463e-08 -8.80559270e-08
3.29547447e-08 2.54048246e-07 1.29275847e-07
5.39337634e-07 1.65679822e-07 4.55219947e-07
-8.99036734e-10 -8.52172590e-08 -5.41786335e-07
-3.74217812e-08 6.55457370e-07 6.25650102e-07
-1.06229879e-06 -9.88721808e-07 -4.71860176e-07
-3.79610071e-07 -3.60250461e-08 1.60189472e-07
-1.89107325e-07 3.74476116e-07 -8.79069191e-08
-2.73113443e-07 4.01437291e-07 -5.05348055e-07
-2.76750995e-07 1.73303818e-07 1.08321508e-07
0.00000000e+00 0.00000000e+00 2.44741227e-09
5.98231935e-08 0.00000000e+00 2.44741227e-09
-6.09954185e-08 -8.11417920e-08 2.44741227e-09
0.00000000e+00 1.31607052e-07 2.44741227e-09
-2.60551758e-07 0.00000000e+00 2.44741227e-09
-1.50601061e-08 3.55243692e-08 2.44741227e-09
2.21967696e-07 0.00000000e+00 2.44741227e-09
-1.04069706e-07 1.26043957e-07 2.44741227e-09
-6.19490947e-08 0.00000000e+00 2.44741227e-09
-1.85569125e-08 2.52723691e-08 2.44741227e-09
-9.97583030e-08 0.00000000e+00 2.44741227e-09
4.94718542e-08 2.09808348e-08 2.44741227e-09
1.08425816e-07 0.00000000e+00 2.44741227e-09
1.06890994e-07 2.08218882e-08 2.44741227e-09
-1.41143801e-07 1.37170161e-07 2.44741227e-09
0.00000000e+00 1.07129416e-07 2.44741227e-09
4.92731722e-09 -1.21364991e-07 2.44741227e-09
1.56164162e-07 4.08490486e-08 2.44741227e-09
-8.45988595e-08 2.05039981e-07 2.44741227e-09
1.94450223e-07 -1.35501228e-08 2.44741227e-09
3.34898630e-07 7.30355580e-08 2.44741227e-09
-4.42902234e-07 5.38825979e-08 2.44741227e-09
0.00000000e+00 -1.58568227e-07 2.44741227e-09
-3.77231189e-08 -8.95924046e-08 2.44741227e-09
6.18298870e-08 3.92119091e-07 2.44741227e-09
-2.61147818e-07 4.11669419e-08 2.44741227e-09
1.89940138e-07 4.32332342e-07 -4.94162236e-07
-1.33991236e-07 3.83853916e-07 2.44741227e-09
7.31150323e-08 -1.88350668e-08 5.37236531e-07
-5.84920237e-08 -1.42097477e-07 2.44741227e-09
-3.98953745e-07 1.57038372e-07 1.06811520e-07
-2.44667120e-07 4.22000880e-07 2.44741227e-09
2.46524820e-07 1.62323317e-07 2.44741227e-09
1.60747106e-07 1.27580435e-07 2.34074065e-07
-5.73794061e-08 3.65151294e-07 2.44741227e-09
-1.23322010e-07 3.10977299e-07 -4.97897474e-08
-1.23818708e-07 2.50880902e-07 2.44741227e-09
-2.69095096e-07 3.56356310e-07 2.45968490e-08
-1.05539954e-07 4.09921000e-07 2.44741227e-09
0.00000000e+00 2.67318455e-07 2.44741227e-09
-1.66257223e-07 9.54878843e-08 2.44741227e-09
4.87433560e-08 -2.11477285e-07 2.44741227e-09
0.00000000e+00 6.61214159e-08 2.44741227e-09
1.63634610e-07 5.53409279e-07 2.44741227e-09
1.84694926e-07 4.42504899e-07 2.44741227e-09
-7.15970998e-07 2.18073524e-07 2.44741227e-09
2.03669074e-07 -7.30852250e-08 2.44741227e-09
0.00000000e+00 -1.93404659e-07 2.44741227e-09
1.30097064e-07 3.87827548e-08 2.44741227e-09
2.43822740e-07 1.75476075e-07 2.44741227e-09
-9.48111207e-08 3.71138242e-07 2.44741227e-09
5.16573584e-09 1.31924949e-07 2.44741227e-09
-3.27428182e-07 7.80423477e-08 2.44741227e-09
-3.68118293e-07 -1.79608666e-08 2.44741227e-09
-6.57190867e-07 2.76893388e-07 2.44741227e-09
</DataArray>
<DataArray type="Float32" Name="Spatial_velocity" NumberOfComponents="3" format="ascii">
9.33902629e-05 4.83359705e-04 -2.46147567e-04
1.52081659e-04 4.60459851e-04 -2.07264588e-04
1.57582443e-04 5.86714130e-04 -2.97036866e-04
8.41833753e-05 5.73768455e-04 -3.11977026e-04
7.63927455e-05 5.64581424e-04 -3.77634744e-04
1.65562102e-04 5.53215097e-04 -3.57819052e-04
1.43697340e-04 7.14097754e-04 -4.68852901e-04
8.62616507e-05 6.56994991e-04 -4.65609541e-04
2.61534296e-04 4.23390913e-04 -1.63764926e-04
2.81957997e-04 5.61436289e-04 -2.93032645e-04
2.44801893e-04 5.42352151e-04 -4.12416935e-04
3.43477586e-04 6.45754044e-04 -5.45150775e-04
2.73336307e-04 3.85660998e-04 5.66499025e-08
2.73216603e-04 3.84945248e-04 2.19421167e-07
2.73847516e-04 3.84939660e-04 3.82000536e-07
2.73773796e-04 3.85635445e-04 -4.38384575e-07
2.72549980e-04 3.85675987e-04 -4.99856810e-07
2.72689300e-04 3.85188760e-04 8.00098064e-07
2.73277634e-04 3.85184743e-04 -9.98796139e-08
2.73330719e-04 3.85684660e-04 4.97203345e-08
0.00000000e+00 0.00000000e+00 -5.28968289e-04
9.99736658e-05 0.00000000e+00 -5.31871105e-04
1.06976346e-04 1.10513472e-04 -5.24569419e-04
0.00000000e+00 1.05520325e-04 -5.16271568e-04
0.00000000e+00 0.00000000e+00 -7.11151108e-04
1.32961708e-04 0.00000000e+00 -7.08658597e-04
1.37264055e-04 1.13819544e-04 -7.03955302e-04
0.00000000e+00 1.05069375e-04 -6.88677770e-04
2.21708484e-04 0.00000000e+00 -5.54093334e-04
1.98712107e-04 9.64741848e-05 -5.44255076e-04
2.58598331e-04 0.00000000e+00 -7.27343315e-04
2.63742113e-04 1.19858021e-04 -7.23918667e-04
3.29678151e-04 0.00000000e+00 -5.81484346e-04
3.32467520e-04 8.96096317e-05 -5.78919542e-04
3.86774831e-04 0.00000000e+00 -7.55851681e-04
3.72256327e-04 1.04248320e-04 -7.50111707e-04
4.59845440e-04 0.00000000e+00 -6.06152287e-04
4.67890757e-04 9.38603189e-05 -6.13081269e-04
5.00798575e-04 0.00000000e+00 -7.76709639e-04
4.93320287e-04 8.73986137e-05 -7.86983932e-04
6.03884109e-04 0.00000000e+00 -6.32334384e-04
6.03209366e-04 9.93086214e-05 -6.29441172e-04
6.14172081e-04 0.00000000e+00 -7.96140288e-04
6.11916941e-04 8.71847442e-05 -8.14095081e-04
7.42063858e-04 0.00000000e+00 -6.40610291e-04
7.34350586e-04 1.04280807e-04 -6.38766389e-04
7.07603118e-04 0.00000000e+00 -8.02884693e-04
7.37511669e-04 9.06329078e-05 -8.15570122e-04
7.68633763e-05 2.10483209e-04 -4.89959086e-04
0.00000000e+00 2.37923363e-04 -4.83958604e-04
1.37153940e-04 2.24454183e-04 -6.69890025e-04
0.00000000e+00 2.23810930e-04 -6.69348636e-04
2.01546893e-04 2.16631001e-04 -5.18563960e-04
2.82218243e-04 2.40583002e-04 -7.11850647e-04
3.15020501e-04 2.27404147e-04 -5.92428085e-04
3.90955654e-04 2.28746780e-04 -8.08119192e-04
4.53931512e-04 2.50465906e-04 -6.19073166e-04
4.73747321e-04 2.03412710e-04 -8.41689704e-04
5.84613823e-04 2.42139839e-04 -6.07282505e-04
5.99022140e-04 2.26603050e-04 -8.45513307e-04
6.99721044e-04 2.69103504e-04 -6.17930258e-04
7.05051527e-04 2.40631416e-04 -8.48751341e-04
7.15509086e-05 3.61696002e-04 -4.14142793e-04
0.00000000e+00 3.53122887e-04 -4.12205263e-04
1.37059949e-04 3.55052383e-04 -6.01047184e-04
0.00000000e+00 3.57474346e-04 -6.01086649e-04
1.80821618e-04 3.13082593e-04 -4.62436816e-04
3.20203922e-04 3.61914659e-04 -7.26383529e-04
1.41738317e-04 2.69832119e-04 -1.03080051e-03
4.39544703e-04 3.34127311e-04 -9.42409039e-04
7.33715642e-05 4.47935367e-04 -3.49395501e-04
0.00000000e+00 4.64333338e-04 -3.62065097e-04
1.16576717e-04 4.97733068e-04 -4.90277132e-04
0.00000000e+00 5.16312546e-04 -5.43712114e-04
0.00000000e+00 5.53952297e-04 -3.94134928e-04
1.02215847e-04 6.60074991e-04 -5.50312223e-04
0.00000000e+00 6.21533021e-04 -5.71201032e-04
1.75825713e-04 4.51957661e-04 -2.87516799e-04
2.48683355e-04 5.22142742e-04 -5.35508909e-04
2.34102161e-04 6.12380158e-04 -5.22865448e-04
0.00000000e+00 6.64487947e-04 -4.85283439e-04
1.37278374e-04 7.66884594e-04 -6.70399459e-04
0.00000000e+00 8.04166135e-04 -6.49843249e-04
2.25402357e-04 8.04292853e-04 -6.55316806e-04
2.84073438e-04 5.72626130e-04 -7.24110287e-04
4.61805466e-04 6.34021126e-04 -7.36020156e-04
0.00000000e+00 0.00000000e+00 -9.04773537e-04
1.64605663e-04 0.00000000e+00 -9.09082592e-04
1.71765234e-04 1.17228177e-04 -9.06713831e-04
0.00000000e+00 1.08780165e-04 -8.99684441e-04
3.02211905e-04 0.00000000e+00 -9.17324971e-04
3.21672327e-04 1.34501533e-04 -9.22688516e-04
4.19960736e-04 0.00000000e+00 -9.33952397e-04
4.33143199e-04 1.37929630e-04 -9.32769501e-04
5.32276579e-04 0.00000000e+00 -9.49054142e-04
5.17202774e-04 1.24040715e-04 -9.48896399e-04
6.21540821e-04 0.00000000e+00 -9.60093457e-04
6.07849739e-04 1.13649141e-04 -9.67578148e-04
6.92888105e-04 0.00000000e+00 -9.67170752e-04
6.94094691e-04 1.25957609e-04 -9.63354483e-04
1.92883279e-04 2.44537863e-04 -8.89936869e-04
0.00000000e+00 2.26556716e-04 -8.82334716e-04
3.55120021e-04 2.69015844e-04 -9.15798941e-04
4.63615987e-04 2.71721074e-04 -9.70565132e-04
5.30660269e-04 2.44692608e-04 -1.01215101e-03
5.77532803e-04 2.10136001e-04 -1.03503314e-03
6.36255601e-04 2.24894378e-04 -1.03538961e-03
1.95178014e-04 3.43624444e-04 -8.42082081e-04
0.00000000e+00 3.80210200e-04 -8.21234018e-04
3.92441434e-04 3.55341850e-04 -9.27609799e-04
5.42371941e-04 3.40830593e-04 -1.07648957e-03
5.08114288e-04 1.61801407e-04 -1.21517677e-03
5.74526668e-04 3.06754955e-04 -1.12055498e-03
2.13887179e-04 4.98897512e-04 -7.08281528e-04
0.00000000e+00 4.76347748e-04 -7.91128783e-04
4.14520007e-04 4.38104267e-04 -8.50605313e-04
1.67231061e-04 7.18651805e-04 -8.23443173e-04
0.00000000e+00 7.33704830e-04 -8.35452985e-04
2.08630416e-04 9.16143821e-04 -8.92424199e-04
0.00000000e+00 9.07779788e-04 -8.59670865e-04
3.10755073e-04 6.68195251e-04 -7.81953044e-04
4.70253988e-04 8.11272999e-04 -8.48938012e-04
4.85710334e-04 4.88523627e-04 -1.01639482e-03
7.07278552e-04 5.48675307e-04 -9.58675228e-04
7.16596041e-05 4.21009463e-04 -1.39196485e-03
4.11167566e-04 4.09865403e-04 -1.20400917e-03
6.43465959e-04 3.06349684e-04 -1.12505979e-03
6.76790893e-04 3.05855181e-04 -1.12519355e-03
6.42708910e-04 2.72882520e-04 -1.12475944e-03
6.42432831e-04 2.39456203e-04 -1.12533628e-03
6.75783493e-04 2.39248067e-04 -1.12491078e-03
6.76159747e-04 2.72558216e-04 -1.12492265e-03
6.42903033e-04 2.72892386e-04 -1.12501008e-03
6.42662519e-04 2.39285742e-04 -1.12505094e-03
6.75938441e-04 2.38950481e-04 -1.12500088e-03
6.76401483e-04 2.72380392e-04 -1.12486712e-03
0.00000000e+00 0.00000000e+00 -1.12499960e-03
1.74909015e-04 0.00000000e+00 -1.12499960e-03
1.86770703e-04 1.23300240e-04 -1.12499960e-03
0.00000000e+00 1.13033318e-04 -1.12499960e-03
3.24612571e-04 0.00000000e+00 -1.12499960e-03
3.36977304e-04 1.41857148e-04 -1.12499960e-03
4.35088936e-04 0.00000000e+00 -1.12499960e-03
4.58005525e-04 1.53633810e-04 -1.12499960e-03
5.38025633e-04 0.00000000e+00 -1.12499960e-03
5.38239663e-04 1.50474356e-04 -1.12499960e-03
6.19597733e-04 0.00000000e+00 -1.12499960e-03
6.12302800e-04 1.38904317e-04 -1.12499960e-03
7.02674559e-04 0.00000000e+00 -1.12499960e-03
6.56622346e-04 1.57320261e-04 -1.12499960e-03
2.23451978e-04 2.28153658e-04 -1.12499960e-03
0.00000000e+00 2.17367866e-04 -1.12499960e-03
4.00295568e-04 2.73243670e-04 -1.12499960e-03
4.94113716e-04 2.94679659e-04 -1.12499960e-03
5.51349833e-04 2.72610807e-04 -1.12499960e-03
5.70068543e-04 2.44652649e-04 -1.12499960e-03
6.10916119e-04 2.49330100e-04 -1.12499960e-03
2.27230426e-04 4.08393622e-04 -1.12499960e-03
0.00000000e+00 4.14555660e-04 -1.12499960e-03
4.60276438e-04 3.70932161e-04 -1.12499960e-03
5.70236996e-04 3.58646881e-04 -1.12499960e-03
5.76202583e-04 3.09918774e-04 -1.12499960e-03
5.75594720e-04 2.70893564e-04 -1.12612755e-03
5.76251303e-04 2.73998943e-04 -1.12499960e-03
5.81148372e-04 2.43772927e-04 -1.12767587e-03
5.81547094e-04 2.47869524e-04 -1.12499960e-03
6.09287468e-04 3.41925188e-04 -1.15690834e-03
6.22773892e-04 3.66551743e-04 -1.12499960e-03
5.95733640e-04 4.24193451e-04 -1.12499960e-03
6.09265815e-04 3.06515780e-04 -1.12464256e-03
6.09985960e-04 3.06914619e-04 -1.12499960e-03
6.09410112e-04 2.73341167e-04 -1.12535118e-03
6.09528914e-04 2.73372221e-04 -1.12499960e-03
6.08712318e-04 2.39229106e-04 -1.12478982e-03
6.08517264e-04 2.39257613e-04 -1.12499960e-03
0.00000000e+00 4.34723886e-04 -1.12499960e-03
2.27589277e-04 4.89553728e-04 -1.12499960e-03
2.22902148e-04 7.63456686e-04 -1.12499960e-03
0.00000000e+00 8.14195606e-04 -1.12499960e-03
6.42880739e-04 2.72850564e-04 -1.12499960e-03
6.43187843e-04 3.06256552e-04 -1.12499960e-03
6.42652798e-04 2.39110654e-04 -1.12499960e-03
2.37499073e-04 9.58217483e-04 -1.12499960e-03
0.00000000e+00 9.23031359e-04 -1.12499960e-03
4.02065838e-04 6.80998142e-04 -1.12499960e-03
5.62621746e-04 8.07799632e-04 -1.12499960e-03
5.12437779e-04 4.52516251e-04 -1.12499960e-03
7.47775135e-04 5.22735470e-04 -1.12499960e-03
6.76449563e-04 3.05946800e-04 -1.12499960e-03
6.76459167e-04 2.72375910e-04 -1.12499960e-03
6.76154858e-04 2.39085261e-04 -1.12499960e-03
</DataArray>
<DataArray type="Float32" Name="Reaction_force" NumberOfComponents="3" format="ascii">
0.00000000e+00 0.00000000e+00 0.00000000e+00
0.00000000e+00 0.00000000e+00 0.00000000e+00
0.00000000e+00 0.00000000e+00 0.00000000e+00
0.00000000e+00 0.00000000e+00 0.00000000e+00
0.00000000e+00 0.00000000e+00 0.00000000e+00
0.00000000e+00 0.00000000e+00 0.00000000e+00
0.00000000e+00 0.00000000e+00 0.00000000e+00
0.00000000e+00 0.00000000e+00 0.00000000e+00
0.00000000e+00 0.00000000e+00 0.00000000e+00
0.00000000e+00 0.00000000e+00 0.00000000e+00
0.00000000e+00 0.00000000e+00 0.00000000e+00
0.00000000e+00 0.00000000e+00 0.00000000e+00
0.00000000e+00 0.00000000e+00 0.00000000e+00
0.00000000e+00 0.00000000e+00 0.00000000e+00
0.00000000e+00 0.00000000e+00 0.00000000e+00
0.00000000e+00 0.00000000e+00 0.00000000e+00
0.00000000e+00 0.00000000e+00 0.00000000e+00
0.00000000e+00 0.00000000e+00 0.00000000e+00
0.00000000e+00 0.00000000e+00 0.00000000e+00
0.00000000e+00 0.00000000e+00 0.00000000e+00
-1.30793557e-01 -3.66414845e-01 0.00000000e+00
0.00000000e+00 5.43832302e-01 0.00000000e+00
0.00000000e+00 0.00000000e+00 0.00000000e+00
1.36716866e+00 0.00000000e+00 0.00000000e+00
1.21091738e-01 1.14744425e+00 0.00000000e+00
0.00000000e+00 2.02555275e+00 0.00000000e+00
0.00000000e+00 0.00000000e+00 0.00000000e+00
6.31408036e-01 0.00000000e+00 0.00000000e+00
0.00000000e+00 1.34564877e+00 0.00000000e+00
0.00000000e+00 0.00000000e+00 0.00000000e+00
0.00000000e+00 1.89256024e+00 0.00000000e+00
0.00000000e+00 0.00000000e+00 0.00000000e+00
0.00000000e+00 2.21758604e+00 0.00000000e+00
0.00000000e+00 0.00000000e+00 0.00000000e+00
0.00000000e+00 1.75218880e+00 0.00000000e+00
0.00000000e+00 0.00000000e+00 0.00000000e+00
0.00000000e+00 3.48899221e+00 0.00000000e+00
0.00000000e+00 0.00000000e+00 0.00000000e+00
0.00000000e+00 1.29201496e+00 0.00000000e+00
0.00000000e+00 0.00000000e+00 0.00000000e+00
0.00000000e+00 2.36209965e+00 0.00000000e+00
0.00000000e+00 0.00000000e+00 0.00000000e+00
0.00000000e+00 9.38917994e-02 0.00000000e+00
0.00000000e+00 0.00000000e+00 0.00000000e+00
0.00000000e+00 8.91978621e-01 0.00000000e+00
0.00000000e+00 0.00000000e+00 0.00000000e+00
0.00000000e+00 6.44075871e-02 0.00000000e+00
0.00000000e+00 0.00000000e+00 0.00000000e+00
0.00000000e+00 0.00000000e+00 0.00000000e+00
1.46953046e+00 0.00000000e+00 0.00000000e+00
0.00000000e+00 0.00000000e+00 0.00000000e+00
8.03346217e-01 0.00000000e+00 0.00000000e+00
0.00000000e+00 0.00000000e+00 0.00000000e+00
0.00000000e+00 0.00000000e+00 0.00000000e+00
0.00000000e+00 0.00000000e+00 0.00000000e+00
0.00000000e+00 0.00000000e+00 0.00000000e+00
0.00000000e+00 0.00000000e+00 0.00000000e+00
0.00000000e+00 0.00000000e+00 0.00000000e+00
0.00000000e+00 0.00000000e+00 0.00000000e+00
0.00000000e+00 0.00000000e+00 0.00000000e+00
0.00000000e+00 0.00000000e+00 0.00000000e+00
0.00000000e+00 0.00000000e+00 0.00000000e+00
0.00000000e+00 0.00000000e+00 0.00000000e+00
2.36947834e-01 0.00000000e+00 0.00000000e+00
0.00000000e+00 0.00000000e+00 0.00000000e+00
1.67247152e+00 0.00000000e+00 0.00000000e+00
0.00000000e+00 0.00000000e+00 0.00000000e+00
0.00000000e+00 0.00000000e+00 0.00000000e+00
0.00000000e+00 0.00000000e+00 0.00000000e+00
0.00000000e+00 0.00000000e+00 0.00000000e+00
0.00000000e+00 0.00000000e+00 0.00000000e+00
3.28035146e-01 0.00000000e+00 0.00000000e+00
0.00000000e+00 0.00000000e+00 0.00000000e+00
8.77780616e-01 0.00000000e+00 0.00000000e+00
5.94136000e-01 0.00000000e+00 0.00000000e+00
0.00000000e+00 0.00000000e+00 0.00000000e+00
4.81270641e-01 0.00000000e+00 0.00000000e+00
0.00000000e+00 0.00000000e+00 0.00000000e+00
0.00000000e+00 0.00000000e+00 0.00000000e+00
0.00000000e+00 0.00000000e+00 0.00000000e+00
-2.87928849e-01 0.00000000e+00 0.00000000e+00
0.00000000e+00 0.00000000e+00 0.00000000e+00
9.82152045e-01 0.00000000e+00 0.00000000e+00
0.00000000e+00 0.00000000e+00 0.00000000e+00
0.00000000e+00 0.00000000e+00 0.00000000e+00
0.00000000e+00 0.00000000e+00 0.00000000e+00
1.46831721e-01 2.01004219e+00 0.00000000e+00
0.00000000e+00 2.86284494e+00 0.00000000e+00
0.00000000e+00 0.00000000e+00 0.00000000e+00
3.59030604e-01 0.00000000e+00 0.00000000e+00
0.00000000e+00 9.99398589e-01 0.00000000e+00
0.00000000e+00 0.00000000e+00 0.00000000e+00
0.00000000e+00 1.44202530e-01 0.00000000e+00
0.00000000e+00 0.00000000e+00 0.00000000e+00
0.00000000e+00 -8.52638364e-01 0.00000000e+00
0.00000000e+00 0.00000000e+00 0.00000000e+00
0.00000000e+00 -2.67672706e+00 0.00000000e+00
0.00000000e+00 0.00000000e+00 0.00000000e+00
0.00000000e+00 -2.10975623e+00 0.00000000e+00
0.00000000e+00 0.00000000e+00 0.00000000e+00
0.00000000e+00 0.00000000e+00 0.00000000e+00
1.21567321e+00 0.00000000e+00 0.00000000e+00
0.00000000e+00 0.00000000e+00 0.00000000e+00
0.00000000e+00 0.00000000e+00 0.00000000e+00
0.00000000e+00 0.00000000e+00 0.00000000e+00
0.00000000e+00 0.00000000e+00 0.00000000e+00
0.00000000e+00 0.00000000e+00 0.00000000e+00
0.00000000e+00 0.00000000e+00 0.00000000e+00
-6.90764725e-01 0.00000000e+00 0.00000000e+00
0.00000000e+00 0.00000000e+00 0.00000000e+00
0.00000000e+00 0.00000000e+00 0.00000000e+00
0.00000000e+00 0.00000000e+00 0.00000000e+00
0.00000000e+00 0.00000000e+00 0.00000000e+00
0.00000000e+00 0.00000000e+00 0.00000000e+00
9.96252298e-01 0.00000000e+00 0.00000000e+00
0.00000000e+00 0.00000000e+00 0.00000000e+00
0.00000000e+00 0.00000000e+00 0.00000000e+00
1.06470501e+00 0.00000000e+00 0.00000000e+00
0.00000000e+00 0.00000000e+00 0.00000000e+00
8.52458715e-01 0.00000000e+00 0.00000000e+00
0.00000000e+00 0.00000000e+00 0.00000000e+00
0.00000000e+00 0.00000000e+00 0.00000000e+00
0.00000000e+00 0.00000000e+00 0.00000000e+00
0.00000000e+00 0.00000000e+00 0.00000000e+00
0.00000000e+00 0.00000000e+00 0.00000000e+00
0.00000000e+00 0.00000000e+00 0.00000000e+00
0.00000000e+00 0.00000000e+00 0.00000000e+00
0.00000000e+00 0.00000000e+00 0.00000000e+00
0.00000000e+00 0.00000000e+00 0.00000000e+00
0.00000000e+00 0.00000000e+00 0.00000000e+00
0.00000000e+00 0.00000000e+00 0.00000000e+00
0.00000000e+00 0.00000000e+00 0.00000000e+00
0.00000000e+00 0.00000000e+00 0.00000000e+00
0.00000000e+00 0.00000000e+00 0.00000000e+00
0.00000000e+00 0.00000000e+00 0.00000000e+00
0.00000000e+00 0.00000000e+00 0.00000000e+00
5.71073182e-02 1.08457088e+00 -9.24431324e+00
0.00000000e+00 1.63388944e+00 -1.83626652e+01
0.00000000e+00 0.00000000e+00 -3.63502998e+01
-5.40250242e-02 0.00000000e+00 -1.85263119e+01
0.00000000e+00 3.74715567e-01 -1.80110760e+01
0.00000000e+00 0.00000000e+00 -3.54450569e+01
0.00000000e+00 -4.65806931e-01 -1.76529007e+01
0.00000000e+00 0.00000000e+00 -3.25196724e+01
0.00000000e+00 -1.00531673e+00 -1.63603306e+01
0.00000000e+00 0.00000000e+00 -2.92384071e+01
0.00000000e+00 -1.82175398e+00 -1.43015289e+01
0.00000000e+00 0.00000000e+00 -2.67120342e+01
0.00000000e+00 -1.77564919e+00 -7.35055971e+00
0.00000000e+00 0.00000000e+00 -1.44372044e+01
0.00000000e+00 0.00000000e+00 -3.92604980e+01
1.76088500e+00 0.00000000e+00 -2.17350674e+01
0.00000000e+00 0.00000000e+00 -2.94151497e+01
0.00000000e+00 0.00000000e+00 -2.36429901e+01
0.00000000e+00 0.00000000e+00 -1.87860374e+01
0.00000000e+00 0.00000000e+00 -1.82406731e+01
0.00000000e+00 0.00000000e+00 -1.15767107e+01
0.00000000e+00 0.00000000e+00 -2.66102428e+01
-8.00048411e-01 0.00000000e+00 -1.61953602e+01
0.00000000e+00 0.00000000e+00 -2.28588181e+01
0.00000000e+00 0.00000000e+00 -1.30613079e+01
0.00000000e+00 0.00000000e+00 -7.76991463e+00
0.00000000e+00 0.00000000e+00 0.00000000e+00
0.00000000e+00 0.00000000e+00 -9.79822063e+00
0.00000000e+00 0.00000000e+00 0.00000000e+00
0.00000000e+00 0.00000000e+00 -5.38128281e+00
0.00000000e+00 0.00000000e+00 0.00000000e+00
0.00000000e+00 0.00000000e+00 -4.00559330e+00
0.00000000e+00 0.00000000e+00 -1.03558617e+01
0.00000000e+00 0.00000000e+00 0.00000000e+00
0.00000000e+00 0.00000000e+00 2.99880219e+00
0.00000000e+00 0.00000000e+00 0.00000000e+00
0.00000000e+00 0.00000000e+00 5.57565641e+00
0.00000000e+00 0.00000000e+00 0.00000000e+00
0.00000000e+00 0.00000000e+00 3.56469297e+00
8.76050472e-01 0.00000000e+00 -1.58726492e+01
0.00000000e+00 0.00000000e+00 -1.65490227e+01
0.00000000e+00 0.00000000e+00 -3.00310688e+01
2.08846951e+00 0.00000000e+00 -2.08308773e+01
0.00000000e+00 0.00000000e+00 1.61754489e+00
0.00000000e+00 0.00000000e+00 -6.03331470e+00
0.00000000e+00 0.00000000e+00 -7.97880709e-01
0.00000000e+00 0.00000000e+00 -1.62853661e+01
-5.68983816e-02 0.00000000e+00 -6.82134914e+00
0.00000000e+00 0.00000000e+00 -1.66014709e+01
0.00000000e+00 0.00000000e+00 -1.65727844e+01
0.00000000e+00 0.00000000e+00 -1.08204260e+01
0.00000000e+00 0.00000000e+00 -1.03664656e+01
0.00000000e+00 0.00000000e+00 -6.25181961e+00
0.00000000e+00 0.00000000e+00 3.42222452e-01
0.00000000e+00 0.00000000e+00 -9.75564048e-02
</DataArray>
<DataArray type="Float32" Name="Equivalent_plastic_strain" format="ascii">
2.56337633e-02
2.64208910e-02
4.11619712e-02
2.96938960e-02
2.29758371e-02
3.66131661e-02
5.67405187e-02
4.30058213e-02
4.35867910e-02
5.81939295e-02
6.99949339e-02
7.36020394e-02
0.00000000e+00
0.00000000e+00
0.00000000e+00
0.00000000e+00
0.00000000e+00
0.00000000e+00
0.00000000e+00
0.00000000e+00
4.62480765e-02
4.58200341e-02
4.54335087e-02
4.57074214e-02
5.13112918e-02
5.15141347e-02
5.30213472e-02
5.41109294e-02
4.45049619e-02
4.65019271e-02
4.90864478e-02
5.15107540e-02
4.39841980e-02
4.83152596e-02
4.53831796e-02
4.75293910e-02
4.33265492e-02
5.18682371e-02
4.17306302e-02
4.27825931e-02
4.12375815e-02
5.00233588e-02
3.65948174e-02
4.21682466e-02
3.88301462e-02
4.65390515e-02
3.35685834e-02
3.99003001e-02
4.65159533e-02
4.39665178e-02
5.91305718e-02
5.65129025e-02
4.99720440e-02
5.52727538e-02
6.80864364e-02
4.87737831e-02
6.87671658e-02
4.98482876e-02
6.45580096e-02
5.57702975e-02
6.04014117e-02
5.47997653e-02
4.35235644e-02
3.77339739e-02
6.15794153e-02
5.32036964e-02
6.63639130e-02
7.05559254e-02
6.70038909e-02
1.40349343e-02
3.09746614e-02
3.08611705e-02
3.73961236e-02
3.47914859e-02
3.05381026e-02
6.28640827e-02
5.98277338e-02
4.40276694e-02
8.09455700e-02
6.55696891e-02
3.60193104e-02
4.89156013e-02
6.06437419e-02
7.43238907e-02
7.18302329e-02
6.27980766e-02
5.95219545e-02
5.85094020e-02
6.11016224e-02
6.30156258e-02
5.54574765e-02
5.61068226e-02
5.05946372e-02
4.92170118e-02
4.52570952e-02
4.21763281e-02
4.10090387e-02
3.80171812e-02
4.03612182e-02
3.84204956e-02
6.22879742e-02
7.80406632e-02
5.08156256e-02
3.84382606e-02
2.99293487e-02
2.79767658e-02
2.83429396e-02
7.95546286e-02
7.91326662e-02
5.71622731e-02
2.38967199e-02
3.39330956e-02
1.93101706e-03
9.99672208e-02
1.01344123e-01
7.65187852e-02
8.17296446e-02
8.10915325e-02
8.99862293e-02
8.65262598e-02
8.93804207e-02
8.36839359e-02
3.80671336e-02
4.48135165e-02
4.74835793e-03
9.05676931e-03
1.74599249e-02
5.16509542e-03
0.00000000e+00
0.00000000e+00
0.00000000e+00
0.00000000e+00
-6.18176799e-05
0.00000000e+00
0.00000000e+00
5.77369841e-05
6.36488423e-02
6.17189426e-02
6.41717864e-02
6.67606182e-02
5.80906644e-02
5.78136966e-02
5.34466598e-02
5.06289164e-02
4.83691394e-02
4.40772846e-02
4.56186216e-02
3.97932446e-02
4.75946069e-02
4.04211842e-02
7.76406266e-02
7.99873695e-02
5.81382755e-02
3.82183613e-02
2.34661433e-02
1.41205776e-02
1.43176289e-02
9.73265208e-02
1.15126550e-01
5.14334651e-02
5.12950466e-03
-4.76598361e-04
4.26847948e-03
5.73121331e-04
5.10165328e-03
1.61331473e-03
2.31007263e-02
-6.64187729e-03
5.03829643e-02
-5.42679009e-05
9.20030347e-04
-6.04038655e-05
-2.13237875e-04
3.41640611e-04
7.67800899e-04
1.39401898e-01
1.47207230e-01
1.14314211e-01
1.22858409e-01
-6.87814913e-05
2.74415159e-03
0.00000000e+00
9.69385281e-02
9.76088047e-02
9.06152800e-02
9.10237581e-02
1.75545872e-02
2.19828552e-02
4.90870213e-03
1.69879335e-04
0.00000000e+00
</DataArray>
<DataArray type="Float32" Name="Stress_Mises" format="ascii">
1.99185917e+01
2.99384750e+01
4.78740234e+01
2.85973002e+01
2.01827130e+01
3.82906275e+01
4.25956831e+01
2.38002262e+01
4.57222367e+01
1.00066730e+02
1.02481777e+02
8.97766113e+01
1.33812785e+00
1.57078898e+00
1.71986765e+00
2.53372508e+00
8.27659905e-01
8.14611197e-01
1.04214406e+00
1.11679852e+00
2.99111700e+01
2.97981963e+01
2.63387703e+01
2.93900952e+01
2.59400635e+01
2.99847021e+01
2.80259764e+01
3.09590118e+01
2.60862308e+01
2.45664689e+01
2.90414233e+01
3.11583826e+01
2.39185605e+01
2.67137842e+01
2.70625181e+01
2.89907947e+01
2.14890952e+01
2.87432480e+01
2.63168955e+01
2.27340602e+01
1.74865649e+01
2.77361079e+01
1.77121135e+01
2.37541877e+01
1.16008041e+01
2.10330493e+01
1.20762112e+01
1.87962362e+01
2.57854804e+01
2.60500727e+01
3.66323890e+01
2.96262145e+01
3.57927942e+01
3.36525410e+01
9.11552597e+01
2.96707381e+01
7.25878944e+01
5.85122997e+01
5.65430727e+01
6.50012770e+01
4.33582478e+01
6.13447304e+01
3.01970773e+01
2.38930009e+01
3.74105545e+01
2.00978080e+01
1.13674875e+02
5.84599380e+01
4.37381744e+01
3.25239455e+01
1.84918058e+01
1.69320371e+01
2.86708510e+01
2.06564392e+01
1.97585452e+01
2.53545956e+01
3.40049877e+01
6.65575075e+01
1.24658813e+02
4.68217850e+01
2.98710847e+01
5.00516543e+01
3.15306631e+01
4.76041898e+01
9.72054362e+01
4.62158922e+01
2.84987631e+01
3.05967450e+01
3.10684222e+01
3.06569052e+01
3.41566758e+01
3.48872809e+01
3.50267401e+01
3.74042981e+01
3.29432158e+01
3.15539695e+01
2.75304394e+01
2.56270890e+01
2.84186211e+01
3.01210291e+01
4.17418351e+01
4.81345210e+01
3.45520195e+01
2.87506713e+01
2.65694887e+01
3.64465329e+01
3.72993078e+01
5.31748892e+01
6.39671669e+01
4.08404853e+01
2.85961720e+01
2.94991016e+01
2.12627718e+01
4.95299187e+01
3.75645949e+01
1.33948959e+02
6.06929620e+01
4.89249372e+01
3.28422581e+01
2.57667310e+01
6.18979828e+01
4.64735446e+01
4.69752431e+01
3.11410364e+01
3.63830643e+01
2.41846523e+01
3.05815229e+01
2.84101365e+01
3.87495089e+00
1.66775155e+00
3.00681567e+00
4.43380308e+00
1.29087934e+01
7.20277540e+00
4.89116240e+00
1.77351189e+01
3.07884827e+01
3.12602243e+01
3.22387178e+01
3.08063030e+01
3.58669186e+01
3.60705538e+01
3.89679718e+01
4.04349627e+01
3.74318838e+01
4.13968210e+01
3.57158756e+01
3.60114746e+01
4.59680328e+01
4.39976025e+01
4.46510258e+01
4.04746981e+01
3.98438601e+01
2.92254072e+01
2.42650299e+01
2.59986386e+01
3.21707392e+01
1.14210403e+02
1.29165131e+02
3.71871058e+01
1.94126544e+01
1.36850058e+01
2.51957111e+01
1.89443634e+01
3.19888153e+01
1.89992604e+01
3.35305758e+01
2.27056789e+01
5.49037781e+01
2.31931477e+01
1.93411442e+01
2.36323416e+01
2.04358072e+01
2.17081394e+01
1.91828136e+01
1.04169571e+02
1.46127060e+02
4.11855132e+01
4.03506269e+01
1.23005495e+01
2.48263346e+01
8.66028500e+00
3.14018459e+01
2.53095837e+01
3.41444606e+01
4.05729256e+01
3.76457701e+01
3.25936022e+01
2.20839090e+01
1.66633806e+01
5.64270639e+00
</DataArray>
<DataArray type="Float32" Name="Stress_Max_Principal" format="ascii">
1.08542902e+01
3.70027632e+00
1.01706328e+01
2.41572940e+00
2.33193506e+01
3.52357063e+01
-3.98811400e+00
6.80945551e+00
-8.00315309e+00
-5.61870518e+01
-4.69424189e+01
-4.09433268e+01
7.09053338e-01
8.68900359e-01
7.70583034e-01
1.47830230e+00
6.26326501e-01
6.24471784e-01
7.21598268e-01
7.85217702e-01
4.47649240e-01
8.63560591e-01
4.38061799e+00
1.50816908e+00
4.50993001e+00
7.15859383e-01
2.55172127e+00
3.58401611e-01
4.76920727e+00
6.34349256e+00
1.29721706e+00
-2.01646537e-01
6.48822457e+00
1.21093300e+01
3.63979205e+00
2.18849330e+00
8.85742521e+00
2.78184591e+00
4.54411131e+00
1.22971303e+01
1.19932319e+01
7.76922160e+00
1.12382022e+01
6.70651701e+00
1.66695609e+01
1.81275185e+01
1.78388381e+01
1.31145555e+01
6.27980971e+00
6.04443304e+00
-4.28813471e+00
9.13525105e-01
1.37540696e+01
-1.94725395e+00
-4.86534626e+01
1.15521079e+01
-3.40866847e+01
-2.08722982e+01
-2.08125696e+01
-2.75017576e+01
-8.77763772e+00
-2.30350671e+01
3.21386044e+00
1.64534500e+01
-2.81996036e+00
9.70440400e+00
-5.96368694e+01
-1.72733310e+01
6.70056152e+01
2.13752413e+01
2.01423087e+01
1.25138934e+01
3.57226621e+01
1.69284886e+01
1.49765924e+01
1.54336468e+01
2.09300050e+01
-2.53823915e+01
-7.44221039e+01
2.26407173e+00
1.73050213e+00
2.70413661e+01
2.77589893e+00
-6.60100603e+00
-3.56169217e+01
-1.40376441e+00
3.28104967e+00
8.27369690e-01
8.95172134e-01
1.57832381e+00
-2.47879839e+00
-2.27364606e+00
-2.94961113e+00
-3.66861452e+00
-8.32547306e-01
1.02594748e+00
3.85855603e+00
5.68270761e+00
3.99434209e+00
2.88265276e+00
-2.77802747e+00
7.90863228e+00
-5.23151577e-01
1.24726417e+01
1.64814463e+01
7.77747138e+00
8.37810834e-01
-1.50869567e+01
-2.49667576e+01
1.60325406e+01
4.85904634e+01
4.69282150e+01
2.80179308e+01
-1.25350598e+01
-3.54946518e+00
-6.65293770e+01
-1.05649675e+01
-2.51548254e+00
4.89947879e+00
4.40425444e+00
-2.12483234e+01
-6.31556940e+00
2.82287443e+01
2.51181742e+01
9.18728409e+01
6.73633347e+01
2.49220705e+01
2.18231325e+01
2.38846445e+00
7.94239759e-01
1.71834397e+00
2.76519060e+00
8.92392434e+00
2.14193342e+00
1.45544288e+00
8.10119478e+00
1.53955770e+00
4.00232077e-01
4.28216457e-01
1.87565279e+00
-3.83194667e+00
-2.59943451e+00
-4.84308982e+00
-5.23316115e+00
-3.03801227e+00
-5.49879581e+00
-1.61093362e+00
2.28000045e-01
-7.61601305e+00
-5.29823375e+00
1.10534861e+01
-4.75485516e+00
8.11267257e+00
1.24456630e+01
2.37518661e+01
2.88583817e+01
3.13700073e+01
-6.56652145e+01
-8.16549759e+01
1.91730741e+01
4.02101717e+01
3.70043001e+01
1.92686772e+01
3.19760239e+01
1.03167806e+01
2.00006938e+01
3.20265851e+01
4.73715687e+01
-2.53110194e+00
2.79529635e+01
1.91979955e+01
1.80962347e+01
1.51512956e+01
9.82831311e+00
7.10584998e+00
-5.35532036e+01
-9.39516602e+01
5.69195525e+00
-4.25881290e+00
7.11233950e+00
3.46975670e+01
3.13688278e+00
3.47246695e+00
7.16146469e+00
5.94829559e-01
-2.97575766e+00
2.49604530e+01
2.60928440e+01
3.99687781e+01
6.69234610e+00
8.12603056e-01
</DataArray>
<DataArray type="Float32" Name="Stress_Mid_Principal" format="ascii">
7.06335783e+00
-3.69869882e+00
-4.09770679e+00
5.68704247e-01
1.62603793e+01
1.78141107e+01
-1.69150739e+01
4.77936018e+00
-1.22517757e+01
-6.17777061e+01
-6.19369157e+01
-5.91777954e+01
-3.32509436e-01
-4.07406610e-01
5.64654171e-03
-5.55999815e-01
-3.30620259e-02
-5.49984016e-02
4.80043069e-02
-1.39341410e-03
-1.94783688e-01
-4.27143745e-01
2.06992922e+00
-2.94398308e-01
2.54808140e+00
-6.55310601e-01
9.51910689e-01
-1.93446863e+00
2.05003408e+00
3.34491658e+00
4.52508405e-01
-1.57352254e+00
3.98647085e+00
6.33428606e+00
1.54560410e+00
-1.23284593e-01
5.74618755e+00
-5.86375117e-01
1.92141497e+00
8.26834049e+00
9.51819122e+00
3.60119045e+00
1.00836306e+01
4.21385248e+00
1.51317735e+01
1.30962729e+01
1.60858815e+01
9.54744339e+00
1.09981239e+00
8.69753122e-01
-6.65443152e+00
6.88012838e-02
6.00026967e+00
-4.79141581e+00
-5.53209263e+01
5.97057315e+00
-3.86932225e+01
-2.41362212e+01
-2.45126748e+01
-3.20392237e+01
-1.40997710e+01
-3.05732813e+01
-3.02091227e+00
9.81857443e+00
-5.93071897e+00
7.85558200e+00
-7.81785250e+01
-2.62871376e+01
2.79885998e+01
1.07989402e+01
1.54940970e+01
1.00234482e+01
2.10907493e+01
1.17727429e+01
1.16518025e+01
8.15770440e+00
8.47002196e+00
-3.21655785e+01
-8.49305000e+01
-9.37318420e+00
-1.30677414e+00
8.55985260e+00
-3.46722603e+00
-2.10063982e+01
-5.11752103e+01
-1.50618402e+01
-8.03301215e-01
-1.87777334e+00
-2.77245426e+00
-2.80834830e+00
-4.63476384e+00
-6.14418041e+00
-5.55081490e+00
-8.98141572e+00
-4.07136041e+00
-3.39645017e+00
4.35143411e-01
2.34036197e+00
-1.20480776e+00
-1.86455813e+00
-1.06488668e+01
-4.89349365e+00
-6.04025567e+00
3.61736846e+00
8.46382890e+00
-1.29232200e+00
-8.86437543e+00
-2.43915308e+01
-3.28134511e+01
-6.53028488e-04
2.91641675e+01
2.32858086e+01
1.19259724e+01
-1.86203354e+01
-7.91078949e+00
-1.06698452e+02
-2.01229391e+01
-1.01768007e+01
-6.86246395e-01
3.24957323e+00
-3.10711451e+01
-1.98694612e+01
3.70273733e+00
1.23366168e+01
5.77454834e+01
4.46116104e+01
-1.20606285e+00
3.49939378e+00
-1.12589693e+00
-1.67214990e-01
-5.24570823e-01
-1.31968820e+00
-5.13784790e-01
-8.15267036e-01
6.24379665e-02
3.46319996e+00
-3.04604244e+00
-2.61490470e+00
-4.38292789e+00
-3.43073750e+00
-6.24748850e+00
-7.96954119e+00
-1.06810489e+01
-1.28965011e+01
-9.89583480e+00
-1.39692510e+01
-8.38242507e+00
-1.04467493e+01
-2.02425022e+01
-1.86839099e+01
-4.48167515e+00
-1.36178055e+01
-5.05396199e+00
3.08733895e+00
1.56894469e+01
1.90649260e+01
1.34045677e+01
-7.82095966e+01
-8.81523361e+01
2.04348246e+00
3.13588388e+01
2.76724364e+01
-7.09205627e-01
2.18344387e+01
-2.66218138e+00
1.72917726e+01
1.22884650e+01
3.06123133e+01
-1.50105762e+01
8.51425310e+00
7.84619554e+00
2.56726457e+00
7.35487875e+00
5.31704773e+00
1.62297601e+00
-7.41006927e+01
-1.04632156e+02
-1.13939889e+00
-1.29642460e+01
3.36184797e+00
2.33319841e+01
-2.77625418e+00
-5.65360641e+00
1.03500426e+00
-4.49604511e+00
-1.50458608e+01
4.31405067e+00
1.89476395e+00
2.68590577e+01
3.70081079e+00
-1.10917194e-02
</DataArray>
<DataArray type="Float32" Name="Stress_Min_Principal" format="ascii">
-1.06378173e+01
-2.91606215e+01
-4.07748241e+01
-2.70451684e+01
1.87287068e+00
-5.53413895e+00
-5.15250270e+01
-1.77757287e+01
-5.56202931e+01
-1.58929680e+02
-1.55981794e+02
-1.38288155e+02
-7.99277544e-01
-8.84219557e-01
-1.19895113e+00
-1.34510899e+00
-3.02471995e-01
-2.78585225e-01
-4.78777140e-01
-4.93057460e-01
-2.97793751e+01
-2.95589039e+01
-2.30177388e+01
-2.87271392e+01
-2.23552492e+01
-2.99299607e+01
-2.62360370e+01
-3.16788231e+01
-2.25661979e+01
-1.95654954e+01
-2.81569037e+01
-3.20211926e+01
-1.85719313e+01
-1.59439811e+01
-2.44042221e+01
-2.78734527e+01
-1.40108309e+01
-2.74862161e+01
-2.29854891e+01
-1.15990198e+01
-6.59820619e+00
-2.12586027e+01
-7.01759112e+00
-1.81885458e+01
4.38058472e+00
-3.81226969e+00
4.99685621e+00
-7.03041124e+00
-2.16545877e+01
-2.21953306e+01
-4.20332828e+01
-2.91244566e+01
-2.28698733e+01
-3.68997920e+01
-1.42776741e+02
-1.98062518e+01
-1.08861458e+02
-8.08445778e+01
-7.91146564e+01
-9.46413288e+01
-5.45511818e+01
-8.78005066e+01
-2.95312071e+01
-9.19310498e+00
-4.14622657e+01
-1.12445021e+01
-1.81419882e+02
-7.96552353e+01
1.97251358e+01
-1.32688427e+01
6.92509583e-01
-5.51751035e+00
5.38756204e+00
-4.82000804e+00
-5.77632976e+00
-1.18687604e+01
-1.56360919e+01
-9.49414272e+01
-2.04002014e+02
-4.87041008e+01
-2.95376439e+01
-2.50387192e+01
-3.12663288e+01
-5.96509776e+01
-1.39559304e+02
-5.11413784e+01
-2.70392599e+01
-3.10194969e+01
-3.18415596e+01
-3.10317268e+01
-3.76612287e+01
-3.89310868e+01
-3.92039342e+01
-4.34323746e+01
-3.52678094e+01
-3.25009309e+01
-2.52139122e+01
-2.14329782e+01
-2.66646428e+01
-2.93216448e+01
-4.75762618e+01
-4.29606495e+01
-3.74317713e+01
-1.88554783e+01
-1.22442381e+01
-3.14352706e+01
-4.01183860e+01
-7.22201255e+01
-9.24186745e+01
-2.91698424e+01
1.65997473e+01
1.38708553e+01
4.36923065e+00
-6.47445009e+01
-4.29916774e+01
-2.15772873e+02
-7.36957372e+01
-5.34594898e+01
-2.96732121e+01
-2.19194751e+01
-8.74264748e+01
-5.79837317e+01
-2.48776412e+01
-9.76248312e+00
5.35907745e+01
4.19636841e+01
-8.68291473e+00
-9.70201461e+00
-1.76708949e+00
-1.13151312e+00
-1.69831300e+00
-1.95006192e+00
-4.96179686e+00
-5.73226420e+00
-3.96764767e+00
-1.14222787e+01
-3.12845364e+01
-3.22497005e+01
-3.39279254e+01
-3.12391157e+01
-4.08357773e+01
-4.10008478e+01
-4.63992767e+01
-4.89337735e+01
-4.34073915e+01
-5.04666920e+01
-4.02278118e+01
-3.98974638e+01
-5.85777588e+01
-5.43766365e+01
-3.74179811e+01
-4.88791769e+01
-3.57265806e+01
-1.97708693e+01
-2.44931555e+00
7.63660908e-01
-5.01810837e+00
-1.85620613e+02
-2.13946167e+02
-2.19230016e+01
1.91093612e+01
2.17477591e+01
-8.96186268e+00
1.06623116e+01
-2.50271730e+01
-2.07476616e-01
-5.82528687e+00
2.16634561e+01
-6.26003990e+01
2.84142860e+00
-2.94537870e+00
-8.46575427e+00
-7.92215997e+00
-1.37444897e+01
-1.39811621e+01
-1.66465393e+02
-2.45125946e+02
-3.69834480e+01
-4.82481127e+01
-6.16958427e+00
6.55802441e+00
-6.71603727e+00
-3.14804907e+01
-2.06489849e+01
-3.55794935e+01
-4.82134647e+01
-1.73168869e+01
-1.09273491e+01
1.56433229e+01
-1.12278919e+01
-5.19667959e+00
</DataArray>
<DataArray type="Float32" Name="Stress_Pressure" format="ascii">
-2.42661037e+00
9.71968151e+00
1.15673003e+01
8.02024496e+00
-1.38175334e+01
-1.58385597e+01
2.41427386e+01
2.06230509e+00
2.52917414e+01
9.22981453e+01
8.82870433e+01
7.94697552e+01
1.40911218e-01
1.40908614e-01
1.40907180e-01
1.40935507e-01
-9.69308317e-02
-9.69627127e-02
-9.69418064e-02
-9.69222710e-02
9.84216934e+00
9.70749600e+00
5.52239714e+00
9.17112275e+00
5.09907866e+00
9.95647073e+00
7.57746805e+00
1.10849633e+01
5.24898517e+00
3.29236237e+00
8.80239302e+00
1.12654539e+01
2.69907856e+00
-8.33211403e-01
6.40627515e+00
8.60274836e+00
-1.97593689e-01
8.43024874e+00
5.50665440e+00
-2.98881710e+00
-4.97107202e+00
3.29606330e+00
-4.76808095e+00
2.42272555e+00
-1.20606399e+01
-9.13717401e+00
-1.29738590e+01
-5.21052933e+00
4.75832199e+00
5.09371471e+00
1.76586163e+01
9.38071018e+00
1.03851151e+00
1.45461540e+01
8.22503769e+01
7.61190925e-01
6.05471220e+01
4.19510324e+01
4.14799681e+01
5.13941040e+01
2.58095293e+01
4.71362839e+01
9.77941973e+00
-5.69297345e+00
1.67376479e+01
-2.10516137e+00
1.06411758e+02
4.10719020e+01
-3.82397842e+01
-6.30177903e+00
-1.21096381e+01
-5.67327732e+00
-2.07336583e+01
-7.96040773e+00
-6.95068777e+00
-3.90753024e+00
-4.58797789e+00
5.08297982e+01
1.21118210e+02
1.86044044e+01
9.70463848e+00
-3.52083302e+00
1.06525526e+01
2.90861273e+01
7.54504801e+01
2.25356607e+01
8.18717015e+00
1.06899674e+01
1.12396141e+01
1.07539171e+01
1.49249303e+01
1.57829712e+01
1.59014534e+01
1.86941347e+01
1.33905726e+01
1.16238112e+01
6.97340390e+00
4.46996951e+00
7.95836902e+00
9.43451687e+00
2.03343854e+01
1.33151712e+01
1.46650596e+01
9.21823658e-01
-4.23367902e+00
8.31670698e+00
1.60483170e+01
3.72328713e+01
5.00662944e+01
4.37931907e+00
-3.14514595e+01
-2.80282936e+01
-1.47710449e+01
3.19666320e+01
1.81506443e+01
1.29666901e+02
3.47945490e+01
2.20505919e+01
8.48665977e+00
4.75521564e+00
4.65819809e+01
2.80562546e+01
-2.35127974e+00
-9.23076868e+00
-6.77363663e+01
-5.13128777e+01
-5.01103073e+00
-5.20683722e+00
1.68174028e-01
1.68162778e-01
1.68179914e-01
1.68186471e-01
-1.14944757e+00
1.46853263e+00
8.16588901e-01
-4.73718792e-02
1.09303398e+01
1.14881241e+01
1.26275454e+01
1.09314001e+01
1.69717374e+01
1.71899413e+01
2.06411390e+01
2.23544792e+01
1.87804127e+01
2.33115795e+01
1.67403898e+01
1.67054040e+01
2.88120918e+01
2.61195936e+01
1.02820573e+01
2.24172785e+01
1.08892903e+01
1.41262186e+00
-1.23306662e+01
-1.62289898e+01
-1.32521553e+01
1.09831810e+02
1.27917824e+02
2.35481262e-01
-3.02261246e+01
-2.88081654e+01
-3.19920313e+00
-2.14909245e+01
5.79085787e+00
-1.23616630e+01
-1.28299208e+01
-3.32157793e+01
2.67140255e+01
-1.31028822e+01
-8.03293721e+00
-4.06591517e+00
-4.86133814e+00
-4.66956854e-01
1.75077865e+00
9.80397644e+01
1.47903259e+02
1.08102964e+01
2.18237241e+01
-1.43486762e+00
-2.15291917e+01
2.11846966e+00
1.12205439e+01
4.15083885e+00
1.31602373e+01
2.20783606e+01
-3.98587227e+00
-5.68675327e+00
-2.74903862e+01
2.78245151e-01
1.46505618e+00
</DataArray>
<DataArray type="Float32" Name="Stress_Tresca" format="ascii">
2.14921075e+01
3.28608980e+01
5.09454565e+01
2.94608974e+01
2.14464803e+01
4.07698451e+01
4.75369117e+01
2.45851841e+01
4.76171408e+01
1.02742626e+02
1.09039371e+02
9.73448277e+01
1.50833088e+00
1.75311989e+00
1.96953416e+00
2.82341123e+00
9.28798497e-01
9.03056979e-01
1.20037544e+00
1.27827513e+00
3.02270241e+01
3.04224644e+01
2.73983570e+01
3.02353086e+01
2.68651781e+01
3.06458192e+01
2.87877581e+01
3.20372238e+01
2.73354058e+01
2.59089880e+01
2.94541211e+01
3.18195460e+01
2.50601559e+01
2.80533111e+01
2.80440140e+01
3.00619459e+01
2.28682566e+01
3.02680620e+01
2.75296011e+01
2.38961505e+01
1.85914383e+01
2.90278245e+01
1.82557931e+01
2.48950629e+01
1.22889762e+01
2.19397888e+01
1.28419819e+01
2.01449661e+01
2.79343973e+01
2.82397633e+01
3.77451475e+01
3.00379825e+01
3.66239425e+01
3.49525386e+01
9.41232773e+01
3.13583600e+01
7.47747736e+01
5.99722801e+01
5.83020859e+01
6.71395721e+01
4.57735443e+01
6.47654400e+01
3.27450676e+01
2.56465549e+01
3.86423058e+01
2.09489064e+01
1.21783010e+02
6.23819035e+01
4.72804794e+01
3.46440849e+01
1.94497991e+01
1.80314033e+01
3.03350995e+01
2.17484958e+01
2.07529221e+01
2.73024071e+01
3.65660973e+01
6.95590363e+01
1.29579914e+02
5.09681732e+01
3.12681460e+01
5.20800838e+01
3.40422258e+01
5.30499701e+01
1.03942387e+02
4.97376124e+01
3.03203087e+01
3.18468666e+01
3.27367313e+01
3.26100507e+01
3.51824303e+01
3.66574407e+01
3.62543230e+01
3.97637594e+01
3.44352617e+01
3.35268781e+01
2.90724688e+01
2.71156853e+01
3.06589842e+01
3.22042975e+01
4.47982340e+01
5.08692818e+01
3.69086199e+01
3.13281202e+01
2.87256846e+01
3.92127422e+01
4.09561952e+01
5.71331679e+01
6.74519157e+01
4.52023830e+01
3.19907163e+01
3.30573578e+01
2.36487000e+01
5.22094417e+01
3.94422112e+01
1.49243492e+02
6.31307704e+01
5.09440069e+01
3.45726910e+01
2.63237300e+01
6.61781528e+01
5.16681614e+01
5.31063862e+01
3.48806577e+01
3.82820663e+01
2.53996506e+01
3.36049848e+01
3.15251478e+01
4.15555382e+00
1.92575288e+00
3.41665697e+00
4.71525240e+00
1.38857212e+01
7.87419772e+00
5.42309070e+00
1.95234744e+01
3.28240929e+01
3.26499319e+01
3.43561420e+01
3.31147690e+01
3.70038300e+01
3.84014139e+01
4.15561867e+01
4.37006121e+01
4.03693790e+01
4.49678969e+01
3.86168766e+01
4.01254630e+01
5.09617462e+01
4.90784035e+01
4.84714680e+01
4.41243219e+01
4.38392529e+01
3.22165322e+01
2.62011819e+01
2.80947208e+01
3.63881149e+01
1.19955399e+02
1.32291199e+02
4.10960757e+01
2.11008105e+01
1.52565408e+01
2.82305403e+01
2.13137121e+01
3.53439541e+01
2.02081699e+01
3.78518715e+01
2.57081127e+01
6.00692978e+01
2.51115354e+01
2.21433744e+01
2.65619895e+01
2.30734556e+01
2.35728025e+01
2.10870113e+01
1.12912186e+02
1.51174286e+02
4.26754036e+01
4.39892979e+01
1.32819235e+01
2.81395423e+01
9.85292006e+00
3.49529572e+01
2.78104496e+01
3.61743231e+01
4.52377071e+01
4.22773399e+01
3.70201931e+01
2.43254547e+01
1.79202385e+01
6.00928259e+00
</DataArray>
<DataArray type="Float32" Name="Stress_Third_Invariant" format="ascii">
-1.89060392e+01
-2.74236320e+01
-3.03900642e+01
-2.84138833e+01
-9.73549609e+00
-9.61875221e+00
-3.76738765e+01
-2.27537263e+01
-4.49741892e+01
-9.97076607e+01
-9.95821737e+01
-8.48936729e+01
1.12826651e+00
1.38959771e+00
-1.23936480e+00
2.18001556e+00
7.18590677e-01
7.40719616e-01
6.19358957e-01
8.13809574e-01
-2.98950806e+01
-2.97348695e+01
-2.60476252e+01
-2.92210164e+01
-2.57720261e+01
-2.99111829e+01
-2.79112607e+01
-3.07533932e+01
-2.57522085e+01
-2.40869998e+01
-2.90124378e+01
-3.10839134e+01
-2.35873394e+01
-2.05458035e+01
-2.68646579e+01
-2.87347694e+01
-2.09506538e+01
-2.82600883e+01
-2.60190525e+01
-1.89774764e+01
-1.70832915e+01
-2.41301915e+01
-1.76107917e+01
-2.34347207e+01
-1.13550258e+01
-1.34793236e+01
-1.17298357e+01
-1.68519736e+01
-2.44056581e+01
-2.48208127e+01
-3.64200298e+01
-2.95943966e+01
-2.30264826e+01
-3.32808677e+01
-9.00350426e+01
-2.33597685e+01
-7.22375774e+01
-5.79867161e+01
-5.62692165e+01
-6.46081839e+01
-4.26137810e+01
-6.02893715e+01
-2.84005901e+01
-1.64592558e+01
-3.57152744e+01
-1.98754638e+01
-1.10119226e+02
-5.66591640e+01
4.19276123e+01
-1.92824243e+01
-1.22983902e+01
-1.64864433e+01
-3.33358596e+00
-1.45287979e+01
-1.58089329e+01
-1.76642694e+01
-1.68978136e+01
-6.53639970e+01
-1.23654964e+02
-3.68237061e+01
-2.95031221e+01
-1.85578184e+01
-2.88693029e+01
-4.17970756e+01
-9.39794348e+01
-2.91893603e+01
-2.78279819e+01
-3.02868776e+01
-3.05670658e+01
-2.99259939e+01
-3.39995551e+01
-3.43875928e+01
-3.48068943e+01
-3.64994814e+01
-3.25581083e+01
-3.08287826e+01
-2.70148664e+01
-2.50694904e+01
-2.73168335e+01
-2.92335671e+01
-3.78682298e+01
-3.19967895e+01
-3.31077613e+01
-2.06747198e+01
-1.56065680e+01
-2.84342471e+01
-3.21163476e+01
-5.10292673e+01
-6.26168410e+01
-2.29083427e+01
8.81342872e+00
2.57787170e+01
1.08368179e+01
-4.84028821e+01
-3.66268682e+01
-1.18335705e+02
-5.05810490e+01
-4.01503925e+01
-2.86156056e+01
-2.57056036e+01
-5.99576893e+01
-4.12871504e+01
-2.03502552e+01
-1.74493846e+01
3.58435440e+01
2.38552513e+01
2.83288159e+01
3.46311092e-01
3.75280643e+00
-2.28069812e-01
2.40372038e+00
4.33126259e+00
5.33221588e+00
-2.63246147e+00
-4.35080636e+00
-1.60311817e+01
-3.00057545e+01
-3.09037189e+01
-3.13575361e+01
-2.97517891e+01
-3.56533165e+01
-3.49796867e+01
-3.79608316e+01
-3.86895270e+01
-3.59186144e+01
-3.93434129e+01
-3.42265987e+01
-3.20794516e+01
-4.17915306e+01
-3.87316866e+01
-2.79919591e+01
-3.80323687e+01
-2.81946006e+01
-2.12343395e+01
-1.29906909e+01
-8.73872805e+00
-7.32814217e+00
-1.12615540e+02
-1.28796692e+02
-1.70811481e+01
-6.60775661e-01
4.89573029e+00
2.15173197e+01
9.92514014e-01
-2.23789883e+00
-1.85568061e+01
-6.00029945e+00
1.72974963e+01
-5.15658340e+01
1.58248007e+01
-2.22787698e+00
7.48890090e+00
-1.55601981e+01
-2.04795270e+01
-1.60353599e+01
-9.94556732e+01
-1.45244980e+02
-3.08670524e+01
-3.81381474e+01
-7.43602204e+00
-8.08775934e+00
4.97692370e+00
-2.81738739e+01
-2.35530109e+01
-3.05027868e+01
-3.61877365e+01
-1.29636059e+01
2.57159767e+01
-2.68697739e-02
-1.59149261e+01
-5.50500870e+00
</DataArray>
<DataArray type="Float32" Name="Logarithmic_strain_Max_Principal" format="ascii">
1.92000661e-02
2.39342037e-02
2.73616635e-02
1.97013440e-02
2.19752621e-02
3.09190231e-02
4.47654054e-02
2.89512384e-02
2.91256090e-02
3.67862741e-02
5.13040138e-02
5.73359858e-02
1.83795905e-05
2.28520566e-05
1.97610270e-05
3.70840044e-05
1.38635842e-05
1.39133499e-05
1.60892032e-05
1.76716094e-05
2.82555502e-02
2.86959712e-02
3.08444903e-02
2.90658623e-02
3.55166923e-02
3.45106432e-02
3.51871569e-02
3.61660533e-02
3.12811141e-02
3.33476525e-02
3.21127889e-02
3.31423257e-02
3.21950368e-02
3.50099523e-02
3.05579873e-02
3.06959867e-02
3.25862607e-02
3.67152751e-02
2.85131023e-02
3.00052399e-02
2.96528968e-02
3.35644125e-02
2.42862203e-02
2.92718920e-02
2.80493721e-02
3.15941889e-02
2.43045129e-02
2.84985737e-02
3.53529677e-02
3.36890733e-02
3.84093733e-02
3.59042436e-02
3.28509893e-02
3.70259453e-02
4.66602050e-02
3.36208743e-02
4.45389627e-02
3.45179368e-02
4.04117517e-02
3.57098989e-02
3.82451601e-02
3.39305755e-02
3.45427559e-02
2.98619587e-02
4.23645132e-02
3.37050287e-02
5.22465529e-02
5.06482132e-02
8.11713561e-02
3.02607343e-02
2.25491492e-02
2.36375150e-02
3.38077449e-02
3.40115600e-02
2.17195116e-02
3.94087261e-02
4.27180268e-02
3.15984944e-02
5.38591072e-02
4.77843419e-02
2.60114828e-02
4.27175267e-02
4.54155114e-02
5.80145949e-02
5.77400463e-02
5.50846023e-02
4.44073882e-02
4.12900513e-02
4.44132010e-02
4.68505807e-02
3.62636121e-02
3.98694049e-02
3.38778179e-02
3.50460028e-02
3.09544755e-02
3.01785551e-02
2.86456756e-02
2.66802760e-02
2.95755398e-02
2.79955668e-02
5.27265635e-02
5.37153343e-02
4.26825965e-02
3.00430597e-02
2.38227097e-02
2.24732853e-02
2.35668343e-02
5.85733199e-02
6.04094242e-02
4.53952427e-02
2.49939817e-02
3.96238677e-02
1.08439071e-02
6.43849298e-02
6.78411064e-02
6.33102953e-02
6.45889807e-02
6.37526484e-02
6.23857500e-02
5.41169085e-02
6.00158954e-02
6.67280983e-02
4.64446684e-02
4.52757929e-02
6.49163648e-02
3.76580656e-02
2.64249612e-02
2.17655143e-02
5.94304693e-05
2.11085608e-05
4.26974875e-05
6.78410361e-05
1.93303640e-04
6.94016938e-05
4.43740373e-05
2.60544230e-04
4.76324074e-02
4.35982030e-02
4.90626879e-02
5.23035731e-02
3.81748173e-02
4.22886498e-02
3.87771167e-02
3.78763601e-02
3.71004585e-02
3.40505349e-02
3.43368128e-02
3.12572285e-02
3.85852680e-02
3.28033585e-02
5.77050233e-02
5.93421571e-02
4.72991671e-02
3.13021848e-02
1.96762604e-02
1.55468252e-02
1.55771547e-02
6.40477166e-02
7.10897967e-02
4.04821597e-02
1.57142481e-02
3.88123676e-03
6.28328478e-03
2.24071972e-03
6.24239212e-03
2.80042650e-03
2.88751973e-02
6.65136753e-03
3.56151052e-02
1.74057382e-03
1.20445516e-03
4.48142648e-04
2.86396580e-04
5.69032549e-04
6.96011703e-04
9.90994275e-02
9.08627585e-02
7.62132655e-02
8.50838646e-02
1.30734728e-04
7.31271792e-03
1.00918300e-04
7.59329833e-02
7.11006001e-02
5.87371197e-02
7.02511221e-02
3.16923587e-02
4.00371477e-02
1.01157842e-02
2.84095375e-04
3.63324943e-05
</DataArray>
<DataArray type="Float32" Name="Logarithmic_strain_Min_Principal" format="ascii">
-2.58009280e-02
-3.10662903e-02
-3.99234137e-02
-3.05177798e-02
-3.08028299e-02
-4.19400095e-02
-5.57710696e-02
-3.88696659e-02
-4.35800450e-02
-6.33998085e-02
-7.32085307e-02
-7.94629194e-02
-1.77430547e-05
-1.93209426e-05
-2.71902754e-05
-3.05141884e-05
-8.40413577e-06
-8.09270750e-06
-1.22187321e-05
-1.32543073e-05
-4.68739886e-02
-4.65011010e-02
-4.57677925e-02
-4.64102393e-02
-5.15316334e-02
-5.19387871e-02
-5.34718242e-02
-5.45651363e-02
-4.47242726e-02
-4.66509569e-02
-4.96677561e-02
-5.23442407e-02
-4.38087871e-02
-4.85383733e-02
-4.58666142e-02
-4.83258287e-02
-4.30898322e-02
-5.23167425e-02
-4.21142122e-02
-4.30656616e-02
-4.12439182e-02
-5.03930077e-02
-3.67921786e-02
-4.26485538e-02
-3.86124551e-02
-4.65449421e-02
-3.34082562e-02
-4.00975840e-02
-4.62645600e-02
-4.38346239e-02
-6.03061924e-02
-5.71705857e-02
-5.32994073e-02
-5.66208395e-02
-7.47558720e-02
-4.93157847e-02
-7.12612327e-02
-5.33350527e-02
-6.60341578e-02
-5.80135863e-02
-6.13537673e-02
-5.68106733e-02
-4.36556725e-02
-3.72604784e-02
-6.24433931e-02
-5.37709352e-02
-7.50319799e-02
-7.24442244e-02
-7.73967132e-02
-3.51376378e-02
-3.16060374e-02
-3.03406860e-02
-4.88816009e-02
-4.90704924e-02
-3.03075952e-02
-5.67430875e-02
-5.60920388e-02
-4.82292948e-02
-8.51939060e-02
-6.78789176e-02
-3.67648304e-02
-5.91332996e-02
-6.15321323e-02
-7.48534501e-02
-8.07330534e-02
-6.50384886e-02
-5.91108557e-02
-5.85751375e-02
-6.11701929e-02
-6.27280287e-02
-5.61375739e-02
-5.64636528e-02
-5.13884034e-02
-4.97694355e-02
-4.59201057e-02
-4.27026423e-02
-4.13337993e-02
-3.86545248e-02
-4.06213421e-02
-3.91751714e-02
-6.88611018e-02
-7.37740323e-02
-5.59063908e-02
-3.81143354e-02
-3.05666578e-02
-2.84873843e-02
-2.90429580e-02
-7.72825467e-02
-8.10132797e-02
-5.52109486e-02
-2.42216943e-02
-4.24893983e-02
-7.06638304e-03
-9.18566287e-02
-9.29169754e-02
-8.34858008e-02
-9.66125131e-02
-9.55714881e-02
-8.97123255e-02
-8.78819823e-02
-9.04218182e-02
-8.51371214e-02
-5.34447851e-02
-4.94902246e-02
-4.30796705e-02
-2.72858106e-02
-1.52214403e-02
-2.05014423e-02
-4.08176420e-05
-2.45817646e-05
-3.87258588e-05
-4.47614511e-05
-1.46605504e-04
-1.19599817e-04
-8.59823958e-05
-3.60370963e-04
-6.31843433e-02
-6.18912186e-02
-6.34361636e-02
-6.57009929e-02
-5.88368438e-02
-5.78341950e-02
-5.38286921e-02
-5.08983331e-02
-4.84634582e-02
-4.44617113e-02
-4.58657593e-02
-3.96022946e-02
-4.76772301e-02
-4.03325986e-02
-7.37099778e-02
-8.27448070e-02
-5.47773372e-02
-3.62712117e-02
-2.26988317e-02
-1.48989435e-02
-1.41696460e-02
-1.04933687e-01
-1.19803555e-01
-4.95178364e-02
-1.33700054e-02
-1.56524286e-03
-4.09955044e-03
-1.27957163e-03
-6.26138051e-03
-3.39145795e-03
-2.12033736e-02
-4.32103022e-03
-5.35917580e-02
-1.36808271e-03
-1.31310616e-03
-2.81901310e-04
-2.24792419e-04
-7.39360403e-04
-1.15522378e-03
-1.49524346e-01
-1.59219831e-01
-1.08757374e-01
-1.17384072e-01
-1.26918842e-04
-3.67331455e-03
-1.35240625e-04
-9.73058864e-02
-9.74678025e-02
-8.82124640e-02
-8.61242525e-02
-3.31165567e-02
-3.70218270e-02
-1.12207170e-02
-4.66291254e-04
-1.08038730e-04
</DataArray>
<DataArray type="Float32" Name="Plastic_strain_Max_Principal" format="ascii">
1.89558633e-02
2.21453153e-02
2.91000479e-02
1.95746650e-02
2.42970958e-02
2.84446222e-02
4.52438900e-02
3.20812776e-02
3.17359706e-02
3.66927218e-02
5.49772431e-02
5.66627327e-02
0.00000000e+00
0.00000000e+00
0.00000000e+00
0.00000000e+00
0.00000000e+00
0.00000000e+00
0.00000000e+00
0.00000000e+00
2.81602722e-02
2.85416469e-02
3.07002589e-02
2.88992971e-02
3.53208799e-02
3.43792187e-02
3.50170359e-02
3.60276569e-02
3.10932486e-02
3.31313210e-02
3.19378963e-02
3.30586811e-02
3.20106559e-02
3.46360276e-02
3.03553469e-02
3.05213521e-02
3.22918762e-02
3.64657380e-02
2.83551118e-02
2.96758297e-02
2.93082967e-02
3.33334014e-02
2.40473975e-02
2.90087317e-02
2.76669702e-02
3.12389750e-02
2.40015248e-02
2.81372573e-02
3.50771048e-02
3.35177639e-02
3.84209757e-02
3.57868439e-02
3.29348259e-02
3.69040654e-02
4.72721644e-02
3.46084801e-02
4.50030249e-02
3.46935857e-02
4.07794528e-02
3.60466782e-02
3.83631270e-02
3.41719557e-02
3.43312137e-02
2.95983837e-02
4.23107073e-02
3.34046967e-02
5.29603586e-02
5.20471774e-02
7.78147653e-02
4.06055829e-02
2.22062077e-02
2.33906237e-02
3.14833503e-02
3.06161167e-02
2.17686626e-02
4.35133414e-02
4.50658705e-02
3.19832112e-02
5.59847932e-02
4.83945109e-02
2.57226592e-02
3.42941959e-02
4.50589452e-02
5.90591375e-02
5.75786394e-02
5.46751879e-02
4.42066900e-02
4.11419654e-02
4.42219954e-02
4.66745356e-02
3.61622600e-02
3.97452726e-02
3.37610543e-02
3.49755730e-02
3.08365026e-02
3.00319348e-02
2.85094432e-02
2.63794358e-02
2.94341436e-02
2.77377665e-02
4.98257906e-02
5.72722368e-02
3.78531496e-02
2.99759177e-02
2.36687155e-02
2.25911533e-02
2.34574545e-02
6.08224105e-02
5.97526493e-02
4.68817540e-02
2.38019153e-02
3.71701941e-02
1.34837086e-02
7.14752553e-02
7.51725708e-02
6.32037949e-02
5.43131602e-02
5.20652849e-02
6.30972721e-02
5.37461378e-02
6.28808150e-02
6.66462043e-02
3.94409886e-02
4.10705130e-02
3.92775722e-02
1.57512575e-02
2.81797875e-02
1.42145630e-02
0.00000000e+00
0.00000000e+00
0.00000000e+00
0.00000000e+00
3.45064609e-05
0.00000000e+00
0.00000000e+00
6.84106975e-05
4.74577807e-02
4.34110872e-02
4.89402311e-02
5.21213524e-02
3.80713530e-02
4.21817061e-02
3.86842545e-02
3.77951991e-02
3.69429737e-02
3.39301452e-02
3.41901984e-02
3.16093327e-02
3.84375528e-02
3.28990621e-02
6.05306858e-02
5.74726257e-02
4.89389207e-02
3.26335211e-02
1.98423278e-02
1.34785888e-02
1.47097460e-02
6.32516090e-02
7.36928359e-02
4.29987783e-02
1.06401321e-02
3.81917802e-03
5.86589063e-03
1.75516422e-03
5.93041989e-03
2.48323078e-03
2.92991688e-02
1.38788274e-02
3.77175510e-02
1.27467014e-03
9.29405279e-04
1.24195772e-04
1.52493068e-04
3.44347704e-04
5.10059297e-04
9.63070765e-02
8.91094059e-02
8.14095040e-02
9.04836208e-02
5.85493507e-05
5.93767533e-03
0.00000000e+00
7.51826093e-02
7.07021505e-02
6.32711463e-02
7.40708336e-02
2.20616697e-02
2.33343351e-02
8.84016350e-03
1.32020679e-04
0.00000000e+00
</DataArray>
<DataArray type="Float32" Name="Plastic_strain_Min_Principal" format="ascii">
-2.55717570e-02
-2.62378671e-02
-4.27807951e-02
-2.99993143e-02
-2.89892815e-02
-3.89315391e-02
-5.67188421e-02
-4.43456997e-02
-4.68323911e-02
-5.87998908e-02
-7.55968330e-02
-7.47557469e-02
0.00000000e+00
0.00000000e+00
0.00000000e+00
0.00000000e+00
0.00000000e+00
0.00000000e+00
0.00000000e+00
0.00000000e+00
-4.63396646e-02
-4.58795661e-02
-4.53882543e-02
-4.57975781e-02
-5.11089638e-02
-5.13598528e-02
-5.29639767e-02
-5.39574260e-02
-4.43105223e-02
-4.62670149e-02
-4.90493588e-02
-5.17076971e-02
-4.35192939e-02
-4.81546149e-02
-4.53588003e-02
-4.77955169e-02
-4.27817358e-02
-5.17019089e-02
-4.17139372e-02
-4.28839107e-02
-4.10300186e-02
-5.00211907e-02
-3.66788283e-02
-4.22225627e-02
-3.86163909e-02
-4.65072608e-02
-3.35509889e-02
-3.98698449e-02
-4.58252574e-02
-4.34907516e-02
-5.94909498e-02
-5.66499811e-02
-5.28343522e-02
-5.53942681e-02
-7.12087378e-02
-5.08400537e-02
-6.90319575e-02
-5.18864855e-02
-6.47430560e-02
-5.61517607e-02
-6.04874901e-02
-5.50910067e-02
-4.30459364e-02
-3.72065529e-02
-6.19374663e-02
-5.34660835e-02
-7.22132688e-02
-7.28049420e-02
-8.84336606e-02
-3.79126885e-02
-3.15936932e-02
-3.02240667e-02
-4.03789993e-02
-3.70922423e-02
-3.06764990e-02
-6.51120873e-02
-6.11507352e-02
-4.68463479e-02
-8.33035111e-02
-6.73704654e-02
-3.61260194e-02
-4.58039567e-02
-6.08721375e-02
-7.55488947e-02
-7.82922606e-02
-6.53201379e-02
-5.86023666e-02
-5.80011820e-02
-6.04873397e-02
-6.21406883e-02
-5.53778000e-02
-5.56278019e-02
-5.05405916e-02
-4.89260107e-02
-4.51947888e-02
-4.20977683e-02
-4.08729911e-02
-3.81660443e-02
-4.01155017e-02
-3.85877900e-02
-6.27220290e-02
-7.90615883e-02
-4.87250827e-02
-3.79736945e-02
-3.06882347e-02
-2.83371663e-02
-2.85171367e-02
-7.93880137e-02
-7.71104756e-02
-5.73499762e-02
-2.39497836e-02
-4.50578108e-02
-8.81956558e-03
-1.03324927e-01
-1.04903979e-01
-7.94146191e-02
-7.72630658e-02
-7.58435288e-02
-9.13152490e-02
-8.69237632e-02
-9.17204954e-02
-8.39110464e-02
-4.41438686e-02
-4.43848628e-02
-3.27692144e-02
-7.58724567e-03
-1.62214701e-02
-1.25363643e-02
0.00000000e+00
0.00000000e+00
0.00000000e+00
0.00000000e+00
-5.26659507e-05
0.00000000e+00
0.00000000e+00
-9.15984759e-05
-6.26034141e-02
-6.12120032e-02
-6.28381958e-02
-6.51198104e-02
-5.79731502e-02
-5.70046175e-02
-5.28643485e-02
-4.98793256e-02
-4.74958662e-02
-4.33789762e-02
-4.49882168e-02
-3.93914292e-02
-4.63436656e-02
-3.95476185e-02
-7.79498760e-02
-7.79760480e-02
-5.67670055e-02
-3.78563306e-02
-2.36789174e-02
-1.29955360e-02
-1.35189644e-02
-9.77842398e-02
-1.16266444e-01
-5.24282965e-02
-8.57660850e-03
-2.76273901e-03
-3.86038952e-03
-1.34789898e-03
-5.72806754e-03
-3.25266563e-03
-2.22185636e-02
-1.00582738e-02
-5.66787049e-02
-1.27534129e-03
-1.22723373e-03
-8.62080674e-05
-1.25247819e-04
-4.11884481e-04
-8.41856410e-04
-1.37778983e-01
-1.45695642e-01
-1.17063895e-01
-1.24733023e-01
-4.43822513e-05
-3.21706331e-03
0.00000000e+00
-9.52978693e-02
-9.66541469e-02
-9.47266445e-02
-9.12349559e-02
-1.90079692e-02
-1.58111096e-02
-1.04817658e-02
-2.00402297e-04
0.00000000e+00
</DataArray>
</PointData>
<Cells>
<DataArray type="Int32" Name="connectivity" format="ascii">
0 1 2 3 4 5 6 7
1 8 9 2 5 10 11 6
12 13 14 15 16 17 18 19
20 21 22 23 24 25 26 27
21 28 29 22 25 30 31 26
28 32 33 29 30 34 35 31
32 36 37 33 34 38 39 35
36 40 41 37 38 42 43 39
40 44 45 41 42 46 47 43
23 22 48 49 27 26 50 51
22 29 52 48 26 31 53 50
29 33 54 52 31 35 55 53
33 37 56 54 35 39 57 55
37 41 58 56 39 43 59 57
41 45 60 58 43 47 61 59
49 48 62 63 51 50 64 65
48 52 66 62 50 53 67 64
52 54 68 66 53 55 69 67
63 62 70 71 65 64 72 73
71 70 4 74 73 72 75 76
70 77 5 4 72 78 79 75
74 4 7 80 76 75 81 82
4 5 6 7 75 79 83 81
5 10 11 6 79 84 85 83
24 25 26 27 86 87 88 89
25 30 31 26 87 90 91 88
30 34 35 31 90 92 93 91
34 38 39 35 92 94 95 93
38 42 43 39 94 96 97 95
42 46 47 43 96 98 99 97
27 26 50 51 89 88 100 101
26 31 53 50 88 91 102 100
31 35 55 53 91 93 103 102
35 39 57 55 93 95 104 103
39 43 59 57 95 97 105 104
43 47 61 59 97 99 106 105
51 50 64 65 101 100 107 108
50 53 67 64 100 102 109 107
53 55 69 67 102 103 110 109
55 57 111 69 103 104 112 110
65 64 72 73 108 107 113 114
64 67 78 72 107 109 115 113
73 72 75 76 114 113 116 117
76 75 81 82 117 116 118 119
75 79 83 81 116 120 121 118
79 84 85 83 120 122 123 121
84 124 125 85 122 126 127 123
128 129 130 131 132 133 134 135
86 87 88 89 136 137 138 139
87 90 91 88 137 140 141 138
90 92 93 91 140 142 143 141
92 94 95 93 142 144 145 143
94 96 97 95 144 146 147 145
96 98 99 97 146 148 149 147
89 88 100 101 139 138 150 151
88 91 102 100 138 141 152 150
91 93 103 102 141 143 153 152
93 95 104 103 143 145 154 153
95 97 105 104 145 147 155 154
97 99 106 105 147 149 156 155
101 100 107 108 151 150 157 158
100 102 109 107 150 152 159 157
102 103 110 109 152 153 160 159
103 104 112 110 153 154 161 160
104 105 162 112 154 155 163 161
105 106 164 162 155 156 165 163
109 110 166 115 159 160 167 168
110 112 169 166 160 161 170 167
112 162 171 169 161 163 172 170
162 164 173 171 163 165 174 172
114 113 116 117 175 176 177 178
169 171 132 126 170 172 179 180
171 173 133 132 172 174 181 179
117 116 118 119 178 177 182 183
116 120 121 118 177 184 185 182
120 122 123 121 184 186 187 185
122 126 127 123 186 180 188 187
126 132 135 127 180 179 189 188
132 133 134 135 179 181 190 189
</DataArray>
<DataArray type="Int32" Name="offsets" format="ascii">
8
16
24
32
40
48
56
64
72
80
88
96
104
112
120
128
136
144
152
160
168
176
184
192
200
208
216
224
232
240
248
256
264
272
280
288
296
304
312
320
328
336
344
352
360
368
376
384
392
400
408
416
424
432
440
448
456
464
472
480
488
496
504
512
520
528
536
544
552
560
568
576
584
592
600
608
616
624
632
</DataArray>
<DataArray type="UInt8" Name="types" format="ascii">
12
12
12
12
12
12
12
12
12
12
12
12
12
12
12
12
12
12
12
12
12
12
12
12
12
12
12
12
12
12
12
12
12
12
12
12
12
12
12
12
12
12
12
12
12
12
12
12
12
12
12
12
12
12
12
12
12
12
12
12
12
12
12
12
12
12
12
12
12
12
12
12
12
12
12
12
12
12
12
</DataArray>
</Cells>
</Piece>
</UnstructuredGrid>
</VTKFile>
