<VTKFile type="UnstructuredGrid" version="0.1" byte_order="LittleEndian">
<UnstructuredGrid>
<Piece NumberOfPoints="191" NumberOfCells="79">
<Points>
<DataArray type="Float64" NumberOfComponents="3" format="ascii">
 1.00346172e+00  5.03440428e+00  1.98667693e+00
 2.00689912e+00  5.03321791e+00  1.99121106e+00
 2.00627375e+00  6.03989840e+00  1.98616624e+00
 1.00217259e+00  6.03864956e+00  1.98309672e+00
 1.00278401e+00  5.03817987e+00  2.98048496e+00
 2.00709510e+00  5.03896523e+00  2.98067069e+00
 2.00473452e+00  6.04791641e+00  2.97430730e+00
 1.00237894e+00  6.04136467e+00  2.97854137e+00
 3.01193476e+00  5.03151560e+00  1.99330711e+00
 3.01308608e+00  6.03891420e+00  1.98727405e+00
 3.01472235e+00  5.03546953e+00  2.98025441e+00
 3.02375937e+00  6.05186224e+00  2.95627570e+00
 5.01196957e+00  5.03548527e+00  2.00001264e+00
 6.01197815e+00  5.03758287e+00  1.99995351e+00
 6.00985527e+00  6.03760147e+00  2.00001287e+00
 5.00983953e+00  6.03548717e+00  2.00004530e+00
 5.01201820e+00  5.03543806e+00  2.99999881e+00
 6.01200771e+00  5.03756046e+00  2.99996567e+00
 6.00989294e+00  6.03754663e+00  2.99999952e+00
 5.00990629e+00  6.03542948e+00  3.00005603e+00
 0.00000000e+00  0.00000000e+00  2.95578432e+00
 1.00825942e+00  0.00000000e+00  2.95475340e+00
 1.00817358e+00  1.00857627e+00  2.95749760e+00
 0.00000000e+00  1.00852191e+00  2.95901203e+00
 0.00000000e+00  0.00000000e+00  3.94067407e+00
 1.01189077e+00  0.00000000e+00  3.94048214e+00
 1.01200831e+00  1.00766551e+00  3.94092703e+00
 0.00000000e+00  1.00749719e+00  3.94299459e+00
 2.01813531e+00  0.00000000e+00  2.95037150e+00
 2.01582956e+00  1.00642169e+00  2.95451689e+00
 2.02287865e+00  0.00000000e+00  3.93822598e+00
 2.02349114e+00  1.00801098e+00  3.93693519e+00
 3.02714396e+00  0.00000000e+00  2.94625688e+00
 3.02724433e+00  1.00466835e+00  2.94776654e+00
 3.03358006e+00  0.00000000e+00  3.93340945e+00
 3.03305125e+00  1.00720787e+00  3.93279433e+00
 4.03802967e+00  0.00000000e+00  2.94216800e+00
 4.03814888e+00  1.00506055e+00  2.94044423e+00
 4.04235125e+00  0.00000000e+00  3.92945170e+00
 4.04234934e+00  1.00567651e+00  3.92733979e+00
 5.04752254e+00  0.00000000e+00  2.93644571e+00
 5.04836512e+00  1.00577855e+00  2.93747377e+00
 5.04974842e+00  0.00000000e+00  3.92767596e+00
 5.04999733e+00  1.00469661e+00  3.92384338e+00
 6.05511189e+00  0.00000000e+00  2.93393040e+00
 6.05666399e+00  1.00460947e+00  2.93534327e+00
 6.05508137e+00  0.00000000e+00  3.92693281e+00
 6.05721140e+00  1.00349557e+00  3.92390943e+00
 1.00495970e+00  2.01576090e+00  2.96426678e+00
 0.00000000e+00  2.01867890e+00  2.96528363e+00
 1.01185775e+00  2.01699805e+00  3.94937778e+00
 0.00000000e+00  2.01723242e+00  3.95045424e+00
 2.01406193e+00  2.01500535e+00  2.95495582e+00
 2.02518177e+00  2.01735640e+00  3.93958831e+00
 3.02445793e+00  2.01714015e+00  2.94345427e+00
 3.03446817e+00  2.01574183e+00  3.92319250e+00
 4.03899431e+00  2.01950765e+00  2.94260955e+00
 4.04099512e+00  2.01263428e+00  3.91908145e+00
 5.05060816e+00  2.01634932e+00  2.94035602e+00
 5.05077934e+00  2.01466751e+00  3.92119789e+00
 6.05989790e+00  2.01342320e+00  2.93925714e+00
 6.06071377e+00  2.01235318e+00  3.92119336e+00
 1.00282133e+00  3.02722192e+00  2.97601533e+00
 0.00000000e+00  3.02694392e+00  2.97261620e+00
 1.00891531e+00  3.02718925e+00  3.95662808e+00
 0.00000000e+00  3.02530813e+00  3.96536684e+00
 2.01253319e+00  3.02483296e+00  2.96560216e+00
 2.02739978e+00  3.02885914e+00  3.93500137e+00
 3.01095653e+00  3.02070069e+00  2.90077019e+00
 3.04208851e+00  3.02264833e+00  3.91285896e+00
 1.00235891e+00  4.03302622e+00  2.98117089e+00
 0.00000000e+00  4.03441000e+00  2.98002386e+00
 1.00471950e+00  4.03544950e+00  3.97267866e+00
 0.00000000e+00  4.03489637e+00  3.97299528e+00
 0.00000000e+00  5.03662539e+00  2.98137283e+00
 1.00556540e+00  5.04294109e+00  3.97513056e+00
 0.00000000e+00  5.04015923e+00  3.97183895e+00
 2.00659108e+00  4.03297329e+00  2.98860574e+00
 2.01564884e+00  4.03780890e+00  3.96544051e+00
 2.01670623e+00  5.04217386e+00  3.97037983e+00
 0.00000000e+00  6.04161406e+00  2.97556686e+00
 1.00938070e+00  6.05474186e+00  3.95738101e+00
 0.00000000e+00  6.05573797e+00  3.96361852e+00
 2.01911998e+00  6.06001139e+00  3.95286107e+00
 3.03058195e+00  5.03680038e+00  3.92976737e+00
 3.04364133e+00  6.04897213e+00  3.93551111e+00
 0.00000000e+00  0.00000000e+00  4.92283249e+00
 1.01526761e+00  0.00000000e+00  4.92165899e+00
 1.01620686e+00  1.00802433e+00  4.92368126e+00
 0.00000000e+00  1.00746572e+00  4.92387342e+00
 2.02784657e+00  0.00000000e+00  4.92034531e+00
 2.02982092e+00  1.00981379e+00  4.92097712e+00
 3.03757215e+00  0.00000000e+00  4.91883135e+00
 3.03880572e+00  1.01078653e+00  4.91721296e+00
 4.04483891e+00  0.00000000e+00  4.91627455e+00
 4.04472208e+00  1.00965858e+00  4.91525459e+00
 5.05087566e+00  0.00000000e+00  4.91582298e+00
 5.05010366e+00  1.00786948e+00  4.91427279e+00
 6.05603790e+00  0.00000000e+00  4.91605568e+00
 6.05647898e+00  1.00787902e+00  4.91486263e+00
 1.01981187e+00  2.01878595e+00  4.92438173e+00
 0.00000000e+00  2.01592565e+00  4.92878437e+00
 2.03437328e+00  2.02076817e+00  4.91836929e+00
 3.04274082e+00  2.01974559e+00  4.91266870e+00
 4.04654598e+00  2.01719308e+00  4.90770054e+00
 5.04940510e+00  2.01442552e+00  4.90496302e+00
 6.05265379e+00  2.01395273e+00  4.90548134e+00
 1.02088559e+00  3.02437973e+00  4.94044018e+00
 0.00000000e+00  3.02858305e+00  4.94670630e+00
 2.03959250e+00  3.02590299e+00  4.91622591e+00
 3.04876995e+00  3.02392983e+00  4.90465736e+00
 4.04467821e+00  3.00883842e+00  3.89417076e+00
 4.05121660e+00  3.02033567e+00  4.90225792e+00
 1.01940012e+00  4.03131247e+00  4.96128559e+00
 0.00000000e+00  4.02737665e+00  4.95463896e+00
 2.04436636e+00  4.03600693e+00  4.92121696e+00
 1.01881135e+00  5.05172014e+00  4.94228220e+00
 0.00000000e+00  5.05289030e+00  4.94542837e+00
 1.02121687e+00  6.07536697e+00  4.93615103e+00
 0.00000000e+00  6.07420540e+00  4.93706989e+00
 2.03419733e+00  5.04541636e+00  4.93323421e+00
 2.04941368e+00  6.06323290e+00  4.93038797e+00
 3.04868984e+00  5.03249979e+00  4.90852594e+00
 3.06431079e+00  6.03695822e+00  4.91362095e+00
 4.02763414e+00  5.02699614e+00  3.88678551e+00
 4.04446983e+00  6.02824783e+00  3.89654613e+00
 4.05843353e+00  5.02067518e+00  4.90178013e+00
 4.06365728e+00  6.02211094e+00  4.90219879e+00
 5.05885458e+00  5.01690435e+00  3.90206957e+00
 6.05885077e+00  5.01291609e+00  3.90206695e+00
 6.06282377e+00  6.01292658e+00  3.90206194e+00
 5.06278753e+00  6.01693773e+00  3.90213299e+00
 5.05883884e+00  5.01690912e+00  4.90207434e+00
 6.05886364e+00  5.01294279e+00  4.90208101e+00
 6.06282234e+00  6.01292372e+00  4.90206099e+00
 5.06292439e+00  6.01681709e+00  4.90212727e+00
 0.00000000e+00  0.00000000e+00  5.90208578e+00
 1.01639068e+00  0.00000000e+00  5.90208578e+00
 1.01842451e+00  1.00948250e+00  5.90208578e+00
 0.00000000e+00  1.00775778e+00  5.90208578e+00
 2.03021216e+00  0.00000000e+00  5.90208578e+00
 2.03177714e+00  1.01150131e+00  5.90208578e+00
 3.03910589e+00  0.00000000e+00  5.90208578e+00
 3.04089284e+00  1.01220095e+00  5.90208578e+00
 4.04520178e+00  0.00000000e+00  5.90208578e+00
 4.04617548e+00  1.01224685e+00  5.90208578e+00
 5.05129337e+00  0.00000000e+00  5.90208578e+00
 5.05015993e+00  1.01108456e+00  5.90208578e+00
 6.05798483e+00  0.00000000e+00  5.90208578e+00
 6.05462456e+00  1.01239455e+00  5.90208578e+00
 1.02304983e+00  2.01579332e+00  5.90208578e+00
 0.00000000e+00  2.01482511e+00  5.90208578e+00
 2.03851891e+00  2.02040458e+00  5.90208578e+00
 3.04531932e+00  2.02172303e+00  5.90208578e+00
 4.04902744e+00  2.01965117e+00  5.90208578e+00
 5.04944801e+00  2.01662922e+00  5.90208578e+00
 6.05049181e+00  2.01522112e+00  5.90208578e+00
 1.02896523e+00  3.03777218e+00  5.90208578e+00
 0.00000000e+00  3.04082656e+00  5.90208578e+00
 2.04671526e+00  3.02998781e+00  5.90208578e+00
 3.05130696e+00  3.02521443e+00  5.90208578e+00
 4.05134296e+00  3.02051878e+00  5.90208578e+00
 5.05147934e+00  3.01655555e+00  4.90181160e+00
 5.05168915e+00  3.01671767e+00  5.90208578e+00
 6.05183411e+00  3.01371312e+00  4.90182161e+00
 6.05180836e+00  3.01417232e+00  5.90208578e+00
 3.05542374e+00  4.02468348e+00  4.89964437e+00
 3.05640531e+00  4.02565002e+00  5.90208578e+00
 2.05689096e+00  4.03290939e+00  5.90208578e+00
 4.05513668e+00  4.02032566e+00  4.90228415e+00
 4.05512571e+00  4.02046013e+00  5.90208578e+00
 5.05491972e+00  4.01693010e+00  4.90208340e+00
 5.05495644e+00  4.01687384e+00  5.90208578e+00
 6.05492973e+00  4.01331234e+00  4.90206385e+00
 6.05490255e+00  4.01316452e+00  5.90208578e+00
 0.00000000e+00  4.01547909e+00  5.90208578e+00
 1.04095840e+00  4.02174664e+00  5.90208578e+00
 1.02834201e+00  5.06080246e+00  5.90208578e+00
 0.00000000e+00  5.06154156e+00  5.90208578e+00
 5.05877399e+00  5.01689053e+00  5.90208578e+00
 4.05868769e+00  5.02087688e+00  5.90208578e+00
 6.05889130e+00  5.01297855e+00  5.90208578e+00
 1.03062701e+00  6.07924986e+00  5.90208578e+00
 0.00000000e+00  6.08406782e+00  5.90208578e+00
 2.04099250e+00  5.04654598e+00  5.90208578e+00
 2.06107831e+00  6.06072330e+00  5.90208578e+00
 3.05437469e+00  5.02931643e+00  5.90208578e+00
 3.06837368e+00  6.03374767e+00  5.90208578e+00
 4.06416988e+00  6.02139378e+00  5.90208578e+00
 5.06291628e+00  6.01674080e+00  5.90208578e+00
 6.06281281e+00  6.01294899e+00  5.90208578e+00
</DataArray>
</Points>
<PointData Tensors="Stress_Components,Plastic_strain_components" Vevtors="Spatial_displacement,Reaction_force" Scalars="Equivalent_plastic_strain,Stress_Mises,Stress_Max_Principal,Stress_Mid_Principal,Stress_Min_Principal,Stress_Pressure,Stress_Tresca,Stress_Third_Invariant,Plastic_strain_Max_Principal,Plastic_strain_Min_Principal">
<DataArray type="Float32" Name="Stress_Components" NumberOfComponents="9" format="ascii">
2.65453564e+00 -1.90642948e+00 4.96303856e-01 -1.90642948e+00 1.67217802e+00 1.74933400e+00 4.96303856e-01 1.74933400e+00 -2.40878024e+01
9.35345665e-01 -2.33337331e+00 6.14381968e-01 -2.33337331e+00 3.21166936e-01 2.36349880e+00 6.14381968e-01 2.36349880e+00 -2.66346087e+01
-2.85865307e+00 2.86918499e-01 1.15080377e+00 2.86918499e-01 5.41122451e-01 -2.42421377e-01 1.15080377e+00 -2.42421377e-01 -3.28064356e+01
2.47294158e-02 3.53633575e-02 -8.34495105e-01 3.53633575e-02 2.98554647e+00 -5.45369044e-01 -8.34495105e-01 -5.45369044e-01 -2.66482015e+01
1.19004181e+01 9.26115999e-01 2.33097319e+00 9.26115999e-01 1.35953608e+01 -4.80675265e-01 2.33097319e+00 -4.80675265e-01 -2.36108881e+00
8.53863403e+00 -7.28193275e-01 -4.79913024e-01 -7.28193275e-01 1.10308699e+01 1.68634693e+00 -4.79913024e-01 1.68634693e+00 -1.01934267e+01
-6.76969254e+00 1.12354168e+00 1.17158610e+00 1.12354168e+00 -2.98421836e+00 -2.19016776e+00 1.17158610e+00 -2.19016776e+00 -3.84197540e+01
-2.04826468e+00 2.36815582e+00 3.45575188e+00 2.36815582e+00 1.64485931e-01 2.84513345e+00 3.45575188e+00 2.84513345e+00 -2.96142070e+01
-4.46559548e-01 7.80056849e-01 -3.47364474e+00 7.80056849e-01 -1.62283194e+00 3.63108310e+00 -3.47364474e+00 3.63108310e+00 -3.19528277e+01
-2.30183220e+01 5.90302527e-01 7.88026023e-01 5.90302527e-01 -2.05200438e+01 4.94292295e+00 7.88026023e-01 4.94292295e+00 -7.79502335e+01
-3.00478853e+01 3.75968075e+00 -1.54249010e+01 3.75968075e+00 -2.92359947e+01 1.79135848e+00 -1.54249010e+01 1.79135848e+00 -8.90609589e+01
-2.59956946e+01 5.76576900e+00 -9.80240011e+00 5.76576900e+00 -3.39747009e+01 -2.81303430e+00 -9.80240011e+00 -2.81303430e+00 -9.10089912e+01
1.18961573e-01 -6.69521570e-01 7.68140256e-02 -6.69521570e-01 -1.45613045e-01 -1.28340926e-01 7.68140256e-02 -1.28340926e-01 -3.59740272e-01
-2.29592070e-01 -5.29535562e-01 -3.26275736e-01 -5.29535562e-01 1.95996916e-01 -8.73643756e-02 -3.26275736e-01 -8.73643756e-02 -3.52800019e-01
2.25187590e-01 -1.84421882e-01 3.54916889e-01 -1.84421882e-01 3.70609969e-01 1.93440650e-01 3.54916889e-01 1.93440650e-01 -9.82195586e-01
1.59207715e-01 -3.24498400e-01 -2.44730402e-01 -3.24498400e-01 -3.85429867e-01 -2.73834914e-01 -2.44730402e-01 -2.73834914e-01 -1.60209451e-01
1.42452747e-01 2.19391853e-01 2.16521308e-01 2.19391853e-01 2.18660459e-01 3.20623457e-01 2.16521308e-01 3.20623457e-01 -9.60752666e-02
-1.44139484e-01 1.61703467e-01 2.45763317e-01 1.61703467e-01 -2.94816613e-01 -7.61646032e-02 2.45763317e-01 -7.61646032e-02 7.04006076e-01
1.31775692e-01 4.82392535e-02 -4.42648768e-01 4.82392535e-02 9.65830982e-02 -3.92511696e-01 -4.42648768e-01 -3.92511696e-01 3.66977900e-02
-2.77468473e-01 1.05913259e-01 -1.38841039e-02 1.05913259e-01 -8.58424008e-02 2.03074679e-01 -1.38841039e-02 2.03074679e-01 6.28341436e-01
1.51561439e-01 8.14457890e-04 1.89630353e+00 8.14457890e-04 6.67027414e-01 -2.82490969e-01 1.89630353e+00 -2.82490969e-01 -2.89774227e+01
6.04215221e-01 6.02950659e-02 1.26509818e+00 6.02950659e-02 2.38300309e-01 2.86815908e-01 1.26509818e+00 2.86815908e-01 -2.89783511e+01
5.51233944e-01 -1.49236095e+00 1.83697023e+00 -1.49236095e+00 7.16453023e-01 4.89523161e-01 1.83697023e+00 4.89523161e-01 -2.82251129e+01
-6.65144980e-01 1.01727108e-01 1.78597780e+00 1.01727108e-01 7.40801618e-01 -9.84972164e-01 1.78597780e+00 -9.84972164e-01 -2.97611027e+01
2.53792799e+00 -2.09800014e-03 1.19443488e+00 -2.09800014e-03 -1.47214255e+00 -1.53748557e-01 1.19443488e+00 -1.53748557e-01 -2.85576754e+01
1.21709708e+00 8.28659981e-02 5.04060812e-01 8.28659981e-02 -2.05922812e+00 1.21545164e+00 5.04060812e-01 1.21545164e+00 -3.06394305e+01
1.48586021e+00 1.41073413e-01 1.85217857e+00 1.41073413e-01 -1.46105342e+00 6.65894883e-01 1.85217857e+00 6.65894883e-01 -2.94934021e+01
4.99008372e-01 1.80865332e-01 2.00817692e+00 1.80865332e-01 -2.67613232e+00 -8.44057456e-01 2.00817692e+00 -8.44057456e-01 -3.18641829e+01
2.69358222e+00 -1.45499486e+00 1.81457910e+00 -1.45499486e+00 -5.15280604e-01 1.54832097e-01 1.81457910e+00 1.54832097e-01 -2.72602558e+01
2.24240807e+00 -2.20075282e+00 1.57934807e+00 -2.20075282e+00 2.32176051e-01 8.34047787e-01 1.57934807e+00 8.34047787e-01 -2.66407245e+01
1.61594918e+00 3.68210435e-01 -1.85975585e-01 3.68210435e-01 -9.23789203e-01 7.82939484e-01 -1.85975585e-01 7.82939484e-01 -2.91556821e+01
-3.03367727e-01 3.72773176e-01 1.34974149e+00 3.72773176e-01 -1.72241006e+00 1.87394542e+00 1.34974149e+00 1.87394542e+00 -3.20073588e+01
4.71088529e+00 8.68737958e-02 6.55770242e-01 8.68737958e-02 -1.02689446e+00 1.08305394e+00 6.55770242e-01 1.08305394e+00 -2.54010100e+01
3.25087278e+00 -9.57104791e-01 -4.03213549e-01 -9.57104791e-01 -1.15119699e-01 -6.27593406e-01 -4.03213549e-01 -6.27593406e-01 -2.60422559e+01
2.39150709e+00 -5.11648372e-01 -1.36881106e-01 -5.11648372e-01 -3.06524694e-01 8.48380908e-01 -1.36881106e-01 8.48380908e-01 -2.76479945e+01
-2.18285590e-01 -6.11099377e-01 -7.45280311e-01 -6.11099377e-01 -1.81542694e+00 6.48467966e-01 -7.45280311e-01 6.48467966e-01 -3.19336476e+01
6.38074745e+00 2.24894665e-01 -8.82067472e-01 2.24894665e-01 4.57685769e-01 -2.24266093e-01 -8.82067472e-01 -2.24266093e-01 -2.19993978e+01
-4.07603756e-01 4.95593449e-01 -1.00691056e+00 4.95593449e-01 -2.65261096e+00 1.13648921e-03 -1.00691056e+00 1.13648921e-03 -3.28239131e+01
2.65425742e+00 -8.95705428e-02 -1.33443266e+00 -8.95705428e-02 -6.05350941e-01 6.67573839e-01 -1.33443266e+00 6.67573839e-01 -2.76140108e+01
4.34098845e+00 -1.24218440e+00 -1.31327398e+00 -1.24218440e+00 1.79586658e+00 -8.22123822e-01 -1.31327398e+00 -8.22123822e-01 -2.30032699e+01
7.45001280e+00 4.10570860e-01 7.41126746e-01 4.10570860e-01 3.72756222e+00 -8.83625224e-01 7.41126746e-01 -8.83625224e-01 -1.76235402e+01
2.13866657e+00 5.26490147e-01 -3.26604117e-02 5.26490147e-01 5.42511940e-02 1.63946226e-01 -3.26604117e-02 1.63946226e-01 -2.75076033e+01
5.10807782e+00 1.05629113e-01 -2.66568100e+00 1.05629113e-01 2.70808165e+00 2.89591316e-01 -2.66568100e+00 2.89591316e-01 -2.10991735e+01
2.27767007e+00 -4.60795216e-01 -1.49666418e+00 -4.60795216e-01 1.59243080e+00 -6.39694244e-01 -1.49666418e+00 -6.39694244e-01 -2.53832376e+01
1.00079036e+01 6.41098171e-01 8.85445148e-01 6.41098171e-01 6.29037511e+00 -1.12188421e+00 8.85445148e-01 -1.12188421e+00 -1.19042635e+01
7.22721079e+00 3.52967031e-01 -1.16797213e-01 3.52967031e-01 4.94801694e+00 -8.29845823e-01 -1.16797213e-01 -8.29845823e-01 -1.66681567e+01
7.87846160e+00 1.70497787e+00 -2.16750121e+00 1.70497787e+00 5.46619570e+00 -5.55941023e-01 -2.16750121e+00 -5.55941023e-01 -1.51165981e+01
5.64986327e+00 9.58350509e-01 -8.47763419e-01 9.58350509e-01 3.78636205e+00 -2.35372249e-01 -8.47763419e-01 -2.35372249e-01 -1.93974403e+01
-6.59482390e-01 -2.45483644e+00 4.11304741e+00 -2.45483644e+00 2.55970896e+00 -1.54227596e-01 4.11304741e+00 -1.54227596e-01 -2.54461466e+01
-7.78253257e-01 -1.65532035e+00 2.87230343e+00 -1.65532035e+00 4.47427343e+00 -3.86555575e-01 2.87230343e+00 -3.86555575e-01 -2.49596004e+01
-3.16573098e+00 -4.65538167e-01 4.85073432e+00 -4.65538167e-01 -6.03982198e+00 1.39207882e+00 4.85073432e+00 1.39207882e+00 -3.84459311e+01
-1.18316710e-03 -1.47316091e-01 4.20727569e+00 -1.47316091e-01 -2.09597525e+00 -5.84713064e-01 4.20727569e+00 -5.84713064e-01 -3.11616936e+01
1.18418741e+00 -4.94316442e-01 2.38284535e+00 -4.94316442e-01 -1.23394898e-02 -5.42172883e-01 2.38284535e+00 -5.42172883e-01 -3.03254933e+01
-6.76919475e-01 8.32979293e-01 1.33958820e+00 8.32979293e-01 -1.43041646e+00 -1.25071378e+00 1.33958820e+00 -1.25071378e+00 -3.20675789e+01
-2.34110941e+01 -1.56188476e+00 -8.62645245e+00 -1.56188476e+00 -2.38328243e+01 -2.86339951e-01 -8.62645245e+00 -2.86339951e-01 -7.66472458e+01
5.72726727e-02 1.28342456e+00 -5.09262286e+00 1.28342456e+00 2.25370952e-02 -1.98953050e-01 -5.09262286e+00 -1.98953050e-01 -2.84288484e+01
-1.81848145e+01 1.43409848e-01 -2.63905284e+00 1.43409848e-01 -1.58531377e+01 1.90222247e+00 -2.63905284e+00 1.90222247e+00 -6.65682468e+01
-8.03556194e+00 -8.08735055e-01 -9.80395708e+00 -8.08735055e-01 -1.29491548e+01 1.77983878e+00 -9.80395708e+00 1.77983878e+00 -4.66505463e+01
-9.42977107e+00 -3.05032760e-01 -5.71791410e-01 -3.05032760e-01 -8.81002712e+00 1.26453808e+00 -5.71791410e-01 1.26453808e+00 -4.96347418e+01
-1.23703630e+01 3.98451179e-01 -2.87436008e+00 3.98451179e-01 -1.12658231e+01 -1.11721434e-01 -2.87436008e+00 -1.11721434e-01 -5.56872873e+01
-2.30127949e+00 2.49649458e-01 -5.03075302e-01 2.49649458e-01 -1.79295802e+00 3.46861415e-01 -5.03075302e-01 3.46861415e-01 -3.43439064e+01
-1.08358557e+01 6.85255259e-01 -2.30141115e+00 6.85255259e-01 -1.07275629e+01 -3.30777794e+00 -2.30141115e+00 -3.30777794e+00 -5.24699326e+01
-5.55530768e+00 -1.42317500e+00 5.68369368e+00 -1.42317500e+00 -6.05632561e-01 4.30160778e-01 5.68369368e+00 4.30160778e-01 -3.26845049e+01
4.06072056e+00 5.25057428e-01 3.74296394e+00 5.25057428e-01 9.91430318e+00 1.07932044e+00 3.74296394e+00 1.07932044e+00 -1.31096230e+01
1.13151407e+00 -7.15709858e-01 4.52825313e+00 -7.15709858e-01 -8.73518808e-01 -9.33938929e-01 4.52825313e+00 -9.33938929e-01 -2.78397624e+01
4.75620221e+00 4.99663495e-01 4.50972414e+00 4.99663495e-01 5.82421678e+00 -2.10570461e+00 4.50972414e+00 -2.10570461e+00 -1.70388157e+01
-3.65165677e+01 -5.15879500e+00 1.11768314e+01 -5.15879500e+00 -3.31393237e+01 -1.10494481e+01 1.11768314e+01 -1.10494481e+01 -9.50651302e+01
-1.18199628e+01 -2.39040375e-01 1.52904415e-01 -2.39040375e-01 -1.85755673e+01 -4.82215524e+00 1.52904415e-01 -4.82215524e+00 -6.10265320e+01
-2.82161999e+01 -8.27697468e+00 -2.87137623e+01 -8.27697468e+00 -2.55222225e+01 -1.59517937e+01 -2.87137623e+01 -1.59517937e+01 -1.96557045e+01
2.19643003e+01 -9.06657060e-01 -1.49826034e+00 -9.06657060e-01 2.31753645e+01 -4.20305061e+00 -1.49826034e+00 -4.20305061e+00 1.59349365e+01
3.28656269e+00 -5.87864831e-01 2.37586878e+00 -5.87864831e-01 6.88804357e+00 2.96515203e+00 2.37586878e+00 2.96515203e+00 -1.73413671e+01
3.46085048e+00 -1.26183254e+00 4.56036749e+00 -1.26183254e+00 7.60478002e+00 2.46502720e-02 4.56036749e+00 2.46502720e-02 -1.51556952e+01
1.28375145e+01 -2.01102982e-01 3.10085244e+00 -2.01102982e-01 1.50102553e+01 7.28743225e-01 3.10085244e+00 7.28743225e-01 2.31130878e+00
1.47808645e+01 -2.76311881e-01 1.30989832e+00 -2.76311881e-01 1.68974236e+01 4.88636717e-01 1.30989832e+00 4.88636717e-01 4.21359539e+00
5.60146862e+00 1.35913163e+00 -6.52645230e-02 1.35913163e+00 7.90416253e+00 -4.11473148e-01 -6.52645230e-02 -4.11473148e-01 -1.45953218e+01
4.48629856e-02 1.87982698e+00 4.80845485e-02 1.87982698e+00 1.68091284e+00 3.27755536e+00 4.80845485e-02 3.27755536e+00 -2.60461048e+01
2.80906406e+00 1.51231188e+00 6.72369182e-01 1.51231188e+00 6.69244444e+00 1.21803465e+00 6.72369182e-01 1.21803465e+00 -1.89169772e+01
-1.59267457e+01 -2.25058123e-02 2.34804648e+00 -2.25058123e-02 -1.03001344e+01 1.22045748e+01 2.34804648e+00 1.22045748e+01 -4.46468158e+01
-3.74824305e+01 -1.78883123e+00 1.32534947e+01 -1.78883123e+00 -4.59808598e+01 5.90844405e+00 1.32534947e+01 5.90844405e+00 -1.15865692e+02
-1.16061331e+01 -1.25058753e+00 -3.41939554e+00 -1.25058753e+00 -9.03300030e+00 -1.16145802e+00 -3.41939554e+00 -1.16145802e+00 -4.91701635e+01
-3.06052828e+00 -1.27822984e-01 1.37196314e+00 -1.27822984e-01 2.23950112e+00 2.61496484e+00 1.37196314e+00 2.61496484e+00 -2.98499436e+01
5.05420876e+00 1.79141423e+00 -1.04412649e+00 1.79141423e+00 6.13730717e+00 1.06411638e+00 -1.04412649e+00 1.06411638e+00 -1.85004172e+01
-6.34918857e+00 -1.29032788e+00 3.41815305e+00 -1.29032788e+00 3.18518162e-01 -1.92447430e+00 3.41815305e+00 -1.92447430e+00 -3.57769938e+01
-9.06714410e+00 -1.19135225e+00 -3.33971930e+00 -1.19135225e+00 -8.19008780e+00 5.53078425e+00 -3.33971930e+00 5.53078425e+00 -4.55144815e+01
-3.17273928e+01 4.41429591e+00 7.17728168e-01 4.41429591e+00 -2.41170187e+01 -1.86678297e+01 7.17728168e-01 -1.86678297e+01 -7.78394578e+01
-9.18028180e+00 -1.40405683e+00 -2.55973127e+00 -1.40405683e+00 -9.38860766e+00 -5.36513066e+00 -2.55973127e+00 -5.36513066e+00 -4.59813360e+01
2.03915763e+00 -4.15417412e-03 4.43505242e-01 -4.15417412e-03 -4.70936751e+00 -4.61509198e-01 4.43505242e-01 -4.61509198e-01 -3.21365108e+01
7.60312170e-01 4.23482560e-01 6.97904602e-01 4.23482560e-01 -4.27146177e+00 6.66886779e-01 6.97904602e-01 6.66886779e-01 -3.33102617e+01
9.26693400e-01 1.48223078e+00 1.09567112e+00 1.48223078e+00 -3.67097384e+00 7.33486442e-01 1.09567112e+00 7.33486442e-01 -3.23532264e+01
2.08269284e+00 2.65376613e-01 1.16831613e+00 2.65376613e-01 -4.51092452e+00 -1.68288212e-01 1.16831613e+00 -1.68288212e-01 -3.18496304e+01
-2.34189641e+00 1.12093942e+00 -5.25986403e-03 1.12093942e+00 -3.02007234e+00 1.34733541e+00 -5.25986403e-03 1.34733541e+00 -3.56031709e+01
-1.74576383e+00 2.29794592e+00 5.10137762e-01 2.29794592e+00 -1.96583410e+00 6.76088549e-01 5.10137762e-01 6.76088549e-01 -3.34823902e+01
-3.58388956e+00 7.77330920e-01 -7.37131417e-01 7.77330920e-01 -6.49720117e-01 3.82063536e-01 -7.37131417e-01 3.82063536e-01 -3.44474349e+01
-4.00468612e+00 1.45473143e+00 -2.51248648e-01 1.45473143e+00 -3.28162495e-01 1.12405753e+00 -2.51248648e-01 1.12405753e+00 -3.41325872e+01
-2.59778608e+00 -2.61570197e-01 -4.18179862e-01 -2.61570197e-01 1.27583387e+00 1.54685329e-01 -4.18179862e-01 1.54685329e-01 -3.12865534e+01
-2.20740570e+00 -4.11414800e-01 -7.20782280e-01 -4.11414800e-01 2.05843233e+00 2.89216895e-01 -7.20782280e-01 2.89216895e-01 -2.96738713e+01
-8.14664945e-01 -6.88793615e-01 -9.84809816e-01 -6.88793615e-01 2.63871981e+00 4.54401936e-01 -9.84809816e-01 4.54401936e-01 -2.78568878e+01
3.95657286e-01 -1.34372016e+00 -2.03582065e+00 -1.34372016e+00 2.41562492e+00 -1.83542244e-01 -2.03582065e+00 -1.83542244e-01 -2.63028195e+01
-9.07272577e-01 3.50209787e-01 -7.75977582e-01 3.50209787e-01 3.70108020e+00 8.88013154e-01 -7.75977582e-01 8.88013154e-01 -2.68018351e+01
-4.05181348e-02 -1.58535474e+00 -1.01545712e+00 -1.58535474e+00 1.11280811e+00 -9.44649622e-01 -1.01545712e+00 -9.44649622e-01 -2.83578835e+01
2.68994663e-02 2.03874528e+00 2.20454555e+00 2.03874528e+00 -6.34367263e+00 8.94131098e-01 2.20454555e+00 8.94131098e-01 -3.55332180e+01
-8.95522118e-01 1.13152947e+00 3.12322959e+00 1.13152947e+00 -8.21707988e+00 -1.18989047e+00 3.12322959e+00 -1.18989047e+00 -3.83268121e+01
1.13064134e+00 2.47943503e+00 -1.47472913e-01 2.47943503e+00 -7.45889962e-01 5.22559211e-01 -1.47472913e-01 5.22559211e-01 -2.90828773e+01
3.82482207e+00 2.14481627e+00 -2.61045803e+00 2.14481627e+00 4.84005780e+00 -2.34727427e-01 -2.61045803e+00 -2.34727427e-01 -1.91152694e+01
2.55264161e+00 9.33142168e-01 -3.29729477e+00 9.33142168e-01 5.87871001e+00 -2.56956083e-01 -3.29729477e+00 -2.56956083e-01 -2.05976340e+01
-7.56516854e-01 -8.25233201e-01 -5.27326477e+00 -8.25233201e-01 2.53081028e+00 -2.09250058e+00 -5.27326477e+00 -2.09250058e+00 -2.66893603e+01
-1.11700940e+00 -4.18271947e+00 -7.53519662e+00 -4.18271947e+00 -4.65777636e+00 -4.69374164e+00 -7.53519662e+00 -4.69374164e+00 -3.06256348e+01
-4.56352409e+00 -2.34294896e-01 7.72118572e+00 -2.34294896e-01 -1.53968981e+01 -1.72448506e+00 7.72118572e+00 -1.72448506e+00 -4.69700704e+01
-1.33649236e+01 -1.92064993e+00 9.25057745e+00 -1.92064993e+00 -2.57512477e+01 -3.24731779e+00 9.25057745e+00 -3.24731779e+00 -6.67025846e+01
4.27668741e+00 2.23284024e+00 6.90777302e-01 2.23284024e+00 -1.37083002e+00 -3.02393370e+00 6.90777302e-01 -3.02393370e+00 -2.56701256e+01
1.04637441e+01 3.50718751e+00 -5.56730709e+00 3.50718751e+00 5.89722057e+00 -8.99114884e-01 -5.56730709e+00 -8.99114884e-01 -8.33461881e+00
-1.41367340e+01 -1.10173559e+01 -1.71267433e+01 -1.10173559e+01 -2.83832550e+01 -1.22850780e+01 -1.71267433e+01 -1.22850780e+01 -6.14285851e+00
1.87536976e+01 2.46575439e+00 -1.92540953e+00 2.46575439e+00 1.58158195e+01 -4.47441688e+00 -1.92540953e+00 -4.47441688e+00 1.23107078e+01
-6.61210853e+00 6.30931082e-01 6.04010820e-01 6.30931082e-01 -1.11729805e+01 5.58251405e+00 6.04010820e-01 5.58251405e+00 -4.20793777e+01
-2.46142165e+00 1.37200516e+00 -3.44364373e+00 1.37200516e+00 -6.01488415e+00 3.11872546e+00 -3.44364373e+00 3.11872546e+00 -3.78551362e+01
-3.06640911e+01 -1.36589658e+00 3.58538032e+00 -1.36589658e+00 -4.51393023e+01 -8.74596667e+00 3.58538032e+00 -8.74596667e+00 -1.13392647e+02
-8.89403530e+00 -5.42349599e-01 -5.56819533e-01 -5.42349599e-01 -5.31234640e+00 3.11366938e+00 -5.56819533e-01 3.11366938e+00 -4.50778557e+01
-2.66168571e+00 -2.51746498e-01 1.88636510e+00 -2.51746498e-01 9.20991302e-02 -1.29001496e-01 1.88636510e+00 -1.29001496e-01 -3.29131565e+01
-2.16976979e+00 -9.20193896e-01 1.40809874e+00 -9.20193896e-01 -4.13246500e+00 1.97165307e+00 1.40809874e+00 1.97165307e+00 -3.62583071e+01
4.80421543e-01 2.40105800e-01 2.38595825e+00 2.40105800e-01 1.39538288e-01 -1.10737601e+00 2.38595825e+00 -1.10737601e+00 -2.88670728e+01
-1.55946181e+01 1.95686535e+00 -1.28576438e+00 1.95686535e+00 -1.62234111e+01 -3.80728758e+00 -1.28576438e+00 -3.80728758e+00 -6.32340870e+01
-3.90389669e+00 -1.77482960e+00 -1.64432743e+00 -1.77482960e+00 -8.40268093e+00 4.35163262e+00 -1.64432743e+00 4.35163262e+00 -4.12609649e+01
1.54545972e+01 2.06100519e+00 3.96597356e-01 2.06100519e+00 5.70560169e+00 2.33845766e+00 3.96597356e-01 2.33845766e+00 -1.29865475e+01
1.71256113e+00 -2.11783332e+00 -2.47010991e-01 -2.11783332e+00 6.45466688e+00 -6.16174519e-01 -2.47010991e-01 -6.16174519e-01 -2.01671202e+01
3.76306763e+01 2.21770120e+00 2.71000648e+00 2.21770120e+00 3.54920158e+01 3.02167916e+00 2.71000648e+00 3.02167916e+00 5.49164162e+01
8.81292439e+00 -2.04283237e+00 3.30833554e+00 -2.04283237e+00 1.26341476e+01 -7.24012232e+00 3.30833554e+00 -7.24012232e+00 2.63809643e+01
4.06015360e+00 -4.10639989e+00 -1.82506998e+00 -4.10639989e+00 2.14674354e-01 3.16901207e+00 -1.82506998e+00 3.16901207e+00 -4.03093100e-01
8.33316294e+00 -5.01282578e+00 -6.48684606e-01 -5.01282578e+00 1.76425819e+01 -4.51344734e+00 -6.48684606e-01 -4.51344734e+00 1.29334633e+01
-7.82237768e-01 -1.13877583e+00 1.42237031e+00 -1.13877583e+00 7.76161551e-01 -3.67473900e-01 1.42237031e+00 -3.67473900e-01 -7.62851894e-01
-5.90092242e-01 -3.09824318e-01 4.44427907e-01 -3.09824318e-01 2.11954582e-04 2.20812261e-01 4.44427907e-01 2.20812261e-01 -1.78971693e-01
7.20930636e-01 -7.93777227e-01 -1.65569156e-01 -7.93777227e-01 -3.46843541e-01 -1.51245391e+00 -1.65569156e-01 -1.51245391e+00 -1.14298034e+00
4.65426743e-01 -1.62311506e+00 -1.18011713e+00 -1.62311506e+00 3.65697265e-01 1.36694884e+00 -1.18011713e+00 1.36694884e+00 -1.60004926e+00
6.25347622e+00 3.33008969e+00 8.01509988e-01 3.33008969e+00 -1.46052784e+00 2.06794701e+00 8.01509988e-01 2.06794701e+00 -5.04955268e-01
9.81248518e-01 -3.45139220e-01 5.25211826e-01 -3.45139220e-01 -5.71449598e+00 6.19237234e-01 5.25211826e-01 6.19237234e-01 -4.28321213e-02
-3.75463688e+00 1.35637671e+00 -1.77753158e-01 1.35637671e+00 -3.22801739e-01 -1.49512511e+00 -1.77753158e-01 -1.49512511e+00 6.65296406e-01
-5.45162813e+00 -2.62937140e+00 -1.03613644e+00 -2.62937140e+00 2.18303068e+00 -6.87205116e-01 -1.03613644e+00 -6.87205116e-01 3.31888465e+00
1.65297747e+00 -8.09086859e-03 -8.25300813e-04 -8.09086859e-03 -5.25820446e+00 4.97763511e-04 -8.25300813e-04 4.97763511e-04 -3.31430779e+01
7.98177481e-01 8.58559191e-01 -8.06693546e-03 8.58559191e-01 -3.78243983e+00 4.83683333e-01 -8.06693546e-03 4.83683333e-01 -3.28413353e+01
-2.21114218e-01 2.23337644e+00 6.38421297e-01 2.23337644e+00 -6.46487293e+00 9.87615854e-01 6.38421297e-01 9.87615854e-01 -3.62110171e+01
1.99366724e+00 6.30252630e-01 2.41505429e-01 6.30252630e-01 -6.59109724e+00 -5.45777823e-03 2.41505429e-01 -5.45777823e-03 -3.38189650e+01
-2.85148194e+00 6.99929148e-01 -6.74774172e-03 6.99929148e-01 -2.18807292e+00 1.26759928e+00 -6.74774172e-03 1.26759928e+00 -3.52559624e+01
-3.41905028e+00 2.93069655e+00 7.93969631e-01 2.93069655e+00 -3.70312475e+00 9.60940942e-01 7.93969631e-01 9.60940942e-01 -3.69459305e+01
-6.44904780e+00 1.09134310e+00 1.09676300e-02 1.09134310e+00 -5.58218151e-01 9.35965657e-01 1.09676300e-02 9.35965657e-01 -3.69486952e+01
-4.67601956e+00 2.20854190e+00 9.60987598e-01 2.20854190e+00 1.20177150e-01 1.31152424e+00 9.60987598e-01 1.31152424e+00 -3.40130320e+01
-6.62678063e+00 5.18473610e-01 1.46564706e-02 5.18473610e-01 1.30949977e+00 2.45681301e-01 1.46564706e-02 2.45681301e-01 -3.48526506e+01
-5.86603081e+00 9.34267305e-01 1.95111439e+00 9.34267305e-01 1.57974377e+00 1.17780310e+00 1.95111439e+00 1.17780310e+00 -3.36075068e+01
-5.36659241e+00 -7.97078520e-01 1.63612766e-02 -7.97078520e-01 1.27682751e+00 2.41822965e-01 1.63612766e-02 2.41822965e-01 -3.38024445e+01
-4.50640818e+00 -8.68684571e-01 2.57776049e+00 -8.68684571e-01 2.13694777e+00 1.24810301e-01 2.57776049e+00 1.24810301e-01 -3.19539208e+01
-9.01583958e+00 -2.39426756e+00 1.49557209e-02 -2.39426756e+00 -1.94224387e-01 1.21669364e+00 1.49557209e-02 1.21669364e+00 -3.86795158e+01
-6.22046041e+00 -2.28017098e+00 3.89003706e+00 -2.28017098e+00 -1.47469831e+00 -1.97980207e+00 3.89003706e+00 -1.97980207e+00 -3.67715931e+01
2.11268220e+00 3.24574515e+00 -1.15172532e+00 3.24574515e+00 -2.80475140e+00 1.14517974e+00 -1.15172532e+00 1.14517974e+00 -2.94301772e+01
-1.39085865e+00 7.81930447e-01 -7.26016253e-01 7.81930447e-01 -9.12560129e+00 3.40104271e-02 -7.26016253e-01 3.40104271e-02 -4.01903172e+01
1.01074147e+00 4.49367207e+00 1.07588992e-02 4.49367207e+00 5.57658181e-01 2.12221718e+00 1.07588992e-02 2.12221718e+00 -2.65309212e+01
1.61705619e+00 3.77335635e+00 1.47065850e+00 3.77335635e+00 2.81576592e+00 2.01308334e+00 1.47065850e+00 2.01308334e+00 -2.39252099e+01
6.97532113e+00 4.24666330e-02 2.94645303e+00 4.24666330e-02 8.94853961e+00 2.84702605e+00 2.94645303e+00 2.84702605e+00 -1.13989508e+01
9.52699611e+00 -4.59644794e-01 4.68360791e+00 -4.59644794e-01 1.18139164e+01 -6.87617962e-02 4.68360791e+00 -6.87617962e-02 -4.76822150e+00
1.02589345e+01 -2.02090907e+00 2.66676575e+00 -2.02090907e+00 5.66238022e+00 -5.18558681e+00 2.66676575e+00 -5.18558681e+00 -1.19875035e+01
-3.50430737e+01 4.88803864e-01 6.14410973e+00 4.88803864e-01 -3.86175594e+01 4.65797412e+00 6.14410973e+00 4.65797412e+00 -1.09253597e+02
-4.27599869e+01 -1.19883382e+00 5.20108175e+00 -1.19883382e+00 -4.67171555e+01 5.44118173e-02 5.20108175e+00 5.44118173e-02 -1.26753067e+02
3.56687784e+00 3.13777290e+00 1.93516542e+00 3.13777290e+00 6.21671200e-01 3.94917393e+00 1.93516542e+00 3.94917393e+00 -2.41524429e+01
1.80342573e+01 1.27945764e+00 1.26624718e+00 1.27945764e+00 1.94326053e+01 3.91018336e+00 1.26624718e+00 3.91018336e+00 9.50518966e+00
1.78059132e+01 -4.02020274e+00 1.44987468e+00 -4.02020274e+00 1.52365828e+01 1.83022092e+00 1.44987468e+00 1.83022092e+00 4.15691942e+00
-1.15068211e+00 -2.56780028e-01 -1.78965235e+00 -2.56780028e-01 8.20589036e+00 -2.69667357e-01 -1.78965235e+00 -2.69667357e-01 -2.51351096e+00
9.65039217e+00 -2.18840230e+00 1.97996665e+00 -2.18840230e+00 5.28821704e+00 3.09062164e+00 1.97996665e+00 3.09062164e+00 1.87924051e+00
5.96173763e-01 -6.10896432e+00 -2.80338192e+00 -6.10896432e+00 -1.11303163e+01 -3.78359750e-01 -2.80338192e+00 -3.78359750e-01 -1.75217724e+00
8.85879803e+00 -5.45510900e+00 2.61097479e+00 -5.45510900e+00 -1.59725356e+01 -1.89240068e+00 2.61097479e+00 -1.89240068e+00 5.69716263e+00
-2.79985458e+00 2.87133968e+00 -8.36840737e+00 2.87133968e+00 -1.31002533e+01 -6.07413793e+00 -8.36840737e+00 -6.07413793e+00 -9.95651412e+00
1.94408851e+01 -1.33595854e-01 2.27703631e+00 -1.33595854e-01 3.00626607e+01 5.12971270e+00 2.27703631e+00 5.12971270e+00 4.32902193e+01
-1.83574829e+01 2.47957683e+00 -1.48011386e+00 2.47957683e+00 -1.43193808e+01 1.19534912e+01 -1.48011386e+00 1.19534912e+01 -6.24541817e+01
4.30575060e+00 2.30668553e+00 -2.33718165e+00 2.30668553e+00 1.35381180e+01 2.74324830e+00 -2.33718165e+00 2.74324830e+00 4.54222084e+00
-2.11998761e-01 -1.80769584e+00 2.16326793e+00 -1.80769584e+00 1.39538101e+01 -2.13929087e-01 2.16326793e+00 -2.13929087e-01 5.84341594e+00
-2.97433561e+00 3.69189610e+00 1.38890073e+00 3.69189610e+00 9.43637848e+00 -1.55480951e+00 1.38890073e+00 -1.55480951e+00 1.19894886e+00
-1.37262988e+00 -2.63102633e+00 -1.21844047e+00 -2.63102633e+00 6.21286213e+00 7.61191681e-01 -1.21844047e+00 7.61191681e-01 3.18060914e+00
6.27653790e+00 -2.46849561e+00 3.18934798e-01 -2.46849561e+00 -1.38861165e+01 -9.22259331e-01 3.18934798e-01 -9.22259331e-01 6.50735700e+00
3.12674773e+00 -1.59102678e-01 -2.59400427e+00 -1.59102678e-01 -1.26683750e+01 -4.89552036e-01 -2.59400427e+00 -4.89552036e-01 5.67873859e+00
-4.51992798e+01 1.95307910e+00 -2.84617209e+00 1.95307910e+00 -3.71038437e+01 2.99843222e-01 -2.84617209e+00 2.99843222e-01 -1.18750793e+02
-5.36360893e+01 -1.17063439e+00 -2.69028950e+00 -1.17063439e+00 -5.05846291e+01 5.45590782e+00 -2.69028950e+00 5.45590782e+00 -1.42410583e+02
-3.68064912e+00 -1.54889071e+00 2.04275866e+00 -1.54889071e+00 -2.45196692e+00 2.13364482e+00 2.04275866e+00 2.13364482e+00 -3.61024329e+01
-1.35715027e+01 -6.62770271e-01 2.80146658e+00 -6.62770271e-01 -1.23771398e+01 1.19982373e-01 2.80146658e+00 1.19982373e-01 -5.73921967e+01
3.76391559e+00 1.76893288e+00 -3.98021884e-01 1.76893288e+00 -7.10895598e-01 -1.12858820e+00 -3.98021884e-01 -1.12858820e+00 2.32075259e+00
8.06067840e+00 -2.81438828e-02 1.82764932e+00 -2.81438828e-02 1.14957511e+01 2.89266812e+00 1.82764932e+00 2.89266812e+00 5.40694205e+00
2.53991985e+00 8.85260478e-01 7.50239015e-01 8.85260478e-01 -6.84806633e+00 5.74252486e-01 7.50239015e-01 5.74252486e-01 -2.47115499e+00
-1.82642674e+00 -2.69269398e+00 1.45154378e+00 -2.69269398e+00 -8.93032444e+00 1.90740234e+00 1.45154378e+00 1.90740234e+00 -4.03326912e+01
8.01511645e-01 -5.43368682e-02 1.55039418e+00 -5.43368682e-02 -3.79458094e+00 -3.23267505e-02 1.55039418e+00 -3.23267505e-02 -3.28126831e+01
-1.15410042e+00 -2.88903117e-01 2.14102549e-01 -2.88903117e-01 -2.36903191e+00 2.45506757e+00 2.14102549e-01 2.45506757e+00 -3.45430183e+01
-6.20634699e+00 -2.23897624e+00 -7.64322039e-02 -2.23897624e+00 -8.16888359e+00 4.52634370e+00 -7.64322039e-02 4.52634370e+00 -4.36342297e+01
1.67346470e+01 4.57260066e+00 -3.01589757e+00 4.57260066e+00 1.75244057e+01 3.29926403e+00 -3.01589757e+00 3.29926403e+00 8.11606026e+00
5.29697990e+00 8.27353477e-01 -2.37978807e+00 8.27353477e-01 1.80007722e+01 2.23372792e+00 -2.37978807e+00 2.23372792e+00 -4.26033783e+00
-4.74524796e+00 -4.54105210e+00 -2.35871963e+00 -4.54105210e+00 1.48566480e+01 2.16277847e+00 -2.35871963e+00 2.16277847e+00 6.97220790e+00
-9.02568364e+00 6.33054495e-01 -1.50527203e+00 6.33054495e-01 3.00718784e+00 1.05692901e-01 -1.50527203e+00 1.05692901e-01 5.50269277e+00
-4.70572567e+00 2.70059490e+00 5.26918590e-01 2.70059490e+00 -1.66722763e+00 -1.99053347e-01 5.26918590e-01 -1.99053347e-01 3.17452788e-01
</DataArray>
<DataArray type="Float32" Name="Logarithmic_strain_components" NumberOfComponents="9" format="ascii">
3.61988507e-03 -1.74972568e-03 4.64472587e-04 -1.74972568e-03 3.28144993e-03 1.71895335e-03 4.64472587e-04 1.71895335e-03 -6.04708021e-03
4.28077171e-03 -2.08377789e-03 6.00813524e-04 -2.08377789e-03 4.38540998e-03 2.29887873e-03 6.00813524e-04 2.29887873e-03 -7.58144667e-03
5.26858773e-03 -5.04294861e-04 1.41228284e-03 -5.04294861e-04 6.49901258e-03 -7.34890855e-05 1.41228284e-03 -7.34890855e-05 -1.03903217e-02
3.17902424e-03 -1.40476145e-05 -1.07925650e-03 -1.40476145e-05 4.28280781e-03 -4.94763022e-04 -1.07925650e-03 -4.94763022e-04 -6.60334004e-03
3.35968417e-03 1.17779017e-03 2.93550035e-03 1.17779017e-03 3.98789273e-03 6.96079893e-04 2.93550035e-03 6.96079893e-04 -5.97687997e-03
5.44637106e-03 -2.14532528e-03 -2.46497388e-03 -2.14532528e-03 7.38359256e-03 4.16565235e-03 -2.46497388e-03 4.16565235e-03 -1.07761480e-02
1.05635067e-02 2.92996614e-03 3.47563130e-03 2.92996614e-03 8.89554410e-03 -4.95464378e-03 3.47563130e-03 -4.95464378e-03 -1.68054840e-02
5.31652820e-03 2.76116429e-03 6.02017166e-03 2.76116429e-03 6.16962538e-03 2.93831405e-03 6.02017166e-03 2.93831405e-03 -9.96821269e-03
5.22269029e-03 2.55617546e-04 -3.10355327e-03 2.55617546e-04 5.38549310e-03 3.79713572e-03 -3.10355327e-03 3.79713572e-03 -9.38419846e-03
9.74295801e-03 2.37370594e-04 3.15303623e-03 2.37370594e-04 1.03579527e-02 7.59082974e-03 3.15303623e-03 7.59082974e-03 -1.84792941e-02
1.08221429e-02 5.28471793e-03 -2.08604528e-02 5.28471793e-03 1.40631085e-02 6.49679080e-03 -2.08604528e-02 6.49679080e-03 -2.25506121e-02
1.70272049e-02 1.28004439e-02 -1.97070274e-02 1.28004439e-02 1.42581319e-02 -3.59836954e-03 -1.97070274e-02 -3.59836954e-03 -2.79158363e-02
4.71839894e-06 -3.22370724e-05 3.91430740e-06 -3.22370724e-05 -1.90795618e-06 -6.31138471e-06 3.91430740e-06 -6.31138471e-06 -7.14160512e-06
-3.90508478e-06 -2.49938048e-05 -1.59166193e-05 -2.49938048e-05 6.20753099e-06 -3.99052351e-06 -1.59166193e-05 -3.99052351e-06 -6.81129563e-06
6.97810970e-06 -8.98654753e-06 1.71067511e-05 -8.98654753e-06 1.04160495e-05 9.26488133e-06 1.71067511e-05 9.26488133e-06 -2.20646389e-05
5.25541168e-06 -1.61661292e-05 -1.19473009e-05 -1.61661292e-05 -7.57843327e-06 -1.30318167e-05 -1.19473009e-05 -1.30318167e-05 -2.34089180e-06
2.49904588e-06 1.07435708e-05 1.08473123e-05 1.07435708e-05 4.11852307e-06 1.51107397e-05 1.08473123e-05 1.51107397e-05 -3.28763713e-06
-4.85923465e-06 7.34041259e-06 1.14122622e-05 7.34041259e-06 -8.01439000e-06 -3.45640069e-06 1.14122622e-05 -3.45640069e-06 1.57905488e-05
2.39534802e-06 1.73985995e-06 -2.08297861e-05 1.73985995e-06 1.36296353e-06 -1.89723360e-05 -2.08297861e-05 -1.89723360e-05 -5.35567324e-09
-8.53863003e-06 5.24165944e-06 -1.08782547e-06 5.24165944e-06 -3.55015936e-06 9.93970389e-06 -1.08782547e-06 9.93970389e-06 1.39429412e-05
8.48456845e-03 1.51285781e-06 3.27571435e-03 1.51285781e-06 8.74236645e-03 -1.04685593e-03 3.27571435e-03 -1.04685593e-03 -1.48745067e-02
8.71362048e-03 -8.56762217e-05 2.78441649e-03 -8.56762217e-05 8.22156668e-03 1.47142680e-04 2.78441649e-03 1.47142680e-04 -1.46259037e-02
8.49140057e-03 -2.68307239e-03 3.70905263e-03 -2.68307239e-03 8.44761397e-03 9.38627953e-04 3.70905263e-03 9.38627953e-04 -1.45934202e-02
7.97290425e-03 5.56853065e-05 3.38959275e-03 5.56853065e-05 9.12760687e-03 -1.53651272e-03 3.38959275e-03 -1.53651272e-03 -1.47814318e-02
1.18334894e-02 -6.62864750e-08 2.35930190e-03 -6.62864750e-08 7.48097477e-03 -1.94937340e-04 2.35930190e-03 -1.94937340e-04 -1.65979723e-02
1.14831878e-02 1.15574951e-04 4.51670792e-04 1.15574951e-04 7.74131587e-03 2.21958014e-03 4.51670792e-04 2.21958014e-03 -1.65793325e-02
1.15921358e-02 2.34647317e-04 4.25070902e-03 2.34647317e-04 8.36352835e-03 8.88741917e-04 4.25070902e-03 8.88741917e-04 -1.71340120e-02
1.19558703e-02 1.71372572e-04 4.45361398e-03 1.71372572e-04 8.59299919e-03 -2.10507447e-03 4.45361398e-03 -2.10507447e-03 -1.76945073e-02
9.59446072e-03 -2.28472432e-03 4.20373143e-03 -2.28472432e-03 6.58278004e-03 2.25971771e-04 4.20373143e-03 2.25971771e-04 -1.39171719e-02
9.54855199e-03 -3.95638228e-03 2.26000916e-03 -3.95638228e-03 7.51687709e-03 8.58848965e-04 2.26000916e-03 8.58848965e-04 -1.46487323e-02
1.04077058e-02 6.06604750e-04 -1.31094176e-03 6.06604750e-04 7.58941588e-03 1.21391231e-03 -1.31094176e-03 1.21391231e-03 -1.55208055e-02
1.06188391e-02 9.20245604e-04 2.37349085e-03 9.20245604e-04 8.77152511e-03 2.78813683e-03 2.37349085e-03 2.78813683e-03 -1.67779396e-02
1.04376827e-02 9.85532006e-05 1.52983837e-03 9.85532006e-05 5.18361432e-03 1.62585068e-03 1.52983837e-03 1.62585068e-03 -1.33973646e-02
1.02353180e-02 -2.00608061e-03 -1.61702614e-03 -2.00608061e-03 7.65189138e-03 -1.67972938e-03 -1.61702614e-03 -1.67972938e-03 -1.53056037e-02
9.42469179e-03 -5.24247182e-04 -6.23247732e-04 -5.24247182e-04 6.90355583e-03 7.15354679e-04 -6.23247732e-04 7.15354679e-04 -1.40822304e-02
9.56057804e-03 -6.99083637e-04 -2.14780339e-03 -6.99083637e-04 8.00007913e-03 8.49901431e-04 -2.14780339e-03 8.49901431e-04 -1.52061258e-02
9.89976805e-03 1.17814876e-04 -1.74700329e-03 1.17814876e-04 4.79897996e-03 -5.36296848e-04 -1.74700329e-03 -5.36296848e-04 -1.25419837e-02
1.00865693e-02 1.02003199e-03 -1.05985325e-03 1.02003199e-03 9.27357329e-03 -3.03708453e-04 -1.05985325e-03 -3.03708453e-04 -1.67343442e-02
8.47915187e-03 -1.48405181e-06 -2.13967450e-03 -1.48405181e-06 6.08217251e-03 4.72453983e-04 -2.13967450e-03 4.72453983e-04 -1.25951034e-02
8.46478535e-03 -1.91700827e-03 -2.96433269e-03 -1.91700827e-03 6.31997758e-03 -1.27363854e-03 -2.96433269e-03 -1.27363854e-03 -1.26284036e-02
7.88507494e-03 8.35343511e-04 1.03861062e-03 8.35343511e-04 5.13862725e-03 -1.56891114e-03 1.03861062e-03 -1.56891114e-03 -1.10509051e-02
9.41726798e-03 1.29731106e-03 2.20005477e-05 1.29731106e-03 8.34013952e-03 4.57546084e-04 2.20005477e-05 4.57546084e-04 -1.52782387e-02
6.68336940e-03 2.47959055e-04 -3.87256988e-03 2.47959055e-04 5.02034579e-03 3.92891896e-04 -3.87256988e-03 3.92891896e-04 -1.00179773e-02
7.03705032e-03 -5.72440276e-04 -2.23821486e-03 -5.72440276e-04 6.94066752e-03 -8.77320093e-04 -2.23821486e-03 -8.77320093e-04 -1.20381847e-02
7.11818296e-03 1.54132239e-03 1.42574275e-03 1.54132239e-03 4.15456528e-03 -1.59646160e-03 1.42574275e-03 -1.59646160e-03 -9.43421759e-03
8.49558390e-03 1.20950536e-03 2.44750714e-04 1.20950536e-03 6.92055700e-03 -1.47957916e-03 2.44750714e-04 -1.47957916e-03 -1.30403405e-02
5.88907208e-03 2.11704022e-03 -3.04957246e-03 2.11704022e-03 4.05680947e-03 -2.92749333e-04 -3.04957246e-03 -2.92749333e-04 -8.39776872e-03
6.79357757e-03 1.60165648e-03 -1.27500214e-03 1.60165648e-03 5.76259696e-03 -3.46435991e-05 -1.27500214e-03 -3.46435991e-05 -1.06951720e-02
6.80739072e-03 -4.47512299e-03 8.07046800e-03 -4.47512299e-03 9.05961392e-03 -1.21757026e-03 8.07046800e-03 -1.21757026e-03 -1.34534086e-02
5.61283843e-03 -2.88732094e-03 5.30332141e-03 -2.88732094e-03 9.82979848e-03 -1.02018422e-03 5.30332141e-03 -1.02018422e-03 -1.32247491e-02
1.28533819e-02 -1.46449802e-03 9.50541580e-03 -1.46449802e-03 1.00153476e-02 1.78351408e-03 9.50541580e-03 1.78351408e-03 -1.97956203e-02
1.20492764e-02 -2.32323113e-04 1.00245032e-02 -2.32323113e-04 9.10058548e-03 -1.09691170e-03 1.00245032e-02 -1.09691170e-03 -1.81075139e-02
1.00639381e-02 -1.16342507e-03 4.44601679e-03 -1.16342507e-03 9.49495206e-03 -2.50511275e-03 4.44601679e-03 -2.50511275e-03 -1.69675692e-02
1.11686110e-02 1.34280727e-03 1.87603892e-03 1.34280727e-03 1.02543054e-02 -3.28002109e-03 1.87603892e-03 -3.28002109e-03 -1.85023578e-02
1.34948075e-02 -2.69048388e-03 -1.45729474e-02 -2.69048388e-03 1.20363747e-02 5.40983630e-04 -1.45729474e-02 5.40983630e-04 -2.29092225e-02
8.47910544e-03 1.80724390e-03 -8.36142771e-03 1.80724390e-03 8.17658593e-03 -2.40288808e-03 -8.36142771e-03 -2.40288808e-03 -1.43268025e-02
1.28941375e-02 4.22088255e-04 -3.07211690e-03 4.22088255e-04 1.42497527e-02 3.52076381e-03 -3.07211690e-03 3.52076381e-03 -2.41871411e-02
9.70421527e-03 -1.37722014e-03 -1.17345701e-02 -1.37722014e-03 6.66775301e-03 2.42668975e-03 -1.17345701e-02 2.42668975e-03 -1.43941615e-02
1.19631956e-02 -8.10406651e-04 -1.64182083e-03 -8.10406651e-04 1.20873060e-02 1.82645624e-03 -1.64182083e-03 1.82645624e-03 -2.11331523e-02
9.88150388e-03 6.35253702e-04 -3.64933111e-03 6.35253702e-04 9.99123137e-03 4.72835083e-04 -3.64933111e-03 4.72835083e-04 -1.77814001e-02
1.08225802e-02 2.90698881e-04 -1.63452909e-03 2.90698881e-04 1.03706201e-02 4.73584951e-04 -1.63452909e-03 4.73584951e-04 -1.83318574e-02
1.00248442e-02 1.16626814e-03 -2.49950850e-03 1.16626814e-03 8.95034336e-03 -3.60560269e-03 -2.49950850e-03 -3.60560269e-03 -1.69043131e-02
5.48849107e-03 -2.27105962e-03 8.62741889e-03 -2.27105962e-03 8.70827113e-03 -1.50716731e-04 8.62741889e-03 -1.50716731e-04 -1.22059645e-02
3.02226195e-03 2.63457041e-04 6.23140240e-03 2.63457041e-04 8.02972098e-03 3.43506190e-03 6.23140240e-03 3.43506190e-03 -9.19346127e-03
1.24846862e-02 -1.65458358e-03 9.58818131e-03 -1.65458358e-03 8.81438044e-03 -5.22275432e-03 9.58818131e-03 -5.22275432e-03 -1.80675756e-02
8.25450988e-03 1.91976869e-03 1.22218317e-02 1.91976869e-03 8.15132062e-03 -8.86679301e-03 1.22218317e-02 -8.86679301e-03 -1.36155242e-02
1.09120127e-02 -5.28808648e-03 1.43233433e-02 -5.28808648e-03 1.34524126e-02 -1.49412546e-02 1.43233433e-02 -1.49412546e-02 -2.19787788e-02
1.65570008e-02 -2.02105423e-03 2.31216943e-03 -2.02105423e-03 1.05529126e-02 -9.36041204e-03 2.31216943e-03 -9.36041204e-03 -2.38745596e-02
-5.11521241e-03 -1.82343181e-02 -4.06235568e-02 -1.82343181e-02 -5.39606321e-04 -3.31761874e-02 -4.06235568e-02 -3.31761874e-02 1.02858692e-02
6.12367682e-03 -1.09280789e-03 -8.75654506e-03 -1.09280789e-03 2.25597084e-03 -6.49775906e-03 -8.75654506e-03 -6.49775906e-03 -5.93682782e-03
3.10675328e-03 -7.70386500e-04 3.19967354e-03 -7.70386500e-04 5.36970668e-03 4.04283016e-03 3.19967354e-03 4.04283016e-03 -7.16693686e-03
2.50267680e-03 -1.38061919e-03 5.77421804e-03 -1.38061919e-03 4.96527564e-03 1.15755561e-03 5.77421804e-03 1.15755561e-03 -6.20587042e-03
6.17577741e-03 -5.65745111e-04 8.49937211e-03 -5.65745111e-04 7.19188883e-03 5.79310876e-03 8.49937211e-03 5.79310876e-03 -1.06108148e-02
5.80021786e-03 5.49581760e-04 -1.94069842e-04 5.49581760e-04 8.49219225e-03 -3.25137436e-04 -1.94069842e-04 -3.25137436e-04 -1.16494898e-02
3.25074635e-03 1.54914116e-03 2.95104051e-04 1.54914116e-03 4.06612281e-03 -8.96511294e-04 2.95104051e-04 -8.96511294e-04 -6.18852209e-03
8.74080838e-03 3.82371000e-03 -2.86882331e-03 3.82371000e-03 1.07017610e-02 7.00468780e-03 -2.86882331e-03 7.00468780e-03 -1.64329283e-02
7.25806848e-03 2.74233683e-03 3.25670873e-03 2.74233683e-03 1.20981854e-02 3.34888930e-03 3.25670873e-03 3.34888930e-03 -1.63703673e-02
3.14631344e-03 -6.31271279e-04 2.27435096e-03 -6.31271279e-04 6.50039106e-03 1.06325217e-02 2.27435096e-03 1.06325217e-02 -8.42087634e-03
1.73307257e-02 -3.01861588e-03 1.97802964e-02 -3.01861588e-03 1.28062163e-02 1.10004224e-02 1.97802964e-02 1.10004224e-02 -2.76629319e-02
1.13045958e-02 -4.46858688e-04 -1.01185601e-02 -4.46858688e-04 1.41147580e-02 -7.00106723e-03 -1.01185601e-02 -7.00106723e-03 -2.18687795e-02
3.72503581e-03 -2.50396144e-04 3.28185182e-03 -2.50396144e-04 6.36625383e-03 3.00490612e-03 3.28185182e-03 3.00490612e-03 -8.80950573e-03
1.07558682e-02 6.04700774e-03 -1.36005529e-03 6.04700774e-03 1.30708704e-02 3.77118865e-03 -1.36005529e-03 3.77118865e-03 -2.00005807e-02
8.59372341e-03 -9.69233748e-04 7.66393729e-03 -9.69233748e-04 1.48428902e-02 -6.35304861e-03 7.66393729e-03 -6.35304861e-03 -2.01686211e-02
1.43043301e-02 -2.66074203e-04 -1.03436545e-02 -2.66074203e-04 1.48086618e-02 1.07107782e-02 -1.03436545e-02 1.07107782e-02 -2.50527989e-02
1.28685124e-02 6.14133353e-03 3.87541143e-03 6.14133353e-03 1.66648853e-02 -2.52810294e-02 3.87541143e-03 -2.52810294e-02 -2.60925281e-02
1.54013867e-02 -1.43160655e-03 -2.59998697e-03 -1.43160655e-03 1.09002168e-02 -4.93057635e-03 -2.59998697e-03 -4.93057635e-03 -2.28259203e-02
1.51845161e-02 7.91427738e-07 1.06101634e-03 7.91427738e-07 7.47095770e-03 -1.19678979e-03 1.06101634e-03 -1.19678979e-03 -1.94482235e-02
1.40447626e-02 9.24989436e-04 2.06062669e-03 9.24989436e-04 8.20746634e-03 9.51878617e-04 2.06062669e-03 9.51878617e-04 -1.91610283e-02
1.43921050e-02 3.40384935e-03 2.28483266e-03 3.40384935e-03 8.93212488e-03 1.68721566e-03 2.28483266e-03 1.68721566e-03 -2.00392043e-02
1.61127867e-02 5.53337260e-04 3.16793745e-03 5.53337260e-04 7.96414935e-03 -1.96549012e-04 3.16793745e-03 -1.96549012e-04 -2.06269277e-02
1.11506560e-02 1.95149408e-03 6.41413106e-04 1.95149408e-03 9.81857069e-03 2.18659510e-03 6.41413106e-04 2.18659510e-03 -1.81807578e-02
1.08621877e-02 4.60275993e-03 7.15566159e-04 4.60275993e-03 9.94432997e-03 8.01138864e-04 7.15566159e-04 8.01138864e-04 -1.79675212e-02
8.13921192e-03 1.22334086e-03 -1.64482096e-03 1.22334086e-03 1.04032799e-02 6.71494339e-04 -1.64482096e-03 6.71494339e-04 -1.61169679e-02
7.59999536e-03 2.49929887e-03 -6.58889368e-04 2.49929887e-03 9.99303302e-03 9.75362162e-04 -6.58889368e-04 9.75362162e-04 -1.52937061e-02
6.50882861e-03 -1.16141746e-04 -1.03423587e-03 -1.16141746e-04 9.49036283e-03 -1.10398492e-04 -1.03423587e-03 -1.10398492e-04 -1.38999140e-02
5.77245775e-03 -5.90448252e-04 -1.08101255e-03 -5.90448252e-04 8.70012766e-03 4.06637871e-04 -1.08101255e-03 4.06637871e-04 -1.25550738e-02
6.03796321e-03 -7.66356039e-04 -1.57018148e-03 -7.66356039e-04 8.29079840e-03 6.57889121e-04 -1.57018148e-03 6.57889121e-04 -1.24145742e-02
5.73375449e-03 -1.61402160e-03 -2.31831257e-03 -1.61402160e-03 7.06132624e-03 -1.15283729e-04 -2.31831257e-03 -1.15283729e-04 -1.10500661e-02
5.60363522e-03 4.40758507e-04 -1.20915624e-03 4.40758507e-04 8.30191048e-03 1.67841761e-03 -1.20915624e-03 1.67841761e-03 -1.20373662e-02
6.13780424e-03 -1.67716201e-03 -9.26705077e-04 -1.67716201e-03 6.73917972e-03 -6.76780473e-04 -9.26705077e-04 -6.76780473e-04 -1.11746897e-02
1.79175908e-02 4.69033862e-03 7.95927996e-03 4.69033862e-03 8.98821821e-03 1.72284141e-04 7.95927996e-03 1.72284141e-04 -2.29916046e-02
1.91505654e-02 2.84771679e-03 1.05155259e-02 2.84771679e-03 1.00030119e-02 -4.52537322e-03 1.05155259e-02 -4.52537322e-03 -2.49063745e-02
1.22334965e-02 5.31572441e-03 -9.20668863e-04 5.31572441e-03 8.81870947e-03 6.14806646e-04 -9.20668863e-04 6.14806646e-04 -1.80918769e-02
6.03797805e-03 3.19613345e-03 -3.36475765e-03 3.19613345e-03 6.49369258e-03 -2.65319250e-05 -3.36475765e-03 -2.65319250e-05 -1.06380380e-02
3.52617939e-03 4.16744351e-04 -3.35494564e-03 4.16744351e-04 5.76324744e-03 -2.81051109e-04 -3.35494564e-03 -2.81051109e-04 -7.97155646e-03
3.16018039e-03 -1.39082509e-03 -5.93089168e-03 -1.39082509e-03 5.16844221e-03 -1.54902971e-03 -5.93089168e-03 -1.54902971e-03 -7.23057745e-03
3.69051906e-03 -3.30090969e-03 -6.16854918e-03 -3.30090969e-03 4.38474912e-03 -3.57568078e-03 -6.16854918e-03 -3.57568078e-03 -7.07488856e-03
2.03522164e-02 -1.05720056e-03 2.06137197e-02 -1.05720056e-03 6.67689461e-03 -5.11242936e-03 2.06137197e-02 -5.11242936e-03 -2.29561903e-02
2.16637937e-02 -4.09721506e-03 2.12086731e-02 -4.09721506e-03 8.90730709e-03 -6.39731313e-03 2.12086731e-02 -6.39731313e-03 -2.66693197e-02
1.34819496e-02 4.78351221e-03 8.16454684e-04 4.78351221e-03 6.38615798e-03 -8.65665962e-03 8.16454684e-04 -8.65665962e-03 -1.68531298e-02
4.79100425e-03 3.43183273e-03 -5.75450792e-03 3.43183273e-03 2.00210522e-03 -3.15781109e-03 -5.75450792e-03 -3.15781109e-03 -5.45212510e-03
6.08557835e-04 -1.01768170e-02 -1.30837671e-02 -1.01768170e-02 -5.68347890e-03 -1.22346282e-02 -1.30837671e-02 -1.22346282e-02 6.47659833e-03
1.17482268e-04 7.21452766e-04 -8.04107098e-04 7.21452766e-04 4.27863966e-04 -2.16456363e-04 -8.04107098e-04 -2.16456363e-04 1.21908786e-05
1.87881461e-02 3.11556278e-03 -4.68250178e-03 3.11556278e-03 1.16452961e-02 1.10296649e-02 -4.68250178e-03 1.10296649e-02 -2.54112789e-02
1.91687169e-02 3.88829946e-03 -1.24810698e-02 3.88829946e-03 1.63549784e-02 6.86388634e-03 -1.24810698e-02 6.86388634e-03 -3.02935857e-02
2.00908869e-02 1.40296086e-03 2.76653492e-03 1.40296086e-03 1.21853808e-02 -1.15790265e-02 2.76653492e-03 -1.15790265e-02 -2.95572216e-02
1.85748250e-02 -1.32043741e-03 -2.05775610e-03 -1.32043741e-03 2.33601813e-02 5.87398078e-03 -2.05775610e-03 5.87398078e-03 -3.60591281e-02
1.85555508e-02 -1.15026181e-03 1.34815287e-03 -1.15026181e-03 2.31197835e-02 -3.25663242e-03 1.34815287e-03 -3.25663242e-03 -3.55289131e-02
1.97517707e-02 -2.90575589e-03 5.74295339e-03 -2.90575589e-03 1.87848059e-02 6.93991466e-03 5.74295339e-03 6.93991466e-03 -3.29799079e-02
1.92970037e-02 1.14461075e-03 5.25774527e-03 1.14461075e-03 1.94888078e-02 -9.60209174e-04 5.25774527e-03 -9.60209174e-04 -3.30051482e-02
1.70856623e-02 5.58020279e-03 -5.70211210e-04 5.58020279e-03 1.97984772e-02 -5.54798933e-03 -5.70211210e-04 -5.54798933e-03 -3.23829106e-02
1.86714565e-02 -3.92125273e-03 -2.29342892e-03 -3.92125273e-03 1.48903569e-02 8.95323814e-03 -2.29342892e-03 8.95323814e-03 -2.87511838e-02
1.21011648e-02 3.07960570e-03 1.66965798e-03 3.07960570e-03 4.39481676e-03 -4.13927675e-03 1.66965798e-03 -4.13927675e-03 -1.39444810e-02
9.75253916e-03 -5.07425358e-03 -2.08363438e-03 -5.07425358e-03 7.15268584e-03 -1.99139450e-03 -2.08363438e-03 -1.99139450e-03 -1.42471120e-02
-6.45721564e-03 6.89558778e-03 3.79105122e-03 6.89558778e-03 -2.77806446e-03 -1.13990987e-02 3.79105122e-03 -1.13990987e-02 1.17549291e-02
-1.18302985e-03 -3.98779800e-03 4.31831041e-03 -3.98779800e-03 -7.64187193e-04 -1.94485541e-02 4.31831041e-03 -1.94485541e-02 4.10134112e-03
1.91869812e-03 -3.12632916e-03 -1.21122875e-03 -3.12632916e-03 -2.04707125e-03 4.64016019e-03 -1.21122875e-03 4.64016019e-03 6.93951079e-04
-1.30186005e-03 -6.45793796e-03 -2.02250843e-03 -6.45793796e-03 8.33094586e-04 -8.82456816e-04 -2.02250843e-03 -8.82456816e-04 1.15726975e-03
-1.55474427e-05 -5.45660150e-05 6.81622405e-05 -5.45660150e-05 2.19678859e-05 -1.81713822e-05 6.81622405e-05 -1.81713822e-05 -1.48961963e-05
-1.11364880e-05 -1.53292276e-05 2.15772234e-05 -1.53292276e-05 2.96617714e-06 1.03308212e-05 2.15772234e-05 1.03308212e-05 -1.38635232e-06
1.99619972e-05 -3.80033998e-05 -8.00272755e-06 -3.80033998e-05 -5.30320995e-06 -7.22711411e-05 -8.00272755e-06 -7.22711411e-05 -2.44421772e-05
1.43649904e-05 -7.80505579e-05 -5.67558600e-05 -7.80505579e-05 1.19462111e-05 6.57976052e-05 -5.67558600e-05 6.57976052e-05 -3.50960290e-05
1.52092424e-04 1.31662808e-04 1.40418855e-05 1.31662808e-04 -8.88833929e-05 6.69626781e-05 1.40418855e-05 6.69626781e-05 -2.26180094e-05
4.25035418e-05 -1.64723406e-05 2.51186301e-05 -1.64723406e-05 -1.17937005e-04 2.98572716e-05 2.51186301e-05 2.98572716e-05 1.77148362e-05
-7.64513097e-05 6.53508396e-05 -8.87607371e-06 6.53508396e-05 5.88678540e-06 -7.17940420e-05 -8.87607371e-06 -7.17940420e-05 2.96975450e-05
-1.61626153e-04 -2.74013015e-04 -3.71941242e-05 -2.74013015e-04 6.03677612e-05 -2.76553595e-05 -3.71941242e-05 -2.76553595e-05 1.12761385e-04
1.63983684e-02 -9.02160536e-07 -1.42972567e-08 -9.02160536e-07 7.86949322e-03 -4.77393769e-08 -1.42972567e-08 -4.77393769e-08 -2.08192002e-02
1.45453000e-02 2.00437661e-03 -4.05470928e-07 2.00437661e-03 8.98553059e-03 1.10685499e-03 -4.05470928e-07 1.10685499e-03 -2.02319706e-02
1.63107708e-02 5.13236428e-03 1.44115824e-03 5.13236428e-03 8.41292948e-03 2.17841537e-03 1.44115824e-03 2.17841537e-03 -2.12645191e-02
1.82826025e-02 1.71133823e-03 2.90668308e-04 1.71133823e-03 7.41325854e-03 -5.62626155e-07 2.90668308e-04 -5.62626155e-07 -2.20003733e-02
1.08440020e-02 1.54816109e-03 -2.15208047e-06 1.54816109e-03 1.09845889e-02 2.33969453e-03 -2.15208047e-06 2.33969453e-03 -1.88937942e-02
1.13953680e-02 5.45278162e-03 1.66558361e-03 5.45278162e-03 1.03643050e-02 1.92863937e-03 1.66558361e-03 1.92863937e-03 -1.88459456e-02
7.41041033e-03 1.77394092e-03 -1.40752309e-06 1.77394092e-03 1.20698265e-02 1.52218272e-03 -1.40752309e-06 1.52218272e-03 -1.69461714e-02
7.04516622e-03 3.45586723e-03 1.39554107e-03 3.45586723e-03 1.06692745e-02 2.06959475e-03 1.39554107e-03 2.06959475e-03 -1.53782682e-02
5.49925305e-03 9.68061737e-04 -3.94965127e-07 9.68061737e-04 1.15993731e-02 3.63746076e-04 -3.94965127e-07 3.63746076e-04 -1.48779573e-02
4.87671432e-03 1.35298639e-03 2.56126717e-03 1.35298639e-03 1.00293399e-02 1.44346413e-03 2.56126717e-03 1.44346413e-03 -1.30021989e-02
5.89216268e-03 -1.12652808e-03 -1.23745849e-08 -1.12652808e-03 1.05460738e-02 4.14380294e-04 -1.23745849e-08 4.14380294e-04 -1.43209943e-02
4.70229267e-03 -8.44342594e-04 3.18834407e-03 -8.44342594e-04 8.76742613e-03 5.75782924e-05 3.18834407e-03 5.75782924e-05 -1.17695038e-02
5.74323442e-03 -3.33957514e-03 1.79751078e-06 -3.33957514e-03 1.13922292e-02 1.93739182e-03 1.79751078e-06 1.93739182e-03 -1.50164496e-02
5.28014509e-03 -2.42981128e-03 4.47732001e-03 -2.42981128e-03 8.39975290e-03 -1.83705945e-03 4.47732001e-03 -1.83705945e-03 -1.20299826e-02
1.70181955e-02 7.92200712e-03 -2.95713980e-03 7.92200712e-03 1.19616180e-02 3.19206394e-03 -2.95713980e-03 3.19206394e-03 -2.46888087e-02
2.04083128e-02 9.48819070e-04 -1.06830458e-03 9.48819070e-04 1.39894560e-02 -3.10033101e-06 -1.06830458e-03 -3.10033101e-06 -2.95601655e-02
1.07774278e-02 1.03306193e-02 -3.86381595e-04 1.03306193e-02 8.88081314e-03 4.09974449e-03 -3.86381595e-04 4.09974449e-03 -1.67262515e-02
5.45844674e-03 4.81132651e-03 1.95687474e-03 4.81132651e-03 6.68865070e-03 2.56047497e-03 1.95687474e-03 2.56047497e-03 -1.04299432e-02
2.24572953e-03 4.78971451e-05 2.44841841e-03 4.78971451e-05 4.30991611e-03 2.47697765e-03 2.44841841e-03 2.47697765e-03 -5.45334897e-03
7.67954898e-04 -1.44488402e-03 2.19961605e-03 -1.44488402e-03 2.85065848e-03 4.46568010e-05 2.19961605e-03 4.46568010e-05 -2.84670966e-03
1.73560780e-03 -2.81448242e-03 1.26608834e-03 -2.81448242e-03 1.57673952e-03 -2.15749850e-03 1.26608834e-03 -2.15749850e-03 -2.70912400e-03
2.26757601e-02 4.90318635e-04 1.31524578e-02 4.90318635e-04 2.13569077e-02 7.88126932e-03 1.31524578e-02 7.88126932e-03 -3.96275893e-02
2.73898393e-02 -2.99226097e-03 1.19712874e-02 -2.99226097e-03 2.45514065e-02 3.72100294e-06 1.19712874e-02 3.72100294e-06 -4.69225571e-02
9.10567942e-03 3.05494075e-03 4.06112056e-03 3.05494075e-03 7.47181553e-03 7.04987363e-03 4.06112056e-03 7.04987363e-03 -1.41325658e-02
2.12076067e-03 8.11057333e-04 1.28691306e-03 8.11057333e-04 1.76548358e-03 2.53348524e-03 1.28691306e-03 2.53348524e-03 -2.78604662e-03
1.91980045e-04 -1.19780812e-03 1.84411532e-04 -1.19780812e-03 4.10172328e-04 1.27918658e-04 1.84411532e-04 1.27918658e-04 -1.75045207e-04
-2.49210317e-04 -5.51129138e-04 -1.27756128e-03 -5.51129138e-04 6.94792114e-04 -1.19844553e-05 -1.27756128e-03 -1.19844553e-05 -2.85875501e-04
7.68221907e-05 -4.19152508e-04 1.62873832e-04 -4.19152508e-04 -3.23155004e-05 2.10141116e-04 1.62873832e-04 2.10141116e-04 1.15000705e-04
2.60030101e-04 -1.70605368e-03 -1.24932957e-03 -1.70605368e-03 -4.14930590e-04 -1.81850191e-05 -1.24932957e-03 -1.81850191e-05 1.70124804e-04
3.39804858e-04 -3.42702318e-04 4.59448565e-04 -3.42702318e-04 -8.07064236e-04 -2.65659100e-05 4.59448565e-04 -2.65659100e-05 4.82749354e-04
2.77117384e-03 -1.22865837e-03 -3.98045848e-03 -1.22865837e-03 -1.79377253e-03 -8.53160326e-03 -3.98045848e-03 -8.53160326e-03 -6.88770087e-05
-1.24550605e-03 -1.10910615e-03 9.64458100e-04 -1.10910615e-03 7.32355056e-05 9.96497925e-04 9.64458100e-04 9.96497925e-04 2.05760496e-03
5.60076814e-03 2.90020299e-03 -3.09478911e-03 2.90020299e-03 8.91103409e-03 1.24896811e-02 -3.09478911e-03 1.24896811e-02 -1.32533256e-02
-3.76957044e-05 -3.19433699e-06 -1.98946655e-05 -3.19433699e-06 3.13594156e-04 7.35473028e-04 -1.98946655e-05 7.35473028e-04 -2.31400706e-06
-2.33430233e-04 -4.09296959e-04 1.34156779e-04 -4.09296959e-04 4.07676746e-04 -1.05871392e-05 1.34156779e-04 -1.05871392e-05 1.00865344e-04
-9.53607209e-05 1.74068853e-04 7.53651275e-05 1.74068853e-04 1.84090426e-04 -7.26940525e-05 7.53651275e-05 -7.26940525e-05 3.83057488e-06
-7.10202171e-05 -1.04527031e-04 -5.65598129e-05 -1.04527031e-04 1.27115706e-04 3.66175072e-05 -5.65598129e-05 3.66175072e-05 3.67841553e-05
1.21590274e-04 -1.04357692e-04 -1.82122421e-05 -1.04357692e-04 -2.73518526e-04 -4.63059605e-05 -1.82122421e-05 -4.63059605e-05 1.27080570e-04
1.48881246e-04 -1.69897714e-04 -1.47940547e-04 -1.69897714e-04 -3.92981885e-04 -2.69682623e-05 -1.47940547e-04 -2.69682623e-05 2.18776890e-04
3.25248949e-02 6.02020090e-03 -1.14830844e-02 6.02020090e-03 3.75036299e-02 5.30064572e-05 -1.14830844e-02 5.30064572e-05 -6.23163283e-02
3.71033475e-02 -6.22496894e-03 -9.21566132e-03 -6.22496894e-03 3.51407267e-02 2.07771305e-02 -9.21566132e-03 2.07771305e-02 -6.46466017e-02
2.29687256e-02 -7.68964703e-03 8.87905962e-03 -7.68964703e-03 2.51295039e-02 9.35067392e-03 8.87905962e-03 9.35067392e-03 -4.09504163e-02
2.47474667e-02 -7.14494672e-04 8.36833846e-03 -7.14494672e-04 3.05313999e-02 -7.53554923e-06 8.36833846e-03 -7.53554923e-06 -4.77493554e-02
1.06235297e-04 2.99964559e-05 -1.86879606e-05 2.99964559e-05 -6.18595668e-05 -6.47335291e-05 -1.86879606e-05 -6.47335291e-05 8.49481148e-06
8.45612235e-04 -6.34695064e-04 2.01215347e-04 -6.34695064e-04 -1.59367439e-04 2.54338520e-04 2.01215347e-04 2.54338520e-04 -3.53891436e-04
8.83505309e-05 4.23562565e-05 3.58431553e-05 4.23562565e-05 -1.37120598e-04 2.78360840e-05 3.58431553e-05 2.78360840e-05 -3.17315767e-05
2.76477030e-02 -9.23489418e-03 3.87591450e-03 -9.23489418e-03 1.58920651e-02 9.15948488e-03 3.87591450e-03 9.15948488e-03 -3.72703224e-02
2.68965177e-02 -4.71686712e-03 9.67101380e-03 -4.71686712e-03 1.90162882e-02 1.83325647e-05 9.67101380e-03 1.83325647e-05 -3.91183086e-02
1.61143672e-02 4.30098723e-03 1.11703074e-03 4.30098723e-03 1.71685033e-02 6.68555126e-03 1.11703074e-03 6.68555126e-03 -2.85455482e-02
1.89980478e-02 -2.70978786e-03 -2.44347670e-03 -2.70978786e-03 1.44459032e-02 1.14432527e-02 -2.44347670e-03 1.14432527e-02 -2.86310203e-02
7.30892306e-03 1.07950578e-03 -3.17041297e-03 1.07950578e-03 2.90493795e-03 5.64868166e-03 -3.17041297e-03 5.64868166e-03 -8.10087146e-03
4.12838362e-03 -5.60765777e-03 -3.17743025e-03 -5.60765777e-03 7.12534133e-03 4.04418469e-03 -3.17743025e-03 4.04418469e-03 -9.06909909e-03
-1.83391685e-03 -2.99596952e-03 -7.16924202e-04 -2.99596952e-03 1.44112317e-03 5.13974403e-04 -7.16924202e-04 5.13974403e-04 7.72665742e-04
-3.79138833e-04 -7.82408897e-05 -7.64569522e-05 -7.82408897e-05 1.50436914e-04 -8.41696692e-06 -7.64569522e-05 -8.41696692e-06 2.49251269e-04
-8.92238822e-05 1.29469336e-04 2.54792139e-05 1.29469336e-04 -1.57578361e-05 -9.26819393e-06 2.54792139e-05 -9.26819393e-06 3.14388271e-05
</DataArray>
<DataArray type="Float32" Name="Plastic_strain_components" NumberOfComponents="9" format="ascii">
3.47629163e-03 -1.65824901e-03 4.41109569e-04 -1.65824901e-03 3.16098251e-03 1.63528674e-03 4.41109569e-04 1.63528674e-03 -5.55021520e-03
4.15955533e-03 -1.97225508e-03 5.74089419e-04 -1.97225508e-03 4.27777805e-03 2.18708781e-03 5.74089419e-04 2.18708781e-03 -7.04471633e-03
5.19069145e-03 -5.17650798e-04 1.35632743e-03 -5.17650798e-04 6.33799285e-03 -6.76205054e-05 1.35632743e-03 -6.76205054e-05 -9.74453520e-03
3.08279681e-03 -1.59581873e-05 -1.04004951e-03 -1.59581873e-05 4.11577965e-03 -4.69663762e-04 -1.04004951e-03 -4.69663762e-04 -6.06037374e-03
3.15680797e-03 1.13331572e-03 2.81855113e-03 1.13331572e-03 3.74422132e-03 7.17613824e-04 2.81855113e-03 7.17613824e-04 -5.83337498e-03
5.26370088e-03 -2.11105411e-03 -2.43786147e-03 -2.11105411e-03 7.13880460e-03 4.07530402e-03 -2.43786147e-03 4.07530402e-03 -1.04957578e-02
1.05221908e-02 2.87765852e-03 3.41766875e-03 2.87765852e-03 8.78020050e-03 -4.82312089e-03 3.41766875e-03 -4.82312089e-03 -1.60805050e-02
5.27314708e-03 2.65610145e-03 5.87559699e-03 2.65610145e-03 6.07615570e-03 2.81648780e-03 5.87559699e-03 2.81648780e-03 -9.41638858e-03
5.10250987e-03 2.19140027e-04 -2.93929070e-03 2.19140027e-04 5.29486249e-03 3.62328574e-03 -2.93929070e-03 3.62328574e-03 -8.74817150e-03
9.89078823e-03 2.15540000e-04 3.11851234e-03 2.15540000e-04 1.04469128e-02 7.36982410e-03 3.11851234e-03 7.36982410e-03 -1.71230980e-02
1.10955325e-02 5.12127237e-03 -2.01875468e-02 5.12127237e-03 1.43243897e-02 6.44868379e-03 -2.01875468e-02 6.44868379e-03 -2.10192818e-02
1.70386387e-02 1.25112124e-02 -1.91968880e-02 1.25112124e-02 1.44535550e-02 -3.48781905e-03 -1.91968880e-02 -3.48781905e-03 -2.62438757e-02
0.00000000e+00 0.00000000e+00 0.00000000e+00 0.00000000e+00 0.00000000e+00 0.00000000e+00 0.00000000e+00 0.00000000e+00 0.00000000e+00
0.00000000e+00 0.00000000e+00 0.00000000e+00 0.00000000e+00 0.00000000e+00 0.00000000e+00 0.00000000e+00 0.00000000e+00 0.00000000e+00
0.00000000e+00 0.00000000e+00 0.00000000e+00 0.00000000e+00 0.00000000e+00 0.00000000e+00 0.00000000e+00 0.00000000e+00 0.00000000e+00
0.00000000e+00 0.00000000e+00 0.00000000e+00 0.00000000e+00 0.00000000e+00 0.00000000e+00 0.00000000e+00 0.00000000e+00 0.00000000e+00
0.00000000e+00 0.00000000e+00 0.00000000e+00 0.00000000e+00 0.00000000e+00 0.00000000e+00 0.00000000e+00 0.00000000e+00 0.00000000e+00
0.00000000e+00 0.00000000e+00 0.00000000e+00 0.00000000e+00 0.00000000e+00 0.00000000e+00 0.00000000e+00 0.00000000e+00 0.00000000e+00
0.00000000e+00 0.00000000e+00 0.00000000e+00 0.00000000e+00 0.00000000e+00 0.00000000e+00 0.00000000e+00 0.00000000e+00 0.00000000e+00
0.00000000e+00 0.00000000e+00 0.00000000e+00 0.00000000e+00 0.00000000e+00 0.00000000e+00 0.00000000e+00 0.00000000e+00 0.00000000e+00
8.37045442e-03 1.62591584e-06 3.18553392e-03 1.62591584e-06 8.61584116e-03 -1.03319541e-03 3.18553392e-03 -1.03319541e-03 -1.42953484e-02
8.58324859e-03 -8.81761371e-05 2.72288162e-03 -8.81761371e-05 8.09956831e-03 1.33901223e-04 2.72288162e-03 1.33901223e-04 -1.40391476e-02
8.37542949e-03 -2.61258889e-03 3.62373645e-03 -2.61258889e-03 8.32708279e-03 9.15226796e-04 3.62373645e-03 9.15226796e-04 -1.40342785e-02
7.87071558e-03 5.14411377e-05 3.30290350e-03 5.14411377e-05 8.99032899e-03 -1.48930826e-03 3.30290350e-03 -1.48930826e-03 -1.41831799e-02
1.16600073e-02 -1.09672669e-07 2.30186956e-03 -1.09672669e-07 7.40308361e-03 -1.87370024e-04 2.30186956e-03 -1.87370024e-04 -1.60272559e-02
1.13296728e-02 1.11583806e-04 4.27705527e-04 1.11583806e-04 7.66573066e-03 2.16134125e-03 4.27705527e-04 2.16134125e-03 -1.59733649e-02
1.14338276e-02 2.28592546e-04 4.16037307e-03 2.28592546e-04 8.27531127e-03 8.56843227e-04 4.16037307e-03 8.56843227e-04 -1.65460964e-02
1.18074752e-02 1.62493518e-04 4.35667599e-03 1.62493518e-04 8.51970701e-03 -2.06412154e-03 4.35667599e-03 -2.06412154e-03 -1.70682794e-02
9.42798587e-03 -2.21510121e-03 4.11677756e-03 -2.21510121e-03 6.49259589e-03 2.17738190e-04 4.11677756e-03 2.17738190e-04 -1.33694690e-02
9.39484983e-03 -3.85088084e-03 2.18603747e-03 -3.85088084e-03 7.41228281e-03 8.22107220e-04 2.18603747e-03 8.22107220e-04 -1.41111647e-02
1.02497695e-02 5.89011237e-04 -1.30193998e-03 5.89011237e-04 7.49350921e-03 1.17575209e-03 -1.30193998e-03 1.17575209e-03 -1.49321072e-02
1.04962485e-02 9.02640893e-04 2.30807344e-03 9.02640893e-04 8.68269079e-03 2.69878629e-03 2.30807344e-03 2.69878629e-03 -1.61426970e-02
1.02385157e-02 9.42181923e-05 1.49877934e-03 9.42181923e-05 5.11965505e-03 1.57740680e-03 1.49877934e-03 1.57740680e-03 -1.28868059e-02
1.00435634e-02 -1.95782802e-03 -1.59190457e-03 -1.95782802e-03 7.53951533e-03 -1.64868290e-03 -1.59190457e-03 -1.64868290e-03 -1.47675503e-02
9.25843976e-03 -4.99387315e-04 -6.17040161e-04 -4.99387315e-04 6.80326659e-03 6.74958812e-04 -6.17040161e-04 6.74958812e-04 -1.35211321e-02
9.42924374e-03 -6.70200759e-04 -2.11094030e-03 -6.70200759e-04 7.90658651e-03 8.18290089e-04 -2.11094030e-03 8.18290089e-04 -1.45799273e-02
9.67344525e-03 1.06745672e-04 -1.70258162e-03 1.06745672e-04 4.71664150e-03 -5.27481065e-04 -1.70258162e-03 -5.27481065e-04 -1.20793926e-02
9.94719443e-03 9.95841896e-04 -1.01303308e-03 9.95841896e-04 9.18340695e-03 -3.02727742e-04 -1.01303308e-03 -3.02727742e-04 -1.60855595e-02
8.31532665e-03 2.84617738e-06 -2.07610417e-03 2.84617738e-06 5.99601772e-03 4.40774958e-04 -2.07610417e-03 4.40774958e-04 -1.20411364e-02
8.27852963e-03 -1.85671757e-03 -2.89860441e-03 -1.85671757e-03 6.19545375e-03 -1.23421140e-03 -2.89860441e-03 -1.23421140e-03 -1.21574030e-02
7.66377337e-03 8.15262945e-04 1.00415494e-03 8.15262945e-04 5.00879972e-03 -1.52565909e-03 1.00415494e-03 -1.52565909e-03 -1.06582909e-02
9.26058239e-03 1.27188112e-03 2.46844038e-05 1.27188112e-03 8.23254639e-03 4.49858278e-04 2.46844038e-05 4.49858278e-04 -1.47277761e-02
6.50393672e-03 2.42954884e-04 -3.74503923e-03 2.42954884e-04 4.89822694e-03 3.78829704e-04 -3.74503923e-03 3.78829704e-04 -9.57392179e-03
6.88900612e-03 -5.50114486e-04 -2.16612272e-03 -5.50114486e-04 6.80772390e-03 -8.46064318e-04 -2.16612272e-03 -8.46064318e-04 -1.15158065e-02
6.87937811e-03 1.50984962e-03 1.38434645e-03 1.50984962e-03 4.00617940e-03 -1.54137728e-03 1.38434645e-03 -1.54137728e-03 -9.14096320e-03
8.29112076e-03 1.19251639e-03 2.51226131e-04 1.19251639e-03 6.77053025e-03 -1.44118472e-03 2.51226131e-04 -1.44118472e-03 -1.26762791e-02
5.68761723e-03 2.03643763e-03 -2.94616155e-03 2.03643763e-03 3.91216367e-03 -2.66194140e-04 -2.94616155e-03 -2.66194140e-04 -8.05697311e-03
6.60421490e-03 1.55483355e-03 -1.23400768e-03 1.55483355e-03 5.61703945e-03 -2.27572891e-05 -1.23400768e-03 -2.27572891e-05 -1.02752226e-02
6.71772641e-03 -4.35695107e-03 7.87233136e-03 -4.35695107e-03 8.89117870e-03 -1.20622683e-03 7.87233136e-03 -1.20622683e-03 -1.29442817e-02
5.54891804e-03 -2.80897738e-03 5.17048046e-03 -2.80897738e-03 9.64145595e-03 -1.00197102e-03 5.17048046e-03 -1.00197102e-03 -1.27229046e-02
1.27655028e-02 -1.44097198e-03 9.27441753e-03 -1.44097198e-03 9.99365107e-03 1.71781180e-03 9.27441753e-03 1.71781180e-03 -1.90569538e-02
1.19207932e-02 -2.24030598e-04 9.82766750e-03 -2.24030598e-04 9.01877752e-03 -1.07107629e-03 9.82766750e-03 -1.07107629e-03 -1.75036031e-02
9.94513171e-03 -1.13959622e-03 4.32091828e-03 -1.13959622e-03 9.39926252e-03 -2.47774864e-03 4.32091828e-03 -2.47774864e-03 -1.63549508e-02
1.10414092e-02 1.30654651e-03 1.85450057e-03 1.30654651e-03 1.01583393e-02 -3.21030150e-03 1.85450057e-03 -3.21030150e-03 -1.78271919e-02
1.36353448e-02 -2.61653183e-03 -1.41134385e-02 -2.61653183e-03 1.22054936e-02 5.61353657e-04 -1.41134385e-02 5.61353657e-04 -2.14628123e-02
8.45725808e-03 1.72697222e-03 -8.30737422e-03 1.72697222e-03 8.10664014e-03 -2.44969788e-03 -8.30737422e-03 -2.44969788e-03 -1.38684385e-02
1.29731176e-02 4.15549031e-04 -2.93874234e-03 4.15549031e-04 1.42748482e-02 3.42975861e-03 -2.93874234e-03 3.42975861e-03 -2.29404545e-02
9.66102034e-03 -1.34150513e-03 -1.12904015e-02 -1.34150513e-03 6.73695036e-03 2.33940403e-03 -1.12904015e-02 2.33940403e-03 -1.35612216e-02
1.19585337e-02 -7.96055916e-04 -1.61719881e-03 -7.96055916e-04 1.20691482e-02 1.77173101e-03 -1.61719881e-03 1.77173101e-03 -2.02268870e-02
9.89070535e-03 6.16628357e-04 -3.50866979e-03 6.16628357e-04 9.97321587e-03 4.78720853e-04 -3.50866979e-03 4.78720853e-04 -1.67353381e-02
1.07411123e-02 2.79951899e-04 -1.61349564e-03 2.79951899e-04 1.02769583e-02 4.55878020e-04 -1.61349564e-03 4.55878020e-04 -1.76914902e-02
1.00105009e-02 1.13563368e-03 -2.38808902e-03 1.13563368e-03 8.93281493e-03 -3.44369028e-03 -2.38808902e-03 -3.44369028e-03 -1.59232989e-02
5.47032956e-03 -2.20019172e-03 8.35056057e-03 -2.20019172e-03 8.57280674e-03 -1.60572352e-04 8.35056057e-03 -1.60572352e-04 -1.15719799e-02
2.91628571e-03 2.38745924e-04 6.05389045e-03 2.38745924e-04 7.78400281e-03 3.37982812e-03 6.05389045e-03 3.37982812e-03 -8.88671610e-03
1.23184309e-02 -1.62014003e-03 9.36876823e-03 -1.62014003e-03 8.70140881e-03 -5.16837170e-03 9.36876823e-03 -5.16837170e-03 -1.75168445e-02
8.10532272e-03 1.89480654e-03 1.20044925e-02 1.89480654e-03 7.97267328e-03 -8.76499503e-03 1.20044925e-02 -8.76499503e-03 -1.32411337e-02
1.11374018e-02 -5.05470840e-03 1.39005305e-02 -5.05470840e-03 1.36312284e-02 -1.44643197e-02 1.39005305e-02 -1.44643197e-02 -2.03632927e-02
1.66176228e-02 -2.03115386e-03 2.03026236e-03 -2.03115386e-03 1.07051067e-02 -9.20638433e-03 2.03026236e-03 -9.20638433e-03 -2.28779502e-02
-4.72285086e-03 -1.79047603e-02 -4.04682830e-02 -1.79047603e-02 -5.77517960e-04 -3.26673165e-02 -4.04682830e-02 -3.26673165e-02 9.15613770e-03
5.03118934e-03 -8.91566277e-04 -7.01594415e-03 -8.91566277e-04 1.57591902e-03 -5.75843671e-03 -7.01594415e-03 -5.75843671e-03 -5.12758844e-03
2.99343151e-03 -7.42208570e-04 3.08808341e-03 -7.42208570e-04 5.16998675e-03 3.89739602e-03 3.08808341e-03 3.89739602e-03 -6.78400017e-03
2.39990727e-03 -1.32027350e-03 5.55337998e-03 -1.32027350e-03 4.76187991e-03 1.15627155e-03 5.55337998e-03 1.15627155e-03 -5.86337782e-03
5.94602708e-03 -5.53399402e-04 8.33231508e-03 -5.53399402e-04 6.90834713e-03 5.75850564e-03 8.33231508e-03 5.75850564e-03 -1.05664468e-02
5.57454088e-03 5.65208524e-04 -2.74557460e-04 5.65208524e-04 8.21768760e-03 -3.43895190e-04 -2.74557460e-04 -3.43895190e-04 -1.16611577e-02
3.11199977e-03 1.48513334e-03 2.99112929e-04 1.48513334e-03 3.87365438e-03 -8.75904676e-04 2.99112929e-04 -8.75904676e-04 -5.85050642e-03
8.66751266e-03 3.73741164e-03 -2.87066008e-03 3.73741164e-03 1.05973929e-02 6.87899680e-03 -2.87066008e-03 6.87899680e-03 -1.59645832e-02
7.17166997e-03 2.67086888e-03 3.24576325e-03 2.67086888e-03 1.19217344e-02 3.28944030e-03 3.24576325e-03 3.28944030e-03 -1.60147368e-02
3.26225521e-03 -6.25805907e-04 2.14877084e-03 -6.25805907e-04 6.48075878e-03 1.00586514e-02 2.14877084e-03 1.00586514e-02 -7.63124670e-03
1.76529032e-02 -2.95981148e-03 1.92774734e-02 -2.95981148e-03 1.32977436e-02 1.07581524e-02 1.92774734e-02 1.07581524e-02 -2.57327920e-02
1.13090104e-02 -3.89615557e-04 -9.95947774e-03 -3.89615557e-04 1.40551689e-02 -6.91981297e-03 -9.95947774e-03 -6.91981297e-03 -2.09628060e-02
3.67253122e-03 -2.44596667e-04 3.22074606e-03 -2.44596667e-04 6.19243830e-03 2.87666498e-03 3.22074606e-03 2.87666498e-03 -8.23787041e-03
1.05277225e-02 5.96204726e-03 -1.30708906e-03 5.96204726e-03 1.28190792e-02 3.72304548e-03 -1.30708906e-03 3.72304548e-03 -1.97037929e-02
8.57688230e-03 -9.07908339e-04 7.50267575e-03 -9.07908339e-04 1.46604730e-02 -6.26083487e-03 7.50267575e-03 -6.26083487e-03 -1.94878476e-02
1.42348516e-02 -1.94231281e-04 -1.01588045e-02 -1.94231281e-04 1.47270472e-02 1.04510075e-02 -1.01588045e-02 1.04510075e-02 -2.41217637e-02
1.31491084e-02 5.94716271e-03 3.85433296e-03 5.94716271e-03 1.67651496e-02 -2.44839167e-02 3.85433296e-03 -2.44839167e-02 -2.48759985e-02
1.53059461e-02 -1.38065743e-03 -2.47988345e-03 -1.38065743e-03 1.08401775e-02 -4.67635951e-03 -2.47988345e-03 -4.67635951e-03 -2.19374156e-02
1.49943689e-02 1.02335798e-06 1.04010385e-03 1.02335798e-06 7.44164689e-03 -1.17468060e-03 1.04010385e-03 -1.17468060e-03 -1.88212702e-02
1.38801385e-02 9.05172012e-04 2.02784757e-03 9.05172012e-04 8.16325250e-03 9.20157365e-04 2.02784757e-03 9.20157365e-04 -1.85143268e-02
1.42230899e-02 3.33147179e-03 2.23094814e-03 3.33147179e-03 8.87575233e-03 1.65028394e-03 2.23094814e-03 1.65028394e-03 -1.93958629e-02
1.59225960e-02 5.41143061e-04 3.11157337e-03 5.41143061e-04 7.93128728e-03 -1.87555717e-04 3.11157337e-03 -1.87555717e-04 -2.00059451e-02
1.10473544e-02 1.89781660e-03 6.41544204e-04 1.89781660e-03 9.73231625e-03 2.12209366e-03 6.41544204e-04 2.12209366e-03 -1.74868288e-02
1.07534679e-02 4.49048454e-03 6.90424422e-04 4.49048454e-03 9.84278170e-03 7.67168211e-04 6.90424422e-04 7.67168211e-04 -1.73019905e-02
8.07221036e-03 1.18572789e-03 -1.60906109e-03 1.18572789e-03 1.02662023e-02 6.52249862e-04 -1.60906109e-03 6.52249862e-04 -1.54346554e-02
7.54791027e-03 2.42961921e-03 -6.47293098e-04 2.42961921e-03 9.85338341e-03 9.21875699e-04 -6.47293098e-04 9.21875699e-04 -1.46254165e-02
6.44276303e-03 -1.03661752e-04 -1.01377052e-03 -1.03661752e-04 9.33156675e-03 -1.17211337e-04 -1.01377052e-03 -1.17211337e-04 -1.32752280e-02
5.70592860e-03 -5.70863865e-04 -1.04788977e-03 -5.70863865e-04 8.53147946e-03 3.92163529e-04 -1.04788977e-03 3.92163529e-04 -1.19641843e-02
5.95697039e-03 -7.33634297e-04 -1.52261558e-03 -7.33634297e-04 8.12833651e-03 6.35911691e-04 -1.52261558e-03 6.35911691e-04 -1.18551638e-02
5.62292803e-03 -1.54943237e-03 -2.22008563e-03 -1.54943237e-03 6.90207898e-03 -1.06356878e-04 -2.22008563e-03 -1.06356878e-04 -1.05166342e-02
5.53364586e-03 4.23478370e-04 -1.17104844e-03 4.23478370e-04 8.12344928e-03 1.63694925e-03 -1.17104844e-03 1.63694925e-03 -1.14952610e-02
6.02142338e-03 -1.60086313e-03 -8.78351799e-04 -1.60086313e-03 6.59552135e-03 -6.30777446e-04 -8.78351799e-04 -6.30777446e-04 -1.06070591e-02
1.77599876e-02 4.59709528e-03 7.85975100e-03 4.59709528e-03 8.97898729e-03 1.29453329e-04 7.85975100e-03 1.29453329e-04 -2.23256920e-02
1.89637733e-02 2.79397581e-03 1.03501670e-02 2.79397581e-03 9.99743177e-03 -4.46665776e-03 1.03501670e-02 -4.46665776e-03 -2.41739731e-02
1.21094281e-02 5.20035386e-03 -9.14382705e-04 5.20035386e-03 8.73644976e-03 5.90415788e-04 -9.14382705e-04 5.90415788e-04 -1.75131224e-02
5.89556951e-03 3.09293681e-03 -3.24175310e-03 3.09293681e-03 6.32617797e-03 -1.57786999e-05 -3.24175310e-03 -1.57786999e-05 -1.02247201e-02
3.40961563e-03 3.72262680e-04 -3.19485396e-03 3.72262680e-04 5.56654044e-03 -2.67068469e-04 -3.19485396e-03 -2.67068469e-04 -7.53244485e-03
3.08199006e-03 -1.35139290e-03 -5.68113648e-03 -1.35139290e-03 5.01190000e-03 -1.44948783e-03 -5.68113648e-03 -1.44948783e-03 -6.69916207e-03
3.57307292e-03 -3.10102905e-03 -5.80995103e-03 -3.10102905e-03 4.35280908e-03 -3.35505453e-03 -5.80995103e-03 -3.35505453e-03 -6.49733865e-03
2.02281987e-02 -1.04160188e-03 2.02693084e-02 -1.04160188e-03 6.80445212e-03 -5.03773782e-03 2.02693084e-02 -5.03773782e-03 -2.21297313e-02
2.16907524e-02 -4.00936743e-03 2.07959727e-02 -4.00936743e-03 9.22107248e-03 -6.24415123e-03 2.07959727e-02 -6.24415123e-03 -2.54582775e-02
1.32626051e-02 4.67206565e-03 7.72040958e-04 4.67206565e-03 6.30890337e-03 -8.50295504e-03 7.72040958e-04 -8.50295504e-03 -1.63276517e-02
4.55905276e-03 3.25856983e-03 -5.48286786e-03 3.25856983e-03 1.88422756e-03 -3.11033807e-03 -5.48286786e-03 -3.11033807e-03 -5.21657434e-03
6.32675656e-04 -9.63423960e-03 -1.22270714e-02 -9.63423960e-03 -5.30304248e-03 -1.16266562e-02 -1.22270714e-02 -1.16266562e-02 6.31934823e-03
-1.47842837e-04 6.01969974e-04 -7.10155966e-04 6.01969974e-04 2.32698349e-04 -2.80668028e-06 -7.10155966e-04 -2.80668028e-06 -9.50655318e-05
1.87155288e-02 3.07616271e-03 -4.76590171e-03 3.07616271e-03 1.17111637e-02 1.07954252e-02 -4.76590171e-03 1.07954252e-02 -2.46943671e-02
1.90968880e-02 3.82520926e-03 -1.23111662e-02 3.82520926e-03 1.63614992e-02 6.71375124e-03 -1.23111662e-02 6.71375124e-03 -2.96110685e-02
2.01305216e-02 1.48772565e-03 2.60234589e-03 1.48772565e-03 1.25311990e-02 -1.12269581e-02 2.60234589e-03 -1.12269581e-02 -2.76435474e-02
1.85739252e-02 -1.30436835e-03 -2.02634197e-03 -1.30436835e-03 2.32755619e-02 5.72051718e-03 -2.02634197e-03 5.72051718e-03 -3.52556532e-02
1.84662985e-02 -1.13992949e-03 1.25353824e-03 -1.13992949e-03 2.29683798e-02 -3.25563375e-03 1.25353824e-03 -3.25563375e-03 -3.49311521e-02
1.95762487e-02 -2.85116787e-03 5.64567745e-03 -2.85116787e-03 1.86544342e-02 6.81742211e-03 5.64567745e-03 6.81742211e-03 -3.21071679e-02
1.91337792e-02 1.13260676e-03 5.13050734e-03 1.13260676e-03 1.93278100e-02 -8.97513295e-04 5.13050734e-03 -8.97513295e-04 -3.23881460e-02
1.71902538e-02 5.49189252e-03 -5.06938348e-04 5.49189252e-03 1.99141251e-02 -5.36330475e-03 -5.06938348e-04 -5.36330475e-03 -3.12377987e-02
1.84693495e-02 -3.84599599e-03 -2.20626355e-03 -3.84599599e-03 1.48084192e-02 8.70802940e-03 -2.20626355e-03 8.70802940e-03 -2.79089669e-02
1.17711090e-02 2.97730777e-03 1.64764634e-03 2.97730777e-03 4.29161047e-03 -4.22726317e-03 1.64764634e-03 -4.22726317e-03 -1.35894369e-02
9.64881876e-03 -4.97368400e-03 -2.08044087e-03 -4.97368400e-03 6.94043742e-03 -1.95254025e-03 -2.08044087e-03 -1.95254025e-03 -1.38739136e-02
-7.10529322e-03 6.76110340e-03 3.64021724e-03 6.76110340e-03 -3.41134076e-03 -1.14537133e-02 3.64021724e-03 -1.14537133e-02 1.06608104e-02
-1.36367208e-03 -3.87182226e-03 4.15872922e-03 -3.87182226e-03 -1.04574009e-03 -1.90589558e-02 4.15872922e-03 -1.90589558e-02 3.51608219e-03
1.86667537e-03 -2.91475843e-03 -1.11662470e-03 -2.91475843e-03 -1.98926310e-03 4.45956402e-03 -1.11662470e-03 4.45956402e-03 7.61085349e-04
-1.30020144e-03 -6.21538398e-03 -1.98730928e-03 -6.21538398e-03 6.02681791e-04 -6.66959250e-04 -1.98730928e-03 -6.66959250e-04 1.05687909e-03
0.00000000e+00 0.00000000e+00 0.00000000e+00 0.00000000e+00 0.00000000e+00 0.00000000e+00 0.00000000e+00 0.00000000e+00 0.00000000e+00
0.00000000e+00 0.00000000e+00 0.00000000e+00 0.00000000e+00 0.00000000e+00 0.00000000e+00 0.00000000e+00 0.00000000e+00 0.00000000e+00
0.00000000e+00 0.00000000e+00 0.00000000e+00 0.00000000e+00 0.00000000e+00 0.00000000e+00 0.00000000e+00 0.00000000e+00 0.00000000e+00
0.00000000e+00 0.00000000e+00 0.00000000e+00 0.00000000e+00 0.00000000e+00 0.00000000e+00 0.00000000e+00 0.00000000e+00 0.00000000e+00
1.93000689e-05 -2.82513680e-05 -2.44838304e-05 -2.82513680e-05 -3.66155992e-05 -3.26104524e-05 -2.44838304e-05 -3.26104524e-05 6.80481165e-06
0.00000000e+00 0.00000000e+00 0.00000000e+00 0.00000000e+00 0.00000000e+00 0.00000000e+00 0.00000000e+00 0.00000000e+00 0.00000000e+00
0.00000000e+00 0.00000000e+00 0.00000000e+00 0.00000000e+00 0.00000000e+00 0.00000000e+00 0.00000000e+00 0.00000000e+00 0.00000000e+00
-3.07277466e-05 -1.48205756e-04 1.21885363e-05 -1.48205756e-04 7.97195510e-06 5.36609332e-06 1.21885363e-05 5.36609332e-06 3.33928668e-05
1.62098631e-02 3.16693331e-07 2.16052285e-07 3.16693331e-07 7.84613099e-03 5.44787326e-09 2.16052285e-07 5.44787326e-09 -2.01777052e-02
1.43728191e-02 1.96225673e-03 -3.83523002e-07 1.96225673e-03 8.92601022e-03 1.08351931e-03 -3.83523002e-07 1.08351931e-03 -1.95809631e-02
1.61553714e-02 5.02875698e-03 1.41083667e-03 5.02875698e-03 8.40456516e-03 2.13191489e-03 1.41083667e-03 2.13191489e-03 -2.05746694e-02
1.80791225e-02 1.68126432e-03 2.78881140e-04 1.68126432e-03 7.41523225e-03 1.21526682e-07 2.78881140e-04 1.21526682e-07 -2.13459535e-02
1.07483426e-02 1.51371286e-03 -1.63107688e-06 1.51371286e-03 1.08748632e-02 2.27805087e-03 -1.63107688e-06 2.27805087e-03 -1.81957511e-02
1.13099716e-02 5.31407498e-03 1.62735186e-03 5.31407498e-03 1.02866145e-02 1.88324804e-03 1.62735186e-03 1.88324804e-03 -1.81315201e-02
7.39659718e-03 1.72139454e-03 -1.75040714e-06 1.72139454e-03 1.19143268e-02 1.47718843e-03 -1.75040714e-06 1.47718843e-03 -1.62262749e-02
7.00750970e-03 3.34945833e-03 1.34932771e-03 3.34945833e-03 1.05168994e-02 2.00660108e-03 1.34932771e-03 2.00660108e-03 -1.47067448e-02
5.50090917e-03 9.42751765e-04 -7.62317086e-07 9.42751765e-04 1.14075867e-02 3.48226764e-04 -7.62317086e-07 3.48226764e-04 -1.41864372e-02
4.87418956e-03 1.30873559e-03 2.46817595e-03 1.30873559e-03 9.84791666e-03 1.38776406e-03 2.46817595e-03 1.38776406e-03 -1.23419848e-02
5.87366638e-03 -1.08762062e-03 -7.09643246e-07 -1.08762062e-03 1.03663621e-02 4.03480488e-04 -7.09643246e-07 4.03480488e-04 -1.36469682e-02
4.68055333e-03 -8.03290957e-04 3.06486734e-03 -8.03290957e-04 8.58669367e-03 5.18128636e-05 3.06486734e-03 5.18128636e-05 -1.11384783e-02
5.77749638e-03 -3.22269322e-03 1.91579602e-06 -3.22269322e-03 1.12106940e-02 1.87765865e-03 1.91579602e-06 1.87765865e-03 -1.42500158e-02
5.26437862e-03 -2.32295459e-03 4.29245923e-03 -2.32295459e-03 8.26760824e-03 -1.74352078e-03 4.29245923e-03 -1.74352078e-03 -1.13249798e-02
1.68031554e-02 7.75570690e-03 -2.90897564e-03 7.75570690e-03 1.18700690e-02 3.13188526e-03 -2.90897564e-03 3.13188526e-03 -2.40501985e-02
2.01989478e-02 9.09444818e-04 -1.04458263e-03 9.09444818e-04 1.39620502e-02 -2.12772284e-06 -1.04458263e-03 -2.12772284e-06 -2.87096975e-02
1.06458162e-02 1.01092923e-02 -3.85238847e-04 1.01092923e-02 8.76673101e-03 3.99745256e-03 -3.85238847e-04 3.99745256e-03 -1.61840238e-02
5.34131576e-03 4.62986401e-03 1.88665406e-03 4.62986401e-03 6.54168276e-03 2.46402877e-03 1.88665406e-03 2.46402877e-03 -9.93417250e-03
2.09150468e-03 4.50174630e-05 2.30628287e-03 4.50174630e-05 4.10686573e-03 2.33993365e-03 2.30628287e-03 2.33993365e-03 -5.16467600e-03
6.00170970e-04 -1.42222689e-03 1.97336311e-03 -1.42222689e-03 2.62654168e-03 4.76797150e-05 1.97336311e-03 4.76797150e-05 -2.66939096e-03
1.50067650e-03 -2.71830024e-03 1.13684370e-03 -2.71830024e-03 1.45191613e-03 -1.90920359e-03 1.13684370e-03 -1.90920359e-03 -2.41135678e-03
2.29160534e-02 4.71457082e-04 1.28217437e-02 4.71457082e-04 2.17023985e-02 7.66723673e-03 1.28217437e-02 7.66723673e-03 -3.75536550e-02
2.77573857e-02 -2.92714988e-03 1.16771106e-02 -2.92714988e-03 2.50267405e-02 1.01598980e-05 1.16771106e-02 1.01598980e-05 -4.44409885e-02
8.91539346e-03 2.90736848e-03 3.96993663e-03 2.90736848e-03 7.35529574e-03 6.85900062e-03 3.96993663e-03 6.85900062e-03 -1.36402656e-02
1.86345725e-03 7.48711544e-04 1.22360690e-03 7.48711544e-04 1.47448726e-03 2.34275963e-03 1.22360690e-03 2.34275963e-03 -2.83260772e-03
-8.76879581e-05 -1.00466394e-03 1.14009830e-04 -1.00466394e-03 1.92140669e-04 3.96080304e-05 1.14009830e-04 3.96080304e-05 -1.26663099e-04
-2.03526451e-04 -5.38264352e-04 -1.19066301e-03 -5.38264352e-04 5.15003458e-04 9.79411766e-07 -1.19066301e-03 9.79411766e-07 -2.07561698e-04
-8.80599018e-05 -3.13949246e-04 6.72592778e-05 -3.13949246e-04 -9.22036015e-05 6.13578090e-05 6.72592778e-05 6.13578090e-05 1.36866007e-04
1.96282304e-04 -1.41240812e-03 -1.11465786e-03 -1.41240812e-03 -1.96472960e-04 1.29682121e-07 -1.11465786e-03 1.29682121e-07 1.63712775e-04
1.21750083e-04 -8.11814098e-05 3.34145123e-04 -8.11814098e-05 -4.29421343e-04 6.45457712e-05 3.34145123e-04 6.45457712e-05 3.40760802e-04
2.70698749e-03 -1.35822629e-03 -3.57395248e-03 -1.35822629e-03 -1.59605348e-03 -8.20847892e-03 -3.57395248e-03 -8.20847892e-03 5.98315382e-05
-1.34968758e-03 -1.10538334e-03 8.54698883e-04 -1.10538334e-03 -2.91415807e-04 7.37276772e-04 8.54698883e-04 7.37276772e-04 1.38807739e-03
5.71070006e-03 2.78544752e-03 -3.02974414e-03 2.78544752e-03 8.93364009e-03 1.19537832e-02 -3.02974414e-03 1.19537832e-02 -1.21881953e-02
-5.03077196e-05 -1.13717949e-04 9.21946291e-05 -1.13717949e-04 7.87654668e-05 6.03694792e-04 9.21946291e-05 6.03694792e-04 -2.09048630e-05
-1.49721143e-04 -3.22553794e-04 3.03892224e-05 -3.22553794e-04 1.51427158e-04 -3.73412831e-07 3.03892224e-05 -3.73412831e-07 3.94566838e-05
6.67020140e-06 -2.94515598e-06 8.60163937e-06 -2.94515598e-06 -1.16761175e-05 1.92609937e-06 8.60163937e-06 1.92609937e-06 5.88260332e-06
-6.20169646e-06 2.17476148e-05 2.03337061e-06 2.17476148e-05 1.01264782e-05 4.37620031e-07 2.03337061e-06 4.37620031e-07 -7.36763150e-06
-3.37281381e-05 1.41125547e-05 -3.34968790e-05 1.41125547e-05 5.51225166e-05 -1.68100655e-06 -3.34968790e-05 -1.68100655e-06 -3.36054909e-05
5.85866583e-05 -1.62108161e-04 -2.35915577e-05 -1.62108161e-04 -1.04731538e-04 -3.70389989e-06 -2.35915577e-05 -3.70389989e-06 6.70581212e-05
3.29153500e-02 5.89542789e-03 -1.12448568e-02 5.89542789e-03 3.76628861e-02 7.29778549e-06 -1.12448568e-02 7.29778549e-06 -5.94560951e-02
3.76662239e-02 -6.16294146e-03 -9.00688116e-03 -6.16294146e-03 3.56422700e-02 2.04217881e-02 -9.00688116e-03 2.04217881e-02 -6.16402887e-02
2.28949015e-02 -7.61795211e-03 8.79183753e-03 -7.61795211e-03 2.50150921e-02 9.24921067e-03 8.79183753e-03 9.24921067e-03 -4.02315383e-02
2.47646943e-02 -6.79518300e-04 8.21724022e-03 -6.79518300e-04 3.04670660e-02 -9.29031376e-06 8.21724022e-03 -9.29031376e-06 -4.64533139e-02
3.77480802e-05 -5.49549902e-05 5.89193959e-07 -5.49549902e-05 -2.32486775e-05 -1.09176653e-05 5.89193959e-07 -1.09176653e-05 -2.54967580e-05
7.58755618e-04 -6.32321051e-04 1.13955256e-04 -6.32321051e-04 -3.28796839e-04 1.14156955e-04 1.13955256e-04 1.14156955e-04 -3.76439564e-04
0.00000000e+00 0.00000000e+00 0.00000000e+00 0.00000000e+00 0.00000000e+00 0.00000000e+00 0.00000000e+00 0.00000000e+00 0.00000000e+00
2.74748560e-02 -9.08516173e-03 3.79220676e-03 -9.08516173e-03 1.59053681e-02 9.04589985e-03 3.79220676e-03 9.04589985e-03 -3.63630112e-02
2.66701523e-02 -4.70487261e-03 9.57262982e-03 -4.70487261e-03 1.89208481e-02 1.90180363e-05 9.57262982e-03 1.90180363e-05 -3.83173674e-02
1.60275679e-02 4.32657404e-03 1.10468990e-03 4.32657404e-03 1.70998313e-02 6.58362010e-03 1.10468990e-03 6.58362010e-03 -2.79650297e-02
1.88632840e-02 -2.61807046e-03 -2.44353327e-03 -2.61807046e-03 1.43821156e-02 1.12232026e-02 -2.44353327e-03 1.12232026e-02 -2.78436802e-02
7.04765995e-03 8.64592497e-04 -3.02060891e-03 8.64592497e-04 2.62667367e-03 5.47924964e-03 -3.02060891e-03 5.47924964e-03 -8.11681524e-03
4.04335312e-03 -5.64881426e-03 -3.06855468e-03 -5.64881426e-03 6.74159173e-03 3.94083804e-03 -3.06855468e-03 3.94083804e-03 -8.94737383e-03
-1.64642269e-03 -2.78381261e-03 -6.03388238e-04 -2.78381261e-03 1.15855370e-03 4.08312393e-04 -6.03388238e-04 4.08312393e-04 6.81966681e-04
-1.64588797e-04 -1.08564440e-04 -4.15453542e-06 -1.08564440e-04 7.64106007e-05 -1.31548368e-05 -4.15453542e-06 -1.31548368e-05 1.15843912e-04
0.00000000e+00 0.00000000e+00 0.00000000e+00 0.00000000e+00 0.00000000e+00 0.00000000e+00 0.00000000e+00 0.00000000e+00 0.00000000e+00
</DataArray>
<DataArray type="Float32" Name="Spatial_displacement" NumberOfComponents="3" format="ascii">
3.46175767e-03 3.44044231e-02 -1.33230481e-02
6.89907465e-03 3.32180709e-02 -8.78897496e-03
6.27377909e-03 3.98986265e-02 -1.38338190e-02
2.17257068e-03 3.86495143e-02 -1.69032905e-02
2.78397277e-03 3.81798372e-02 -1.95149872e-02
7.09520001e-03 3.89654040e-02 -1.93293281e-02
4.73451894e-03 4.79165986e-02 -2.56926101e-02
2.37895921e-03 4.13645059e-02 -2.14585066e-02
1.19347330e-02 3.15155387e-02 -6.69287518e-03
1.30860452e-02 3.89143787e-02 -1.27258934e-02
1.47222411e-02 3.54693495e-02 -1.97455976e-02
2.37594619e-02 5.18621244e-02 -4.37242463e-02
1.19695775e-02 3.54850329e-02 1.26436353e-05
1.19782481e-02 3.75827774e-02 -4.65288758e-05
9.85511206e-03 3.76017019e-02 1.28149986e-05
9.83968750e-03 3.54874060e-02 4.53107059e-05
1.20181907e-02 3.54380831e-02 -1.27777457e-06
1.20077487e-02 3.75606790e-02 -3.43844295e-05
9.89289675e-03 3.75466049e-02 -4.54485416e-07
9.90612060e-03 3.54294479e-02 5.61177731e-05
0.00000000e+00 0.00000000e+00 -4.42156941e-02
8.25940724e-03 0.00000000e+00 -4.52467203e-02
8.17353465e-03 8.57630838e-03 -4.25023362e-02
0.00000000e+00 8.52195360e-03 -4.09879237e-02
0.00000000e+00 0.00000000e+00 -5.93258217e-02
1.18907150e-02 0.00000000e+00 -5.95177487e-02
1.20083503e-02 7.66551960e-03 -5.90729862e-02
0.00000000e+00 7.49715976e-03 -5.70053607e-02
1.81354005e-02 0.00000000e+00 -4.96283807e-02
1.58295184e-02 6.42166380e-03 -4.54831757e-02
2.28786357e-02 0.00000000e+00 -6.17739707e-02
2.34911796e-02 8.01098999e-03 -6.30648807e-02
2.71438770e-02 0.00000000e+00 -5.37431166e-02
2.72442214e-02 4.66837827e-03 -5.22334315e-02
3.35801095e-02 0.00000000e+00 -6.65904582e-02
3.30512673e-02 7.20787514e-03 -6.72057122e-02
3.80294360e-02 0.00000000e+00 -5.78320622e-02
3.81490663e-02 5.06058708e-03 -5.95558062e-02
4.23512161e-02 0.00000000e+00 -7.05483109e-02
4.23492268e-02 5.67651447e-03 -7.26602226e-02
4.75225821e-02 0.00000000e+00 -6.35542944e-02
4.83649299e-02 5.77850267e-03 -6.25261962e-02
4.97482754e-02 0.00000000e+00 -7.23240152e-02
4.99972515e-02 4.69658617e-03 -7.61566311e-02
5.51118366e-02 0.00000000e+00 -6.60696775e-02
5.66637926e-02 4.60951682e-03 -6.46568090e-02
5.50814494e-02 0.00000000e+00 -7.30671957e-02
5.72114401e-02 3.49554420e-03 -7.60906562e-02
4.95966803e-03 1.57609396e-02 -3.57331224e-02
0.00000000e+00 1.86788123e-02 -3.47164348e-02
1.18576884e-02 1.69981103e-02 -5.06222025e-02
0.00000000e+00 1.72323808e-02 -4.95457500e-02
1.40619650e-02 1.50053129e-02 -4.50441167e-02
2.51817293e-02 1.73564702e-02 -6.04116544e-02
2.44578309e-02 1.71401892e-02 -5.65457195e-02
3.44682932e-02 1.57417096e-02 -7.68074542e-02
3.89941707e-02 1.95075590e-02 -5.73903918e-02
4.09949608e-02 1.26342140e-02 -8.09185579e-02
5.06082736e-02 1.63493752e-02 -5.96439615e-02
5.07793501e-02 1.46673936e-02 -7.88020045e-02
5.98976910e-02 1.34231662e-02 -6.07427545e-02
6.07137345e-02 1.23532452e-02 -7.88066685e-02
2.82132812e-03 2.72219852e-02 -2.39846390e-02
0.00000000e+00 2.69438997e-02 -2.73837242e-02
8.91525019e-03 2.71893740e-02 -4.33718935e-02
0.00000000e+00 2.53081359e-02 -3.46331596e-02
1.25331972e-02 2.48329416e-02 -3.43977809e-02
2.73998305e-02 2.88592279e-02 -6.49985224e-02
1.09566087e-02 2.07006261e-02 -9.92297307e-02
4.20886055e-02 2.26484239e-02 -8.71409625e-02
2.35894322e-03 3.30264159e-02 -1.88290216e-02
0.00000000e+00 3.44101414e-02 -1.99761949e-02
4.71945293e-03 3.54494527e-02 -2.73214430e-02
0.00000000e+00 3.48963328e-02 -2.70048026e-02
0.00000000e+00 3.66255157e-02 -1.86272264e-02
5.56536671e-03 4.29409221e-02 -2.48694681e-02
0.00000000e+00 4.01590690e-02 -2.81610899e-02
6.59117848e-03 3.29731628e-02 -1.13943387e-02
1.56488493e-02 3.78087536e-02 -3.45594995e-02
1.67061649e-02 4.21736911e-02 -2.96201333e-02
0.00000000e+00 4.16142382e-02 -2.44330540e-02
9.38068423e-03 5.47420047e-02 -4.26190123e-02
0.00000000e+00 5.57377711e-02 -3.63813862e-02
1.91199519e-02 6.00112565e-02 -4.71389070e-02
3.05819437e-02 3.68005708e-02 -7.02325925e-02
4.36412431e-02 4.89718914e-02 -6.44888952e-02
0.00000000e+00 0.00000000e+00 -7.71673471e-02
1.52675798e-02 0.00000000e+00 -7.83410966e-02
1.62068773e-02 8.02429486e-03 -7.63189346e-02
0.00000000e+00 7.46570434e-03 -7.61265308e-02
2.78466307e-02 0.00000000e+00 -7.96547979e-02
2.98209265e-02 9.81376786e-03 -7.90227205e-02
3.75721939e-02 0.00000000e+00 -8.11686218e-02
3.88057008e-02 1.07865874e-02 -8.27872157e-02
4.48389202e-02 0.00000000e+00 -8.37255418e-02
4.47219834e-02 9.65854898e-03 -8.47454667e-02
5.08757010e-02 0.00000000e+00 -8.41772482e-02
5.01038656e-02 7.86947273e-03 -8.57273936e-02
5.60380034e-02 0.00000000e+00 -8.39443058e-02
5.64788319e-02 7.87903182e-03 -8.51374492e-02
1.98119227e-02 1.87860467e-02 -7.56182671e-02
0.00000000e+00 1.59256849e-02 -7.12155178e-02
3.43733430e-02 2.07681488e-02 -8.16305280e-02
4.27407324e-02 1.97455566e-02 -8.73314589e-02
4.65461388e-02 1.71931330e-02 -9.22993720e-02
4.94049601e-02 1.44254565e-02 -9.50370207e-02
5.26539087e-02 1.39526473e-02 -9.45186839e-02
2.08856165e-02 2.43798271e-02 -5.95598072e-02
0.00000000e+00 2.85830628e-02 -5.32936454e-02
3.95925641e-02 2.59028990e-02 -8.37742835e-02
4.87700701e-02 2.39298493e-02 -9.53426808e-02
4.46781255e-02 8.83847661e-03 -1.05829246e-01
5.12165315e-02 2.03356091e-02 -9.77420062e-02
1.94001105e-02 3.13123129e-02 -3.87144722e-02
0.00000000e+00 2.73764171e-02 -4.53608669e-02
4.43664230e-02 3.60071361e-02 -7.87831545e-02
1.88113134e-02 5.17200828e-02 -5.77176064e-02
0.00000000e+00 5.28903827e-02 -5.45717850e-02
2.12168396e-02 7.53670037e-02 -6.38491511e-02
0.00000000e+00 7.42054060e-02 -6.29303455e-02
3.41972187e-02 4.54161391e-02 -6.67655468e-02
4.94136773e-02 6.32328689e-02 -6.96118176e-02
4.86899093e-02 3.24996524e-02 -9.14739072e-02
6.43107817e-02 3.69582400e-02 -8.63790214e-02
2.76341736e-02 2.69960500e-02 -1.13214552e-01
4.44700196e-02 2.82476190e-02 -1.03453927e-01
5.84335551e-02 2.06752680e-02 -9.82196480e-02
6.36573359e-02 2.21109316e-02 -9.78011936e-02
5.88543750e-02 1.69042163e-02 -9.79303196e-02
5.88505492e-02 1.29162390e-02 -9.79329422e-02
6.28236383e-02 1.29265571e-02 -9.79381204e-02
6.27875701e-02 1.69376079e-02 -9.78668928e-02
5.88390604e-02 1.69090554e-02 -9.79258865e-02
5.88638149e-02 1.29427705e-02 -9.79189277e-02
6.28222972e-02 1.29235331e-02 -9.79388654e-02
6.29241616e-02 1.68172456e-02 -9.78726745e-02
0.00000000e+00 0.00000000e+00 -9.79139954e-02
1.63906738e-02 0.00000000e+00 -9.79139954e-02
1.84245482e-02 9.48245823e-03 -9.79139954e-02
0.00000000e+00 7.75781274e-03 -9.79139954e-02
3.02122105e-02 0.00000000e+00 -9.79139954e-02
3.17771509e-02 1.15013253e-02 -9.79139954e-02
3.91059220e-02 0.00000000e+00 -9.79139954e-02
4.08929028e-02 1.22009926e-02 -9.79139954e-02
4.52016443e-02 0.00000000e+00 -9.79139954e-02
4.61754128e-02 1.22468332e-02 -9.79139954e-02
5.12932576e-02 0.00000000e+00 -9.79139954e-02
5.01601286e-02 1.10844988e-02 -9.79139954e-02
5.79848252e-02 0.00000000e+00 -9.79139954e-02
5.46244532e-02 1.23945139e-02 -9.79139954e-02
2.30498277e-02 1.57934427e-02 -9.79139954e-02
0.00000000e+00 1.48251746e-02 -9.79139954e-02
3.85187864e-02 2.04045475e-02 -9.79139954e-02
4.53193635e-02 2.17229538e-02 -9.79139954e-02
4.90273759e-02 1.96511261e-02 -9.79139954e-02
4.94478904e-02 1.66292358e-02 -9.79139954e-02
5.04919849e-02 1.52211161e-02 -9.79139954e-02
2.89652087e-02 3.77721749e-02 -9.79139954e-02
0.00000000e+00 4.08265665e-02 -9.79139954e-02
4.67153117e-02 2.99878363e-02 -9.79139954e-02
5.13069332e-02 2.52144858e-02 -9.79139954e-02
5.13428859e-02 2.05186829e-02 -9.79139954e-02
5.14792539e-02 1.65554415e-02 -9.81885344e-02
5.16889282e-02 1.67177469e-02 -9.79139954e-02
5.18341623e-02 1.37131857e-02 -9.81785655e-02
5.18081747e-02 1.41723379e-02 -9.79139954e-02
5.54238148e-02 2.46837121e-02 -1.00355767e-01
5.64052463e-02 2.56502181e-02 -9.79139954e-02
5.68908639e-02 3.29093598e-02 -9.79139954e-02
5.51364608e-02 2.03256682e-02 -9.77156758e-02
5.51258177e-02 2.04599071e-02 -9.79139954e-02
5.49196415e-02 1.69301406e-02 -9.79167670e-02
5.49565926e-02 1.68736707e-02 -9.79139954e-02
5.49297072e-02 1.33123565e-02 -9.79359671e-02
5.49025014e-02 1.31643321e-02 -9.79139954e-02
0.00000000e+00 1.54790599e-02 -9.79139954e-02
4.09584120e-02 2.17466690e-02 -9.79139954e-02
2.83420570e-02 6.08026125e-02 -9.79139954e-02
0.00000000e+00 6.15414008e-02 -9.79139954e-02
5.87740280e-02 1.68905202e-02 -9.79139954e-02
5.86876869e-02 2.08770297e-02 -9.79139954e-02
5.88913746e-02 1.29787754e-02 -9.79139954e-02
3.06269564e-02 7.92498887e-02 -9.79139954e-02
0.00000000e+00 8.40678662e-02 -9.79139954e-02
4.09923904e-02 4.65458259e-02 -9.79139954e-02
6.10781945e-02 6.07234910e-02 -9.79139954e-02
5.43746687e-02 2.93162316e-02 -9.79139954e-02
6.83737099e-02 3.37478854e-02 -9.79139954e-02
6.41700923e-02 2.13938206e-02 -9.79139954e-02
6.29161000e-02 1.67408567e-02 -9.79139954e-02
6.28127456e-02 1.29488287e-02 -9.79139954e-02
</DataArray>
<DataArray type="Float32" Name="Spatial_acceleration" NumberOfComponents="3" format="ascii">
3.44574460e-07 1.34327013e-06 -7.49905894e-07
5.23050630e-07 1.30665296e-06 -6.72976171e-07
5.21004210e-07 1.60356365e-06 -9.56217491e-07
2.57809944e-07 1.66885059e-06 -9.12348412e-07
2.11616353e-07 1.54105817e-06 -1.22459733e-06
6.10169877e-07 1.55203679e-06 -9.52221114e-07
4.50134280e-07 2.04690286e-06 -1.63269044e-06
3.30011034e-07 1.96256246e-06 -1.54495240e-06
9.14573661e-07 1.24724704e-06 -7.57853172e-07
8.63273954e-07 1.68927511e-06 -9.88006605e-07
7.27971383e-07 1.68948702e-06 -1.48095023e-06
8.43365967e-07 1.83868406e-06 -1.51570634e-06
-9.72560315e-07 3.09760367e-07 6.73537443e-07
5.80290930e-07 -2.02204774e-06 -2.59982039e-06
-1.08357017e-06 -2.40505983e-06 4.52854238e-06
3.09248776e-07 2.87185117e-07 -1.91011532e-06
-2.87641933e-06 -3.00729903e-06 -7.63976459e-06
-4.36359960e-06 -3.72740487e-06 4.86808267e-06
8.45129307e-07 -4.26480165e-06 -2.50200173e-06
-1.49536447e-06 -3.03364300e-06 5.99610621e-06
0.00000000e+00 0.00000000e+00 -1.66956579e-06
3.25858593e-07 0.00000000e+00 -1.54749546e-06
2.05705561e-07 2.98380854e-07 -1.49075186e-06
0.00000000e+00 2.64326729e-07 -1.38727819e-06
0.00000000e+00 0.00000000e+00 -2.17819206e-06
2.91347504e-07 0.00000000e+00 -2.10889175e-06
3.91771380e-07 2.62180947e-07 -2.00017280e-06
0.00000000e+00 2.20497441e-07 -1.97950999e-06
4.93312882e-07 0.00000000e+00 -1.56052909e-06
4.92016454e-07 2.36868857e-07 -1.60853062e-06
6.34630510e-07 0.00000000e+00 -2.10698454e-06
6.39796269e-07 3.14911205e-07 -1.95964185e-06
8.10503934e-07 0.00000000e+00 -1.61266325e-06
8.14676298e-07 2.15609873e-07 -1.67051951e-06
9.94560651e-07 0.00000000e+00 -2.12446844e-06
9.42150734e-07 2.96195338e-07 -2.07138055e-06
1.15414457e-06 0.00000000e+00 -1.49154664e-06
1.21343135e-06 3.45448655e-07 -1.82596841e-06
1.32346156e-06 0.00000000e+00 -2.17978163e-06
1.25741963e-06 2.73267432e-07 -2.06534060e-06
1.59209969e-06 0.00000000e+00 -1.76080061e-06
1.51391828e-06 3.32477185e-07 -1.71534214e-06
1.51447455e-06 0.00000000e+00 -2.16102603e-06
1.43686930e-06 3.13560179e-07 -2.15307864e-06
1.95789335e-06 0.00000000e+00 -1.46611535e-06
1.89208981e-06 2.71916377e-07 -1.70230862e-06
1.65514155e-06 0.00000000e+00 -2.33904530e-06
1.72305101e-06 3.38633839e-07 -2.07455946e-06
1.82469691e-07 5.60124704e-07 -1.51316328e-06
0.00000000e+00 6.67810411e-07 -1.40666964e-06
4.02609516e-07 5.68151449e-07 -1.82088218e-06
0.00000000e+00 4.98652469e-07 -1.81102746e-06
5.66300912e-07 6.06446008e-07 -1.41071132e-06
6.34431842e-07 5.11030350e-07 -1.99317924e-06
8.19333422e-07 5.59616069e-07 -1.50451660e-06
9.86167379e-07 5.05856121e-07 -2.18527657e-06
1.17060540e-06 6.95546476e-07 -1.76111860e-06
1.13391877e-06 6.31332398e-07 -2.18861896e-06
1.37334405e-06 7.80483106e-07 -1.68482461e-06
1.54797237e-06 6.72062242e-07 -2.31361378e-06
1.84003511e-06 9.26415112e-07 -1.61107380e-06
1.70024236e-06 5.25653377e-07 -2.12987266e-06
1.77156352e-07 1.05285642e-06 -1.17819650e-06
0.00000000e+00 9.62813715e-07 -1.20067591e-06
3.97818411e-07 9.16299371e-07 -1.76456990e-06
0.00000000e+00 1.02129582e-06 -1.86951956e-06
5.03381102e-07 8.84850806e-07 -1.30144758e-06
8.76259833e-07 8.48007232e-07 -1.90887454e-06
4.56889467e-07 6.89347587e-07 -2.62546541e-06
1.05391609e-06 9.37991672e-07 -2.48463948e-06
2.09513161e-07 1.28936767e-06 -1.15240186e-06
0.00000000e+00 1.29063926e-06 -1.08305608e-06
3.50263377e-07 1.42661065e-06 -1.46336026e-06
0.00000000e+00 1.53140718e-06 -1.72519685e-06
0.00000000e+00 1.65732695e-06 -1.31257377e-06
3.65870335e-07 1.95525945e-06 -1.81361611e-06
0.00000000e+00 1.89717605e-06 -1.78432458e-06
6.97930659e-07 1.20568279e-06 -9.47316494e-07
8.60830141e-07 1.63968400e-06 -1.63777668e-06
5.80310825e-07 1.83327995e-06 -1.75730395e-06
0.00000000e+00 1.94215772e-06 -1.51697793e-06
2.90671977e-07 2.18788773e-06 -1.98459634e-06
0.00000000e+00 2.23716097e-06 -2.03323361e-06
6.05543448e-07 2.17731781e-06 -1.77033735e-06
6.25716325e-07 1.73907813e-06 -1.94040945e-06
9.89384148e-07 1.72233581e-06 -1.81706753e-06
0.00000000e+00 0.00000000e+00 -2.59526564e-06
4.03846286e-07 0.00000000e+00 -2.58445743e-06
4.42345936e-07 2.76833759e-07 -2.49401728e-06
0.00000000e+00 2.36352278e-07 -2.49481195e-06
7.70911583e-07 0.00000000e+00 -2.50244148e-06
7.93596087e-07 2.82168372e-07 -2.49703726e-06
1.01455055e-06 0.00000000e+00 -2.63214110e-06
1.09895075e-06 2.98221892e-07 -2.55870827e-06
1.30887827e-06 0.00000000e+00 -2.67346695e-06
1.28748013e-06 3.07043393e-07 -2.50021617e-06
1.56841679e-06 0.00000000e+00 -2.56220505e-06
1.46504237e-06 2.70287188e-07 -2.55235022e-06
1.50765970e-06 0.00000000e+00 -2.52532959e-06
1.73179308e-06 2.90393814e-07 -2.53391272e-06
4.46875873e-07 5.89648891e-07 -2.31552121e-06
0.00000000e+00 6.90698641e-07 -2.43250520e-06
8.59896318e-07 6.70870122e-07 -2.42487590e-06
1.12003090e-06 7.23441417e-07 -2.61370337e-06
1.28419060e-06 5.75111017e-07 -2.66011557e-06
1.31458705e-06 7.06354797e-07 -2.78133825e-06
1.71343493e-06 1.70601737e-07 -2.65418157e-06
4.66611652e-07 8.88612533e-07 -2.50667995e-06
0.00000000e+00 9.95847927e-07 -2.55415171e-06
9.08003926e-07 9.76562546e-07 -2.42784290e-06
1.21943162e-06 7.25110397e-07 -2.92544905e-06
1.04890762e-06 3.27438102e-07 -3.26255213e-06
1.53554288e-06 9.37652601e-07 -2.97724409e-06
6.31650266e-07 1.48264564e-06 -2.31806439e-06
0.00000000e+00 1.42712065e-06 -2.54737006e-06
9.48588024e-07 8.74638545e-07 -2.22905464e-06
3.69283896e-07 2.05781726e-06 -2.35324433e-06
0.00000000e+00 2.00470276e-06 -2.45920819e-06
5.44865941e-07 2.38899383e-06 -2.53804524e-06
0.00000000e+00 2.51054757e-06 -2.34731033e-06
7.80264543e-07 1.98364251e-06 -2.20616653e-06
1.14401178e-06 2.17135744e-06 -2.36765550e-06
1.04753178e-06 1.31964680e-06 -2.44903572e-06
1.92975995e-06 1.47072467e-06 -2.32950833e-06
2.79605388e-07 1.26734369e-06 -3.98234261e-06
5.76108675e-07 1.47947662e-06 -3.03762158e-06
1.44600870e-06 1.06798109e-06 -2.91196511e-06
1.47268508e-06 6.75466310e-07 -3.11088570e-06
2.14172042e-06 -3.65040592e-07 3.52176556e-07
5.15945260e-07 2.54849596e-07 -4.71997510e-06
2.70182886e-06 2.21053256e-06 -7.58171097e-07
7.10465031e-07 -9.05086608e-07 -5.18729530e-06
1.33439698e-06 7.85112377e-07 -4.00961017e-06
2.25181043e-06 9.20083778e-07 -1.62245169e-06
9.43536577e-07 -4.77393485e-07 -3.98873772e-06
2.13230987e-06 1.28973852e-06 -1.46733225e-06
0.00000000e+00 0.00000000e+00 -3.02319518e-06
4.53874463e-07 0.00000000e+00 -3.02319518e-06
4.01099527e-07 2.14467448e-07 -3.02319518e-06
0.00000000e+00 3.23454543e-07 -3.02319518e-06
7.68979362e-07 0.00000000e+00 -3.02319518e-06
8.56399538e-07 2.86181773e-07 -3.02319518e-06
1.03370348e-06 0.00000000e+00 -3.02319518e-06
1.20743118e-06 3.94423807e-07 -3.02319518e-06
1.38362248e-06 0.00000000e+00 -3.02319518e-06
1.35104358e-06 3.84489681e-07 -3.02319518e-06
1.74474712e-06 0.00000000e+00 -3.02319518e-06
1.27836063e-06 4.37418606e-07 -3.02319518e-06
1.62354115e-06 0.00000000e+00 -3.02319518e-06
1.70413648e-06 3.35375461e-07 -3.02319518e-06
5.26587144e-07 5.96841176e-07 -3.02319518e-06
0.00000000e+00 5.84284464e-07 -3.02319518e-06
9.01778549e-07 7.24275878e-07 -3.02319518e-06
1.20663640e-06 6.65982554e-07 -3.02319518e-06
1.38767564e-06 9.44455451e-07 -3.02319518e-06
1.59859655e-06 4.91301194e-07 -3.02319518e-06
1.79545077e-06 3.41335920e-07 -3.02319518e-06
3.94205244e-07 1.08599659e-06 -3.02319518e-06
0.00000000e+00 6.87321005e-07 -3.02319518e-06
1.00432499e-06 9.64482638e-07 -3.02319518e-06
1.49170558e-06 1.17222464e-06 -3.02319518e-06
1.29620230e-06 7.80403582e-07 -3.02319518e-06
1.53239569e-06 5.69343570e-07 -3.12169391e-06
1.42363706e-06 5.94377525e-07 -3.02319518e-06
1.69579187e-06 5.40892302e-07 -2.64835353e-06
1.01105366e-06 2.00271600e-07 -3.02319518e-06
1.39681492e-06 8.58942656e-07 -3.08736162e-06
1.72885257e-06 8.66413131e-07 -3.02319518e-06
1.16907302e-06 1.07658184e-06 -3.02319518e-06
1.47777132e-06 8.25670043e-07 -3.11920371e-06
1.56725775e-06 8.59366537e-07 -3.02319518e-06
1.84524060e-06 1.98403995e-07 -3.05906929e-06
1.25131999e-06 9.62158083e-07 -3.02319518e-06
1.62013373e-06 1.06906884e-06 -3.13009809e-06
1.62069000e-06 5.58217380e-07 -3.02319518e-06
0.00000000e+00 1.52134146e-06 -3.02319518e-06
1.17361544e-07 1.69646239e-06 -3.02319518e-06
4.44942060e-07 1.95603911e-06 -3.02319518e-06
0.00000000e+00 2.14982038e-06 -3.02319518e-06
1.68514248e-06 5.91913874e-07 -3.02319518e-06
1.68424185e-06 2.11715701e-07 -3.02319518e-06
5.01473743e-08 7.52449012e-07 -3.02319518e-06
4.12583347e-07 2.49038135e-06 -3.02319518e-06
0.00000000e+00 2.24491464e-06 -3.02319518e-06
8.92519950e-07 2.05079709e-06 -3.02319518e-06
1.32838886e-06 2.32664752e-06 -3.02319518e-06
1.09958648e-06 1.12128259e-06 -3.02319518e-06
1.97835766e-06 1.37917198e-06 -3.02319518e-06
1.66861219e-06 8.10941060e-07 -3.02319518e-06
9.59237354e-07 7.53402674e-08 -3.02319518e-06
3.01372006e-06 1.72787907e-06 -3.02319518e-06
</DataArray>
<DataArray type="Float32" Name="Spatial_velocity" NumberOfComponents="3" format="ascii">
3.88841072e-05 2.99114850e-04 -1.27242063e-04
7.14866328e-05 2.87633535e-04 -8.94485056e-05
6.97476062e-05 3.58395686e-04 -1.41507233e-04
2.75321418e-05 3.44999309e-04 -1.66026861e-04
3.13825622e-05 3.39940103e-04 -1.91420229e-04
8.05465315e-05 3.44728527e-04 -1.90302831e-04
6.38034326e-05 4.37814888e-04 -2.57515174e-04
3.36834710e-05 3.83825361e-04 -2.23635390e-04
1.30273940e-04 2.67901545e-04 -7.20603421e-05
1.44139442e-04 3.52175179e-04 -1.44099336e-04
1.49714484e-04 3.24019085e-04 -2.18492743e-04
2.16764980e-04 4.35618713e-04 -3.71951406e-04
1.25210645e-04 2.83799774e-04 -8.72022838e-07
1.25297214e-04 2.94612808e-04 -5.95672077e-07
1.14385766e-04 2.94617348e-04 8.79438971e-07
1.14461480e-04 2.83799454e-04 1.12276462e-06
1.25412000e-04 2.81660032e-04 -1.04642891e-06
1.25046907e-04 2.92507088e-04 -1.05901699e-06
1.14715971e-04 2.92313838e-04 1.31482136e-06
1.14444345e-04 2.81807297e-04 1.32942898e-06
0.00000000e+00 0.00000000e+00 -3.63660074e-04
6.90012021e-05 0.00000000e+00 -3.67316563e-04
6.99516022e-05 7.39777170e-05 -3.51168943e-04
0.00000000e+00 7.23932826e-05 -3.38607526e-04
0.00000000e+00 0.00000000e+00 -4.86447738e-04
9.66394800e-05 0.00000000e+00 -4.88915015e-04
9.78892858e-05 6.91195091e-05 -4.81672090e-04
0.00000000e+00 6.63476894e-05 -4.69354040e-04
1.51989356e-04 0.00000000e+00 -3.96772171e-04
1.32904504e-04 5.72919453e-05 -3.73317220e-04
1.86091173e-04 0.00000000e+00 -5.05394826e-04
1.91381812e-04 7.19413074e-05 -5.07331511e-04
2.25603348e-04 0.00000000e+00 -4.27452353e-04
2.26582823e-04 4.40903023e-05 -4.18755750e-04
2.75505328e-04 0.00000000e+00 -5.36637846e-04
2.68608070e-04 6.37316916e-05 -5.37773594e-04
3.14859732e-04 0.00000000e+00 -4.56021924e-04
3.18011182e-04 4.70425184e-05 -4.67950478e-04
3.49281181e-04 0.00000000e+00 -5.62716799e-04
3.48018773e-04 5.05152748e-05 -5.77952480e-04
3.99817800e-04 0.00000000e+00 -4.97270725e-04
4.05031838e-04 5.28274977e-05 -4.87929501e-04
4.15786984e-04 0.00000000e+00 -5.76736522e-04
4.16675524e-04 4.35871480e-05 -6.06096000e-04
4.71841427e-04 0.00000000e+00 -5.15153515e-04
4.80242888e-04 4.67559585e-05 -5.03764080e-04
4.65207384e-04 0.00000000e+00 -5.81363623e-04
4.84055578e-04 3.60044723e-05 -6.05510257e-04
4.46947997e-05 1.34736329e-04 -3.05981986e-04
0.00000000e+00 1.56744063e-04 -3.00808984e-04
9.62062259e-05 1.46564431e-04 -4.27140942e-04
0.00000000e+00 1.48184234e-04 -4.20155673e-04
1.22484285e-04 1.31583991e-04 -3.60034319e-04
2.03811825e-04 1.50638632e-04 -4.94018139e-04
2.08427198e-04 1.46632388e-04 -4.45712241e-04
2.81931629e-04 1.37719398e-04 -6.07076392e-04
3.19815124e-04 1.64849625e-04 -4.61120333e-04
3.36191268e-04 1.16296644e-04 -6.41459483e-04
4.16169583e-04 1.45413200e-04 -4.65029618e-04
4.19607124e-04 1.32769637e-04 -6.30406081e-04
4.96909255e-04 1.31991692e-04 -4.74539411e-04
5.03685966e-04 1.20272591e-04 -6.30403403e-04
2.99278981e-05 2.34919396e-04 -2.23852330e-04
0.00000000e+00 2.29142825e-04 -2.39636094e-04
8.26717878e-05 2.29179786e-04 -3.69228626e-04
0.00000000e+00 2.22717004e-04 -3.31930758e-04
1.07757791e-04 2.07253732e-04 -2.94186000e-04
2.27615164e-04 2.42969021e-04 -5.16641303e-04
9.93778594e-05 1.93806583e-04 -7.72393949e-04
3.38381302e-04 1.95870321e-04 -7.01292767e-04
2.68519780e-05 2.83926085e-04 -1.84038450e-04
0.00000000e+00 2.95678765e-04 -1.84399149e-04
5.37952656e-05 3.13639437e-04 -2.53654784e-04
0.00000000e+00 3.16514546e-04 -2.69993820e-04
0.00000000e+00 3.27546004e-04 -1.88262857e-04
5.88929033e-05 3.94840987e-04 -2.66040064e-04
0.00000000e+00 3.69985966e-04 -2.87453702e-04
7.69886828e-05 2.82146182e-04 -1.22310026e-04
1.55277259e-04 3.30353912e-04 -3.22681008e-04
1.55939211e-04 3.81679973e-04 -2.97662249e-04
0.00000000e+00 3.85232066e-04 -2.48150580e-04
9.02049433e-05 4.85880882e-04 -3.90417757e-04
0.00000000e+00 5.07493736e-04 -3.58271791e-04
1.62179174e-04 5.11111692e-04 -4.08497930e-04
2.29397949e-04 3.43250431e-04 -5.41119254e-04
3.40607832e-04 4.11996181e-04 -5.15102467e-04
0.00000000e+00 0.00000000e+00 -6.29162241e-04
1.22363665e-04 0.00000000e+00 -6.36249140e-04
1.29230611e-04 7.16301365e-05 -6.25785906e-04
0.00000000e+00 6.65472107e-05 -6.22161024e-04
2.23591866e-04 0.00000000e+00 -6.44201704e-04
2.39801273e-04 8.56822298e-05 -6.44639716e-04
3.04827903e-04 0.00000000e+00 -6.56340155e-04
3.15429905e-04 9.23316766e-05 -6.65834756e-04
3.70397669e-04 0.00000000e+00 -6.75371382e-04
3.67326662e-04 8.36424588e-05 -6.80577825e-04
4.24563303e-04 0.00000000e+00 -6.79034740e-04
4.16483148e-04 7.00425662e-05 -6.90485700e-04
4.69045102e-04 0.00000000e+00 -6.77280419e-04
4.72646992e-04 7.22981640e-05 -6.86037529e-04
1.55560978e-04 1.61841177e-04 -6.12533418e-04
0.00000000e+00 1.42494042e-04 -5.90892334e-04
2.73317273e-04 1.78850823e-04 -6.53463358e-04
3.45428474e-04 1.72343716e-04 -7.01867451e-04
3.82017519e-04 1.51768312e-04 -7.39236537e-04
4.06058156e-04 1.29765627e-04 -7.66092271e-04
4.35447815e-04 1.27987732e-04 -7.63285963e-04
1.60246593e-04 2.18556437e-04 -5.25770476e-04
0.00000000e+00 2.49932316e-04 -4.77024412e-04
3.15203884e-04 2.25441530e-04 -6.73524919e-04
3.94434785e-04 2.10623461e-04 -7.66806013e-04
3.60814447e-04 9.03552645e-05 -8.50416953e-04
4.20660945e-04 1.82012620e-04 -7.92790379e-04
1.70981963e-04 2.97572522e-04 -3.79797217e-04
0.00000000e+00 2.66269897e-04 -4.47133381e-04
3.50827730e-04 2.99192994e-04 -6.29416667e-04
1.42171353e-04 4.66627680e-04 -5.04251744e-04
0.00000000e+00 4.75240435e-04 -5.03536256e-04
1.65319740e-04 6.36800833e-04 -5.71723911e-04
0.00000000e+00 6.30180177e-04 -5.44558163e-04
2.49080884e-04 4.12863097e-04 -5.26161166e-04
3.82569648e-04 5.38552587e-04 -5.77930245e-04
3.74979922e-04 2.84917303e-04 -7.26942497e-04
5.14750951e-04 3.31602991e-04 -6.75338728e-04
1.79320225e-04 2.52724247e-04 -9.53494455e-04
3.22270818e-04 2.69862590e-04 -8.26674048e-04
4.76364745e-04 1.81150695e-04 -7.93044688e-04
5.06001350e-04 1.84962060e-04 -7.92685838e-04
4.77623427e-04 1.54044697e-04 -7.94225198e-04
4.77063528e-04 1.25553153e-04 -7.94148364e-04
5.06132666e-04 1.25500126e-04 -7.93552666e-04
5.05931675e-04 1.53788918e-04 -7.94567110e-04
4.77100461e-04 1.53755755e-04 -7.94421940e-04
4.77323192e-04 1.25695762e-04 -7.93890213e-04
5.05129981e-04 1.25466919e-04 -7.94026302e-04
5.05310192e-04 1.53772678e-04 -7.94187770e-04
0.00000000e+00 0.00000000e+00 -7.94059946e-04
1.30606204e-04 0.00000000e+00 -7.94059946e-04
1.45504935e-04 8.16409956e-05 -7.94059946e-04
0.00000000e+00 7.01567333e-05 -7.94059946e-04
2.42513212e-04 0.00000000e+00 -7.94059946e-04
2.53325503e-04 9.71500194e-05 -7.94059946e-04
3.17328610e-04 0.00000000e+00 -7.94059946e-04
3.32156749e-04 1.04502236e-04 -7.94059946e-04
3.73499672e-04 0.00000000e+00 -7.94059946e-04
3.80162121e-04 1.04913335e-04 -7.94059946e-04
4.27393796e-04 0.00000000e+00 -7.94059946e-04
4.17766685e-04 9.56482691e-05 -7.94059946e-04
4.83392068e-04 0.00000000e+00 -7.94059946e-04
4.53994871e-04 1.09110813e-04 -7.94059946e-04
1.81305077e-04 1.42967794e-04 -7.94059946e-04
0.00000000e+00 1.31618654e-04 -7.94059946e-04
3.07277747e-04 1.77722308e-04 -7.94059946e-04
3.66627763e-04 1.87072743e-04 -7.94059946e-04
4.02766949e-04 1.73170934e-04 -7.94059946e-04
4.06310312e-04 1.49642481e-04 -7.94059946e-04
4.16364957e-04 1.38125179e-04 -7.94059946e-04
2.16155007e-04 3.00003216e-04 -7.94059946e-04
0.00000000e+00 3.19102779e-04 -7.94059946e-04
3.64132458e-04 2.53091886e-04 -7.94059946e-04
4.21261822e-04 2.20768459e-04 -7.94059946e-04
4.20864177e-04 1.83106822e-04 -7.94059946e-04
4.21452889e-04 1.53170477e-04 -7.95048720e-04
4.22576122e-04 1.52776614e-04 -7.94059946e-04
4.24379192e-04 1.28139363e-04 -7.96878012e-04
4.25785693e-04 1.30968445e-04 -7.94059946e-04
4.50005755e-04 2.15175562e-04 -8.08290148e-04
4.61696327e-04 2.24457661e-04 -7.94059946e-04
4.51037515e-04 2.86497729e-04 -7.94059946e-04
4.49371873e-04 1.81262600e-04 -7.94024614e-04
4.50325606e-04 1.81813506e-04 -7.94059946e-04
4.49439452e-04 1.53897548e-04 -7.94165593e-04
4.49463871e-04 1.53583242e-04 -7.94059946e-04
4.49001323e-04 1.25784500e-04 -7.94013729e-04
4.48733161e-04 1.25484759e-04 -7.94059946e-04
0.00000000e+00 2.18107583e-04 -7.94059946e-04
2.49892822e-04 2.55134160e-04 -7.94059946e-04
1.98176567e-04 5.23694849e-04 -7.94059946e-04
0.00000000e+00 5.36861073e-04 -7.94059946e-04
4.77317022e-04 1.54019202e-04 -7.94059946e-04
4.77700320e-04 1.80658608e-04 -7.94059946e-04
4.77080262e-04 1.25457736e-04 -7.94059946e-04
2.09304213e-04 6.73161354e-04 -7.94059946e-04
0.00000000e+00 6.76475232e-04 -7.94059946e-04
3.00369866e-04 4.27073363e-04 -7.94059946e-04
4.67073929e-04 5.38252178e-04 -7.94059946e-04
4.20397060e-04 2.42889786e-04 -7.94059946e-04
5.46401483e-04 3.02274449e-04 -7.94059946e-04
5.09488920e-04 1.83887096e-04 -7.94059946e-04
5.05280332e-04 1.53322660e-04 -7.94059946e-04
5.05183591e-04 1.25672901e-04 -7.94059946e-04
</DataArray>
<DataArray type="Float32" Name="Reaction_force" NumberOfComponents="3" format="ascii">
0.00000000e+00 0.00000000e+00 0.00000000e+00
0.00000000e+00 0.00000000e+00 0.00000000e+00
0.00000000e+00 0.00000000e+00 0.00000000e+00
0.00000000e+00 0.00000000e+00 0.00000000e+00
0.00000000e+00 0.00000000e+00 0.00000000e+00
0.00000000e+00 0.00000000e+00 0.00000000e+00
0.00000000e+00 0.00000000e+00 0.00000000e+00
0.00000000e+00 0.00000000e+00 0.00000000e+00
0.00000000e+00 0.00000000e+00 0.00000000e+00
0.00000000e+00 0.00000000e+00 0.00000000e+00
0.00000000e+00 0.00000000e+00 0.00000000e+00
0.00000000e+00 0.00000000e+00 0.00000000e+00
0.00000000e+00 0.00000000e+00 0.00000000e+00
0.00000000e+00 0.00000000e+00 0.00000000e+00
0.00000000e+00 0.00000000e+00 0.00000000e+00
0.00000000e+00 0.00000000e+00 0.00000000e+00
0.00000000e+00 0.00000000e+00 0.00000000e+00
0.00000000e+00 0.00000000e+00 0.00000000e+00
0.00000000e+00 0.00000000e+00 0.00000000e+00
0.00000000e+00 0.00000000e+00 0.00000000e+00
-1.99580789e-01 -3.82690996e-01 0.00000000e+00
0.00000000e+00 5.62451899e-01 0.00000000e+00
0.00000000e+00 0.00000000e+00 0.00000000e+00
8.61633062e-01 0.00000000e+00 0.00000000e+00
-3.92793596e-01 1.56732512e+00 0.00000000e+00
0.00000000e+00 2.87000775e+00 0.00000000e+00
0.00000000e+00 0.00000000e+00 0.00000000e+00
-1.29910558e-01 0.00000000e+00 0.00000000e+00
0.00000000e+00 1.42808270e+00 0.00000000e+00
0.00000000e+00 0.00000000e+00 0.00000000e+00
0.00000000e+00 2.91247034e+00 0.00000000e+00
0.00000000e+00 0.00000000e+00 0.00000000e+00
0.00000000e+00 2.68074179e+00 0.00000000e+00
0.00000000e+00 0.00000000e+00 0.00000000e+00
0.00000000e+00 2.32448339e+00 0.00000000e+00
0.00000000e+00 0.00000000e+00 0.00000000e+00
0.00000000e+00 4.30765772e+00 0.00000000e+00
0.00000000e+00 0.00000000e+00 0.00000000e+00
0.00000000e+00 1.04920983e+00 0.00000000e+00
0.00000000e+00 0.00000000e+00 0.00000000e+00
0.00000000e+00 3.83496690e+00 0.00000000e+00
0.00000000e+00 0.00000000e+00 0.00000000e+00
0.00000000e+00 5.20668089e-01 0.00000000e+00
0.00000000e+00 0.00000000e+00 0.00000000e+00
0.00000000e+00 2.18602562e+00 0.00000000e+00
0.00000000e+00 0.00000000e+00 0.00000000e+00
0.00000000e+00 7.89422870e-01 0.00000000e+00
0.00000000e+00 0.00000000e+00 0.00000000e+00
0.00000000e+00 0.00000000e+00 0.00000000e+00
1.32947397e+00 0.00000000e+00 0.00000000e+00
0.00000000e+00 0.00000000e+00 0.00000000e+00
3.89141262e-01 0.00000000e+00 0.00000000e+00
0.00000000e+00 0.00000000e+00 0.00000000e+00
0.00000000e+00 0.00000000e+00 0.00000000e+00
0.00000000e+00 0.00000000e+00 0.00000000e+00
0.00000000e+00 0.00000000e+00 0.00000000e+00
0.00000000e+00 0.00000000e+00 0.00000000e+00
0.00000000e+00 0.00000000e+00 0.00000000e+00
0.00000000e+00 0.00000000e+00 0.00000000e+00
0.00000000e+00 0.00000000e+00 0.00000000e+00
0.00000000e+00 0.00000000e+00 0.00000000e+00
0.00000000e+00 0.00000000e+00 0.00000000e+00
0.00000000e+00 0.00000000e+00 0.00000000e+00
1.51952410e+00 0.00000000e+00 0.00000000e+00
0.00000000e+00 0.00000000e+00 0.00000000e+00
1.04496241e+00 0.00000000e+00 0.00000000e+00
0.00000000e+00 0.00000000e+00 0.00000000e+00
0.00000000e+00 0.00000000e+00 0.00000000e+00
0.00000000e+00 0.00000000e+00 0.00000000e+00
0.00000000e+00 0.00000000e+00 0.00000000e+00
0.00000000e+00 0.00000000e+00 0.00000000e+00
-2.60277092e-01 0.00000000e+00 0.00000000e+00
0.00000000e+00 0.00000000e+00 0.00000000e+00
-8.26251805e-02 0.00000000e+00 0.00000000e+00
2.64363587e-01 0.00000000e+00 0.00000000e+00
0.00000000e+00 0.00000000e+00 0.00000000e+00
8.04840147e-01 0.00000000e+00 0.00000000e+00
0.00000000e+00 0.00000000e+00 0.00000000e+00
0.00000000e+00 0.00000000e+00 0.00000000e+00
0.00000000e+00 0.00000000e+00 0.00000000e+00
1.17294192e+00 0.00000000e+00 0.00000000e+00
0.00000000e+00 0.00000000e+00 0.00000000e+00
1.96449399e+00 0.00000000e+00 0.00000000e+00
0.00000000e+00 0.00000000e+00 0.00000000e+00
0.00000000e+00 0.00000000e+00 0.00000000e+00
0.00000000e+00 0.00000000e+00 0.00000000e+00
-4.72083181e-01 2.72591209e+00 0.00000000e+00
0.00000000e+00 4.18537092e+00 0.00000000e+00
0.00000000e+00 0.00000000e+00 0.00000000e+00
-6.44196987e-01 0.00000000e+00 0.00000000e+00
0.00000000e+00 1.81058645e+00 0.00000000e+00
0.00000000e+00 0.00000000e+00 0.00000000e+00
0.00000000e+00 -1.74248993e-01 0.00000000e+00
0.00000000e+00 0.00000000e+00 0.00000000e+00
0.00000000e+00 -1.71173382e+00 0.00000000e+00
0.00000000e+00 0.00000000e+00 0.00000000e+00
0.00000000e+00 -3.30769110e+00 0.00000000e+00
0.00000000e+00 0.00000000e+00 0.00000000e+00
0.00000000e+00 -1.96165156e+00 0.00000000e+00
0.00000000e+00 0.00000000e+00 0.00000000e+00
0.00000000e+00 0.00000000e+00 0.00000000e+00
6.96290255e-01 0.00000000e+00 0.00000000e+00
0.00000000e+00 0.00000000e+00 0.00000000e+00
0.00000000e+00 0.00000000e+00 0.00000000e+00
0.00000000e+00 0.00000000e+00 0.00000000e+00
0.00000000e+00 0.00000000e+00 0.00000000e+00
0.00000000e+00 0.00000000e+00 0.00000000e+00
0.00000000e+00 0.00000000e+00 0.00000000e+00
-1.76875639e+00 0.00000000e+00 0.00000000e+00
0.00000000e+00 0.00000000e+00 0.00000000e+00
0.00000000e+00 0.00000000e+00 0.00000000e+00
0.00000000e+00 0.00000000e+00 0.00000000e+00
0.00000000e+00 0.00000000e+00 0.00000000e+00
0.00000000e+00 0.00000000e+00 0.00000000e+00
8.14157486e-01 0.00000000e+00 0.00000000e+00
0.00000000e+00 0.00000000e+00 0.00000000e+00
0.00000000e+00 0.00000000e+00 0.00000000e+00
2.48314190e+00 0.00000000e+00 0.00000000e+00
0.00000000e+00 0.00000000e+00 0.00000000e+00
8.71206045e-01 0.00000000e+00 0.00000000e+00
0.00000000e+00 0.00000000e+00 0.00000000e+00
0.00000000e+00 0.00000000e+00 0.00000000e+00
0.00000000e+00 0.00000000e+00 0.00000000e+00
0.00000000e+00 0.00000000e+00 0.00000000e+00
0.00000000e+00 0.00000000e+00 0.00000000e+00
0.00000000e+00 0.00000000e+00 0.00000000e+00
0.00000000e+00 0.00000000e+00 0.00000000e+00
0.00000000e+00 0.00000000e+00 0.00000000e+00
0.00000000e+00 0.00000000e+00 0.00000000e+00
0.00000000e+00 0.00000000e+00 0.00000000e+00
0.00000000e+00 0.00000000e+00 0.00000000e+00
0.00000000e+00 0.00000000e+00 0.00000000e+00
0.00000000e+00 0.00000000e+00 0.00000000e+00
0.00000000e+00 0.00000000e+00 0.00000000e+00
0.00000000e+00 0.00000000e+00 0.00000000e+00
0.00000000e+00 0.00000000e+00 0.00000000e+00
-1.94334716e-01 1.55890310e+00 -9.09215355e+00
0.00000000e+00 2.57239270e+00 -1.81147671e+01
0.00000000e+00 0.00000000e+00 -3.48542290e+01
-6.14881098e-01 0.00000000e+00 -1.80957184e+01
0.00000000e+00 9.03241277e-01 -1.73040981e+01
0.00000000e+00 0.00000000e+00 -3.26828461e+01
0.00000000e+00 -7.30239153e-01 -1.61337872e+01
0.00000000e+00 0.00000000e+00 -2.98852501e+01
0.00000000e+00 -1.28028989e+00 -1.55010090e+01
0.00000000e+00 0.00000000e+00 -2.70684013e+01
0.00000000e+00 -1.86159301e+00 -1.44264307e+01
0.00000000e+00 0.00000000e+00 -2.58147011e+01
0.00000000e+00 -1.47049963e+00 -6.88053989e+00
0.00000000e+00 0.00000000e+00 -1.35963249e+01
0.00000000e+00 0.00000000e+00 -3.67830048e+01
1.21688676e+00 0.00000000e+00 -2.05856533e+01
0.00000000e+00 0.00000000e+00 -2.86441116e+01
0.00000000e+00 0.00000000e+00 -2.40848083e+01
0.00000000e+00 0.00000000e+00 -1.82825127e+01
0.00000000e+00 0.00000000e+00 -1.81251984e+01
0.00000000e+00 0.00000000e+00 -1.18873224e+01
0.00000000e+00 0.00000000e+00 -2.10520554e+01
-9.25831422e-02 0.00000000e+00 -1.23633289e+01
0.00000000e+00 0.00000000e+00 -2.20480251e+01
0.00000000e+00 0.00000000e+00 -1.65912094e+01
0.00000000e+00 0.00000000e+00 -6.93050528e+00
0.00000000e+00 0.00000000e+00 0.00000000e+00
0.00000000e+00 0.00000000e+00 -7.58994198e+00
0.00000000e+00 0.00000000e+00 0.00000000e+00
0.00000000e+00 0.00000000e+00 -3.76035643e+00
0.00000000e+00 0.00000000e+00 0.00000000e+00
0.00000000e+00 0.00000000e+00 -5.15081930e+00
0.00000000e+00 0.00000000e+00 -8.06927299e+00
0.00000000e+00 0.00000000e+00 0.00000000e+00
0.00000000e+00 0.00000000e+00 4.97722912e+00
0.00000000e+00 0.00000000e+00 0.00000000e+00
0.00000000e+00 0.00000000e+00 4.25233507e+00
0.00000000e+00 0.00000000e+00 0.00000000e+00
0.00000000e+00 0.00000000e+00 2.66176176e+00
1.31402290e+00 0.00000000e+00 -1.33166637e+01
0.00000000e+00 0.00000000e+00 -1.22901230e+01
0.00000000e+00 0.00000000e+00 -2.74556522e+01
2.01860785e+00 0.00000000e+00 -2.01377850e+01
0.00000000e+00 0.00000000e+00 2.07794881e+00
0.00000000e+00 0.00000000e+00 -5.00881052e+00
0.00000000e+00 0.00000000e+00 -9.18884933e-01
0.00000000e+00 0.00000000e+00 -1.62537880e+01
-1.01971745e-01 0.00000000e+00 -7.44206667e+00
0.00000000e+00 0.00000000e+00 -1.49561434e+01
0.00000000e+00 0.00000000e+00 -1.57167158e+01
0.00000000e+00 0.00000000e+00 -1.09283676e+01
0.00000000e+00 0.00000000e+00 -1.14489365e+01
0.00000000e+00 0.00000000e+00 -5.73998928e+00
0.00000000e+00 0.00000000e+00 1.20139599e+00
0.00000000e+00 0.00000000e+00 -2.81568497e-01
</DataArray>
<DataArray type="Float32" Name="Equivalent_plastic_strain" format="ascii">
5.80261217e-03
7.43369391e-03
9.52369673e-03
6.07568526e-03
5.69902698e-03
1.01784670e-02
1.71981931e-02
1.03179140e-02
8.80330533e-03
1.71595034e-02
2.34896767e-02
2.80156126e-02
0.00000000e+00
0.00000000e+00
0.00000000e+00
0.00000000e+00
0.00000000e+00
0.00000000e+00
0.00000000e+00
0.00000000e+00
1.43640856e-02
1.41117428e-02
1.42427069e-02
1.42941847e-02
1.62046570e-02
1.61315836e-02
1.68848326e-02
1.73953860e-02
1.36180914e-02
1.43911873e-02
1.50078419e-02
1.62069798e-02
1.31929265e-02
1.50293424e-02
1.35624351e-02
1.47103627e-02
1.23333891e-02
1.62544479e-02
1.21184525e-02
1.23661333e-02
1.07526523e-02
1.47614729e-02
9.75892274e-03
1.16414566e-02
9.31311119e-03
1.27326676e-02
8.23516282e-03
1.03881927e-02
1.42237126e-02
1.31712588e-02
1.97620909e-02
1.83414211e-02
1.59721295e-02
1.79544871e-02
2.32928935e-02
1.45935096e-02
2.29938054e-02
1.51418896e-02
2.02877438e-02
1.66998142e-02
1.77572817e-02
1.61208869e-02
1.31910826e-02
9.68088512e-03
1.86988863e-02
1.51430005e-02
2.34187879e-02
2.40139861e-02
2.20201518e-02
6.10860080e-03
7.36350480e-03
6.93040411e-03
1.22127278e-02
1.13753153e-02
6.05887495e-03
1.76170886e-02
1.64339575e-02
1.12723815e-02
2.78530251e-02
2.34941984e-02
8.68499000e-03
1.94461350e-02
2.00135969e-02
2.58364649e-02
2.68940845e-02
2.24657344e-02
1.92960175e-02
1.88385337e-02
1.97661796e-02
2.05388055e-02
1.75767755e-02
1.75846736e-02
1.55000889e-02
1.48174956e-02
1.33410285e-02
1.21336275e-02
1.19042764e-02
1.07207083e-02
1.15397735e-02
1.07286153e-02
2.35587156e-02
2.55529583e-02
1.77901681e-02
1.06601014e-02
7.70651077e-03
7.44498703e-03
7.62565209e-03
2.61708746e-02
2.91113469e-02
1.73156038e-02
6.54811626e-03
8.80219042e-03
-5.45012881e-05
3.05984630e-02
3.12130339e-02
2.67870994e-02
3.51968451e-02
3.47171137e-02
3.26869567e-02
3.24212816e-02
3.13155423e-02
2.86581800e-02
1.32022595e-02
1.44944838e-02
7.69520877e-04
5.90742473e-03
3.40830203e-03
1.91825646e-03
0.00000000e+00
0.00000000e+00
0.00000000e+00
0.00000000e+00
-5.61058450e-05
0.00000000e+00
0.00000000e+00
5.67798270e-05
2.07026191e-02
1.98454894e-02
2.12733941e-02
2.21439786e-02
1.82933053e-02
1.84963676e-02
1.64667992e-02
1.50401257e-02
1.45282801e-02
1.27055747e-02
1.38405361e-02
1.13632875e-02
1.46140615e-02
1.17811784e-02
2.46775663e-02
2.90985424e-02
1.72338453e-02
1.04025139e-02
5.51776448e-03
2.97488796e-03
2.88904842e-03
3.77120338e-02
4.45339642e-02
1.40411059e-02
2.69758143e-03
-1.18565313e-04
5.54696193e-04
-2.31660164e-04
8.72886303e-04
1.76624722e-04
6.24949264e-03
-1.35071974e-03
1.31105175e-02
4.03129137e-05
2.19723658e-04
4.68039798e-06
-1.83780503e-05
-6.51826776e-05
1.11634996e-04
5.93683869e-02
6.22878410e-02
4.09898882e-02
4.68534511e-02
-5.87031936e-05
2.85672782e-04
0.00000000e+00
3.74545101e-02
3.88334580e-02
2.75568543e-02
2.88344137e-02
8.31394992e-03
9.80882929e-03
1.03604759e-03
1.47679311e-04
0.00000000e+00
</DataArray>
<DataArray type="Float32" Name="Stress_Mises" format="ascii">
2.75262284e+01
2.93447238e+01
3.22662064e+01
2.88516116e+01
2.07687845e+01
2.86728398e+01
3.61042390e+01
3.13601694e+01
3.32117348e+01
5.69617195e+01
6.78213399e+01
6.55439930e+01
1.52823526e+00
2.40373343e+00
1.57104892e+00
1.99151653e+00
8.21171045e-01
1.07093263e+00
1.03146660e+00
9.17379200e-01
2.95771666e+01
2.95638957e+01
2.93304780e+01
3.00563445e+01
2.93718920e+01
3.04528756e+01
2.99567704e+01
3.11998229e+01
2.87777753e+01
2.85930507e+01
2.96402969e+01
3.13277068e+01
2.78121629e+01
2.83459350e+01
2.88941040e+01
3.14021931e+01
2.60038400e+01
3.18745558e+01
2.89288421e+01
2.66628853e+01
2.35985041e+01
2.88475562e+01
2.55742493e+01
2.78970659e+01
2.05713997e+01
2.30321069e+01
2.24557867e+01
2.47528882e+01
2.85283732e+01
2.78504348e+01
3.52665753e+01
3.11577539e+01
3.25564706e+01
3.15212660e+01
5.79271782e+01
3.06700938e+01
5.00869112e+01
4.29216553e+01
4.07830667e+01
4.42522011e+01
3.25264235e+01
4.27399769e+01
3.33800850e+01
2.18595631e+01
2.99977384e+01
2.40824475e+01
7.22445183e+01
4.84015308e+01
5.91592979e+01
3.72752240e+01
2.47654106e+01
2.31292572e+01
2.56332297e+01
1.76922600e+01
2.25005684e+01
2.88908543e+01
2.48130894e+01
4.53923345e+01
7.95587845e+01
4.26604031e+01
3.07882595e+01
2.81825286e+01
3.40778399e+01
4.04894409e+01
6.46532650e+01
4.36938407e+01
3.13716860e+01
3.19392915e+01
3.14978173e+01
3.12663980e+01
3.31099806e+01
3.20643744e+01
3.25309014e+01
3.25232379e+01
3.08798704e+01
3.02250433e+01
2.90265737e+01
2.86159949e+01
2.85682535e+01
2.98892879e+01
3.55949605e+01
3.51479278e+01
2.99791822e+01
2.48768796e+01
2.63340772e+01
3.11480789e+01
3.47956435e+01
4.10970627e+01
5.21081327e+01
2.92929969e+01
2.25351922e+01
4.55811577e+01
2.53046535e+01
3.95721979e+01
3.57812481e+01
7.91220398e+01
4.38221722e+01
3.23989483e+01
3.39797044e+01
2.96554570e+01
4.93098958e+01
3.79183273e+01
2.82886845e+01
2.87204676e+01
2.01126251e+01
2.14177303e+01
3.01412854e+01
2.51459894e+01
3.57263589e+00
1.14087200e+00
3.38513041e+00
4.66447544e+00
1.24467000e+01
6.67034773e+00
5.37925124e+00
1.70809288e+01
3.19068680e+01
3.16564560e+01
3.36762605e+01
3.24084053e+01
3.29050951e+01
3.39912920e+01
3.39482565e+01
3.24777131e+01
3.29348736e+01
3.25232887e+01
3.23071079e+01
3.18372226e+01
3.52289009e+01
3.48554029e+01
3.04417350e+01
3.60184050e+01
2.88691626e+01
2.77372818e+01
2.18133552e+01
1.94627218e+01
2.52179074e+01
7.38317337e+01
8.26050568e+01
2.87582328e+01
1.54179320e+01
1.77184219e+01
2.79755855e+01
2.54614177e+01
3.21469593e+01
3.04495287e+01
3.63167439e+01
2.35385408e+01
5.09172554e+01
2.54359207e+01
1.91587766e+01
1.92581723e+01
1.33493757e+01
2.62205887e+01
2.15536752e+01
7.81460648e+01
9.09738388e+01
3.37556241e+01
4.51177578e+01
1.03814784e+01
2.27913685e+01
8.68627071e+00
3.62810535e+01
3.16822891e+01
3.35156429e+01
3.84381981e+01
2.81043234e+01
2.51945560e+01
2.62786045e+01
2.09907832e+01
6.48330975e+00
</DataArray>
<DataArray type="Float32" Name="Stress_Max_Principal" format="ascii">
5.17920712e+00
4.85569141e+00
1.30706950e+00
3.08772334e+00
1.70282301e+01
1.57218078e+01
7.45056771e-01
2.76885653e+00
2.74427041e+00
-2.02847018e+01
-2.17510202e+01
-2.21806982e+01
7.55240411e-01
1.40778250e+00
5.66232964e-01
1.13972574e+00
6.05561435e-01
7.62803018e-01
6.93622053e-01
6.71884000e-01
7.88317174e-01
1.01370931e+00
2.40625795e+00
8.59168947e-01
2.53870744e+00
1.27448393e+00
1.51932392e+00
5.26859581e-01
3.27819752e+00
3.96146426e+00
1.69676694e+00
7.49736596e-02
4.76287287e+00
4.48320887e+00
2.54966215e+00
1.79751985e-01
6.40423369e+00
1.28639057e+00
2.69411656e+00
5.06239706e+00
7.55900550e+00
2.94690263e+00
5.12668583e+00
3.99283943e+00
1.02028751e+01
7.72891819e+00
8.87348628e+00
7.08185350e+00
4.93613964e+00
5.25500596e+00
-2.87958929e+00
4.50082682e-02
2.59773827e+00
3.84766251e-01
-1.99465115e+01
2.91792359e+00
-1.49566605e+01
-6.00099382e+00
-8.27232504e+00
-1.02951748e+01
-1.59855813e+00
-9.58681941e+00
2.32659836e+00
1.05935201e+01
2.72807285e+00
6.74862570e+00
-2.46856709e+01
-1.03435158e+01
7.55253220e+00
4.01050639e+01
7.90174600e+00
9.21843505e+00
2.25241270e+01
2.00437994e+01
9.17184877e+00
3.83270878e+00
8.16082186e+00
-6.00404334e+00
-3.53005333e+01
-6.26193962e+00
2.65934741e+00
9.17958307e+00
9.57955122e-01
-2.87273277e+00
-1.84620063e+01
-7.66838392e-01
2.04542887e+00
8.23415041e-01
1.56584961e+00
2.09399563e+00
-1.29324025e+00
7.73885656e-01
-4.17773813e-01
5.75518008e-01
1.30038249e+00
2.40057940e+00
2.81456424e+00
3.47354174e+00
3.74422085e+00
3.19005412e+00
1.86036332e+00
-6.79088235e-01
3.32759894e+00
7.65837568e+00
7.73830921e+00
5.94004250e+00
5.25225862e+00
-4.17383114e+00
-1.24199803e+01
5.44582929e+00
1.44373682e+01
5.36574411e+00
3.13006680e+01
-3.51683755e+00
2.82913446e-03
-2.74814482e+01
-2.17516067e+00
5.02257526e-01
-5.29732242e-01
6.39775753e-01
-1.25264788e+01
-7.72767372e-01
1.69898967e+01
9.96045089e+00
5.58870087e+01
2.98233757e+01
2.11493123e+01
2.80584291e+01
2.09914470e+00
3.76162410e-01
1.75091708e+00
2.78169274e+00
9.13845098e+00
1.27519490e+00
1.44340700e+00
7.72268780e+00
1.65298700e+00
9.67629969e-01
6.08953834e-01
2.03971791e+00
-1.07917048e+00
-3.49182487e-01
-3.50804865e-01
1.33954948e+00
1.34327710e+00
2.00592452e+00
1.37112820e+00
2.66108268e+00
4.15791065e-01
1.21753585e+00
4.48881861e+00
-8.52280855e-01
5.73713386e+00
7.03968412e+00
1.16987996e+01
1.50551029e+01
1.49995990e+01
-3.43241148e+01
-4.24021492e+01
6.87898823e+00
2.40098901e+01
2.33204117e+01
1.96416945e+01
1.96873484e+01
1.16345048e+01
1.35648165e+01
1.21829972e+01
4.49714451e+01
-1.26723976e+01
2.26881987e+01
1.68194437e+01
1.40450088e+01
1.00934053e+01
1.07166228e+01
7.12638342e+00
-3.65679665e+01
-4.99767456e+01
-4.30871487e-01
-9.43798733e+00
7.21902543e+00
2.17507083e+01
2.71763033e+00
-5.41678190e-01
8.02231491e-01
5.35460472e-01
-1.58336878e+00
2.95302434e+01
2.10898485e+01
2.00210519e+01
8.61214089e+00
5.44190049e-01
</DataArray>
<DataArray type="Float32" Name="Stress_Mid_Principal" format="ascii">
-2.85900854e-01
-2.81496246e+00
-3.42009401e+00
2.81256065e-01
1.14469187e+01
8.32667048e+00
-9.58753860e+00
-3.41347522e+00
-3.59658480e+00
-2.27623177e+01
-3.23992068e+01
-3.54548726e+01
-1.39661014e-01
-5.34192502e-01
2.01748375e-01
-4.36359718e-01
-1.48908878e-02
-4.60619666e-02
6.83432892e-02
-4.48753685e-02
1.53820813e-01
-7.22474493e-02
-9.55260942e-01
-6.38414241e-01
-1.41949999e+00
-2.05361676e+00
-1.26541094e+00
-2.50776660e+00
-9.74718153e-01
-1.26619700e+00
-9.72910285e-01
-1.92099771e+00
-1.01193013e+00
-1.17017823e+00
-4.15088467e-01
-1.94361164e+00
4.82913435e-01
-4.21564996e+00
-5.45102403e-01
1.33109211e+00
3.70927728e+00
-7.18142837e-01
3.00312312e+00
1.24572251e-01
6.24672782e+00
4.50943041e+00
4.71843565e+00
2.55927724e+00
-2.09739394e+00
-1.25108451e+00
-5.42690501e+00
-1.46427841e+00
-4.40688474e-01
-2.22629589e+00
-2.41670261e+01
-1.60356328e+00
-1.87989397e+01
-1.06383735e+01
-9.80354428e+00
-1.31350950e+01
-2.34690833e+00
-1.12930677e+01
-6.71541980e+00
4.03321677e+00
-1.31285933e+00
4.96106102e+00
-3.75880742e+01
-1.87458084e+01
-2.05289154e+01
2.07271484e+01
3.56749449e+00
2.93353820e+00
1.27331398e+01
1.47333500e+01
4.83802545e+00
-1.05072914e+00
1.59049499e+00
-1.13350937e+01
-4.48747883e+01
-1.20855216e+01
-2.82738233e+00
4.19047117e+00
-6.53582537e+00
-1.26466660e+01
-2.79998228e+01
-1.43446139e+01
-4.70219886e+00
-4.29551858e+00
-4.23914376e+00
-4.45205703e+00
-4.00007223e+00
-4.41435529e+00
-3.77824496e+00
-4.76451808e+00
-2.58234458e+00
-2.33293233e+00
-9.46532458e-01
-1.94544533e-01
-8.94330144e-01
-1.67657728e+00
-6.76288611e+00
-7.92695260e+00
-2.82418638e+00
1.54783980e+00
1.24497586e+00
-2.49105660e+00
-7.80432133e+00
-1.36269426e+01
-2.45156790e+01
-1.74978460e+00
4.36393168e+00
-8.49246025e+00
1.21148300e+01
-1.05120574e+01
-7.76812939e+00
-4.71452847e+01
-9.05368572e+00
-2.67848933e+00
-5.38010013e+00
2.97329426e-01
-1.81978984e+01
-1.02792615e+01
6.10565209e+00
2.28379965e-01
3.80796738e+01
1.19007988e+01
-6.15790403e+00
1.14403474e+01
-1.12833631e+00
-2.06622452e-01
-3.66586238e-01
-1.20054281e+00
-5.56256831e-01
-2.03322421e-01
-2.73062274e-01
3.34031093e+00
-5.25821400e+00
-3.94491327e+00
-7.25644675e+00
-6.63490158e+00
-3.91057181e+00
-6.73006251e+00
-6.62769580e+00
-5.81475437e+00
-6.65840971e+00
-6.13810936e+00
-5.45882130e+00
-4.83236891e+00
-9.57570171e+00
-8.37638998e+00
-5.06699657e+00
-9.64618444e+00
-3.99786052e+00
-2.39556318e+00
5.10485703e+00
7.68050349e+00
2.42993069e+00
-3.85206413e+01
-4.67382126e+01
-2.03113588e+00
1.62994759e+01
1.07835873e+01
-3.90261200e+00
6.21399927e+00
7.79151917e-04
4.84701884e+00
-9.33221197e+00
2.96611586e+01
-1.68909512e+01
6.19626005e+00
6.16369204e+00
1.19779444e+00
3.14022231e+00
5.79544139e+00
4.49748221e+00
-4.56342239e+01
-5.38358383e+01
-5.42448131e+00
-1.63345194e+01
2.41005492e+00
6.59304412e+00
-2.33513105e+00
-1.00395414e+01
-3.71267509e+00
-3.87444496e+00
-1.22280270e+01
1.43251829e+01
5.76442432e+00
7.25378227e+00
4.79244053e+00
-2.85617858e-01
</DataArray>
<DataArray type="Float32" Name="Stress_Min_Principal" format="ascii">
-2.46543949e+01
-2.74188254e+01
-3.30109408e+01
-2.70069051e+01
-5.34045887e+00
-1.46724012e+01
-3.93311827e+01
-3.08533671e+01
-3.31699052e+01
-7.84415779e+01
-9.41946131e+01
-9.33438148e+01
-1.00197119e+00
-1.25998515e+00
-1.15437937e+00
-1.08979765e+00
-3.25632602e-01
-4.51691061e-01
-4.96908754e-01
-3.61978084e-01
-2.91009722e+01
-2.90772972e+01
-2.84084232e+01
-2.99062004e+01
-2.86110973e+01
-3.07024288e+01
-2.97225083e+01
-3.20603995e+01
-2.73854325e+01
-2.68614078e+01
-2.91873784e+01
-3.21871125e+01
-2.54679623e+01
-2.62195329e+01
-2.76975856e+01
-3.22035010e+01
-2.20481119e+01
-3.29548683e+01
-2.77141190e+01
-2.32599045e+01
-1.77142482e+01
-2.75434458e+01
-2.14128232e+01
-2.56305485e+01
-1.20555871e+01
-1.67312779e+01
-1.53638630e+01
-1.96023457e+01
-2.63846655e+01
-2.52675023e+01
-3.93449900e+01
-3.18395820e+01
-3.13106951e+01
-3.23333852e+01
-7.97776268e+01
-2.96633992e+01
-6.68505993e+01
-5.09958969e+01
-4.97986698e+01
-5.58932028e+01
-3.44926767e+01
-5.31534634e+01
-3.44566233e+01
-1.37613358e+01
-2.89969804e+01
-1.81680832e+01
-1.02447277e+02
-6.23327389e+01
-6.04177437e+01
2.42385864e-01
-1.86360015e+01
-1.62420380e+01
-5.09818856e+00
1.11473347e+00
-1.50995650e+01
-2.71023089e+01
-1.91667863e+01
-5.35345578e+01
-1.19153660e+02
-5.14618364e+01
-3.05029354e+01
-2.06789546e+01
-3.62297935e+01
-4.72523136e+01
-8.72220418e+01
-4.94387735e+01
-3.21499510e+01
-3.33493075e+01
-3.24242125e+01
-3.19198003e+01
-3.56718264e+01
-3.35535188e+01
-3.44850264e+01
-3.42764359e+01
-3.13265433e+01
-2.98904915e+01
-2.79008651e+01
-2.67705348e+01
-2.68579187e+01
-2.87990704e+01
-3.69474678e+01
-3.88333738e+01
-2.92015386e+01
-1.96566053e+01
-2.11495677e+01
-2.83640526e+01
-3.38483572e+01
-4.91297170e+01
-6.88830948e+01
-2.64603131e+01
-1.07749544e+01
-4.55361328e+01
3.46472740e+00
-4.58355718e+01
-3.85661418e+01
-1.14569309e+02
-4.80553900e+01
-3.33065114e+01
-3.66507096e+01
-2.91842189e+01
-6.43277411e+01
-4.25155129e+01
-1.49218969e+01
-2.21887228e+01
3.40724258e+01
6.10386276e+00
-1.11196736e+01
-5.89567502e-01
-1.73973668e+00
-9.38391924e-01
-2.15322399e+00
-2.35007524e+00
-4.29420112e+00
-5.84795205e+00
-4.58248699e+00
-1.10127115e+01
-3.31430779e+01
-3.28483152e+01
-3.62495108e+01
-3.38212109e+01
-3.53057747e+01
-3.69888606e+01
-3.69774599e+01
-3.40936694e+01
-3.48547993e+01
-3.37616091e+01
-3.38045158e+01
-3.21520953e+01
-3.87296677e+01
-3.73078976e+01
-2.95440683e+01
-4.02083111e+01
-2.67017950e+01
-2.41365090e+01
-1.22787467e+01
-6.16291535e+00
-1.34957187e+01
-1.10069477e+02
-1.27089844e+02
-2.48117466e+01
6.66268623e+00
3.09541622e+00
-1.11973851e+01
-9.08349776e+00
-2.39216042e+01
-1.98284111e+01
-2.87074070e+01
1.81611619e+01
-6.55676956e+01
-6.49836922e+00
-3.39790846e+00
-7.58181167e+00
-5.21278622e+00
-1.76142864e+01
-1.54867544e+01
-1.18851723e+02
-1.42818726e+02
-3.63796959e+01
-5.75683308e+01
-4.25530803e+00
-3.38038111e+00
-7.16180038e+00
-4.05082226e+01
-3.28953094e+01
-3.47271681e+01
-4.41980648e+01
-1.48031425e+00
-7.81685829e+00
-1.01912270e+01
-1.39203844e+01
-6.31407261e+00
</DataArray>
<DataArray type="Float32" Name="Stress_Pressure" format="ascii">
6.58702958e+00
8.45936543e+00
1.17079887e+01
7.87930861e+00
-7.71156320e+00
-3.12535926e+00
1.60578888e+01
1.04993283e+01
1.13407400e+01
4.04961987e+01
4.94482791e+01
5.03264599e+01
1.28797248e-01
1.28798399e-01
1.28799338e-01
1.28810540e-01
-8.83459821e-02
-8.83499905e-02
-8.83521959e-02
-8.83435234e-02
9.38627791e+00
9.37861192e+00
8.98580870e+00
9.89514875e+00
9.16396332e+00
1.04938540e+01
9.82286505e+00
1.13471022e+01
8.36065139e+00
8.05538004e+00
9.48784089e+00
1.13443789e+01
7.23900640e+00
7.63550091e+00
8.52100408e+00
1.13224534e+01
5.05365473e+00
1.19613758e+01
8.52170157e+00
5.62213823e+00
2.14865509e+00
8.43822858e+00
4.42767125e+00
7.17104561e+00
-1.46467173e+00
1.49764287e+00
5.90646863e-01
3.32040510e+00
7.84863992e+00
7.08785996e+00
1.58838281e+01
1.10862839e+01
9.71788211e+00
1.13916382e+01
4.12970547e+01
9.44967965e+00
3.35354004e+01
2.25450882e+01
2.26248469e+01
2.64411578e+01
1.28127151e+01
2.46777840e+01
1.29484816e+01
-2.88466692e-01
9.19392232e+00
2.15279883e+00
5.49070072e+01
3.04740206e+01
2.44647083e+01
-2.03581998e+01
2.38892031e+00
1.36335492e+00
-1.00530265e+01
-1.19639615e+01
3.63230348e-01
8.10677617e+00
3.13848960e+00
2.36245654e+01
6.64429951e+01
2.32697657e+01
1.02236571e+01
2.43630075e+00
1.39358884e+01
2.09239046e+01
4.45612896e+01
2.15167421e+01
1.16022401e+01
1.22738039e+01
1.16991690e+01
1.14259539e+01
1.36550466e+01
1.23979958e+01
1.28936813e+01
1.28218121e+01
1.08695018e+01
9.94094832e+00
8.67761111e+00
7.83051258e+00
8.00267577e+00
9.09519786e+00
1.39499975e+01
1.58131382e+01
9.56604201e+00
3.48346344e+00
4.05542747e+00
8.30502244e+00
1.21334738e+01
2.23101641e+01
3.52729193e+01
7.58808917e+00
-2.67544866e+00
1.62209492e+01
-1.56267411e+01
1.99548225e+01
1.54438140e+01
6.30653477e+01
1.97614126e+01
1.18275809e+01
1.41868474e+01
9.41570473e+00
3.16840386e+01
1.78558477e+01
-2.72455072e+00
3.99996352e+00
-4.26797028e+01
-1.59426785e+01
-1.29057828e+00
-1.29697360e+01
2.56309360e-01
2.56283998e-01
2.56297737e-01
2.56308407e-01
-1.42933113e+00
1.59202650e+00
1.13738070e+00
-1.67624454e-02
1.22494354e+01
1.19418659e+01
1.42990016e+01
1.28054647e+01
1.34318395e+01
1.46893685e+01
1.46519866e+01
1.28562915e+01
1.33899775e+01
1.26312648e+01
1.26307364e+01
1.14411268e+01
1.59631929e+01
1.48222508e+01
1.00407491e+01
1.69022595e+01
8.32084060e+00
6.49746254e+00
-1.50830328e+00
-5.52423048e+00
-1.31127071e+00
6.09714108e+01
7.20767365e+01
6.65463130e+00
-1.56573511e+01
-1.23998049e+01
-1.51389906e+00
-5.60594997e+00
4.09544007e+00
4.72191669e-01
8.61887401e+00
-3.09312544e+01
3.17103481e+01
-7.46202977e+00
-6.52840916e+00
-2.55366392e+00
-2.67361379e+00
3.67407262e-01
1.28762956e+00
6.70179749e+01
8.22104340e+01
1.40783498e+01
2.77802792e+01
-1.79125750e+00
-8.32112380e+00
2.25976717e+00
1.70298142e+01
1.19352512e+01
1.26887159e+01
1.93364873e+01
-1.41250381e+01
-6.34580517e+00
-5.69453616e+00
1.71934366e-01
2.01850009e+00
</DataArray>
<DataArray type="Float32" Name="Stress_Tresca" format="ascii">
2.98336015e+01
3.22745168e+01
3.43180106e+01
3.00946288e+01
2.23686888e+01
3.03942086e+01
4.00762396e+01
3.36222239e+01
3.59141760e+01
5.81568756e+01
7.24435921e+01
7.11631165e+01
1.75721157e+00
2.66776776e+00
1.72061229e+00
2.22952342e+00
9.31194067e-01
1.21449411e+00
1.19053078e+00
1.03386211e+00
2.98892889e+01
3.00910068e+01
3.08146811e+01
3.07653685e+01
3.11498051e+01
3.19769130e+01
3.12418327e+01
3.25872583e+01
3.06636295e+01
3.08228717e+01
3.08841457e+01
3.22620864e+01
3.02308354e+01
3.07027421e+01
3.02472477e+01
3.23832526e+01
2.84523458e+01
3.42412584e+01
3.04082351e+01
2.83223014e+01
2.52732539e+01
3.04903483e+01
2.65395093e+01
2.96233873e+01
2.22584620e+01
2.44601958e+01
2.42373495e+01
2.66841989e+01
3.13208053e+01
3.05225081e+01
3.64654012e+01
3.18845906e+01
3.39084342e+01
3.27181513e+01
5.98311150e+01
3.25813225e+01
5.18939400e+01
4.49949028e+01
4.15263443e+01
4.55980272e+01
3.28941183e+01
4.35666447e+01
3.67832217e+01
2.43548555e+01
3.17250532e+01
2.49167094e+01
7.77616043e+01
5.19892231e+01
6.79702759e+01
3.98626785e+01
2.65377475e+01
2.54604731e+01
2.76223152e+01
1.89290657e+01
2.42714140e+01
3.09350177e+01
2.73276081e+01
4.75305147e+01
8.38531265e+01
4.51998974e+01
3.31622829e+01
2.98585372e+01
3.71877480e+01
4.43795805e+01
6.87600339e+01
4.86719348e+01
3.41953812e+01
3.41727219e+01
3.39900615e+01
3.40137959e+01
3.43785858e+01
3.43274043e+01
3.40672531e+01
3.48519540e+01
3.26269255e+01
3.22910707e+01
3.07154293e+01
3.02440767e+01
3.06021404e+01
3.19891243e+01
3.88078310e+01
3.81542852e+01
3.25291374e+01
2.73149807e+01
2.88878768e+01
3.43040953e+01
3.91006165e+01
4.49558862e+01
5.64631144e+01
3.19061426e+01
2.52123227e+01
5.09018784e+01
2.78359402e+01
4.23187342e+01
3.85689710e+01
8.70878639e+01
4.58802303e+01
3.38087687e+01
3.61209779e+01
2.98239951e+01
5.18012624e+01
4.17427464e+01
3.19117937e+01
3.21491730e+01
2.18145828e+01
2.37195129e+01
3.22689862e+01
2.86479963e+01
3.83888149e+00
1.31455433e+00
3.90414095e+00
5.13176823e+00
1.34326522e+01
7.12314693e+00
6.02589393e+00
1.87353992e+01
3.47960663e+01
3.38159447e+01
3.68584647e+01
3.58609285e+01
3.42266045e+01
3.66396780e+01
3.66266556e+01
3.54332190e+01
3.61980762e+01
3.57675338e+01
3.51756439e+01
3.48131781e+01
3.91454582e+01
3.85254326e+01
3.40328865e+01
3.93560295e+01
3.24389286e+01
3.11761932e+01
2.39775465e+01
2.12180183e+01
2.84953175e+01
7.57453651e+01
8.46876984e+01
3.16907349e+01
1.73472035e+01
2.02249954e+01
3.08390799e+01
2.87708464e+01
3.55561085e+01
3.33932276e+01
4.08904037e+01
2.68102837e+01
5.28952980e+01
2.91865686e+01
2.02173519e+01
2.16268208e+01
1.53061914e+01
2.83309097e+01
2.26131372e+01
8.22837524e+01
9.28419800e+01
3.59488258e+01
4.81303425e+01
1.14743333e+01
2.51310895e+01
9.87943101e+00
3.99665451e+01
3.36975403e+01
3.52626286e+01
4.26146965e+01
3.10105572e+01
2.89067078e+01
3.02122793e+01
2.25325260e+01
6.85826254e+00
</DataArray>
<DataArray type="Float32" Name="Stress_Third_Invariant" format="ascii">
-2.62091930e+01
-2.62867460e+01
-3.13075854e+01
-2.83604851e+01
-1.50910244e+01
-1.88806766e+01
-3.22286596e+01
-2.80183454e+01
-3.17692997e+01
-5.68305550e+01
-6.56542880e+01
-6.24043217e+01
7.82735348e-02
2.06571501e+00
-1.46890509e+00
1.69098300e+00
6.68250561e-01
8.71063888e-01
4.57388461e-01
7.78928876e-01
-2.95617847e+01
-2.95162396e+01
-2.87268391e+01
-2.99365740e+01
-2.87611399e+01
-3.00292263e+01
-2.96322408e+01
-3.08060255e+01
-2.80447388e+01
-2.74055912e+01
-2.93658667e+01
-3.11356964e+01
-2.63571067e+01
-2.68801442e+01
-2.85021667e+01
-3.11582947e+01
-2.44112401e+01
-3.06901178e+01
-2.85043216e+01
-2.60341606e+01
-2.28309240e+01
-2.82696198e+01
-2.52809472e+01
-2.72644551e+01
-1.96751804e+01
-2.24780326e+01
-2.15453138e+01
-2.37335892e+01
-2.62011936e+01
-2.60378346e+01
-3.50410211e+01
-3.10742021e+01
-3.20288884e+01
-3.11921835e+01
-5.72951088e+01
-2.95652048e+01
-4.97430992e+01
-4.21715591e+01
-4.07160072e+01
-4.40289927e+01
-3.25069838e+01
-4.26605186e+01
-2.95210201e+01
-1.91941640e+01
-2.90745135e+01
-2.39027214e+01
-6.93595591e+01
-4.64973717e+01
-3.93999100e+01
-8.35716565e+00
-2.35214637e+01
-2.03528047e+01
-1.29583950e+01
-1.14114220e+01
-2.12354550e+01
-2.76337433e+01
-2.22693260e+01
-4.36959839e+01
-7.80571747e+01
-4.15100052e+01
-2.96566849e+01
-2.33980350e+01
-3.20963335e+01
-3.73023887e+01
-6.25573076e+01
-3.74007804e+01
-2.96684742e+01
-3.09400063e+01
-3.02364626e+01
-2.96387548e+01
-3.28543582e+01
-3.10502715e+01
-3.20949121e+01
-3.14785123e+01
-3.02893414e+01
-2.93022916e+01
-2.84438214e+01
-2.79861553e+01
-2.76968174e+01
-2.88610592e+01
-3.15507914e+01
-3.32198102e+01
-2.83134719e+01
-2.29026323e+01
-2.40567713e+01
-2.74225362e+01
-2.62426376e+01
-3.83580681e+01
-4.56197395e+01
-2.39521689e+01
-1.02796741e+01
-4.04174614e+01
1.06127346e+01
-3.71232581e+01
-3.17266642e+01
-7.32699432e+01
-3.80907383e+01
-3.15986062e+01
-3.31119132e+01
-2.96473980e+01
-4.82428792e+01
-3.49869876e+01
-2.13565732e+01
-2.12184293e+01
1.91833649e+01
1.95324707e+01
2.90476713e+01
4.03708331e+00
3.45197940e+00
-6.61317825e-01
1.78307426e+00
4.32822609e+00
6.35758402e+00
-4.42447438e+00
-4.69071770e+00
-1.52994005e+01
-3.01529942e+01
-3.07495937e+01
-3.13003454e+01
-2.96144743e+01
-3.26210041e+01
-3.22870455e+01
-3.25284519e+01
-3.05366898e+01
-3.06297808e+01
-2.98796329e+01
-3.06176033e+01
-2.93560758e+01
-3.17991638e+01
-3.11370249e+01
-2.65439954e+01
-3.25533714e+01
-2.45044591e+01
-2.33926175e+01
-1.35339272e+01
-7.88768101e+00
-9.05591297e+00
-7.32722530e+01
-8.23484268e+01
-2.21687280e+01
-2.10551620e+00
1.26981275e+01
2.54705987e+01
-1.10848560e+01
-2.01964149e+01
-2.52964840e+01
4.24851704e+00
1.52511263e+00
-5.05218391e+01
8.93926271e+00
2.08541648e+00
4.00467670e+00
-1.62890077e-01
-2.51443624e+01
-2.07344532e+01
-7.69495010e+01
-9.07894058e+01
-3.28262310e+01
-4.37804775e+01
-2.32725346e+00
6.39174970e+00
-1.33347225e+00
-3.28411322e+01
-3.09461040e+01
-3.14695181e+01
-3.47791786e+01
-8.54180241e+00
-1.50989580e+00
-1.66719213e+01
-1.97946200e+01
-6.36219120e+00
</DataArray>
<DataArray type="Float32" Name="Logarithmic_strain_Max_Principal" format="ascii">
4.61777597e-03
6.02105336e-03
7.00466451e-03
4.35872760e-03
4.77629856e-03
8.69455954e-03
1.50660640e-02
8.20765563e-03
6.79909589e-03
1.08106155e-02
1.87376440e-02
2.34930357e-02
1.99132273e-05
3.51529998e-05
1.51479157e-05
2.90929947e-05
1.36526105e-05
1.71231750e-05
1.55115122e-05
1.49925909e-05
8.85884557e-03
8.92975950e-03
9.96045000e-03
9.26905265e-03
1.18338284e-02
1.15381379e-02
1.16158167e-02
1.19939779e-02
9.99753363e-03
1.09962611e-02
1.04675158e-02
1.09546027e-02
1.04711147e-02
1.15913652e-02
9.48116276e-03
9.73534014e-03
9.91219957e-03
1.21186997e-02
8.50743474e-03
8.99792509e-03
8.01697455e-03
1.04731201e-02
6.70535455e-03
8.40836269e-03
7.34682055e-03
9.17540700e-03
6.42157439e-03
7.96786079e-03
1.14971298e-02
1.05958499e-02
1.33687416e-02
1.20812093e-02
1.12658872e-02
1.21261359e-02
1.63436923e-02
1.09231967e-02
1.53525576e-02
1.10522196e-02
1.28727797e-02
1.10517500e-02
1.08701033e-02
1.05760247e-02
1.10833715e-02
8.61194474e-03
1.40773062e-02
1.00574365e-02
1.85726264e-02
1.84969887e-02
2.80805584e-02
1.02594507e-02
5.92849949e-03
6.04643888e-03
9.62098665e-03
8.97417392e-03
4.92976658e-03
1.32778186e-02
1.32937350e-02
9.21721663e-03
1.94310662e-02
1.72896342e-02
6.86892960e-03
1.53657098e-02
1.53621910e-02
2.04278100e-02
2.10422619e-02
1.96102976e-02
1.51948794e-02
1.41020354e-02
1.51087595e-02
1.61222888e-02
1.18631679e-02
1.30661840e-02
1.06140501e-02
1.09157846e-02
9.50293615e-03
8.93790135e-03
8.38923547e-03
7.69489841e-03
8.33420106e-03
7.91027350e-03
1.87379243e-02
1.94282546e-02
1.41911713e-02
8.71271006e-03
6.56178667e-03
6.46551303e-03
6.76499827e-03
2.11672237e-02
2.28033649e-02
1.51556688e-02
7.08002853e-03
1.09718833e-02
3.13024712e-03
2.33047390e-02
2.44554455e-02
2.27163876e-02
2.39132258e-02
2.32464783e-02
2.33767591e-02
2.01136274e-02
2.18433286e-02
2.30182577e-02
1.36855568e-02
1.39391103e-02
1.34403082e-02
1.21968705e-02
6.76043413e-03
5.66235258e-03
5.37388842e-05
1.21533822e-05
4.46217964e-05
7.00951350e-05
1.91287775e-04
4.95674499e-05
4.84927568e-05
2.47401644e-04
1.63983684e-02
1.47371222e-02
1.71765788e-02
1.83496168e-02
1.23793571e-02
1.39677692e-02
1.22467200e-02
1.16759685e-02
1.16375485e-02
1.03538446e-02
1.06135556e-02
9.05553286e-03
1.18513126e-02
9.89484624e-03
2.06626165e-02
2.19059642e-02
1.55142345e-02
9.24441835e-03
5.20291808e-03
3.59012268e-03
3.84175824e-03
2.54775397e-02
2.81150062e-02
1.20934363e-02
3.46225483e-03
9.80457669e-04
1.33586610e-03
4.52975411e-04
1.36530961e-03
6.00027706e-04
8.41031421e-03
2.21023103e-03
9.49789397e-03
7.53748182e-04
5.43151536e-04
2.97763661e-04
2.03636660e-04
2.33406696e-04
2.63530179e-04
3.91870700e-02
4.05656993e-02
3.07595152e-02
3.34645351e-02
1.47794477e-04
1.50599776e-03
9.26403118e-05
2.99708219e-02
2.75738779e-02
1.89909963e-02
2.35239398e-02
9.11711250e-03
1.13130338e-02
2.46901176e-03
3.13402255e-04
3.70747948e-05
</DataArray>
<DataArray type="Float32" Name="Logarithmic_strain_Min_Principal" format="ascii">
-6.30517793e-03
-7.93057808e-03
-1.04672171e-02
-6.81060168e-03
-6.28870836e-03
-1.14499802e-02
-1.80775097e-02
-1.11029657e-02
-9.92293539e-03
-1.91334775e-02
-2.63124456e-02
-3.07366131e-02
-2.24350897e-05
-2.86582535e-05
-2.62333697e-05
-2.48385668e-05
-8.70075019e-06
-1.16366773e-05
-1.28177535e-05
-1.06039679e-05
-1.49991680e-02
-1.47469058e-02
-1.48139223e-02
-1.49481688e-02
-1.66561399e-02
-1.66351686e-02
-1.74735175e-02
-1.79737178e-02
-1.41351281e-02
-1.48559692e-02
-1.55704855e-02
-1.69399555e-02
-1.34609295e-02
-1.55304770e-02
-1.41109452e-02
-1.54858364e-02
-1.25971322e-02
-1.68731364e-02
-1.26835355e-02
-1.29358462e-02
-1.11359714e-02
-1.53204370e-02
-1.02778496e-02
-1.22215097e-02
-9.53537365e-03
-1.31113045e-02
-8.58952291e-03
-1.08373447e-02
-1.45457742e-02
-1.35377620e-02
-2.07341481e-02
-1.91495023e-02
-1.76957474e-02
-1.88541603e-02
-2.61447430e-02
-1.54970836e-02
-2.44149673e-02
-1.68181427e-02
-2.13128040e-02
-1.79238506e-02
-1.85344070e-02
-1.72837107e-02
-1.38810683e-02
-9.96188424e-03
-1.95260857e-02
-1.62371965e-02
-2.72694100e-02
-2.57107582e-02
-2.91962996e-02
-1.13001953e-02
-8.05728543e-03
-7.03597965e-03
-1.30823130e-02
-1.20811084e-02
-6.56689238e-03
-1.83715196e-02
-1.68510743e-02
-1.32229266e-02
-3.10224332e-02
-2.55407339e-02
-9.47051402e-03
-2.02730680e-02
-2.09329044e-02
-2.73019662e-02
-3.05767823e-02
-2.42422279e-02
-1.94690507e-02
-1.92155400e-02
-2.01285512e-02
-2.07465207e-02
-1.82386707e-02
-1.80467530e-02
-1.61663478e-02
-1.53879026e-02
-1.39389613e-02
-1.27147748e-02
-1.24534750e-02
-1.13511424e-02
-1.20974556e-02
-1.14466916e-02
-2.40490546e-02
-2.60478924e-02
-1.81819454e-02
-1.10004261e-02
-8.28246546e-03
-8.15861672e-03
-8.35640798e-03
-2.68457814e-02
-2.97483349e-02
-1.79127047e-02
-6.93618184e-03
-1.25523834e-02
-2.03404691e-03
-3.16489241e-02
-3.15559419e-02
-3.03039495e-02
-3.64568215e-02
-3.56100770e-02
-3.38095189e-02
-3.32449982e-02
-3.30160419e-02
-2.98259570e-02
-1.52940354e-02
-1.53394544e-02
-1.01105813e-02
-8.62767361e-03
-3.56263466e-03
-4.94910713e-03
-3.81741265e-05
-1.96589317e-05
-4.86346798e-05
-5.31816222e-05
-1.23715650e-04
-1.21138055e-04
-9.63644343e-05
-3.48070622e-04
-2.08192002e-02
-2.02407967e-02
-2.13103360e-02
-2.20010923e-02
-1.89401051e-02
-1.88960377e-02
-1.69700393e-02
-1.54409776e-02
-1.48795811e-02
-1.30999063e-02
-1.43231195e-02
-1.18951593e-02
-1.50617873e-02
-1.23199695e-02
-2.48272340e-02
-2.95671020e-02
-1.68953710e-02
-1.05711897e-02
-5.81927528e-03
-3.10815347e-03
-3.02472513e-03
-4.05720491e-02
-4.74205725e-02
-1.48242951e-02
-3.21310182e-03
-4.59879248e-04
-8.76169572e-04
-4.03218524e-04
-1.58565163e-03
-1.00283895e-03
-6.66324166e-03
-1.69501652e-03
-1.52835408e-02
-6.00896436e-04
-3.84681431e-04
-2.09971015e-04
-1.46638962e-04
-3.69852103e-04
-4.90739891e-04
-6.26459047e-02
-6.58772737e-02
-4.16382303e-02
-4.79780287e-02
-1.05166888e-04
-8.48581607e-04
-1.44594342e-04
-3.76891531e-02
-3.95183936e-02
-2.87978956e-02
-2.93747401e-02
-8.92954646e-03
-9.55428416e-03
-2.81317037e-03
-5.08207951e-04
-1.27605570e-04
</DataArray>
<DataArray type="Float32" Name="Plastic_strain_Max_Principal" format="ascii">
4.41531406e-03
5.80631438e-03
6.82807073e-03
4.19333403e-03
4.50801433e-03
8.42737932e-03
1.48626510e-02
8.06120451e-03
6.60620315e-03
1.09083904e-02
1.88402263e-02
2.34189983e-02
0.00000000e+00
0.00000000e+00
0.00000000e+00
0.00000000e+00
0.00000000e+00
0.00000000e+00
0.00000000e+00
0.00000000e+00
8.72953376e-03
8.78953165e-03
9.80090350e-03
9.12936451e-03
1.16603286e-02
1.13832622e-02
1.14568423e-02
1.18451363e-02
9.81735415e-03
1.08020232e-02
1.03078301e-02
1.08233272e-02
1.02707972e-02
1.13686416e-02
9.31164646e-03
9.59559437e-03
9.68549470e-03
1.19368499e-02
8.34283908e-03
8.79457861e-03
7.79332558e-03
1.02973023e-02
6.52566110e-03
8.21856246e-03
7.10384105e-03
8.95973155e-03
6.19681645e-03
7.74454523e-03
1.12730516e-02
1.03899785e-02
1.32746629e-02
1.19516412e-02
1.11182496e-02
1.19851989e-02
1.64118618e-02
1.08321877e-02
1.53585309e-02
1.09621799e-02
1.28429779e-02
1.10137481e-02
1.07839378e-02
1.05366935e-02
1.08771789e-02
8.35098559e-03
1.38751417e-02
9.86805954e-03
1.85855471e-02
1.85192550e-02
2.72075031e-02
9.81866584e-03
5.70866838e-03
5.80576621e-03
9.29800778e-03
8.69628275e-03
4.70924639e-03
1.31300243e-02
1.30848291e-02
9.09670838e-03
1.97094600e-02
1.71880312e-02
6.68624137e-03
1.50849684e-02
1.51667786e-02
2.02030484e-02
2.10397715e-02
1.93316471e-02
1.50045943e-02
1.39359552e-02
1.49242324e-02
1.59318582e-02
1.17355364e-02
1.28970067e-02
1.04713810e-02
1.07548903e-02
9.34387068e-03
8.76131386e-03
8.22265691e-03
7.51034339e-03
8.15464091e-03
7.71680928e-03
1.85612009e-02
1.92371551e-02
1.40157775e-02
8.47810536e-03
6.32095696e-03
6.22739934e-03
6.49578380e-03
2.10362195e-02
2.28085350e-02
1.49116459e-02
6.75308510e-03
1.05327331e-02
2.56807539e-03
2.31629997e-02
2.43260774e-02
2.26960103e-02
2.38205769e-02
2.30921330e-02
2.31511155e-02
1.99430287e-02
2.19116551e-02
2.27449359e-02
1.33249576e-02
1.36592089e-02
1.23882135e-02
1.15489652e-02
6.29696179e-03
5.23763590e-03
0.00000000e+00
0.00000000e+00
0.00000000e+00
0.00000000e+00
3.15819502e-05
0.00000000e+00
0.00000000e+00
6.55271288e-05
1.62098631e-02
1.45605016e-02
1.70021842e-02
1.81450499e-02
1.22414450e-02
1.38104106e-02
1.20862299e-02
1.14940980e-02
1.14449747e-02
1.01624937e-02
1.04315407e-02
8.86363501e-03
1.16550056e-02
9.70137073e-03
2.03887979e-02
2.16867691e-02
1.52698704e-02
8.99660937e-03
4.93541209e-03
3.29041135e-03
3.49577924e-03
2.57076146e-02
2.84754951e-02
1.18299130e-02
3.09244797e-03
5.79811396e-04
9.04123158e-04
2.82277877e-04
1.03835559e-03
3.82250641e-04
7.99523562e-03
1.51046365e-03
9.48633906e-03
3.04609678e-04
2.27161390e-04
7.71184705e-06
2.02872180e-05
5.87228387e-05
9.22977488e-05
3.93359736e-02
4.10650298e-02
3.06031474e-02
3.33347339e-02
5.00844633e-05
1.10304310e-03
0.00000000e+00
2.97624590e-02
2.73542590e-02
1.89250614e-02
2.33008433e-02
8.74007796e-03
1.09204887e-02
2.07263808e-03
1.16020339e-04
0.00000000e+00
</DataArray>
<DataArray type="Float32" Name="Plastic_strain_Min_Principal" format="ascii">
-5.79522835e-03
-7.37537746e-03
-9.81706055e-03
-6.26042637e-03
-6.13403780e-03
-1.11547602e-02
-1.73341692e-02
-1.05269847e-02
-9.25846817e-03
-1.77693455e-02
-2.46808144e-02
-2.90066833e-02
0.00000000e+00
0.00000000e+00
0.00000000e+00
0.00000000e+00
0.00000000e+00
0.00000000e+00
0.00000000e+00
0.00000000e+00
-1.44172064e-02
-1.41580384e-02
-1.42507594e-02
-1.43466794e-02
-1.60841527e-02
-1.60277416e-02
-1.68803465e-02
-1.73429828e-02
-1.35851388e-02
-1.43138177e-02
-1.49814244e-02
-1.63007495e-02
-1.29489799e-02
-1.49882977e-02
-1.35488203e-02
-1.48533452e-02
-1.21334398e-02
-1.62215668e-02
-1.21273270e-02
-1.24584497e-02
-1.07412536e-02
-1.47691100e-02
-9.82639892e-03
-1.16933095e-02
-9.23864916e-03
-1.27458437e-02
-8.24306137e-03
-1.04125659e-02
-1.40152654e-02
-1.30293570e-02
-1.99742296e-02
-1.85316294e-02
-1.70640804e-02
-1.81713924e-02
-2.46155731e-02
-1.50454611e-02
-2.31618122e-02
-1.58862958e-02
-2.04031733e-02
-1.68728731e-02
-1.78907644e-02
-1.62861692e-02
-1.32065488e-02
-9.64170671e-03
-1.89512420e-02
-1.58439795e-02
-2.55219294e-02
-2.46951990e-02
-2.90868077e-02
-1.08023070e-02
-7.64454429e-03
-6.67132926e-03
-1.30054529e-02
-1.20872906e-02
-6.22005761e-03
-1.78853292e-02
-1.64904869e-02
-1.22223594e-02
-2.90364483e-02
-2.45818799e-02
-8.88443086e-03
-1.99761698e-02
-2.02450557e-02
-2.63314308e-02
-2.91669257e-02
-2.32811322e-02
-1.88418031e-02
-1.85680636e-02
-1.94836389e-02
-2.01238892e-02
-1.75432190e-02
-1.73798641e-02
-1.54832012e-02
-1.47163986e-02
-1.33133898e-02
-1.21189199e-02
-1.18930133e-02
-1.08065389e-02
-1.15541178e-02
-1.08687000e-02
-2.33763913e-02
-2.53020790e-02
-1.76013850e-02
-1.05747576e-02
-7.83086848e-03
-7.58789732e-03
-7.70224833e-03
-2.59765433e-02
-2.84917708e-02
-1.73708724e-02
-6.64343413e-03
-1.17496531e-02
-1.93708751e-03
-3.08419033e-02
-3.08570998e-02
-2.83701979e-02
-3.56466814e-02
-3.50106950e-02
-3.29271187e-02
-3.26203350e-02
-3.18479678e-02
-2.89538628e-02
-1.49183103e-02
-1.49229309e-02
-1.07277147e-02
-8.76949728e-03
-3.24574889e-03
-4.76790253e-03
0.00000000e+00
0.00000000e+00
0.00000000e+00
0.00000000e+00
-4.71109797e-05
0.00000000e+00
0.00000000e+00
-8.82468206e-05
-2.01777052e-02
-1.95896262e-02
-2.06195768e-02
-2.13466296e-02
-1.82408597e-02
-1.81806162e-02
-1.62494527e-02
-1.47675327e-02
-1.41879776e-02
-1.24360484e-02
-1.36490548e-02
-1.12593786e-02
-1.42941577e-02
-1.16023142e-02
-2.41866359e-02
-2.87164561e-02
-1.63491387e-02
-1.00704362e-02
-5.50961460e-03
-2.89810612e-03
-2.69260886e-03
-3.84767260e-02
-4.49285060e-02
-1.43183488e-02
-3.22605140e-03
-4.85413686e-04
-6.11058970e-04
-2.87124985e-04
-1.06263447e-03
-5.44385548e-04
-6.08469709e-03
-1.79280061e-03
-1.41496444e-02
-3.63533720e-04
-2.24682988e-04
-1.29077685e-05
-1.63274190e-05
-3.67396424e-05
-1.38783973e-04
-5.97808324e-02
-6.28559440e-02
-4.09137793e-02
-4.66777142e-02
-3.57446503e-05
-6.81844842e-04
0.00000000e+00
-3.67769003e-02
-3.87154818e-02
-2.82134349e-02
-2.85745310e-02
-8.90663476e-03
-9.41783632e-03
-2.50132760e-03
-1.76412228e-04
0.00000000e+00
</DataArray>
</PointData>
<Cells>
<DataArray type="Int32" Name="connectivity" format="ascii">
0 1 2 3 4 5 6 7
1 8 9 2 5 10 11 6
12 13 14 15 16 17 18 19
20 21 22 23 24 25 26 27
21 28 29 22 25 30 31 26
28 32 33 29 30 34 35 31
32 36 37 33 34 38 39 35
36 40 41 37 38 42 43 39
40 44 45 41 42 46 47 43
23 22 48 49 27 26 50 51
22 29 52 48 26 31 53 50
29 33 54 52 31 35 55 53
33 37 56 54 35 39 57 55
37 41 58 56 39 43 59 57
41 45 60 58 43 47 61 59
49 48 62 63 51 50 64 65
48 52 66 62 50 53 67 64
52 54 68 66 53 55 69 67
63 62 70 71 65 64 72 73
71 70 4 74 73 72 75 76
70 77 5 4 72 78 79 75
74 4 7 80 76 75 81 82
4 5 6 7 75 79 83 81
5 10 11 6 79 84 85 83
24 25 26 27 86 87 88 89
25 30 31 26 87 90 91 88
30 34 35 31 90 92 93 91
34 38 39 35 92 94 95 93
38 42 43 39 94 96 97 95
42 46 47 43 96 98 99 97
27 26 50 51 89 88 100 101
26 31 53 50 88 91 102 100
31 35 55 53 91 93 103 102
35 39 57 55 93 95 104 103
39 43 59 57 95 97 105 104
43 47 61 59 97 99 106 105
51 50 64 65 101 100 107 108
50 53 67 64 100 102 109 107
53 55 69 67 102 103 110 109
55 57 111 69 103 104 112 110
65 64 72 73 108 107 113 114
64 67 78 72 107 109 115 113
73 72 75 76 114 113 116 117
76 75 81 82 117 116 118 119
75 79 83 81 116 120 121 118
79 84 85 83 120 122 123 121
84 124 125 85 122 126 127 123
128 129 130 131 132 133 134 135
86 87 88 89 136 137 138 139
87 90 91 88 137 140 141 138
90 92 93 91 140 142 143 141
92 94 95 93 142 144 145 143
94 96 97 95 144 146 147 145
96 98 99 97 146 148 149 147
89 88 100 101 139 138 150 151
88 91 102 100 138 141 152 150
91 93 103 102 141 143 153 152
93 95 104 103 143 145 154 153
95 97 105 104 145 147 155 154
97 99 106 105 147 149 156 155
101 100 107 108 151 150 157 158
100 102 109 107 150 152 159 157
102 103 110 109 152 153 160 159
103 104 112 110 153 154 161 160
104 105 162 112 154 155 163 161
105 106 164 162 155 156 165 163
109 110 166 115 159 160 167 168
110 112 169 166 160 161 170 167
112 162 171 169 161 163 172 170
162 164 173 171 163 165 174 172
114 113 116 117 175 176 177 178
169 171 132 126 170 172 179 180
171 173 133 132 172 174 181 179
117 116 118 119 178 177 182 183
116 120 121 118 177 184 185 182
120 122 123 121 184 186 187 185
122 126 127 123 186 180 188 187
126 132 135 127 180 179 189 188
132 133 134 135 179 181 190 189
</DataArray>
<DataArray type="Int32" Name="offsets" format="ascii">
8
16
24
32
40
48
56
64
72
80
88
96
104
112
120
128
136
144
152
160
168
176
184
192
200
208
216
224
232
240
248
256
264
272
280
288
296
304
312
320
328
336
344
352
360
368
376
384
392
400
408
416
424
432
440
448
456
464
472
480
488
496
504
512
520
528
536
544
552
560
568
576
584
592
600
608
616
624
632
</DataArray>
<DataArray type="UInt8" Name="types" format="ascii">
12
12
12
12
12
12
12
12
12
12
12
12
12
12
12
12
12
12
12
12
12
12
12
12
12
12
12
12
12
12
12
12
12
12
12
12
12
12
12
12
12
12
12
12
12
12
12
12
12
12
12
12
12
12
12
12
12
12
12
12
12
12
12
12
12
12
12
12
12
12
12
12
12
12
12
12
12
12
12
</DataArray>
</Cells>
</Piece>
</UnstructuredGrid>
</VTKFile>
