<VTKFile type="UnstructuredGrid" version="0.1" byte_order="LittleEndian">
<UnstructuredGrid>
<Piece NumberOfPoints="191" NumberOfCells="79">
<Points>
<DataArray type="Float64" NumberOfComponents="3" format="ascii">
 1.00088143e+00  5.01126719e+00  1.99576032e+00
 2.00187564e+00  5.01093292e+00  1.99726486e+00
 2.00155807e+00  6.01263809e+00  1.99582565e+00
 1.00048780e+00  6.01234674e+00  1.99478447e+00
 1.00068736e+00  5.01232815e+00  2.99395990e+00
 2.00169134e+00  5.01264095e+00  2.99409223e+00
 2.00076389e+00  6.01503849e+00  2.99224591e+00
 1.00037456e+00  6.01284885e+00  2.99365163e+00
 3.00303030e+00  5.01052952e+00  1.99794948e+00
 3.00320792e+00  6.01222944e+00  1.99659073e+00
 3.00391626e+00  5.01126099e+00  2.99484205e+00
 3.00731683e+00  6.01758862e+00  2.98501492e+00
 5.00325203e+00  5.01232147e+00  1.99999750e+00
 6.00325441e+00  5.01331758e+00  1.99996543e+00
 6.00224257e+00  6.01333332e+00  2.00003266e+00
 5.00222683e+00  6.01232433e+00  2.00004196e+00
 5.00327015e+00  5.01225996e+00  2.99998140e+00
 6.00326395e+00  5.01327372e+00  2.99997306e+00
 6.00225639e+00  6.01326466e+00  3.00002503e+00
 5.00226450e+00  6.01225424e+00  3.00005507e+00
 0.00000000e+00  0.00000000e+00  2.98450184e+00
 1.00278878e+00  0.00000000e+00  2.98396087e+00
 1.00268400e+00  1.00278831e+00  2.98512793e+00
 0.00000000e+00  1.00283611e+00  2.98564363e+00
 0.00000000e+00  0.00000000e+00  3.97919679e+00
 1.00409448e+00  0.00000000e+00  3.97909427e+00
 1.00413370e+00  1.00243163e+00  3.97912383e+00
 0.00000000e+00  1.00241005e+00  3.97997689e+00
 2.00607538e+00  0.00000000e+00  2.98225856e+00
 2.00533462e+00  1.00203383e+00  2.98397255e+00
 2.00790071e+00  0.00000000e+00  3.97819471e+00
 2.00807810e+00  1.00255024e+00  3.97746038e+00
 3.00922918e+00  0.00000000e+00  2.98070550e+00
 3.00923610e+00  1.00142074e+00  2.98131919e+00
 3.01150703e+00  0.00000000e+00  3.97626352e+00
 3.01141357e+00  1.00231421e+00  3.97587323e+00
 4.01295519e+00  0.00000000e+00  2.97912550e+00
 4.01293802e+00  1.00156331e+00  2.97845554e+00
 4.01447058e+00  0.00000000e+00  3.97467208e+00
 4.01449919e+00  1.00181639e+00  3.97391438e+00
 5.01601124e+00  0.00000000e+00  2.97704864e+00
 5.01633739e+00  1.00181210e+00  2.97731900e+00
 5.01682568e+00  0.00000000e+00  3.97406602e+00
 5.01694870e+00  1.00145769e+00  3.97273016e+00
 6.01829529e+00  0.00000000e+00  2.97611547e+00
 6.01895666e+00  1.00129712e+00  2.97657537e+00
 6.01846647e+00  0.00000000e+00  3.97378206e+00
 6.01915979e+00  1.00098848e+00  3.97274446e+00
 1.00156415e+00  2.00523210e+00  2.98775673e+00
 0.00000000e+00  2.00626183e+00  2.98824787e+00
 1.00411844e+00  2.00558734e+00  3.98245144e+00
 0.00000000e+00  2.00567269e+00  3.98297262e+00
 2.00457287e+00  2.00486040e+00  2.98368788e+00
 2.00872302e+00  2.00568819e+00  3.97858500e+00
 3.00810790e+00  2.00557685e+00  2.97948265e+00
 3.01180196e+00  2.00513411e+00  3.97214079e+00
 4.01338625e+00  2.00648689e+00  2.97962594e+00
 4.01404476e+00  2.00392151e+00  3.97084212e+00
 5.01728296e+00  2.00521970e+00  2.97829914e+00
 5.01731348e+00  2.00461268e+00  3.97194719e+00
 6.02030849e+00  2.00396514e+00  2.97800732e+00
 6.02055931e+00  2.00363660e+00  3.97188210e+00
 1.00076640e+00  3.00897455e+00  2.99232817e+00
 0.00000000e+00  3.00906014e+00  2.99076843e+00
 1.00273561e+00  3.00922942e+00  3.98489952e+00
 0.00000000e+00  3.00825119e+00  3.98920655e+00
 2.00409317e+00  3.00837684e+00  2.98816752e+00
 2.00927520e+00  3.00973129e+00  3.97632480e+00
 3.00335455e+00  3.00612879e+00  2.96342826e+00
 3.01452804e+00  3.00753164e+00  3.96904707e+00
 1.00058544e+00  4.01096916e+00  2.99422479e+00
 0.00000000e+00  4.01141024e+00  2.99348235e+00
 1.00122285e+00  4.01153040e+00  3.99108982e+00
 0.00000000e+00  4.01107264e+00  3.99180865e+00
 0.00000000e+00  5.01181555e+00  2.99428487e+00
 1.00146699e+00  5.01353264e+00  3.99291682e+00
 0.00000000e+00  5.01267290e+00  3.99174213e+00
 2.00156951e+00  4.01106501e+00  2.99675298e+00
 2.00430727e+00  4.01253843e+00  3.98898458e+00
 2.00502443e+00  5.01337242e+00  3.99123287e+00
 0.00000000e+00  6.01294422e+00  2.99269938e+00
 1.00261486e+00  6.01767063e+00  3.98616290e+00
 0.00000000e+00  6.01742458e+00  3.98892021e+00
 2.00634074e+00  6.02033377e+00  3.98391891e+00
 3.01132774e+00  5.01155567e+00  3.97387290e+00
 3.01555777e+00  6.01679420e+00  3.97662711e+00
 0.00000000e+00  0.00000000e+00  4.97269773e+00
 1.00533319e+00  0.00000000e+00  4.97226000e+00
 1.00569379e+00  1.00258505e+00  4.97309923e+00
 0.00000000e+00  1.00239158e+00  4.97318745e+00
 2.00972176e+00  0.00000000e+00  4.97166777e+00
 2.01037860e+00  1.00320911e+00  4.97201729e+00
 3.01298666e+00  0.00000000e+00  4.97109461e+00
 3.01339078e+00  1.00358093e+00  4.97039366e+00
 4.01530027e+00  0.00000000e+00  4.97022104e+00
 4.01530790e+00  1.00317383e+00  4.96967411e+00
 5.01722336e+00  0.00000000e+00  4.97004795e+00
 5.01702309e+00  1.00255251e+00  4.96946526e+00
 6.01894379e+00  0.00000000e+00  4.97007608e+00
 6.01907158e+00  1.00250554e+00  4.96969938e+00
 1.00698817e+00  2.00618696e+00  4.97306252e+00
 0.00000000e+00  2.00514507e+00  4.97503710e+00
 2.01205063e+00  2.00683832e+00  4.97064829e+00
 3.01477242e+00  2.00644040e+00  4.96877146e+00
 4.01588440e+00  2.00553560e+00  4.96693182e+00
 5.01691008e+00  2.00457430e+00  4.96619129e+00
 6.01798010e+00  2.00442600e+00  4.96648312e+00
 1.00758266e+00  3.00775909e+00  4.98014879e+00
 0.00000000e+00  3.00927997e+00  4.98222351e+00
 2.01382828e+00  3.00852275e+00  4.97007275e+00
 3.01676750e+00  3.00769877e+00  4.96594954e+00
 4.01537085e+00  3.00257230e+00  3.96235228e+00
 4.01746321e+00  3.00647593e+00  4.96526909e+00
 1.00621283e+00  4.00941896e+00  4.98805714e+00
 0.00000000e+00  4.00822258e+00  4.98637915e+00
 2.01552534e+00  4.01207256e+00  4.97168398e+00
 1.00686979e+00  5.01639366e+00  4.98049164e+00
 0.00000000e+00  5.01678228e+00  4.98258114e+00
 1.00755799e+00  6.02530146e+00  4.97914648e+00
 0.00000000e+00  6.02474880e+00  4.97875500e+00
 2.01302075e+00  5.01456404e+00  4.97523212e+00
 2.01769686e+00  6.02128458e+00  4.97544193e+00
 3.01753354e+00  5.01103878e+00  4.96713352e+00
 3.02264309e+00  6.01209259e+00  4.96846533e+00
 4.01087809e+00  5.00857353e+00  3.96103811e+00
 4.01663589e+00  6.00865078e+00  3.96283436e+00
 4.02009773e+00  5.00693941e+00  4.96493435e+00
 4.02251911e+00  6.00764275e+00  4.96525669e+00
 5.02037525e+00  5.00533390e+00  3.96521401e+00
 6.02038002e+00  5.00367451e+00  3.96520758e+00
 6.02202082e+00  6.00369644e+00  3.96519113e+00
 5.02197695e+00  6.00536489e+00  3.96526933e+00
 5.02037287e+00  5.00533199e+00  4.96522665e+00
 6.02039623e+00  5.00371885e+00  4.96521044e+00
 6.02202415e+00  6.00369072e+00  4.96519852e+00
 5.02212095e+00  6.00527239e+00  4.96525812e+00
 0.00000000e+00  0.00000000e+00  5.96522045e+00
 1.00578320e+00  0.00000000e+00  5.96522045e+00
 1.00649881e+00  1.00313318e+00  5.96522045e+00
 0.00000000e+00  1.00250220e+00  5.96522045e+00
 2.01052737e+00  0.00000000e+00  5.96522045e+00
 2.01116228e+00  1.00384998e+00  5.96522045e+00
 3.01352477e+00  0.00000000e+00  5.96522045e+00
 3.01411176e+00  1.00404930e+00  5.96522045e+00
 4.01541948e+00  0.00000000e+00  5.96522045e+00
 4.01578188e+00  1.00406778e+00  5.96522045e+00
 5.01737070e+00  0.00000000e+00  5.96522045e+00
 5.01702547e+00  1.00369489e+00  5.96522045e+00
 6.01969242e+00  0.00000000e+00  5.96522045e+00
 6.01856041e+00  1.00407267e+00  5.96522045e+00
 1.00814199e+00  2.00501657e+00  5.96522045e+00
 0.00000000e+00  2.00475240e+00  5.96522045e+00
 2.01344061e+00  2.00666833e+00  5.96522045e+00
 3.01566768e+00  2.00715876e+00  5.96522045e+00
 4.01670980e+00  2.00634980e+00  5.96522045e+00
 5.01691341e+00  2.00533128e+00  5.96522045e+00
 6.01723909e+00  2.00496459e+00  5.96522045e+00
 1.01055372e+00  3.01323628e+00  5.96522045e+00
 0.00000000e+00  3.01445627e+00  5.96522045e+00
 2.01655841e+00  3.01004457e+00  5.96522045e+00
 3.01751161e+00  3.00821161e+00  5.96522045e+00
 4.01753283e+00  3.00656843e+00  5.96522045e+00
 5.01759434e+00  3.00511408e+00  4.96507454e+00
 5.01765585e+00  3.00532269e+00  5.96522045e+00
 6.01769686e+00  3.00428367e+00  4.96512985e+00
 6.01766348e+00  3.00448942e+00  5.96522045e+00
 3.01898432e+00  4.00804329e+00  4.96412945e+00
 3.01928663e+00  4.00835609e+00  5.96522045e+00
 2.01984453e+00  4.01060724e+00  5.96522045e+00
 4.01891899e+00  4.00654030e+00  4.96534348e+00
 4.01883936e+00  4.00662565e+00  5.96522045e+00
 5.01874876e+00  4.00538969e+00  4.96522141e+00
 5.01878500e+00  4.00534916e+00  5.96522045e+00
 6.01879787e+00  4.00398874e+00  4.96519375e+00
 6.01878834e+00  4.00394011e+00  5.96522045e+00
 0.00000000e+00  4.00227737e+00  5.96522045e+00
 1.01705849e+00  4.00501490e+00  5.96522045e+00
 1.01106215e+00  5.02002811e+00  5.96522045e+00
 0.00000000e+00  5.02009201e+00  5.96522045e+00
 5.02030659e+00  5.00531101e+00  5.96522045e+00
 4.02023506e+00  5.00706482e+00  5.96522045e+00
 6.02041721e+00  5.00374937e+00  5.96522045e+00
 1.01209927e+00  6.02646971e+00  5.96522045e+00
 0.00000000e+00  6.02938986e+00  5.96522045e+00
 2.01549840e+00  5.01492977e+00  5.96522045e+00
 2.02208304e+00  6.01957417e+00  5.96522045e+00
 3.01945066e+00  5.01036596e+00  5.96522045e+00
 3.02406955e+00  6.01122046e+00  5.96522045e+00
 4.02274084e+00  6.00720787e+00  5.96522045e+00
 5.02210617e+00  6.00522375e+00  5.96522045e+00
 6.02202511e+00  6.00371075e+00  5.96522045e+00
</DataArray>
</Points>
<PointData Tensors="Stress_Components,Plastic_strain_components" Vevtors="Spatial_displacement,Reaction_force" Scalars="Equivalent_plastic_strain,Stress_Mises,Stress_Max_Principal,Stress_Mid_Principal,Stress_Min_Principal,Stress_Pressure,Stress_Tresca,Stress_Third_Invariant,Plastic_strain_Max_Principal,Plastic_strain_Min_Principal">
<DataArray type="Float32" Name="Stress_Components" NumberOfComponents="9" format="ascii">
1.39418654e+00 -2.89627272e+00 8.25601947e-01 -2.89627272e+00 5.23630425e-01 2.71625753e+00 8.25601947e-01 2.71625753e+00 -2.61725106e+01
6.13930896e-01 -2.62285015e+00 3.23909625e-01 -2.62285015e+00 2.95046099e-01 2.58486500e+00 3.23909625e-01 2.58486500e+00 -2.67991016e+01
-1.66024727e+00 -6.27966024e-01 1.38570768e+00 -6.27966024e-01 1.08413219e+00 -6.06187433e-02 1.38570768e+00 -6.06187433e-02 -3.15401971e+01
-1.53157696e+00 -2.14238800e-02 -1.91754898e+00 -2.14238800e-02 2.20804771e+00 -8.45157467e-01 -1.91754898e+00 -8.45157467e-01 -2.92017207e+01
5.05671845e+00 1.51726555e+00 3.73490480e+00 1.51726555e+00 6.53127358e+00 5.37407313e-01 3.73490480e+00 5.37407313e-01 -1.79239286e+01
3.34676540e+00 -1.45763234e+00 -1.88836767e+00 -1.45763234e+00 5.87532358e+00 3.00284245e+00 -1.88836767e+00 3.00284245e+00 -2.10349936e+01
-3.01444522e+00 2.27125472e+00 2.63473275e+00 2.27125472e+00 -3.30737075e+00 -3.75959629e+00 2.63473275e+00 -3.75959629e+00 -3.31234913e+01
-2.33592875e+00 2.63192664e+00 4.71892270e+00 2.63192664e+00 -3.40025067e-01 1.86930847e+00 4.71892270e+00 1.86930847e+00 -2.84082384e+01
2.07842720e+00 -1.86275691e-03 -3.70020003e+00 -1.86275691e-03 1.19112650e+00 3.52550954e+00 -3.70020003e+00 3.52550954e+00 -2.65645623e+01
-8.58378673e+00 -1.97069794e-02 2.45800260e+00 -1.97069794e-02 -8.06209779e+00 6.05867386e+00 2.45800260e+00 6.05867386e+00 -4.77858257e+01
-1.51387515e+01 3.50188700e+00 -1.36576662e+01 3.50188700e+00 -1.30416628e+01 4.85081553e+00 -1.36576662e+01 4.85081553e+00 -5.31415037e+01
-1.38246067e+01 7.34589767e+00 -9.42850137e+00 7.34589767e+00 -1.58064137e+01 -1.90507743e+00 -9.42850137e+00 -1.90507743e+00 -5.88263550e+01
6.42846376e-02 -5.96998096e-01 5.89956343e-02 -5.96998096e-01 7.46175051e-02 -7.97892436e-02 5.89956343e-02 -7.97892436e-02 -4.10814568e-01
-2.18730807e-01 -3.23566645e-01 -2.30529964e-01 -3.23566645e-01 3.07709679e-01 -1.69567302e-01 -2.30529964e-01 -1.69567302e-01 -3.60898021e-01
1.50738094e-01 -6.55248649e-02 2.96417259e-01 -6.55248649e-02 1.30205732e-01 2.21985012e-01 2.96417259e-01 2.21985012e-01 -5.52857459e-01
1.23601167e-01 -3.38978142e-01 -1.61848143e-01 -3.38978142e-01 -4.12950873e-01 -1.82572544e-01 -1.61848143e-01 -1.82572544e-01 1.74276866e-02
1.96277365e-01 1.62643820e-01 2.54575402e-01 1.62643820e-01 2.31494680e-01 2.14226112e-01 2.54575402e-01 2.14226112e-01 -2.36631468e-01
-9.10258442e-02 1.25692725e-01 1.60396084e-01 1.25692725e-01 -1.94227010e-01 2.77862865e-02 1.60396084e-01 2.77862865e-02 4.76412773e-01
7.39866048e-02 5.64953238e-02 -3.42186064e-01 5.64953238e-02 4.47623506e-02 -3.40861171e-01 -3.42186064e-01 -3.40861171e-01 7.24049956e-02
-2.60916561e-01 9.34167132e-02 7.88213834e-02 9.34167132e-02 -1.51770830e-01 1.56344116e-01 7.88213834e-02 1.56344116e-01 6.03832126e-01
6.28499418e-01 2.42748676e-04 2.01224864e+00 2.42748676e-04 8.68644923e-01 -8.03665906e-01 2.01224864e+00 -8.03665906e-01 -2.82044716e+01
8.29662722e-01 -7.44392816e-02 1.97621152e+00 -7.44392816e-02 7.59040713e-02 3.89303267e-03 1.97621152e+00 3.89303267e-03 -2.88042498e+01
3.24689822e-01 -1.75474960e+00 2.47234920e+00 -1.75474960e+00 2.24877945e-01 7.43638664e-01 2.47234920e+00 7.43638664e-01 -2.88018897e+01
-4.97629412e-01 4.14658552e-02 2.22558430e+00 4.14658552e-02 1.05111539e+00 -9.10897732e-01 2.22558430e+00 -9.10897732e-01 -2.90731778e+01
2.23849332e+00 -3.36220110e-05 1.52843696e+00 -3.36220110e-05 -3.21181345e+00 1.63963009e-02 1.52843696e+00 1.63963009e-02 -3.05438509e+01
1.75375080e+00 5.52537497e-02 1.36619799e-01 5.52537497e-02 -3.11295271e+00 1.47207341e+00 1.36619799e-01 1.47207341e+00 -3.10013890e+01
1.17448694e+00 1.05456079e-01 2.33898444e+00 1.05456079e-01 -2.79816001e+00 4.78221525e-01 2.33898444e+00 4.78221525e-01 -3.08724639e+01
9.48724791e-01 5.28880451e-02 2.47413817e+00 5.28880451e-02 -3.09779254e+00 -1.31491351e+00 2.47413817e+00 -1.31491351e+00 -3.15122914e+01
2.37512538e+00 -1.59078544e+00 3.25592315e+00 -1.59078544e+00 -1.84661648e+00 2.48806583e-01 3.25592315e+00 2.48806583e-01 -2.85688171e+01
1.00733135e+00 -2.69672486e+00 1.52416342e+00 -2.69672486e+00 -1.89029236e+00 5.64567048e-01 1.52416342e+00 5.64567048e-01 -3.01130919e+01
1.58867349e+00 4.07363787e-01 -1.10681508e+00 4.07363787e-01 -2.40424500e+00 7.74812695e-01 -1.10681508e+00 7.74812695e-01 -3.06411366e+01
1.42414568e-01 5.70033139e-01 1.40537207e+00 5.70033139e-01 -2.33940341e+00 1.82398669e+00 1.40537207e+00 1.82398669e+00 -3.21617148e+01
4.09149820e+00 9.53435134e-02 1.20151716e+00 9.53435134e-02 -3.55000085e+00 1.30176769e+00 1.20151716e+00 1.30176769e+00 -2.83828444e+01
7.39982262e-01 -1.29310939e+00 -8.33038144e-01 -1.29310939e+00 -2.87651750e+00 -1.11049725e+00 -8.33038144e-01 -1.11049725e+00 -3.14975734e+01
1.91644712e+00 -2.71480564e-01 -3.85752350e-01 -2.71480564e-01 -1.73660919e+00 4.74010865e-01 -3.85752350e-01 4.74010865e-01 -2.96877532e+01
-1.47891304e-01 -3.87149069e-01 -1.31453715e+00 -3.87149069e-01 -2.38034432e+00 5.96059038e-01 -1.31453715e+00 5.96059038e-01 -3.24030161e+01
4.74793988e+00 2.05271528e-03 -1.33190355e+00 2.05271528e-03 -2.82378288e+00 -4.12305467e-01 -1.33190355e+00 -4.12305467e-01 -2.70782971e+01
-1.07065096e+00 6.46213550e-01 -6.86614875e-01 6.46213550e-01 -2.62984005e+00 -2.26741821e-01 -6.86614875e-01 -2.26741821e-01 -3.34515727e+01
2.36058068e+00 4.84632822e-02 -1.66382605e+00 4.84632822e-02 -1.20875491e+00 3.48676816e-01 -1.66382605e+00 3.48676816e-01 -2.84868631e+01
2.14595953e+00 -1.37516745e+00 -2.02714542e+00 -1.37516745e+00 -1.11766991e+00 -9.96892586e-01 -2.02714542e+00 -9.96892586e-01 -2.83007481e+01
4.13986510e+00 7.77877882e-01 8.75657037e-01 7.77877882e-01 -1.22495562e-01 -1.27184712e+00 8.75657037e-01 -1.27184712e+00 -2.53526044e+01
6.98350981e-01 8.49520687e-01 -3.32816490e-02 8.49520687e-01 -1.07296368e+00 1.87876247e-01 -3.32816490e-02 1.87876247e-01 -3.02780099e+01
2.86408728e+00 2.68065125e-01 -3.69020468e+00 2.68065125e-01 -1.80683583e-02 4.58082326e-01 -3.69020468e+00 4.58082326e-01 -2.60966330e+01
4.93174467e-01 -4.64176268e-01 -1.76744835e+00 -4.64176268e-01 1.44830663e-01 -6.84737213e-01 -1.76744835e+00 -6.84737213e-01 -2.88481886e+01
5.41298103e+00 1.65927953e+00 1.37429047e+00 1.65927953e+00 -3.42454016e-01 -1.65440938e+00 1.37429047e+00 -1.65440938e+00 -2.36998606e+01
3.32977322e+00 8.61044519e-01 1.69838129e-01 8.61044519e-01 3.00669849e-01 -1.11406606e+00 1.69838129e-01 -1.11406606e+00 -2.58093672e+01
4.20077944e+00 2.20666724e+00 -3.31110835e+00 2.20666724e+00 -8.69187266e-02 -2.36851528e-01 -3.31110835e+00 -2.36851528e-01 -2.45698872e+01
2.46168590e+00 1.42546007e+00 -9.46385443e-01 1.42546007e+00 1.20311975e-02 3.56543288e-02 -9.46385443e-01 3.56543288e-02 -2.68548446e+01
-2.19315638e+00 -3.14621790e+00 5.27298534e+00 -3.14621790e+00 7.31195834e-01 -1.01478179e+00 5.27298534e+00 -1.01478179e+00 -2.78575940e+01
-1.50359000e+00 -2.05048805e+00 3.59300059e+00 -2.05048805e+00 4.04798490e+00 -7.45096266e-01 3.59300059e+00 -7.45096266e-01 -2.59397044e+01
-1.15745025e+00 -8.46362010e-01 5.08635774e+00 -8.46362010e-01 -4.29672321e+00 1.15071665e+00 5.08635774e+00 1.15071665e+00 -3.41463327e+01
3.34892169e-01 -1.26698714e-01 5.53577876e+00 -1.26698714e-01 -3.18234766e+00 -4.09430616e-01 5.53577876e+00 -4.09430616e-01 -3.10263729e+01
-1.38444647e+00 -6.68017081e-01 2.40323610e+00 -6.68017081e-01 -1.91773158e+00 -1.73586005e+00 2.40323610e+00 -1.73586005e+00 -3.42300336e+01
-5.62385321e-02 6.60835470e-01 1.22682130e+00 6.60835470e-01 -1.11185738e+00 -1.77175499e+00 1.22682130e+00 -1.77175499e+00 -3.09841268e+01
-1.09354242e+01 -1.28049467e+00 -7.79047689e+00 -1.28049467e+00 -1.22964664e+01 4.47491014e-01 -7.79047689e+00 4.47491014e-01 -5.12982841e+01
-2.24328045e-01 1.26738679e+00 -5.24791309e+00 1.26738679e+00 -4.19497226e-01 -9.37473842e-01 -5.24791309e+00 -9.37473842e-01 -2.87645701e+01
-8.73156977e+00 2.63115197e-01 -1.75186259e+00 2.63115197e-01 -7.27371466e+00 1.71146265e+00 -1.75186259e+00 1.71146265e+00 -4.72636061e+01
-2.36400967e+00 -8.48037153e-01 -8.69835434e+00 -8.48037153e-01 -8.16180444e+00 2.19343262e+00 -8.69835434e+00 2.19343262e+00 -3.64848198e+01
-3.75379395e+00 -4.82971065e-01 -8.92865852e-01 -4.82971065e-01 -3.70176423e+00 6.95106864e-01 -8.92865852e-01 6.95106864e-01 -3.79237909e+01
-4.98698854e+00 4.76337314e-01 -2.42446572e+00 4.76337314e-01 -5.17587483e+00 1.85280858e-01 -2.42446572e+00 1.85280858e-01 -4.12073660e+01
-3.54178548e-02 9.40176621e-02 -6.82374775e-01 9.40176621e-02 -1.03243494e+00 1.38561130e-02 -6.82374775e-01 1.38561130e-02 -3.09720602e+01
-3.55039370e+00 9.39073652e-01 -1.43520427e+00 9.39073652e-01 -5.81771994e+00 -2.81375536e+00 -1.43520427e+00 -2.81375536e+00 -3.95253906e+01
-5.34228827e+00 -1.65466035e+00 6.44605742e+00 -1.65466035e+00 -1.01080779e+00 -2.39834241e-01 6.44605742e+00 -2.39834241e-01 -3.13137757e+01
-8.46563622e-01 1.67883899e-01 5.14776427e+00 1.67883899e-01 7.57399827e+00 3.38512850e+00 5.14776427e+00 3.38512850e+00 -1.97381281e+01
1.86250516e+00 -9.43516540e-01 4.95098920e+00 -9.43516540e-01 -1.63871244e+00 -2.68918536e+00 4.95098920e+00 -2.68918536e+00 -2.74173451e+01
1.10706295e+00 1.35341293e+00 7.22904193e+00 1.35341293e+00 7.02299777e-01 -6.19055772e+00 7.22904193e+00 -6.19055772e+00 -2.27485268e+01
-1.75516539e+01 -3.39716682e+00 9.04315603e+00 -3.39716682e+00 -1.53992555e+01 -8.02782673e+00 9.04315603e+00 -8.02782673e+00 -5.89564934e+01
-3.75677245e+00 -1.05054688e+00 7.31425762e-01 -1.05054688e+00 -9.90201027e+00 -4.09870224e+00 7.31425762e-01 -4.09870224e+00 -4.28817589e+01
-2.56195774e+01 -9.71649075e+00 -2.15541859e+01 -9.71649075e+00 -2.19518261e+01 -1.81970291e+01 -2.15541859e+01 -1.81970291e+01 -1.03156662e+01
1.29823194e+01 -1.74698045e+00 -5.81114674e+00 -1.74698045e+00 9.56083059e+00 -5.22876469e+00 -5.81114674e+00 -5.22876469e+00 -4.54108810e+00
-1.48027089e+00 -1.00730560e+00 3.55419440e+00 -1.00730560e+00 4.19275754e+00 4.61744238e+00 3.55419440e+00 4.61744238e+00 -2.39593885e+01
-7.17005730e-02 -1.77049884e+00 6.92486316e+00 -1.77049884e+00 4.65320849e+00 2.13768169e+00 6.92486316e+00 2.13768169e+00 -1.93640494e+01
4.54555686e+00 -5.19123673e-03 6.19131107e+00 -5.19123673e-03 5.18364612e+00 1.55089578e+00 6.19131107e+00 1.55089578e+00 -1.49920507e+01
6.74636590e+00 6.10937253e-01 6.29979081e-01 6.10937253e-01 1.08073246e+01 -7.97059469e-01 6.29979081e-01 -7.97059469e-01 -1.13680339e+01
2.58202261e+00 2.53344825e+00 4.09482658e-01 2.53344825e+00 4.35907835e+00 -1.62330458e+00 4.09482658e-01 -1.62330458e+00 -2.04205637e+01
-2.32713148e+00 2.57221908e+00 -6.75035409e-01 2.57221908e+00 -4.45988476e-01 3.35249923e+00 -6.75035409e-01 3.35249923e+00 -2.69882499e+01
4.06694710e-01 1.66689512e+00 1.09520379e+00 1.66689512e+00 6.11674595e+00 2.28057650e+00 1.09520379e+00 2.28057650e+00 -2.16799686e+01
-1.17257111e+01 -2.72861257e-01 -1.75551057e-01 -2.72861257e-01 -3.52766526e+00 1.00932465e+01 -1.75551057e-01 1.00932465e+01 -3.01652815e+01
-1.71468191e+01 -1.02459013e+00 1.11507292e+01 -1.02459013e+00 -2.41779299e+01 6.40503287e+00 1.11507292e+01 6.40503287e+00 -6.95056915e+01
-8.93890568e+00 1.93359983e-01 -4.08965645e+00 1.93359983e-01 -8.50135705e+00 -2.28297524e+00 -4.08965645e+00 -2.28297524e+00 -4.30876095e+01
-3.97789603e+00 -4.59454343e-01 2.68369210e+00 -4.59454343e-01 2.54905427e+00 3.92684722e+00 2.68369210e+00 3.92684722e+00 -2.91118946e+01
1.64543581e+00 2.87701228e+00 -9.86899585e-01 2.87701228e+00 3.95478588e+00 8.94707806e-01 -9.86899585e-01 8.94707806e-01 -2.51980624e+01
-5.60847151e+00 -2.14014485e-01 4.27940226e+00 -2.14014485e-01 1.38601726e+00 -4.18500221e+00 4.27940226e+00 -4.18500221e+00 -3.31965580e+01
-5.30908492e+00 5.03701150e-01 -4.10356760e+00 5.03701150e-01 -4.82715708e+00 4.50939366e+00 -4.10356760e+00 4.50939366e+00 -3.82051940e+01
-1.37202788e+01 2.35530651e+00 2.32460149e+00 2.35530651e+00 -8.84795695e+00 -1.10449295e+01 2.32460149e+00 -1.10449295e+01 -5.31072718e+01
-3.45600923e+00 -1.32790470e+00 -1.44292478e+00 -1.32790470e+00 -4.71856149e+00 -2.88173264e+00 -1.44292478e+00 -2.88173264e+00 -3.82037563e+01
2.07044911e+00 1.23603875e-03 5.18320858e-01 1.23603875e-03 -6.39274740e+00 -7.11052656e-01 5.18320858e-01 -7.11052656e-01 -3.35056343e+01
1.19438320e+00 5.13352111e-01 1.32365665e+00 5.13352111e-01 -5.43871164e+00 5.07301444e-01 1.32365665e+00 5.07301444e-01 -3.37509680e+01
1.06299842e+00 1.76093675e+00 1.21760347e+00 1.76093675e+00 -4.80128491e+00 1.01223681e+00 1.21760347e+00 1.01223681e+00 -3.31386466e+01
2.05097830e+00 2.42912199e-01 1.58454758e+00 2.42912199e-01 -6.43120909e+00 5.79024591e-02 1.58454758e+00 5.79024591e-02 -3.34912291e+01
-1.01540038e+00 1.12459230e+00 6.34345680e-01 1.12459230e+00 -2.81426805e+00 1.36501046e+00 6.34345680e-01 1.36501046e+00 -3.38917193e+01
-7.37697287e-01 2.63740559e+00 4.95361008e-01 2.63740559e+00 -1.82756797e+00 4.40054357e-01 4.95361008e-01 4.40054357e-01 -3.20372384e+01
-2.48662642e+00 7.67939925e-01 -1.10025910e+00 7.67939925e-01 3.83466139e-01 5.00849150e-01 -1.10025910e+00 5.00849150e-01 -3.20786691e+01
-2.17088221e+00 1.65752755e+00 -4.08094300e-01 1.65752755e+00 8.43173192e-01 5.94221932e-01 -4.08094300e-01 5.94221932e-01 -3.08984873e+01
-2.04540539e+00 1.63108157e-02 -6.90646216e-01 1.63108157e-02 2.25709331e+00 -1.31692732e-01 -6.90646216e-01 -1.31692732e-01 -2.95662484e+01
-1.86824300e+00 -3.82924660e-01 -9.16892976e-01 -3.82924660e-01 2.47874586e+00 3.54716912e-01 -9.16892976e-01 3.54716912e-01 -2.87959340e+01
-7.70057783e-01 -5.23219436e-01 -1.16226682e+00 -5.23219436e-01 2.57589141e+00 5.80399853e-01 -1.16226682e+00 5.80399853e-01 -2.79073272e+01
-4.90170946e-01 -1.31126079e+00 -2.04141378e+00 -1.31126079e+00 1.64773921e+00 -1.17685087e-01 -2.04141378e+00 -1.17685087e-01 -2.80608337e+01
-6.61191583e-01 3.80456761e-01 -1.01782191e+00 3.80456761e-01 3.20192659e+00 1.42204970e+00 -1.01782191e+00 1.42204970e+00 -2.71295309e+01
-1.11139268e-01 -1.60063419e+00 -1.03278887e+00 -1.60063419e+00 4.96078946e-01 -5.27887974e-01 -1.03278887e+00 -5.27887974e-01 -2.92777939e+01
1.13409973e+00 2.17513278e+00 3.12748392e+00 2.17513278e+00 -6.54916257e+00 8.87353197e-02 3.12748392e+00 8.87353197e-02 -3.36310641e+01
2.63598540e-01 1.33166993e+00 4.23642373e+00 1.33166993e+00 -8.03291386e+00 -2.13991326e+00 4.23642373e+00 -2.13991326e+00 -3.58009691e+01
1.84582185e+00 2.67827624e+00 -6.96923966e-01 2.67827624e+00 -1.24675900e+00 4.88592029e-01 -6.96923966e-01 4.88592029e-01 -2.87642465e+01
2.52568723e+00 2.55377389e+00 -2.59562255e+00 2.55377389e+00 3.40263618e+00 1.26035169e-01 -2.59562255e+00 1.26035169e-01 -2.18883697e+01
1.42134508e+00 1.12521807e+00 -3.07041768e+00 1.12521807e+00 5.73114787e+00 -7.11326783e-01 -3.07041768e+00 -7.11326783e-01 -2.25149897e+01
2.94593473e-02 -6.10552271e-01 -6.04433035e+00 -6.10552271e-01 1.66082374e+00 -1.58499264e+00 -6.04433035e+00 -1.58499264e+00 -2.53469189e+01
6.08870983e-02 -3.77233378e+00 -7.50776736e+00 -3.77233378e+00 -2.90162269e+00 -4.07763386e+00 -7.50776736e+00 -4.07763386e+00 -2.74219182e+01
2.81437774e-01 -7.09800055e-01 8.84932693e+00 -7.09800055e-01 -1.14213439e+01 -1.86693710e+00 8.84932693e+00 -1.86693710e+00 -3.44408533e+01
-4.28041045e+00 -1.90048997e+00 9.32825518e+00 -1.90048997e+00 -1.70176913e+01 -2.70838881e+00 9.32825518e+00 -2.70838881e+00 -4.53319677e+01
3.97127899e+00 2.45098857e+00 1.09993020e+00 2.45098857e+00 -1.68068324e+00 -3.61863127e+00 1.09993020e+00 -3.61863127e+00 -2.62254998e+01
5.80840399e+00 4.59414879e+00 -7.06553849e+00 4.59414879e+00 2.13705985e+00 -3.26478157e+00 -7.06553849e+00 -3.26478157e+00 -1.45745383e+01
-1.23449659e+01 -1.02036285e+01 -1.28652592e+01 -1.02036285e+01 -2.54641647e+01 -1.77361221e+01 -1.28652592e+01 -1.77361221e+01 6.78276348e+00
1.19165585e+01 2.17697144e+00 -4.96999891e+00 2.17697144e+00 7.52110152e+00 -8.50708258e-01 -4.96999891e+00 -8.50708258e-01 -1.10738721e+00
-1.57559207e+00 1.34305367e+00 -2.24484563e-01 1.34305367e+00 -8.34157251e+00 3.30640030e+00 -2.24484563e-01 3.30640030e+00 -3.00983372e+01
1.48694658e+00 1.55426989e+00 -3.68293589e+00 1.55426989e+00 -2.58669587e+00 2.21107813e+00 -3.68293589e+00 2.21107813e+00 -2.83619041e+01
-1.21838655e+01 -2.75899649e-01 1.49079999e+00 -2.75899649e-01 -1.85061276e+01 -6.09451413e+00 1.49079999e+00 -6.09451413e+00 -6.77780838e+01
-5.01023353e+00 -4.02493041e-01 -1.81893190e-01 -4.02493041e-01 -1.95520326e+00 1.78222752e+00 -1.81893190e-01 1.78222752e+00 -3.77109414e+01
-2.17323434e+00 -4.07735139e-01 5.32407952e-01 -4.07735139e-01 4.60908473e-01 -1.21317968e+00 5.32407952e-01 -1.21317968e+00 -3.22645848e+01
-2.31757092e+00 -9.68725204e-01 2.46053322e+00 -9.68725204e-01 -2.66724485e+00 2.50145167e+00 2.46053322e+00 2.50145167e+00 -3.43049650e+01
-7.44343996e-01 3.64013299e-01 1.99010451e+00 3.64013299e-01 -3.58195305e-01 5.02552800e-02 1.99010451e+00 5.02552800e-02 -3.11324711e+01
-8.20408618e+00 1.96258864e+00 1.34503830e-01 1.96258864e+00 -5.77044511e+00 -1.98728687e+00 1.34503830e-01 -1.98728687e+00 -4.52459257e+01
-1.78700060e+00 -1.99394275e+00 -5.49622178e-01 -1.99394275e+00 -2.80122952e+00 2.63469428e+00 -5.49622178e-01 2.63469428e+00 -3.39763265e+01
1.11865653e+01 2.42200971e+00 1.47750989e+00 2.42200971e+00 2.44799253e+00 -8.03783361e-01 1.47750989e+00 -8.03783361e-01 -1.73261667e+01
2.60578758e+00 -1.19140363e+00 -1.11124475e+00 -1.19140363e+00 3.46750802e+00 -2.37614380e+00 -1.11124475e+00 -2.37614380e+00 -2.35302143e+01
4.77862692e+00 7.48655033e+00 2.82599282e+00 7.48655033e+00 1.29734097e+01 -1.47263536e+01 2.82599282e+00 -1.47263536e+01 3.21221085e+01
-9.74838078e-01 -5.10446882e+00 2.88667035e+00 -5.10446882e+00 -2.67115998e+00 -2.04928913e+01 2.88667035e+00 -2.04928913e+01 2.19097972e+00
4.19887984e+00 -2.35877728e+00 -1.21546865e-01 -2.35877728e+00 2.45640278e-02 6.37573195e+00 -1.21546865e-01 6.37573195e+00 -1.36692232e+00
-1.93593168e+00 -7.04039888e+00 -2.46791218e+00 -7.04039888e+00 1.20122015e+01 -1.60345197e+00 -2.46791218e+00 -1.60345197e+00 3.72297390e+00
-7.16785848e-01 -1.20596325e+00 1.11289918e+00 -1.20596325e+00 3.85796070e-01 -1.77028447e-01 1.11289918e+00 -1.77028447e-01 -4.35463339e-01
-4.53572482e-01 -3.94583821e-01 5.84625065e-01 -3.94583821e-01 2.76215553e-01 2.09833249e-01 5.84625065e-01 2.09833249e-01 -5.89119911e-01
5.67250550e-01 -5.80913305e-01 -4.67730522e-01 -5.80913305e-01 -3.25790703e-01 -1.55820346e+00 -4.67730522e-01 -1.55820346e+00 -1.00790727e+00
6.99728727e-01 -1.39260185e+00 -7.73886502e-01 -1.39260185e+00 1.79235861e-01 1.37337136e+00 -7.73886502e-01 1.37337136e+00 -1.64543831e+00
5.21415772e+00 2.09844372e+00 2.14446038e-01 2.09844372e+00 -2.29524355e+00 1.26426618e+00 2.14446038e-01 1.26426618e+00 -1.46732211e-01
6.28829936e-01 9.89899039e-02 6.81817919e-01 9.89899039e-02 -4.88410091e+00 6.71638437e-02 6.81817919e-01 6.71638437e-02 -8.70160311e-02
-3.50697839e+00 9.57922786e-01 -1.03406489e-01 9.57922786e-01 -6.55913055e-01 -1.19773895e+00 -1.03406489e-01 -1.19773895e+00 1.08619016e+00
-4.93022279e+00 -2.05030258e+00 -7.24279801e-01 -2.05030258e+00 2.19797830e+00 1.22626945e-01 -7.24279801e-01 1.22626945e-01 2.55408068e+00
1.87752855e+00 -1.00748986e-03 -5.45382500e-05 -1.00748986e-03 -7.07517672e+00 -7.05715269e-04 -5.45382500e-05 -7.05715269e-04 -3.43732567e+01
7.59948436e-01 1.10244209e+00 9.11038369e-05 1.10244209e+00 -5.23764181e+00 5.77073723e-01 9.11038369e-05 5.77073723e-01 -3.42070427e+01
9.07139346e-01 2.57935417e+00 7.48227194e-01 2.57935417e+00 -6.98793960e+00 1.11623651e+00 7.48227194e-01 1.11623651e+00 -3.50346198e+01
2.11625245e+00 8.94929707e-01 5.83047345e-02 8.94929707e-01 -8.41934967e+00 1.89070590e-03 5.83047345e-02 1.89070590e-03 -3.50970211e+01
-1.90107395e+00 9.03064758e-01 5.60641987e-04 9.03064758e-01 -1.80752841e+00 1.31750840e+00 5.60641987e-04 1.31750840e+00 -3.37663555e+01
-1.44143081e+00 2.93778732e+00 9.83693913e-01 2.93778732e+00 -2.59880069e+00 1.10204458e+00 9.83693913e-01 1.10204458e+00 -3.35019298e+01
-4.28394437e+00 1.05951005e+00 -5.42102032e-04 1.05951005e+00 1.28265470e+00 9.29516137e-01 -5.42102032e-04 9.29516137e-01 -3.26034985e+01
-2.79461817e+00 2.21590433e+00 8.57700482e-01 2.21590433e+00 1.85406055e+00 1.33395475e+00 8.57700482e-01 1.33395475e+00 -3.00651913e+01
-5.15908623e+00 7.31947362e-01 2.59763806e-03 7.31947362e-01 3.04471135e+00 2.34298445e-01 2.59763806e-03 2.34298445e-01 -3.12609692e+01
-3.45039223e+00 1.10852567e+00 1.86579901e+00 1.10852567e+00 3.70230889e+00 1.02052315e+00 1.86579901e+00 1.02052315e+00 -2.86508083e+01
-3.57236397e+00 -7.93988436e-01 -3.45399231e-03 -7.93988436e-01 2.73503804e+00 3.16482067e-01 -3.45399231e-03 3.16482067e-01 -3.03380251e+01
-2.39369456e+00 -5.07279790e-01 2.61077672e+00 -5.07279790e-01 2.93073568e+00 -1.89719300e-03 2.61077672e+00 -1.89719300e-03 -2.88826809e+01
-4.31277752e+00 -2.14149857e+00 -6.21284917e-03 -2.14149857e+00 2.77618575e+00 1.28298080e+00 -6.21284917e-03 1.28298080e+00 -3.07015743e+01
-2.37335610e+00 -1.83095026e+00 3.81105268e+00 -1.83095026e+00 2.55962133e-01 -1.42804557e+00 3.81105268e+00 -1.42804557e+00 -3.10571251e+01
8.93658668e-01 3.37292302e+00 -1.38770050e+00 3.37292302e+00 -3.50547649e+00 1.27933529e+00 -1.38770050e+00 1.27933529e+00 -3.14498434e+01
-1.28197187e+00 2.66379610e-01 -3.19099009e-01 2.66379610e-01 -7.15797251e+00 3.29984538e-03 -3.19099009e-01 3.29984538e-03 -3.82616501e+01
1.08348539e+00 5.58434892e+00 -2.91032832e-01 5.58434892e+00 -5.90249300e-02 2.21751308e+00 -2.91032832e-01 2.21751308e+00 -2.64246349e+01
1.29295110e+00 3.82949233e+00 1.61356291e+00 3.82949233e+00 2.91497143e+00 2.03258035e+00 1.61356291e+00 2.03258035e+00 -2.38453960e+01
4.22408158e+00 5.23665000e-01 3.43056411e+00 5.23665000e-01 7.04331680e+00 3.52102703e+00 3.43056411e+00 3.52102703e+00 -1.56858933e+01
5.24117716e+00 -8.07345301e-01 4.79436392e+00 -8.07345301e-01 8.46269846e+00 4.24934886e-02 4.79436392e+00 4.24934886e-02 -1.56606293e+01
6.35726881e+00 -3.60502589e+00 3.01848304e+00 -3.60502589e+00 1.20269156e+00 -5.61810982e+00 3.01848304e+00 -5.61810982e+00 -1.98450642e+01
-1.77307620e+01 1.17193997e-01 5.85827780e+00 1.17193997e-01 -1.75095501e+01 3.47965956e+00 5.85827780e+00 3.47965956e+00 -6.77884903e+01
-1.94256706e+01 -1.13135600e+00 4.85909319e+00 -1.13135600e+00 -2.12562962e+01 8.41577444e-03 4.85909319e+00 8.41577444e-03 -7.37506638e+01
4.72595215e-01 2.29220673e+00 3.05101701e+00 2.29220673e+00 1.17034411e+00 5.13903101e+00 3.05101701e+00 5.13903101e+00 -2.62504390e+01
1.05552675e+01 2.84046900e+00 2.89011544e+00 2.84046900e+00 1.10436123e+01 5.45055622e+00 2.89011544e+00 5.45055622e+00 -9.56415200e+00
8.20058846e+00 -4.72848380e+00 1.34596909e+00 -4.72848380e+00 1.04339871e+01 2.04856288e+00 1.34596909e+00 2.04856288e+00 -4.28475112e+00
-1.17373639e+00 -1.69182390e+00 -4.61508405e+00 -1.69182390e+00 7.57207060e+00 1.02364540e-01 -4.61508405e+00 1.02364540e-01 -4.40596655e+00
1.87939262e+00 -2.53633709e+00 4.87304294e+00 -2.53633709e+00 -3.97956602e-01 1.19396810e+00 4.87304294e+00 1.19396810e+00 1.31483221e+00
1.51972610e+00 -4.31207085e+00 -4.74325800e+00 -4.31207085e+00 -1.01871381e+01 1.83366418e-01 -4.74325800e+00 1.83366418e-01 -3.96113634e-01
7.70600677e+00 -2.72022033e+00 3.60773027e+00 -2.72022033e+00 -1.80639858e+01 -1.83106351e+00 3.60773027e+00 -1.83106351e+00 5.07878035e+00
-2.47192347e+00 -3.91165733e-01 -6.92228138e+00 -3.91165733e-01 -1.02373065e+01 -7.10352921e+00 -6.92228138e+00 -7.10352921e+00 -3.07812500e+00
4.34696293e+00 -2.16782808e+00 1.03300989e-01 -2.16782808e+00 1.06266658e+01 5.66969633e-01 1.03300989e-01 5.66969633e-01 1.27075045e+01
-9.79154682e+00 3.48665929e+00 -3.59791470e+00 3.48665929e+00 -2.80693984e+00 1.24464865e+01 -3.59791470e+00 1.24464865e+01 -3.90255013e+01
9.95976428e-01 2.49166028e+00 -1.19117703e+00 2.49166028e+00 1.26731040e+01 3.26290639e+00 -1.19117703e+00 3.26290639e+00 3.09036811e+00
-1.11054397e+00 -1.53353115e+00 1.92524703e+00 -1.53353115e+00 1.51692580e+01 -6.92750971e-01 1.92524703e+00 -6.92750971e-01 3.62765195e+00
-1.43881779e+00 2.37515444e+00 7.13877589e-01 2.37515444e+00 5.76027513e+00 -8.15753307e-01 7.13877589e-01 -8.15753307e-01 1.01966304e+00
1.17102844e+00 -3.67246687e-01 -8.31798866e-01 -3.67246687e-01 1.96303319e+00 7.51609445e-01 -8.31798866e-01 7.51609445e-01 2.16148081e+00
3.38967419e+00 -1.07358766e+00 -1.74309164e-01 -1.07358766e+00 -1.04167027e+01 -7.68411487e-01 -1.74309164e-01 -7.68411487e-01 2.41561431e+00
3.34363402e+00 -6.86649084e-01 -1.01655829e+00 -6.86649084e-01 -1.22185330e+01 -1.98671602e-01 -1.01655829e+00 -1.98671602e-01 4.26343304e+00
-2.31962547e+01 1.78959751e+00 -3.91723275e+00 1.78959751e+00 -2.06230698e+01 6.87483102e-02 -3.91723275e+00 6.87483102e-02 -7.74859161e+01
-2.43567715e+01 -2.27027678e+00 -3.25222230e+00 -2.27027678e+00 -2.56300030e+01 7.17488098e+00 -3.25222230e+00 7.17488098e+00 -8.27303085e+01
-2.66137798e+00 -2.02715753e+00 2.39669919e+00 -2.02715753e+00 -1.69404427e+00 2.48397092e+00 2.39669919e+00 2.48397092e+00 -3.37597446e+01
-9.77105212e+00 -2.19455197e-01 2.29688287e+00 -2.19455197e-01 -6.79557097e+00 2.64624543e-02 2.29688287e+00 2.64624543e-02 -4.75216732e+01
4.76555029e+00 4.06317860e-02 -4.15463276e-01 4.06317860e-02 -1.84334874e+00 -1.42860726e+00 -4.15463276e-01 -1.42860726e+00 5.57197094e-01
4.83753085e+00 -9.76817449e-01 1.97010346e+00 -9.76817449e-01 5.37238890e+00 2.49193247e+00 1.97010346e+00 2.49193247e+00 -4.87426122e-02
2.51169270e+00 1.17590970e+00 6.37987316e-01 1.17590970e+00 -6.88993382e+00 4.38091099e-01 6.37987316e-01 4.38091099e-01 -1.75188726e+00
-6.44032955e-01 -2.89550254e+00 9.57133263e-01 -2.89550254e+00 -7.42995489e+00 2.94753766e+00 9.57133263e-01 2.94753766e+00 -3.72703314e+01
-3.50407749e-01 -1.58387983e+00 2.77094364e+00 -1.58387983e+00 -4.10821772e+00 1.28598809e-02 2.77094364e+00 1.28598809e-02 -3.42080307e+01
1.98705578e+00 1.75697535e+00 1.56790836e-01 1.75697535e+00 3.04456401e+00 2.21229261e+00 1.56790836e-01 2.21229261e+00 -2.52736986e+01
-2.33953667e+00 -1.18160793e+00 -1.32564661e+00 -1.18160793e+00 -1.90259765e+00 4.36445665e+00 -1.32564661e+00 4.36445665e+00 -3.32145510e+01
8.76434368e+00 4.43660468e+00 -2.63403535e+00 4.43660468e+00 5.48227105e+00 6.03068173e+00 -2.63403535e+00 6.03068173e+00 -1.24222107e+01
2.08682919e+00 -6.62095308e-01 -2.84578562e+00 -6.62095308e-01 1.04324193e+01 3.93385857e+00 -2.84578562e+00 3.93385857e+00 -1.56703638e+01
-1.58978381e+01 -4.01196361e+00 -5.55328298e+00 -4.01196361e+00 1.24637389e+01 1.49645146e+00 -5.55328298e+00 1.49645146e+00 1.90078652e+00
-9.07861125e+00 1.62934625e+00 -1.35069919e+00 1.62934625e+00 3.69520056e+00 -8.39136541e-02 -1.35069919e+00 -8.39136541e-02 5.54757807e+00
-3.78851819e+00 1.97564065e+00 4.20708120e-01 1.97564065e+00 -2.04409575e+00 2.12424733e-02 4.20708120e-01 2.12424733e-02 4.45721954e-01
</DataArray>
<DataArray type="Float32" Name="Logarithmic_strain_components" NumberOfComponents="9" format="ascii">
9.71388443e-04 -5.78442901e-04 1.74163292e-04 -5.78442901e-04 8.58730695e-04 5.82841107e-04 1.74163292e-04 5.82841107e-04 -1.85975707e-03
1.12218608e-03 -6.32836687e-04 1.75627706e-04 -6.32836687e-04 1.14434997e-03 6.48840290e-04 1.75627706e-04 6.48840290e-04 -2.24105388e-03
1.38272272e-03 -3.77269057e-04 4.34868733e-04 -3.77269057e-04 1.72779706e-03 7.15983879e-06 4.34868733e-04 7.15983879e-06 -3.05647316e-03
7.63374599e-04 -3.80233305e-05 -4.39698830e-04 -3.80233305e-05 1.06325386e-03 -2.26574472e-04 -4.39698830e-04 -2.26574472e-04 -1.91816146e-03
7.62305248e-04 3.07057467e-04 8.45784372e-04 3.07057467e-04 8.57563289e-04 1.96545435e-04 8.45784372e-04 1.96545435e-04 -1.50603063e-03
1.46373045e-03 -8.86639015e-04 -9.10724700e-04 -8.86639015e-04 1.98067357e-03 1.72511767e-03 -9.10724700e-04 1.72511767e-03 -3.10844748e-03
3.68949157e-03 1.45034000e-03 1.97695813e-03 1.45034000e-03 2.62783046e-03 -1.95972100e-03 1.97695813e-03 -1.95972100e-03 -5.73853077e-03
1.57226050e-03 7.36479167e-04 2.34677598e-03 7.36479167e-04 1.71591545e-03 8.33110651e-04 2.34677598e-03 8.33110651e-04 -3.12784157e-03
1.20139743e-03 -3.58100988e-05 -9.41597769e-04 -3.58100988e-05 1.24708605e-03 1.11062809e-03 -9.41597769e-04 1.11062809e-03 -2.38146388e-03
3.01380875e-03 -2.21187329e-04 1.90380969e-03 -2.21187329e-04 3.06832348e-03 3.03042482e-03 1.90380969e-03 3.03042482e-03 -5.91187784e-03
3.32028537e-03 1.82345894e-03 -7.83402907e-03 1.82345894e-03 5.20126611e-03 3.78561358e-03 -7.83402907e-03 3.78561358e-03 -8.00822939e-03
5.87847899e-03 5.92232635e-03 -7.66891497e-03 5.92232635e-03 5.62836207e-03 -1.17748015e-03 -7.66891497e-03 -1.17748015e-03 -1.06600872e-02
2.54728457e-06 -2.88047622e-05 3.31394767e-06 -2.88047622e-05 2.56352075e-06 -3.75611194e-06 3.31394767e-06 -3.75611194e-06 -8.71135808e-06
-4.68995518e-06 -1.55387111e-05 -1.12461439e-05 -1.55387111e-05 8.77814182e-06 -8.08118534e-06 -1.12461439e-05 -8.08118534e-06 -7.59002198e-06
5.12368456e-06 -2.59981221e-06 1.46850696e-05 -2.59981221e-06 4.38535071e-06 1.07052992e-05 1.46850696e-05 1.07052992e-05 -1.20558825e-05
4.34590845e-06 -1.59386209e-05 -8.10972051e-06 -1.59386209e-05 -8.84521774e-06 -8.48101627e-06 -8.10972051e-06 -8.48101627e-06 1.27934504e-06
4.08374581e-06 7.84401072e-06 1.23944910e-05 7.84401072e-06 4.91602987e-06 1.05564586e-05 1.23944910e-05 1.05564586e-05 -6.66795631e-06
-2.56262024e-06 5.99887062e-06 7.84032454e-06 5.99887062e-06 -5.24960569e-06 1.09646385e-06 7.84032454e-06 1.09646385e-06 1.10215460e-05
4.21671530e-07 2.73433534e-06 -1.67350445e-05 2.73433534e-06 -9.43759915e-08 -1.60629297e-05 -1.67350445e-05 -1.60629297e-05 5.46290153e-07
-6.86326212e-06 4.35800393e-06 4.09083168e-06 4.35800393e-06 -4.14126862e-06 7.53933728e-06 4.09083168e-06 7.53933728e-06 1.41760584e-05
2.82456796e-03 3.38781120e-07 1.14765292e-03 3.38781120e-07 2.87170056e-03 -5.43822069e-04 1.14765292e-03 -5.43822069e-04 -5.15297707e-03
2.91937275e-03 -1.04484670e-04 1.17293728e-03 -1.04484670e-04 2.66981433e-03 -5.83194706e-05 1.17293728e-03 -5.83194706e-05 -5.07497427e-03
2.87486447e-03 -1.01149539e-03 1.45202715e-03 -1.01149539e-03 2.82216293e-03 3.68732479e-04 1.45202715e-03 3.68732479e-04 -5.16248104e-03
2.64978362e-03 -4.73352538e-05 1.30694396e-03 -4.73352538e-05 3.09509010e-03 -5.18319779e-04 1.30694396e-03 -5.18319779e-04 -5.21100522e-03
4.10419586e-03 1.03902153e-07 7.84612406e-04 1.03902153e-07 2.42510939e-03 -1.03140450e-04 7.84612406e-04 -1.03140450e-04 -5.90161281e-03
3.97558074e-03 3.89438774e-05 2.97452711e-05 3.89438774e-05 2.46126956e-03 7.63038071e-04 2.97452711e-05 7.63038071e-04 -5.83498029e-03
3.98887874e-03 8.14401269e-05 1.58741338e-03 8.14401269e-05 2.74547091e-03 2.33214239e-04 1.58741338e-03 2.33214239e-04 -6.07380102e-03
4.11411864e-03 2.24482947e-05 1.67828378e-03 2.24482947e-05 2.82056886e-03 -8.58302999e-04 1.67828378e-03 -8.58302999e-04 -6.25653239e-03
3.26783617e-03 -7.38333867e-04 1.72284641e-03 -7.38333867e-04 2.08228338e-03 8.55517228e-05 1.72284641e-03 8.55517228e-05 -4.86164296e-03
3.27619264e-03 -1.43077121e-03 6.63730429e-04 -1.43077121e-03 2.43049924e-03 2.27881183e-04 6.63730429e-04 2.27881183e-04 -5.19798789e-03
3.56683490e-03 1.76818849e-04 -7.37992494e-04 1.76818849e-04 2.41288636e-03 3.93798160e-04 -7.37992494e-04 3.93798160e-04 -5.44358813e-03
3.67151599e-03 3.52072266e-04 7.82211629e-04 3.52072266e-04 2.87509226e-03 8.77904655e-04 7.82211629e-04 8.77904655e-04 -5.96008904e-03
3.58959800e-03 6.77551236e-06 6.16514444e-04 6.77551236e-06 1.57304772e-03 5.55474471e-04 6.16514444e-04 5.55474471e-04 -4.69866476e-03
3.49524090e-03 -7.93606390e-04 -6.79691846e-04 -7.93606390e-04 2.48257397e-03 -7.01020661e-04 -6.79691846e-04 -7.01020661e-04 -5.45211561e-03
3.17628065e-03 -9.32828043e-05 -3.92164788e-04 -9.32828043e-05 2.20618461e-03 1.02829803e-04 -3.92164788e-04 1.02829803e-04 -4.92133200e-03
3.27028899e-03 -2.16682008e-04 -9.94623791e-04 -2.16682008e-04 2.62618347e-03 2.87377115e-04 -9.94623791e-04 2.87377115e-04 -5.41090907e-03
3.28809943e-03 -1.70030617e-05 -6.72962604e-04 -1.70030617e-05 1.46294630e-03 -1.76109656e-04 -6.72962604e-04 -1.76109656e-04 -4.32569010e-03
3.41734063e-03 4.08967137e-04 -2.15039073e-04 4.08967137e-04 3.10913735e-03 -1.70626339e-04 -2.15039073e-04 -1.70626339e-04 -5.96510770e-03
2.78086797e-03 2.85759720e-05 -7.60724230e-04 2.85759720e-05 1.93916439e-03 6.56615375e-05 -7.60724230e-04 6.56615375e-05 -4.33618552e-03
2.79054474e-03 -6.39469064e-04 -1.11947246e-03 -6.39469064e-04 1.98496223e-03 -3.96860411e-04 -1.11947246e-03 -3.96860411e-04 -4.37087542e-03
2.42811232e-03 3.25290777e-04 2.71440091e-04 3.25290777e-04 1.57139747e-03 -5.35634601e-04 2.71440091e-04 -5.35634601e-04 -3.65905429e-03
3.09330682e-03 5.00004207e-04 -6.12725307e-05 5.00004207e-04 2.69456553e-03 1.59318099e-04 -6.12725307e-05 1.59318099e-04 -5.27623913e-03
2.10411425e-03 1.22830374e-04 -1.34029123e-03 1.22830374e-04 1.56415749e-03 1.58028408e-04 -1.34029123e-03 1.58028408e-04 -3.39750241e-03
2.20319131e-03 -1.69782581e-04 -6.94123599e-04 -1.69782581e-04 2.17878206e-03 -2.45914332e-04 -6.94123599e-04 -2.45914332e-04 -4.05989293e-03
2.14658532e-03 6.60104823e-04 4.61460659e-04 6.60104823e-04 1.16143166e-03 -5.59895721e-04 4.61460659e-04 -5.59895721e-04 -3.03842209e-03
2.74057582e-03 4.89570088e-04 1.30825640e-04 4.89570088e-04 2.10506291e-03 -4.77398760e-04 1.30825640e-04 -4.77398760e-04 -4.38058091e-03
1.83899910e-03 6.92088099e-04 -1.04025326e-03 6.92088099e-04 1.18699175e-03 3.83310835e-05 -1.04025326e-03 3.83310835e-05 -2.82394525e-03
2.10882848e-03 5.75730523e-04 -3.50410592e-04 5.75730523e-04 1.71621496e-03 7.07047257e-05 -3.50410592e-04 7.07047257e-05 -3.54517577e-03
2.21165297e-03 -1.65431513e-03 3.06763637e-03 -1.65431513e-03 3.01352760e-03 -7.54849773e-04 3.06763637e-03 -7.54849773e-04 -4.70044208e-03
1.78940280e-03 -1.02594681e-03 1.97039131e-03 -1.02594681e-03 3.33313376e-03 -4.91840765e-04 1.97039131e-03 -4.91840765e-04 -4.60825302e-03
4.49235181e-03 -6.88149518e-04 3.38487423e-03 -6.88149518e-04 3.52813484e-03 4.88857841e-04 3.38487423e-03 4.88857841e-04 -7.23231293e-03
4.23138891e-03 -8.50181732e-05 4.08830697e-03 -8.50181732e-05 3.03326262e-03 -5.25085256e-04 4.08830697e-03 -5.25085256e-04 -6.49837963e-03
3.38717666e-03 -5.43478793e-04 1.55099557e-03 -5.43478793e-04 3.27026834e-03 -1.19812634e-03 1.55099557e-03 -1.19812634e-03 -6.11557273e-03
3.78805149e-03 3.74439214e-04 4.15303963e-04 3.74439214e-04 3.53217172e-03 -1.46247404e-03 4.15303963e-04 -1.46247404e-03 -6.58154924e-03
4.87960088e-03 -1.05732027e-03 -5.59642590e-03 -1.05732027e-03 4.07029546e-03 4.24166548e-04 -5.59642590e-03 4.24166548e-04 -8.36751843e-03
2.80118717e-03 5.52265576e-04 -2.91794866e-03 5.52265576e-04 2.71523549e-03 -9.95289850e-04 -2.91794866e-03 -9.95289850e-04 -4.99048546e-03
4.50253359e-03 2.65231996e-04 -7.75428467e-04 2.65231996e-04 4.83736477e-03 1.30163987e-03 -7.75428467e-04 1.30163987e-03 -8.65952903e-03
3.37347151e-03 -5.46963698e-04 -4.23031065e-03 -5.46963698e-04 2.13349655e-03 1.02110401e-03 -4.23031065e-03 1.02110401e-03 -5.14450138e-03
3.99434817e-03 -3.17558093e-04 -7.39555915e-04 -3.17558093e-04 3.94164532e-03 4.93486303e-04 -7.39555915e-04 4.93486303e-04 -7.25878519e-03
3.26190330e-03 2.21726485e-04 -1.10999976e-03 2.21726485e-04 3.15966108e-03 3.36306599e-04 -1.10999976e-03 3.36306599e-04 -6.06208807e-03
3.57624993e-03 9.50320064e-05 -5.88700990e-04 9.50320064e-05 3.22231615e-03 6.97633550e-05 -5.88700990e-04 6.97633550e-05 -6.14076015e-03
3.32019699e-03 4.20349534e-04 -6.37634246e-04 4.20349534e-04 2.72340165e-03 -1.22744976e-03 -6.37634246e-04 -1.22744976e-03 -5.70014073e-03
1.78484823e-03 -8.36735724e-04 3.25610259e-03 -8.36735724e-04 2.90922934e-03 -1.46351938e-04 3.25610259e-03 -1.46351938e-04 -4.33473499e-03
7.15544527e-04 -8.75975238e-05 2.10966391e-03 -8.75975238e-05 2.51955888e-03 1.56535325e-03 2.10966391e-03 1.56535325e-03 -2.87736341e-03
4.12413754e-03 -6.59861107e-04 3.34252281e-03 -6.59861107e-04 2.82252128e-03 -2.58028877e-03 3.34252281e-03 -2.58028877e-03 -6.13330790e-03
2.56877972e-03 9.85380466e-04 4.54458760e-03 9.85380466e-04 2.53147224e-03 -4.32844530e-03 4.54458760e-03 -4.32844530e-03 -4.43359575e-03
3.92116932e-03 -1.97642931e-03 5.63792739e-03 -1.97642931e-03 4.92406683e-03 -5.88853858e-03 5.63792739e-03 -5.88853858e-03 -8.37423059e-03
5.87047935e-03 -1.12468323e-03 5.44497685e-04 -1.12468323e-03 3.63494200e-03 -3.35712242e-03 5.44497685e-04 -3.35712242e-03 -8.63637375e-03
-2.27380078e-03 -7.08420575e-03 -1.46208880e-02 -7.08420575e-03 -1.04551716e-03 -1.34782856e-02 -1.46208880e-02 -1.34782856e-02 4.34336066e-03
1.98516620e-03 -3.86180337e-04 -2.50326792e-03 -3.86180337e-04 5.84540695e-04 -1.90381861e-03 -2.50326792e-03 -1.90381861e-03 -1.99197116e-03
7.72102025e-04 -2.30828450e-04 1.05788360e-03 -2.30828450e-04 1.64631643e-03 1.46942065e-03 1.05788360e-03 1.46942065e-03 -2.29911380e-03
5.95063939e-04 -4.41335338e-04 1.96983420e-03 -4.41335338e-04 1.38549854e-03 7.44004341e-04 1.96983420e-03 7.44004341e-04 -1.82097327e-03
1.73697584e-03 -8.02344099e-07 3.24732396e-03 -8.02344099e-07 2.03712054e-03 1.62211288e-03 3.24732396e-03 1.62211288e-03 -3.19457531e-03
1.47053534e-03 4.56743197e-04 -3.15662372e-04 4.56743197e-04 2.45793446e-03 -7.21965320e-04 -3.15662372e-04 -7.21965320e-04 -3.30665667e-03
8.07003002e-04 5.11753198e-04 2.23274081e-04 5.11753198e-04 8.86256865e-04 -3.26043024e-04 2.23274081e-04 -3.26043024e-04 -1.62187740e-03
2.72287011e-03 1.18684345e-03 -1.19254399e-03 1.18684345e-03 3.57537855e-03 2.69790009e-03 -1.19254399e-03 2.69790009e-03 -5.57305110e-03
2.11913016e-03 8.55947001e-04 1.02088765e-03 8.55947001e-04 3.82607654e-03 1.18209864e-03 1.02088765e-03 1.18209864e-03 -5.20907622e-03
6.63487173e-04 -3.61212486e-04 9.79655364e-04 -3.61212486e-04 1.88563540e-03 3.06597777e-03 9.79655364e-04 3.06597777e-03 -2.50333043e-03
5.79963438e-03 -1.12577481e-03 8.04898515e-03 -1.12577481e-03 4.49254434e-03 4.78974529e-03 8.04898515e-03 4.78974529e-03 -9.87431617e-03
4.21117120e-03 3.71759199e-04 -4.53722435e-03 3.71759199e-04 5.27409767e-03 -2.86722505e-03 -4.53722435e-03 -2.86722505e-03 -8.54470921e-03
9.05692519e-04 -9.54700845e-05 1.15428056e-03 -9.54700845e-05 1.66329689e-03 9.55432304e-04 1.15428056e-03 9.55432304e-04 -2.53816566e-03
3.47867544e-03 2.61504613e-03 -6.09075389e-04 2.61504613e-03 4.45661973e-03 1.05470666e-03 -6.09075389e-04 1.05470666e-03 -6.94121618e-03
2.74147990e-03 2.47222910e-04 3.03092209e-03 2.47222910e-04 4.88723908e-03 -2.77586770e-03 3.03092209e-03 -2.77586770e-03 -6.86137401e-03
5.22105431e-03 9.02620552e-04 -4.27317317e-03 9.02620552e-04 5.67841774e-03 3.59373720e-03 -4.27317317e-03 3.59373720e-03 -9.69036552e-03
5.10878600e-03 2.02161000e-03 2.57927901e-03 2.02161000e-03 6.28234058e-03 -9.43708078e-03 2.57927901e-03 -9.43708078e-03 -1.03865305e-02
5.68051004e-03 -8.71113676e-04 -5.55265695e-04 -8.71113676e-04 4.40859818e-03 -2.10262969e-03 -5.55265695e-04 -2.10262969e-03 -9.07600500e-03
5.34327538e-03 1.24016424e-08 4.93045285e-04 1.24016424e-08 2.41333002e-03 -4.40651856e-04 4.93045285e-04 -4.40651856e-04 -6.98756310e-03
4.93697880e-03 3.58812598e-04 8.45018061e-04 3.58812598e-04 2.66915758e-03 3.21616446e-04 8.45018061e-04 3.21616446e-04 -6.87256071e-03
5.01424854e-03 1.23095387e-03 7.53302525e-04 1.23095387e-03 2.92611390e-03 5.87826686e-04 7.53302525e-04 5.87826686e-04 -7.14011036e-03
5.68115013e-03 1.92655873e-04 1.22457468e-03 1.92655873e-04 2.57214974e-03 -8.88439990e-05 1.22457468e-03 -8.88439990e-05 -7.40214007e-03
3.86140897e-03 6.53926458e-04 3.51542418e-04 6.53926458e-04 3.24455922e-03 7.21994063e-04 3.51542418e-04 7.21994063e-04 -6.46684133e-03
3.69177305e-03 1.65763919e-03 1.33725654e-04 1.65763919e-03 3.26205193e-03 1.74597772e-04 1.33725654e-04 1.74597772e-04 -6.28995214e-03
2.68823031e-03 4.03013975e-04 -7.04766106e-04 4.03013975e-04 3.47695360e-03 2.78733985e-04 -7.04766106e-04 2.78733985e-04 -5.63510426e-03
2.51602745e-03 8.74303543e-04 -3.03228813e-04 8.74303543e-04 3.26842017e-03 1.66457345e-04 -3.03228813e-04 1.66457345e-04 -5.28559799e-03
2.07832997e-03 7.67076153e-06 -5.49761593e-04 7.67076153e-06 3.13144288e-03 -5.26659669e-05 -5.49761593e-04 -5.26659669e-05 -4.77438909e-03
1.86363223e-03 -2.20553305e-04 -5.29223486e-04 -2.20553305e-04 2.81327564e-03 1.72826284e-04 -5.29223486e-04 1.72826284e-04 -4.30577091e-03
1.96992335e-03 -1.99523598e-04 -5.85443908e-04 -1.99523598e-04 2.69805075e-03 1.99232130e-04 -5.85443908e-04 1.99232130e-04 -4.28198837e-03
1.84395927e-03 -4.89603990e-04 -8.19400258e-04 -4.89603990e-04 2.24877003e-03 5.11355265e-05 -8.19400258e-04 5.11355265e-05 -3.79572567e-03
1.86805543e-03 1.27833540e-04 -3.78106750e-04 1.27833540e-04 2.65082356e-03 6.39628095e-04 -3.78106750e-04 6.39628095e-04 -4.14041826e-03
1.97349943e-03 -5.28216186e-04 -2.64782808e-04 -5.28216186e-04 2.13862563e-03 -6.30293216e-05 -2.64782808e-04 -6.30293216e-05 -3.84005764e-03
6.37996191e-03 1.78188448e-03 3.26750297e-03 1.78188448e-03 2.95066388e-03 -2.12808183e-04 3.26750297e-03 -2.12808183e-04 -8.26924539e-03
6.85048953e-03 1.04161209e-03 4.10103911e-03 1.04161209e-03 3.32050823e-03 -1.99414656e-03 4.10103911e-03 -1.99414656e-03 -9.02019464e-03
4.19534411e-03 1.84562993e-03 -4.91594634e-04 1.84562993e-03 2.96046882e-03 1.87899524e-04 -4.91594634e-04 1.87899524e-04 -6.39404228e-03
1.88260555e-03 1.03753668e-03 -1.21848402e-03 1.03753668e-03 2.02131581e-03 6.12556250e-05 -1.21848402e-03 6.12556250e-05 -3.49857021e-03
1.09629237e-03 7.91877891e-05 -1.12964862e-03 7.91877891e-05 1.77234060e-03 -1.15425852e-04 -1.12964862e-03 -1.15425852e-04 -2.63365024e-03
1.09106418e-03 -4.01814260e-04 -2.07058403e-03 -4.01814260e-04 1.56920042e-03 -3.57527114e-04 -2.07058403e-03 -3.57527114e-04 -2.52381953e-03
1.20462128e-03 -9.71029183e-04 -1.98179932e-03 -9.71029183e-04 1.36460351e-03 -1.05836621e-03 -1.98179932e-03 -1.05836621e-03 -2.50885740e-03
7.16493543e-03 -4.30188792e-04 8.25828260e-03 -4.30188792e-04 1.85915518e-03 -1.92921615e-03 8.25828260e-03 -1.92921615e-03 -7.87839992e-03
8.07370028e-03 -1.50647771e-03 8.64301653e-03 -1.50647771e-03 2.90649514e-03 -2.08995119e-03 8.64301653e-03 -2.08995119e-03 -9.85019514e-03
4.39295289e-03 1.71342827e-03 3.12653297e-04 1.71342827e-03 2.11369083e-03 -3.51298353e-03 3.12653297e-04 -3.51298353e-03 -5.73856935e-03
1.49554857e-03 1.04319963e-03 -2.09300591e-03 1.04319963e-03 6.29593669e-04 -1.16987438e-03 -2.09300591e-03 -1.16987438e-03 -1.83832697e-03
9.35680364e-05 -3.64131876e-03 -4.54680203e-03 -3.64131876e-03 -2.08581495e-03 -4.61238064e-03 -4.54680203e-03 -4.61238064e-03 2.21284013e-03
-1.27318097e-05 2.53505002e-04 -1.12205787e-04 2.53505002e-04 1.07399297e-04 -1.22405530e-05 -1.12205787e-04 -1.22405530e-05 6.02237429e-05
6.38497440e-03 1.20814945e-03 -2.53557961e-03 1.20814945e-03 3.70653303e-03 3.56269907e-03 -2.53557961e-03 3.56269907e-03 -8.59347684e-03
6.47523029e-03 1.19029269e-03 -5.02696331e-03 1.19029269e-03 5.60951914e-03 1.69784048e-03 -5.02696331e-03 1.69784048e-03 -1.04535571e-02
7.22664024e-03 1.00089901e-03 6.68149165e-04 1.00089901e-03 4.38950083e-03 -4.39826981e-03 6.68149165e-04 -4.39826981e-03 -1.10339846e-02
6.93162290e-03 -1.71017862e-04 -2.42364360e-04 -1.71017862e-04 8.54700819e-03 1.57550004e-03 -2.42364360e-04 1.57550004e-03 -1.36103119e-02
6.91611262e-03 -3.86064756e-04 -1.84060991e-04 -3.86064756e-04 8.30587943e-03 -2.11699517e-03 -1.84060991e-04 -2.11699517e-03 -1.32682545e-02
7.02620996e-03 -1.01809425e-03 3.01622916e-03 -1.01809425e-03 7.08986388e-03 3.03020529e-03 3.01622916e-03 3.03020529e-03 -1.23554226e-02
6.95912261e-03 5.49550459e-04 2.06537015e-03 5.49550459e-04 7.38185435e-03 3.94380739e-04 2.06537015e-03 3.94380739e-04 -1.24949291e-02
6.14072056e-03 1.99762790e-03 1.00830068e-03 1.99762790e-03 7.49930751e-03 -1.55882604e-03 1.00830068e-03 -1.55882604e-03 -1.22594738e-02
6.40688150e-03 -1.91761309e-03 -1.23604812e-04 -1.91761309e-03 5.57350041e-03 2.42421725e-03 -1.23604812e-04 2.42421725e-03 -1.05466971e-02
3.67697916e-03 1.28088071e-03 7.65009201e-04 1.28088071e-03 1.18408819e-03 -1.11835859e-03 7.65009201e-04 -1.11835859e-03 -4.19696514e-03
3.38458795e-03 -1.73235228e-03 -1.40615837e-03 -1.73235228e-03 2.03623057e-03 -8.72025736e-04 -1.40615837e-03 -8.72025736e-04 -4.74565261e-03
-1.43511302e-03 2.76336912e-03 1.97912130e-04 2.76336912e-03 -9.59896017e-04 -3.55834235e-03 1.97912130e-04 -3.55834235e-03 2.93105561e-03
3.77236283e-05 -2.39720335e-03 8.76385195e-04 -2.39720335e-03 -9.52853181e-04 -7.87978340e-03 8.76385195e-04 -7.87978340e-03 1.44247548e-03
4.04496082e-04 -7.47914084e-04 -1.70937703e-04 -7.47914084e-04 -3.93352006e-04 1.45322637e-03 -1.70937703e-04 1.45322637e-03 1.60399899e-04
-5.88852670e-04 -1.33367059e-03 -2.97469526e-04 -1.33367059e-03 3.29090806e-04 -2.54318390e-05 -2.97469526e-04 -2.54318390e-05 4.03678797e-04
-1.39898784e-05 -5.80492488e-05 5.37678570e-05 -5.80492488e-05 1.23186983e-05 -8.05842228e-06 5.37678570e-05 -8.05842228e-06 -7.14974112e-06
-8.03540115e-06 -1.87063633e-05 2.74804934e-05 -1.87063633e-05 9.57611519e-06 9.24334108e-06 2.74804934e-05 9.24334108e-06 -1.13293536e-05
1.67871003e-05 -2.77852632e-05 -2.19240828e-05 -2.77852632e-05 -5.07134610e-06 -7.45321013e-05 -2.19240828e-05 -7.45321013e-05 -2.12601499e-05
1.96840101e-05 -6.66221313e-05 -3.74182746e-05 -6.66221313e-05 6.71923362e-06 6.62493767e-05 -3.74182746e-05 6.62493767e-05 -3.65411106e-05
1.14351239e-04 8.75217358e-05 3.68901237e-06 8.75217358e-05 -6.87239633e-05 5.35490624e-05 3.68901237e-06 5.35490624e-05 -1.36177949e-05
3.20797599e-05 4.77627176e-06 3.24793509e-05 4.77627176e-06 -9.95847598e-05 3.29761686e-06 3.24793509e-05 3.29761686e-06 1.55163277e-05
-7.14291891e-05 4.66084402e-05 -4.96024632e-06 4.66084402e-05 -3.16834758e-06 -5.73246471e-05 -4.96024632e-06 -5.73246471e-05 3.84414179e-05
-1.03103874e-04 -9.66958711e-05 -3.19791058e-05 -9.66958711e-05 3.46776507e-05 -1.49305743e-06 -3.19791058e-05 -1.49305743e-06 6.35933881e-05
5.79362223e-03 -2.73628757e-07 -3.24496796e-07 -2.73628757e-07 2.52683577e-03 1.70040494e-07 -3.24496796e-07 1.70040494e-07 -7.47740176e-03
5.07517206e-03 7.12011941e-04 2.69445991e-07 7.12011941e-04 2.95351597e-03 4.47549988e-04 2.69445991e-07 4.47549988e-04 -7.24052964e-03
5.79969422e-03 1.84488334e-03 5.46055249e-04 1.84488334e-03 2.73903896e-03 8.00146590e-04 5.46055249e-04 8.00146590e-04 -7.67270150e-03
6.50275499e-03 6.29627466e-04 1.10246147e-04 6.29627466e-04 2.39800359e-03 -3.37470283e-08 1.10246147e-04 -3.37470283e-08 -7.97347678e-03
3.67833406e-03 6.32410491e-04 -4.45149823e-07 6.32410491e-04 3.65708722e-03 8.02806782e-04 -4.45149823e-07 8.02806782e-04 -6.65553776e-03
3.92979098e-03 1.90742665e-03 6.38061771e-04 1.90742665e-03 3.45825672e-03 7.79699039e-04 6.38061771e-04 7.79699039e-04 -6.68835407e-03
2.43562891e-03 5.85397473e-04 -3.25672431e-07 5.85397473e-04 4.03313397e-03 5.36678970e-04 -3.25672431e-07 5.36678970e-04 -5.89929335e-03
2.24891244e-03 1.17806466e-03 4.65798352e-04 1.17806466e-03 3.51424125e-03 7.18902767e-04 4.65798352e-04 7.18902767e-04 -5.24586183e-03
1.75666006e-03 3.61598228e-04 5.04875743e-07 3.61598228e-04 3.89521115e-03 1.18686548e-04 5.04875743e-07 1.18686548e-04 -5.17870905e-03
1.53276246e-03 4.68063484e-04 8.91029078e-04 4.68063484e-04 3.24657717e-03 4.72822474e-04 8.91029078e-04 4.72822474e-04 -4.38651990e-03
1.95962575e-03 -3.44588785e-04 -2.90759090e-07 -3.44588785e-04 3.51433281e-03 1.47240367e-04 -2.90759090e-07 1.47240367e-04 -5.01424167e-03
1.56535779e-03 -2.25866951e-04 1.13943336e-03 -2.25866951e-04 2.83856649e-03 2.63618563e-06 1.13943336e-03 2.63618563e-06 -4.07630543e-03
1.97856454e-03 -1.12980884e-03 6.08261871e-07 -1.12980884e-03 3.72336991e-03 7.47013080e-04 6.08261871e-07 7.47013080e-04 -5.21107763e-03
1.79289596e-03 -8.47864227e-04 1.56272919e-03 -8.47864227e-04 2.73749640e-03 -5.09456935e-04 1.56272919e-03 -5.09456935e-04 -4.22869541e-03
5.80434158e-03 2.96725720e-03 -1.16518777e-03 2.96725720e-03 4.14140613e-03 1.14864166e-03 -1.16518777e-03 1.14864166e-03 -8.77902319e-03
7.16621685e-03 2.61479407e-04 -3.87932276e-04 2.61479407e-04 5.01249137e-03 -3.61379080e-07 -3.87932276e-04 -3.61379080e-07 -1.08240535e-02
3.53266619e-03 3.75692535e-03 -1.73000080e-04 3.75692535e-03 2.86568701e-03 1.38476028e-03 -1.73000080e-04 1.38476028e-03 -5.66811056e-03
1.70033066e-03 1.53913604e-03 7.16114169e-04 1.53913604e-03 2.14448644e-03 8.93443881e-04 7.16114169e-04 8.93443881e-04 -3.49117967e-03
6.41447057e-04 -3.69553354e-05 8.13319813e-04 -3.69553354e-05 1.26845710e-03 8.24992356e-04 8.13319813e-04 8.24992356e-04 -1.69460368e-03
2.62462177e-04 -3.77011900e-04 7.56502981e-04 -3.77011900e-04 8.11623628e-04 3.61610660e-06 7.56502981e-04 3.61610660e-06 -9.73204995e-04
5.65459515e-04 -8.15093954e-04 5.38581109e-04 -8.15093954e-04 4.48092449e-04 -7.40910444e-04 5.38581109e-04 -7.40910444e-04 -1.02422544e-03
8.21691193e-03 2.05359509e-04 5.44121186e-03 2.05359509e-04 8.16379581e-03 2.94496247e-03 5.44121186e-03 2.94496247e-03 -1.50820455e-02
1.00282114e-02 -1.21043634e-03 5.13366284e-03 -1.21043634e-03 9.19461809e-03 4.42860255e-07 5.13366284e-03 4.42860255e-07 -1.76368169e-02
2.74705716e-03 8.86577907e-04 1.51950641e-03 8.86577907e-04 2.54500207e-03 2.72168025e-03 1.51950641e-03 2.72168025e-03 -4.75853837e-03
4.41298696e-04 7.24421207e-05 5.13386520e-04 7.24421207e-05 5.52466840e-04 7.44309378e-04 5.13386520e-04 7.44309378e-04 -7.77349298e-04
6.72995229e-05 -3.79539333e-04 9.26824505e-05 -3.79539333e-04 1.33542326e-04 6.99309130e-05 9.26824505e-05 6.99309130e-05 -5.40597389e-05
-9.96396038e-05 -1.76273548e-04 -2.76536455e-04 -1.76273548e-04 1.91327836e-04 -8.87609349e-06 -2.76536455e-04 -8.87609349e-06 -7.03870799e-05
-8.19952220e-07 -1.04182471e-04 2.08593377e-04 -1.04182471e-04 -5.71509991e-05 6.12410659e-05 2.08593377e-04 6.12410659e-05 7.93276522e-05
8.20786518e-05 -4.22056430e-04 -4.38890362e-04 -4.22056430e-04 -2.38906250e-04 2.25762069e-05 -4.38890362e-04 2.25762069e-05 7.05927878e-05
1.17080970e-04 -5.88057010e-05 2.05845434e-04 -5.88057010e-05 -4.03093916e-04 -3.28226943e-05 2.05845434e-04 -3.28226943e-05 1.99812785e-04
7.09126340e-04 -5.53686055e-04 -1.49954465e-03 -5.53686055e-04 -6.34836912e-04 -2.87302764e-03 -1.49954465e-03 -2.87302764e-03 1.16110983e-04
-6.83546677e-04 -2.13391697e-04 3.12067335e-04 -2.13391697e-04 -3.71224633e-05 3.04391680e-04 3.12067335e-04 3.04391680e-04 9.07307112e-04
1.64230715e-03 1.03243173e-03 -1.46472885e-03 1.03243173e-03 2.75173667e-03 4.31695906e-03 -1.46472885e-03 4.31695906e-03 -4.28679585e-03
-3.88571607e-05 9.54308847e-05 -1.86797600e-06 9.54308847e-05 2.72038985e-04 2.43856145e-04 -1.86797600e-06 2.43856145e-04 -2.75086595e-05
-7.50844805e-05 -9.10546417e-05 8.54442575e-05 -9.10546417e-05 2.95146533e-04 -7.93321306e-05 8.54442575e-05 -7.93321306e-05 -1.32127316e-05
-5.47632940e-05 1.13559187e-04 3.60485465e-05 1.13559187e-04 1.14662798e-04 -3.87546672e-05 3.60485465e-05 -3.87546672e-05 3.80762415e-06
6.72842589e-06 -1.73735698e-05 -4.02686164e-05 -1.73735698e-05 2.64978673e-05 3.61176908e-05 -4.02686164e-05 3.61176908e-05 3.05907715e-05
9.97911411e-05 -5.13392733e-05 -8.50497781e-06 -5.13392733e-05 -2.31509541e-04 -3.68390702e-05 -8.50497781e-06 -3.68390702e-05 7.64391152e-05
9.86902096e-05 -3.33530479e-05 -4.88300066e-05 -3.33530479e-05 -2.74576400e-04 -9.49669857e-06 -4.88300066e-05 -9.49669857e-06 1.21207951e-04
1.34702222e-02 2.69601541e-03 -5.86874317e-03 2.69601541e-03 1.42280413e-02 9.30375245e-06 -5.86874317e-03 9.30375245e-06 -2.49564815e-02
1.49853667e-02 -3.23231146e-03 -4.34113294e-03 -3.23231146e-03 1.29366685e-02 1.06879016e-02 -4.34113294e-03 1.06879016e-02 -2.51702368e-02
8.72206859e-03 -3.01361028e-03 3.60603576e-03 -3.01361028e-03 9.16093883e-03 4.16386578e-03 3.60603576e-03 4.16386578e-03 -1.54946226e-02
9.55700362e-03 -6.17677106e-05 3.26700835e-03 -6.17677106e-05 1.20239831e-02 -2.61416426e-06 3.26700835e-03 -2.61416426e-06 -1.89984078e-02
9.80477489e-05 2.58191085e-06 -2.10514704e-05 2.58191085e-06 -5.57405765e-05 -6.68081466e-05 -2.10514704e-05 -6.68081466e-05 -5.85487214e-07
5.99724372e-05 -1.34186412e-04 1.25318746e-04 -1.34186412e-04 -7.09887551e-06 1.37717749e-04 1.25318746e-04 1.37717749e-04 3.46302889e-05
8.46559888e-05 5.65402006e-05 3.05885478e-05 5.65402006e-05 -1.40978067e-04 2.11396055e-05 3.05885478e-05 2.11396055e-05 -1.78668856e-05
1.05555924e-02 -3.84660065e-03 1.17255060e-03 -3.84660065e-03 6.00207201e-03 4.49529779e-03 1.17255060e-03 4.49529779e-03 -1.44658303e-02
1.02656484e-02 -2.89581274e-03 4.60561039e-03 -2.89581274e-03 7.49876350e-03 6.06894901e-06 4.60561039e-03 6.06894901e-06 -1.54357450e-02
5.06634661e-03 1.74720644e-03 3.64658015e-04 1.74720644e-03 5.50225493e-03 2.46656686e-03 3.64658015e-04 2.46656686e-03 -9.19319643e-03
6.32218155e-03 -1.04632167e-03 -1.69848691e-03 -1.04632167e-03 4.99597308e-03 4.35921643e-03 -1.69848691e-03 4.35921643e-03 -9.94175905e-03
2.06764892e-03 6.77645767e-04 -6.72158785e-04 6.77645767e-04 5.52564772e-04 1.91404263e-03 -6.72158785e-04 1.91404263e-03 -2.22714234e-03
1.15161350e-03 -1.56125694e-03 -8.70131567e-04 -1.56125694e-03 1.68714504e-03 1.42510736e-03 -8.70131567e-04 1.42510736e-03 -2.43443577e-03
-6.88559303e-04 -4.89313446e-04 -4.34534959e-04 -4.89313446e-04 4.38002535e-04 2.21897339e-04 -4.34534959e-04 2.21897339e-04 2.53589991e-04
-1.97254543e-04 5.16593500e-05 -4.92010859e-05 5.16593500e-05 7.31309829e-05 -1.49646080e-05 -4.92010859e-05 -1.49646080e-05 1.21316581e-04
-6.98227668e-05 9.51150869e-05 2.00597351e-05 9.51150869e-05 -2.76990904e-05 1.55093653e-06 2.00597351e-05 1.55093653e-06 3.20184590e-05
</DataArray>
<DataArray type="Float32" Name="Plastic_strain_components" NumberOfComponents="9" format="ascii">
8.40990630e-04 -4.39373860e-04 1.34481038e-04 -4.39373860e-04 7.48952400e-04 4.52510171e-04 1.34481038e-04 4.52510171e-04 -1.32869559e-03
1.00413893e-03 -5.07028646e-04 1.60162928e-04 -5.07028646e-04 1.03394498e-03 5.24976622e-04 1.60162928e-04 5.24976622e-04 -1.70158278e-03
1.29312032e-03 -3.47295113e-04 3.68127412e-04 -3.47295113e-04 1.57221075e-03 9.12096084e-06 3.68127412e-04 9.12096084e-06 -2.42871349e-03
6.85668500e-04 -3.74711308e-05 -3.47449677e-04 -3.74711308e-05 8.95906647e-04 -1.86077379e-04 -3.47449677e-04 -1.86077379e-04 -1.33194223e-03
6.14696182e-04 2.34082489e-04 6.65726315e-04 2.34082489e-04 6.74469360e-04 1.70349324e-04 6.65726315e-04 1.70349324e-04 -1.10176982e-03
1.33332746e-03 -8.16579617e-04 -8.20003381e-04 -8.16579617e-04 1.78920049e-03 1.57887481e-03 -8.20003381e-04 1.57887481e-03 -2.65164986e-03
3.60331408e-03 1.34131865e-03 1.85070741e-03 1.34131865e-03 2.55112612e-03 -1.77501954e-03 1.85070741e-03 -1.77501954e-03 -5.10458538e-03
1.50876803e-03 6.11292715e-04 2.12373235e-03 6.11292715e-04 1.60465654e-03 7.45265541e-04 2.12373235e-03 7.45265541e-04 -2.57421465e-03
1.05765785e-03 -3.54783788e-05 -7.64753357e-04 -3.54783788e-05 1.12486324e-03 9.41226703e-04 -7.64753357e-04 9.41226703e-04 -1.83722397e-03
2.97343545e-03 -2.19201276e-04 1.78800771e-03 -2.19201276e-04 3.01561638e-03 2.74287324e-03 1.78800771e-03 2.74287324e-03 -5.02794969e-03
3.38376449e-03 1.65759842e-03 -7.18709780e-03 1.65759842e-03 5.21636110e-03 3.56081272e-03 -7.18709780e-03 3.56081272e-03 -7.05886267e-03
5.85368299e-03 5.56835020e-03 -7.21176551e-03 5.56835020e-03 5.64914336e-03 -1.09062411e-03 -7.21176551e-03 -1.09062411e-03 -9.59156128e-03
0.00000000e+00 0.00000000e+00 0.00000000e+00 0.00000000e+00 0.00000000e+00 0.00000000e+00 0.00000000e+00 0.00000000e+00 0.00000000e+00
0.00000000e+00 0.00000000e+00 0.00000000e+00 0.00000000e+00 0.00000000e+00 0.00000000e+00 0.00000000e+00 0.00000000e+00 0.00000000e+00
0.00000000e+00 0.00000000e+00 0.00000000e+00 0.00000000e+00 0.00000000e+00 0.00000000e+00 0.00000000e+00 0.00000000e+00 0.00000000e+00
0.00000000e+00 0.00000000e+00 0.00000000e+00 0.00000000e+00 0.00000000e+00 0.00000000e+00 0.00000000e+00 0.00000000e+00 0.00000000e+00
0.00000000e+00 0.00000000e+00 0.00000000e+00 0.00000000e+00 0.00000000e+00 0.00000000e+00 0.00000000e+00 0.00000000e+00 0.00000000e+00
0.00000000e+00 0.00000000e+00 0.00000000e+00 0.00000000e+00 0.00000000e+00 0.00000000e+00 0.00000000e+00 0.00000000e+00 0.00000000e+00
0.00000000e+00 0.00000000e+00 0.00000000e+00 0.00000000e+00 0.00000000e+00 0.00000000e+00 0.00000000e+00 0.00000000e+00 0.00000000e+00
0.00000000e+00 0.00000000e+00 0.00000000e+00 0.00000000e+00 0.00000000e+00 0.00000000e+00 0.00000000e+00 0.00000000e+00 0.00000000e+00
2.70301721e-03 2.93263767e-07 1.05100026e-03 2.93263767e-07 2.74413195e-03 -5.05170174e-04 1.05100026e-03 -5.05170174e-04 -4.58367169e-03
2.78716849e-03 -1.00859264e-04 1.07780387e-03 -1.00859264e-04 2.55583244e-03 -5.84133231e-05 1.07780387e-03 -5.84133231e-05 -4.49480140e-03
2.75473163e-03 -9.27359151e-04 1.33370578e-03 -9.27359151e-04 2.70455389e-03 3.33129145e-04 1.33370578e-03 3.33129145e-04 -4.58565087e-03
2.54760776e-03 -4.92649806e-05 1.20011003e-03 -4.92649806e-05 2.95561983e-03 -4.74641354e-04 1.20011003e-03 -4.74641354e-04 -4.62704850e-03
3.92401812e-03 -2.56528097e-08 7.11260334e-04 -2.56528097e-08 2.37569597e-03 -1.03916496e-04 7.11260334e-04 -1.03916496e-04 -5.29504218e-03
3.80428706e-03 3.64466150e-05 2.30000610e-05 3.64466150e-05 2.40658404e-03 6.92472713e-04 2.30000610e-05 6.92472713e-04 -5.22105803e-03
3.83010760e-03 7.64170372e-05 1.47497803e-03 7.64170372e-05 2.68202386e-03 2.10231079e-04 1.47497803e-03 2.10231079e-04 -5.46300568e-03
3.95666301e-03 1.95886914e-05 1.55921545e-03 1.95886914e-05 2.75993568e-03 -7.95369298e-04 1.55921545e-03 -7.95369298e-04 -5.63545083e-03
3.09809123e-03 -6.61963175e-04 1.56626935e-03 -6.61963175e-04 2.01389065e-03 7.35955364e-05 1.56626935e-03 7.35955364e-05 -4.28905903e-03
3.12760481e-03 -1.30148786e-03 5.90941616e-04 -1.30148786e-03 2.35166335e-03 2.01228492e-04 5.90941616e-04 2.01228492e-04 -4.59981849e-03
3.40231165e-03 1.57240189e-04 -6.85010207e-04 1.57240189e-04 2.34416526e-03 3.56459399e-04 -6.85010207e-04 3.56459399e-04 -4.83409094e-03
3.53127104e-03 3.24852035e-04 7.14715057e-04 3.24852035e-04 2.79451735e-03 7.90429651e-04 7.14715057e-04 7.90429651e-04 -5.32501476e-03
3.37988680e-03 2.14903287e-06 5.58845102e-04 2.14903287e-06 1.54686105e-03 4.93670115e-04 5.58845102e-04 4.93670115e-04 -4.13043925e-03
3.33977313e-03 -7.31186388e-04 -6.38737532e-04 -7.31186388e-04 2.41374038e-03 -6.47577835e-04 -6.38737532e-04 -6.47577835e-04 -4.83021839e-03
3.01142642e-03 -8.01155056e-05 -3.73769872e-04 -8.01155056e-05 2.12930207e-03 8.00793860e-05 -3.73769872e-04 8.00793860e-05 -4.32693027e-03
3.13410975e-03 -1.98084283e-04 -9.31628409e-04 -1.98084283e-04 2.54376367e-03 2.58691755e-04 -9.31628409e-04 2.58691755e-04 -4.77341597e-03
3.07162950e-03 -1.71777124e-05 -6.08928662e-04 -1.71777124e-05 1.42880974e-03 -1.56515254e-04 -6.08928662e-04 -1.56515254e-04 -3.77694238e-03
3.29383471e-03 3.77858385e-04 -1.82434465e-04 3.77858385e-04 3.02234587e-03 -1.59530071e-04 -1.82434465e-04 -1.59530071e-04 -5.31057117e-03
2.61465332e-03 2.61588252e-05 -6.81174206e-04 2.61588252e-05 1.85857786e-03 4.90112725e-05 -6.81174206e-04 4.90112725e-05 -3.76255676e-03
2.62815281e-03 -5.73472687e-04 -1.02171994e-03 -5.73472687e-04 1.90107463e-03 -3.48941878e-04 -1.02171994e-03 -3.48941878e-04 -3.80265719e-03
2.24122315e-03 2.87887240e-04 2.29407771e-04 2.87887240e-04 1.48721851e-03 -4.74263024e-04 2.29407771e-04 -4.74263024e-04 -3.13682895e-03
2.95369612e-03 4.59246985e-04 -5.96045356e-05 4.59246985e-04 2.59719463e-03 1.50466191e-04 -5.96045356e-05 1.50466191e-04 -4.67307435e-03
1.94201418e-03 1.09968427e-04 -1.16340021e-03 1.09968427e-04 1.47129569e-03 1.36014714e-04 -1.16340021e-03 1.36014714e-04 -2.86510790e-03
2.07713281e-03 -1.47429415e-04 -6.09280778e-04 -1.47429415e-04 2.06140867e-03 -2.13036537e-04 -6.09280778e-04 -2.13036537e-04 -3.48071076e-03
1.93992793e-03 5.80336782e-04 3.95556679e-04 5.80336782e-04 1.09284103e-03 -4.80178831e-04 3.95556679e-04 -4.80178831e-04 -2.54586479e-03
2.57062819e-03 4.48228562e-04 1.22888670e-04 4.48228562e-04 2.00789640e-03 -4.24487211e-04 1.22888670e-04 -4.24487211e-04 -3.85250291e-03
1.65583560e-03 5.86264185e-04 -8.81676649e-04 5.86264185e-04 1.10655173e-03 4.98577356e-05 -8.81676649e-04 4.98577356e-05 -2.31764687e-03
1.95012797e-03 5.07220338e-04 -3.04773428e-04 5.07220338e-04 1.61650474e-03 6.88355340e-05 -3.04773428e-04 6.88355340e-05 -2.99920473e-03
2.14517750e-03 -1.50347021e-03 2.81444709e-03 -1.50347021e-03 2.87660828e-03 -7.05447380e-04 2.81444709e-03 -7.05447380e-04 -4.15047933e-03
1.73226168e-03 -9.27520348e-04 1.79860517e-03 -9.27520348e-04 3.14291677e-03 -4.56184825e-04 1.79860517e-03 -4.56184825e-04 -4.08062286e-03
4.36613563e-03 -6.47309641e-04 3.14094554e-03 -6.47309641e-04 3.47685008e-03 4.33923822e-04 3.14094554e-03 4.33923822e-04 -6.57006889e-03
4.08863090e-03 -7.87905210e-05 3.82329617e-03 -7.87905210e-05 2.97435920e-03 -5.05709002e-04 3.82329617e-03 -5.05709002e-04 -5.89038315e-03
3.27282053e-03 -5.11102947e-04 1.43582889e-03 -5.11102947e-04 3.16851230e-03 -1.11399594e-03 1.43582889e-03 -1.11399594e-03 -5.44303170e-03
3.66194002e-03 3.42785493e-04 3.56185352e-04 3.42785493e-04 3.43154112e-03 -1.37807256e-03 3.56185352e-04 -1.37807256e-03 -5.96471876e-03
4.85900752e-03 -9.97090852e-04 -5.22649712e-03 -9.97090852e-04 4.08228338e-03 4.00202244e-04 -5.22649712e-03 4.00202244e-04 -7.42655965e-03
2.69002195e-03 4.91265889e-04 -2.66633810e-03 4.91265889e-04 2.60868772e-03 -9.49573520e-04 -2.66633810e-03 -9.49573520e-04 -4.41767904e-03
4.46422817e-03 2.52589758e-04 -6.90391240e-04 2.52589758e-04 4.76462184e-03 1.21934594e-03 -6.90391240e-04 1.21934594e-03 -7.77166325e-03
3.24700302e-03 -5.06594116e-04 -3.81621041e-03 -5.06594116e-04 2.14549348e-03 9.15567204e-04 -3.81621041e-03 9.15567204e-04 -4.45884964e-03
3.90728447e-03 -2.94422571e-04 -6.97081989e-04 -2.94422571e-04 3.85378703e-03 4.60891741e-04 -6.97081989e-04 4.60891741e-04 -6.53223682e-03
3.17945395e-03 1.98993395e-04 -9.93371417e-04 1.98993395e-04 3.08186852e-03 3.27611368e-04 -9.93371417e-04 3.27611368e-04 -5.27545251e-03
3.45026259e-03 9.06277237e-05 -5.56440675e-04 9.06277237e-05 3.12005903e-03 6.90004990e-05 -5.56440675e-04 6.90004990e-05 -5.52935805e-03
3.21238814e-03 3.75635311e-04 -5.68553045e-04 3.75635311e-04 2.67004396e-03 -1.09237418e-03 -5.68553045e-04 -1.09237418e-03 -4.94526490e-03
1.76324617e-03 -7.56834812e-04 2.94624372e-03 -7.56834812e-04 2.78412675e-03 -1.33234625e-04 2.94624372e-03 -1.33234625e-04 -3.73328612e-03
6.82082409e-04 -9.54819079e-05 1.86235603e-03 -9.54819079e-05 2.28364437e-03 1.40211111e-03 1.86235603e-03 1.40211111e-03 -2.45674583e-03
3.96544693e-03 -6.14436614e-04 3.10457003e-03 -6.14436614e-04 2.74854606e-03 -2.44962964e-03 3.10457003e-03 -2.44962964e-03 -5.58569841e-03
2.45777905e-03 9.20298538e-04 4.19782108e-03 9.20298538e-04 2.42983177e-03 -4.03093122e-03 4.19782108e-03 -4.03093122e-03 -3.97349312e-03
3.98197380e-03 -1.81724817e-03 5.20798989e-03 -1.81724817e-03 4.93503315e-03 -5.51533666e-03 5.20798989e-03 -5.51533666e-03 -7.33495154e-03
5.73912896e-03 -1.07367988e-03 5.07412420e-04 -1.07367988e-03 3.65070757e-03 -3.15985256e-03 5.07412420e-04 -3.15985256e-03 -7.82488976e-03
-1.96784385e-03 -6.60800003e-03 -1.35738039e-02 -6.60800003e-03 -8.31385725e-04 -1.25801982e-02 -1.35738039e-02 -1.25801982e-02 4.28735232e-03
1.73254587e-03 -3.02186527e-04 -2.21901368e-03 -3.02186527e-04 4.17369340e-04 -1.65089786e-03 -2.21901368e-03 -1.65089786e-03 -1.81469593e-03
7.22275140e-04 -1.82527141e-04 8.87545865e-04 -1.82527141e-04 1.46034528e-03 1.24757545e-03 8.87545865e-04 1.24757545e-03 -1.80937741e-03
5.37143125e-04 -3.56243800e-04 1.63717482e-03 -3.56243800e-04 1.21397080e-03 6.41281644e-04 1.63717482e-03 6.41281644e-04 -1.41595036e-03
1.60126570e-03 -2.59218117e-08 2.94747300e-03 -2.59218117e-08 1.88563203e-03 1.54664345e-03 2.94747300e-03 1.54664345e-03 -2.85875297e-03
1.33076354e-03 4.27783401e-04 -3.48211404e-04 4.27783401e-04 2.22103370e-03 -6.82995189e-04 -3.48211404e-04 -6.82995189e-04 -3.01502971e-03
6.90920584e-04 3.90475754e-04 2.03563890e-04 3.90475754e-04 7.27888102e-04 -2.47886503e-04 2.03563890e-04 -2.47886503e-04 -1.18622479e-03
2.66452635e-03 1.06388639e-03 -1.15949072e-03 1.06388639e-03 3.47290142e-03 2.54214360e-03 -1.15949072e-03 2.54214360e-03 -5.05275592e-03
2.05082471e-03 7.76294284e-04 9.70765032e-04 7.76294284e-04 3.62117024e-03 1.07193735e-03 9.70765032e-04 1.07193735e-03 -4.75807179e-03
7.64860510e-04 -3.47500387e-04 9.86456900e-04 -3.47500387e-04 1.79005813e-03 2.58312080e-03 9.86456900e-04 2.58312080e-03 -1.96153944e-03
5.80142997e-03 -1.08129246e-03 7.53653294e-03 -1.08129246e-03 4.65864188e-03 4.49102177e-03 7.53653294e-03 4.49102177e-03 -8.65710317e-03
4.18535075e-03 3.62227787e-04 -4.34134924e-03 3.62227787e-04 5.23733139e-03 -2.75105957e-03 -4.34134924e-03 -2.75105957e-03 -7.75235593e-03
8.79217230e-04 -7.31468026e-05 1.02610656e-03 -7.31468026e-05 1.48032146e-03 7.66438374e-04 1.02610656e-03 7.66438374e-04 -1.96389086e-03
3.34717118e-03 2.47712532e-03 -5.60666842e-04 2.47712532e-03 4.27021133e-03 1.01195543e-03 -5.60666842e-04 1.01195543e-03 -6.43161102e-03
2.72730767e-03 2.57595355e-04 2.82723940e-03 2.57595355e-04 4.70516633e-03 -2.57516978e-03 2.82723940e-03 -2.57516978e-03 -6.22002524e-03
5.14715171e-03 8.79490864e-04 -4.07222053e-03 8.79490864e-04 5.59420139e-03 3.37726288e-03 -4.07222053e-03 3.37726288e-03 -8.95355386e-03
5.14250840e-03 1.90992580e-03 2.46937100e-03 1.90992580e-03 6.19873699e-03 -8.91663351e-03 2.46937100e-03 -8.91663351e-03 -9.42637570e-03
5.56826677e-03 -8.09262565e-04 -4.85989304e-04 -8.09262565e-04 4.33061280e-03 -1.96368684e-03 -4.85989304e-04 -1.96368684e-03 -8.33556925e-03
5.14232647e-03 7.06211267e-08 4.68396669e-04 7.06211267e-08 2.41506973e-03 -4.06720079e-04 4.68396669e-04 -4.06720079e-04 -6.33565499e-03
4.75631433e-03 3.34107681e-04 7.81549592e-04 3.34107681e-04 2.64773390e-03 2.97605491e-04 7.81549592e-04 2.97605491e-04 -6.21515629e-03
4.84025036e-03 1.14638678e-03 6.94753490e-04 1.14638678e-03 2.89305954e-03 5.38886514e-04 6.94753490e-04 5.38886514e-04 -6.49150013e-03
5.47969888e-03 1.81367741e-04 1.14832976e-03 1.81367741e-04 2.57433060e-03 -9.15649143e-05 1.14832976e-03 -9.15649143e-05 -6.75055559e-03
3.73536814e-03 6.00103464e-04 3.21118016e-04 6.00103464e-04 3.16215394e-03 6.56509234e-04 3.21118016e-04 6.56509234e-04 -5.80410846e-03
3.57046229e-03 1.53062686e-03 1.10065397e-04 1.53062686e-03 3.16734365e-03 1.53204150e-04 1.10065397e-04 1.53204150e-04 -5.65830397e-03
2.61138298e-03 3.66001907e-04 -6.52047209e-04 3.66001907e-04 3.33111495e-03 2.54549339e-04 -6.52047209e-04 2.54549339e-04 -5.00085251e-03
2.43970375e-03 7.94790853e-04 -2.83740386e-04 7.94790853e-04 3.11978275e-03 1.37976695e-04 -2.83740386e-04 1.37976695e-04 -4.67281626e-03
2.01047372e-03 6.98193003e-06 -5.16783213e-04 6.98193003e-06 2.95993028e-03 -4.62761836e-05 -5.16783213e-04 -4.62761836e-05 -4.18184395e-03
1.79551843e-03 -2.02031893e-04 -4.85176763e-04 -2.02031893e-04 2.64082939e-03 1.55759854e-04 -4.85176763e-04 1.55759854e-04 -3.72765484e-03
1.88398967e-03 -1.74469838e-04 -5.29483877e-04 -1.74469838e-04 2.53262190e-03 1.71374454e-04 -5.29483877e-04 1.71374454e-04 -3.71750636e-03
1.74734228e-03 -4.26583634e-04 -7.21351968e-04 -4.26583634e-04 2.10072289e-03 5.68245878e-05 -7.21351968e-04 5.68245878e-05 -3.23065397e-03
1.78584259e-03 1.09456301e-04 -3.29659786e-04 1.09456301e-04 2.47632281e-03 5.72008663e-04 -3.29659786e-04 5.72008663e-04 -3.58830276e-03
1.85975249e-03 -4.51355367e-04 -2.14949861e-04 -4.51355367e-04 2.00996554e-03 -3.76495445e-05 -2.14949861e-04 -3.76495445e-05 -3.25369491e-03
6.19786471e-03 1.67819978e-03 3.11836622e-03 1.67819978e-03 2.95225317e-03 -2.17059081e-04 3.11836622e-03 -2.17059081e-04 -7.62123329e-03
6.66764705e-03 9.77760050e-04 3.89555946e-03 9.77760050e-04 3.33719747e-03 -1.89138032e-03 3.89555946e-03 -1.89138032e-03 -8.33603635e-03
4.04097282e-03 1.71753945e-03 -4.58179002e-04 1.71753945e-03 2.88007833e-03 1.64816815e-04 -4.58179002e-04 1.64816815e-04 -5.81672310e-03
1.75694571e-03 9.14994900e-04 -1.09416767e-03 9.14994900e-04 1.87428627e-03 5.51034755e-05 -1.09416767e-03 5.51034755e-05 -3.03762543e-03
9.99856258e-04 2.51082279e-05 -9.81903448e-04 2.51082279e-05 1.57247156e-03 -8.12662163e-05 -9.81903448e-04 -8.12662163e-05 -2.15563349e-03
9.96103292e-04 -3.72335116e-04 -1.78088129e-03 -3.72335116e-04 1.43513479e-03 -2.81387397e-04 -1.78088129e-03 -2.81387397e-04 -2.01115672e-03
1.08166538e-03 -7.90224023e-04 -1.62175108e-03 -7.90224023e-04 1.31328392e-03 -8.62834975e-04 -1.62175108e-03 -8.62834975e-04 -1.97324320e-03
6.98015350e-03 -3.95198508e-04 7.83831681e-03 -3.95198508e-04 1.95450453e-03 -1.84120999e-03 7.83831681e-03 -1.84120999e-03 -7.24036417e-03
7.93161228e-03 -1.41629387e-03 8.20104607e-03 -1.41629387e-03 3.06765202e-03 -1.95977689e-03 8.20104607e-03 -1.95977689e-03 -9.02294694e-03
4.19702707e-03 1.59496246e-03 2.58053697e-04 1.59496246e-03 2.05440047e-03 -3.33779786e-03 2.58053697e-04 -3.33779786e-03 -5.20561147e-03
1.32836493e-03 8.22075187e-04 -1.75353927e-03 8.22075187e-04 5.51275094e-04 -1.01244017e-03 -1.75353927e-03 -1.01244017e-03 -1.51479894e-03
2.52651836e-04 -3.14956252e-03 -3.92483361e-03 -3.14956252e-03 -1.61044241e-03 -3.75849335e-03 -3.92483361e-03 -3.75849335e-03 1.91381283e-03
-2.25660761e-04 1.48866391e-04 1.26422310e-04 1.48866391e-04 -1.65043457e-07 2.83615984e-05 1.26422310e-04 2.83615984e-05 1.59907849e-04
6.26366714e-03 1.14203021e-03 -2.53342232e-03 1.14203021e-03 3.75182876e-03 3.41396045e-03 -2.53342232e-03 3.41396045e-03 -8.04507965e-03
6.33127630e-03 1.11633791e-03 -4.85300133e-03 1.11633791e-03 5.56298006e-03 1.59249164e-03 -4.85300133e-03 1.59249164e-03 -9.90606441e-03
7.13427423e-03 1.01789238e-03 5.97195787e-04 1.01789238e-03 4.44240228e-03 -4.11623262e-03 5.97195787e-04 -4.11623262e-03 -9.80910473e-03
6.87453570e-03 -1.53019966e-04 -2.32627732e-04 -1.53019966e-04 8.41653976e-03 1.48892415e-03 -2.32627732e-04 1.48892415e-03 -1.28901030e-02
6.83063304e-03 -3.66920736e-04 -2.09398422e-04 -3.66920736e-04 8.15867435e-03 -2.05934682e-03 -2.09398422e-04 -2.05934682e-03 -1.26413435e-02
6.91890146e-03 -9.70091030e-04 2.89165173e-03 -9.70091030e-04 6.99058990e-03 2.90607935e-03 2.89165173e-03 2.90607935e-03 -1.16650106e-02
6.84129936e-03 5.31884521e-04 1.96832331e-03 5.31884521e-04 7.25284009e-03 3.93225375e-04 1.96832331e-03 3.93225375e-04 -1.18755135e-02
6.11804437e-03 1.90372666e-03 1.00288016e-03 1.90372666e-03 7.41841469e-03 -1.46229002e-03 1.00288016e-03 -1.46229002e-03 -1.14088277e-02
6.28231035e-03 -1.82336304e-03 -9.64770734e-05 -1.82336304e-03 5.47478953e-03 2.29370988e-03 -9.64770734e-05 2.29370988e-03 -9.87734459e-03
3.39422241e-03 1.16471984e-03 6.94522590e-04 1.16471984e-03 1.11037572e-03 -1.07847968e-03 6.94522590e-04 -1.07847968e-03 -3.79659716e-03
3.25072001e-03 -1.67535448e-03 -1.35452925e-03 -1.67535448e-03 1.88232479e-03 -7.56120586e-04 -1.35452925e-03 -7.56120586e-04 -4.25983671e-03
-1.37241790e-03 2.40116892e-03 6.11938231e-05 2.40116892e-03 -1.09675596e-03 -2.84533971e-03 6.11938231e-05 -2.84533971e-03 2.33567320e-03
3.41118575e-05 -2.14884221e-03 7.37671566e-04 -2.14884221e-03 -9.16217570e-04 -6.88766036e-03 7.37671566e-04 -6.88766036e-03 1.36455859e-03
3.18032853e-04 -6.33837897e-04 -1.64977546e-04 -6.33837897e-04 -3.78407593e-04 1.14509929e-03 -1.64977546e-04 1.14509929e-03 2.08907920e-04
-4.82305375e-04 -9.95568296e-04 -1.78244272e-04 -9.95568296e-04 9.94778190e-05 5.04739655e-05 -1.78244272e-04 5.04739655e-05 3.75232228e-04
0.00000000e+00 0.00000000e+00 0.00000000e+00 0.00000000e+00 0.00000000e+00 0.00000000e+00 0.00000000e+00 0.00000000e+00 0.00000000e+00
0.00000000e+00 0.00000000e+00 0.00000000e+00 0.00000000e+00 0.00000000e+00 0.00000000e+00 0.00000000e+00 0.00000000e+00 0.00000000e+00
0.00000000e+00 0.00000000e+00 0.00000000e+00 0.00000000e+00 0.00000000e+00 0.00000000e+00 0.00000000e+00 0.00000000e+00 0.00000000e+00
0.00000000e+00 0.00000000e+00 0.00000000e+00 0.00000000e+00 0.00000000e+00 0.00000000e+00 0.00000000e+00 0.00000000e+00 0.00000000e+00
3.39332246e-07 -1.33541140e-05 -6.54209118e-06 -1.33541140e-05 -2.54665588e-06 -7.15822317e-06 -6.54209118e-06 -7.15822317e-06 8.53551205e-07
0.00000000e+00 0.00000000e+00 0.00000000e+00 0.00000000e+00 0.00000000e+00 0.00000000e+00 0.00000000e+00 0.00000000e+00 0.00000000e+00
0.00000000e+00 0.00000000e+00 0.00000000e+00 0.00000000e+00 0.00000000e+00 0.00000000e+00 0.00000000e+00 0.00000000e+00 0.00000000e+00
1.42483223e-05 2.10864831e-06 2.76637456e-06 2.10864831e-06 -1.87982732e-05 -7.25209065e-06 2.76637456e-06 -7.25209065e-06 1.61458001e-06
5.58980135e-03 3.34930519e-08 2.84053385e-08 3.34930519e-08 2.53719697e-03 3.88492936e-08 2.84053385e-08 3.88492936e-08 -6.81196293e-03
4.90129762e-03 6.58934296e-04 -1.17118361e-07 6.58934296e-04 2.92348175e-03 4.20078126e-04 -1.17118361e-07 4.20078126e-04 -6.57373178e-03
5.61503775e-03 1.72139934e-03 5.10123005e-04 1.72139934e-03 2.74368381e-03 7.46567981e-04 5.10123005e-04 7.46567981e-04 -6.99758343e-03
6.28635404e-03 5.86499838e-04 1.07648666e-04 5.86499838e-04 2.43501645e-03 -1.12389444e-07 1.07648666e-04 -1.12389444e-07 -7.29712495e-03
3.57299170e-03 5.88966504e-04 -2.84788968e-07 5.88966504e-04 3.55001539e-03 7.39332434e-04 -2.84788968e-07 7.39332434e-04 -5.99372038e-03
3.81604175e-03 1.76682093e-03 5.90786032e-04 1.76682093e-03 3.37217987e-03 7.27182487e-04 5.90786032e-04 7.27182487e-04 -6.03394222e-03
2.39683851e-03 5.34685532e-04 -1.15578814e-07 5.34685532e-04 3.86117457e-03 4.92005784e-04 -1.15578814e-07 4.92005784e-04 -5.25807892e-03
2.19224306e-03 1.07153106e-03 4.25068589e-04 1.07153106e-03 3.34597111e-03 6.54953736e-04 4.25068589e-04 6.54953736e-04 -4.64735657e-03
1.74753653e-03 3.26379319e-04 -1.33707317e-07 3.26379319e-04 3.68899433e-03 1.07746895e-04 -1.33707317e-07 1.07746895e-04 -4.56058164e-03
1.50281872e-03 4.14660455e-04 8.01466493e-04 4.14660455e-04 3.04485677e-03 4.23764097e-04 8.01466493e-04 4.23764097e-04 -3.81198979e-03
1.92170963e-03 -3.06394199e-04 1.69622922e-07 -3.06394199e-04 3.32412543e-03 1.32242269e-04 1.69622922e-07 1.32242269e-04 -4.40915907e-03
1.50980556e-03 -2.01585361e-04 1.01404061e-03 -2.01585361e-04 2.65581615e-03 2.78963955e-06 1.01404061e-03 2.78963955e-06 -3.49651783e-03
1.95319555e-03 -1.02685846e-03 6.42446139e-07 -1.02685846e-03 3.52782779e-03 6.85596722e-04 6.42446139e-07 6.85596722e-04 -4.60021989e-03
1.71920203e-03 -7.60456664e-04 1.38010201e-03 -7.60456664e-04 2.60072725e-03 -4.41140743e-04 1.38010201e-03 -4.41140743e-04 -3.61565896e-03
5.63893473e-03 2.80348604e-03 -1.09989769e-03 2.80348604e-03 4.08220038e-03 1.08624538e-03 -1.09989769e-03 1.08624538e-03 -8.15322576e-03
7.00392947e-03 2.48726181e-04 -3.74563970e-04 2.48726181e-04 4.98998829e-03 -2.68088115e-07 -3.74563970e-04 -2.68088115e-07 -1.00810127e-02
3.40293976e-03 3.48780124e-03 -1.58657393e-04 3.48780124e-03 2.76468234e-03 1.27810027e-03 -1.58657393e-04 1.27810027e-03 -5.13510604e-03
1.59055904e-03 1.35516169e-03 6.38665791e-04 1.35516169e-03 1.99576234e-03 7.95937885e-04 6.38665791e-04 7.95937885e-04 -2.99764459e-03
5.21760403e-04 -6.21329254e-05 6.48533445e-04 -6.21329254e-05 1.08077544e-03 6.55930882e-04 6.48533445e-04 6.55930882e-04 -1.33620456e-03
1.28220849e-04 -3.38354199e-04 5.26305979e-04 -3.38354199e-04 6.00091123e-04 1.47755156e-06 5.26305979e-04 1.47755156e-06 -6.06088106e-04
3.62971652e-04 -6.42034451e-04 3.93252412e-04 -6.42034451e-04 3.69178540e-04 -4.70925457e-04 3.93252412e-04 -4.70925457e-04 -5.97457707e-04
8.25132034e-03 2.00216164e-04 5.15441061e-03 2.00216164e-04 8.19599861e-03 2.77955446e-03 5.15441061e-03 2.77955446e-03 -1.38412868e-02
1.00657335e-02 -1.15492824e-03 4.89334809e-03 -1.15492824e-03 9.27877706e-03 1.92013795e-06 4.89334809e-03 1.92013795e-06 -1.62810404e-02
2.63304756e-03 7.77261012e-04 1.37339020e-03 7.77261012e-04 2.41453449e-03 2.47507604e-03 1.37339020e-03 2.47507604e-03 -4.22882149e-03
2.34884273e-04 -6.40740027e-05 3.74343748e-04 -6.40740027e-05 3.34063971e-04 4.82113366e-04 3.74343748e-04 4.82113366e-04 -5.00481561e-04
-7.22151208e-05 -1.52556568e-04 2.80565619e-05 -1.52556568e-04 -5.94512831e-05 -2.85348660e-05 2.80565619e-05 -2.85348660e-05 1.06097361e-04
-6.35836350e-05 -9.51411721e-05 -5.49286306e-05 -9.51411721e-05 1.75161485e-05 -1.38447922e-05 -5.49286306e-05 -1.38447922e-05 4.31801664e-05
-3.49522634e-05 1.78476421e-05 -2.54061044e-05 1.78476421e-05 -3.65136193e-05 3.91418871e-06 -2.54061044e-05 3.91418871e-06 5.89312804e-05
9.31515933e-06 -2.14771586e-04 -2.11206483e-04 -2.14771586e-04 -3.06583061e-05 1.32956729e-05 -2.11206483e-04 1.32956729e-05 4.39974356e-05
-8.88253489e-05 7.16020222e-05 3.26582704e-05 7.16020222e-05 9.33523825e-06 5.48133903e-05 3.26582704e-05 5.48133903e-05 5.67316674e-05
7.02178761e-04 -5.33980012e-04 -1.16636371e-03 -5.33980012e-04 -4.53924826e-04 -2.52807722e-03 -1.16636371e-03 -2.52807722e-03 1.25742896e-04
-6.77936463e-04 -1.09548553e-04 3.07296999e-04 -1.09548553e-04 -1.82675486e-04 2.75498707e-04 3.07296999e-04 2.75498707e-04 7.12985988e-04
1.67680031e-03 8.65415088e-04 -1.29341008e-03 8.65415088e-04 2.62026838e-03 3.72425979e-03 -1.29341008e-03 3.72425979e-03 -3.56245670e-03
4.49688741e-06 -2.41984693e-05 5.53178373e-05 -2.41984693e-05 3.52549699e-05 8.73107397e-05 5.53178373e-05 8.73107397e-05 -3.44347927e-05
2.22138340e-05 -1.75574307e-05 -6.82479913e-06 -1.75574307e-05 1.75392355e-06 -4.60627571e-05 -6.82479913e-06 -4.60627571e-05 -2.97731292e-05
1.13334374e-06 -3.16745542e-07 1.66891914e-06 -3.16745542e-07 -2.35897187e-06 4.54348282e-07 1.66891914e-06 4.54348282e-07 7.94545201e-07
-3.03678519e-07 8.48717079e-08 -4.47185499e-07 8.48717079e-08 6.32084550e-07 -1.21742247e-07 -4.47185499e-07 -1.21742247e-07 -2.12897731e-07
0.00000000e+00 0.00000000e+00 0.00000000e+00 0.00000000e+00 0.00000000e+00 0.00000000e+00 0.00000000e+00 0.00000000e+00 0.00000000e+00
0.00000000e+00 0.00000000e+00 0.00000000e+00 0.00000000e+00 0.00000000e+00 0.00000000e+00 0.00000000e+00 0.00000000e+00 0.00000000e+00
1.35638295e-02 2.60376767e-03 -5.65760629e-03 2.60376767e-03 1.42560070e-02 1.96406472e-06 -5.65760629e-03 1.96406472e-06 -2.34383475e-02
1.50723532e-02 -3.12131410e-03 -4.16810066e-03 -3.12131410e-03 1.30573399e-02 1.03183063e-02 -4.16810066e-03 1.03183063e-02 -2.36113034e-02
8.63127845e-03 -2.91519793e-03 3.49214440e-03 -2.91519793e-03 9.04547113e-03 4.04414612e-03 3.49214440e-03 4.04414612e-03 -1.48325935e-02
9.54199862e-03 -5.12633742e-05 3.15345242e-03 -5.12633742e-05 1.19293174e-02 -2.51859456e-06 3.15345242e-03 -2.51859456e-06 -1.80685148e-02
-2.13390357e-06 6.74747682e-07 -8.48589352e-07 6.74747682e-07 2.57716081e-06 2.09644088e-06 -8.48589352e-07 2.09644088e-06 -6.15245099e-09
-1.50717109e-05 -8.71306102e-05 3.09921411e-05 -8.71306102e-05 -9.48901575e-05 1.78341712e-05 3.09921411e-05 1.78341712e-05 7.67810531e-05
0.00000000e+00 0.00000000e+00 0.00000000e+00 0.00000000e+00 0.00000000e+00 0.00000000e+00 0.00000000e+00 0.00000000e+00 0.00000000e+00
1.03945881e-02 -3.70654248e-03 1.12553121e-03 -3.70654248e-03 6.00484805e-03 4.35147248e-03 1.12553121e-03 4.35147248e-03 -1.37378387e-02
1.01075750e-02 -2.81671458e-03 4.46712691e-03 -2.81671458e-03 7.43444171e-03 4.33609966e-06 4.46712691e-03 4.33609966e-06 -1.47363143e-02
4.93711303e-03 1.66464201e-03 3.56774064e-04 1.66464201e-03 5.34642697e-03 2.36118934e-03 3.56774064e-04 2.36118934e-03 -8.68037809e-03
6.22262678e-03 -9.90769986e-04 -1.63545343e-03 -9.90769986e-04 4.88862628e-03 4.14997130e-03 -1.63545343e-03 4.14997130e-03 -9.30152228e-03
1.86237562e-03 4.64645451e-04 -5.45458024e-04 4.64645451e-04 4.25850216e-04 1.62357284e-03 -5.45458024e-04 1.62357284e-03 -1.92124804e-03
1.08450824e-03 -1.52986134e-03 -7.33825320e-04 -1.52986134e-03 1.41968264e-03 1.23651529e-03 -7.33825320e-04 1.23651529e-03 -2.07749696e-03
-3.12990291e-04 -2.97068080e-04 -1.68027280e-04 -2.97068080e-04 1.33157275e-04 1.50013620e-04 -1.68027280e-04 1.50013620e-04 2.02729283e-04
2.11178176e-05 -2.67146424e-05 1.61195767e-05 -2.67146424e-05 -1.49632142e-05 -1.10260817e-05 1.61195767e-05 -1.10260817e-05 -1.11362997e-05
0.00000000e+00 0.00000000e+00 0.00000000e+00 0.00000000e+00 0.00000000e+00 0.00000000e+00 0.00000000e+00 0.00000000e+00 0.00000000e+00
</DataArray>
<DataArray type="Float32" Name="Spatial_displacement" NumberOfComponents="3" format="ascii">
8.81480519e-04 1.12673752e-02 -4.23962623e-03
1.87554187e-03 1.09329270e-02 -2.73515610e-03
1.55799696e-03 1.26383025e-02 -4.17434936e-03
4.87861224e-04 1.23469038e-02 -5.21549396e-03
6.87395688e-04 1.23280575e-02 -6.04020711e-03
1.69123965e-03 1.26408162e-02 -5.90776000e-03
7.63784861e-04 1.50383729e-02 -7.75397290e-03
3.74541152e-04 1.28490198e-02 -6.34835847e-03
3.03028850e-03 1.05296131e-02 -2.05056882e-03
3.20782699e-03 1.22294948e-02 -3.40932561e-03
3.91618069e-03 1.12611577e-02 -5.15794940e-03
7.31685292e-03 1.75886378e-02 -1.49850510e-02
3.25183198e-03 1.23213744e-02 -2.51177698e-06
3.25448019e-03 1.33178104e-02 -3.46284360e-05
2.24253628e-03 1.33331018e-02 3.26801091e-05
2.22674687e-03 1.23242978e-02 4.18834388e-05
3.27029824e-03 1.22598475e-02 -1.87158585e-05
3.26397410e-03 1.32736368e-02 -2.68314034e-05
2.25621462e-03 1.32648339e-02 2.50535086e-05
2.26431619e-03 1.22543564e-02 5.50346449e-05
0.00000000e+00 0.00000000e+00 -1.54980812e-02
2.78878328e-03 0.00000000e+00 -1.60390213e-02
2.68400228e-03 2.78832205e-03 -1.48721300e-02
0.00000000e+00 2.83607142e-03 -1.43564064e-02
0.00000000e+00 0.00000000e+00 -2.08031442e-02
4.09443490e-03 0.00000000e+00 -2.09057108e-02
4.13374184e-03 2.43161013e-03 -2.08762810e-02
0.00000000e+00 2.41007772e-03 -2.00231485e-02
6.07529329e-03 0.00000000e+00 -1.77415516e-02
5.33468742e-03 2.03381246e-03 -1.60274189e-02
7.90073536e-03 0.00000000e+00 -2.18053572e-02
8.07803869e-03 2.55022757e-03 -2.25395653e-02
9.22915712e-03 0.00000000e+00 -1.92944407e-02
9.23604332e-03 1.42078730e-03 -1.86808240e-02
1.15071228e-02 0.00000000e+00 -2.37364490e-02
1.14136897e-02 2.31421553e-03 -2.41268724e-02
1.29550416e-02 0.00000000e+00 -2.08744984e-02
1.29380543e-02 1.56331551e-03 -2.15445403e-02
1.44707020e-02 0.00000000e+00 -2.53280085e-02
1.44992433e-02 1.81637076e-03 -2.60855854e-02
1.60114318e-02 0.00000000e+00 -2.29514241e-02
1.63376052e-02 1.81212742e-03 -2.26810426e-02
1.68256108e-02 0.00000000e+00 -2.59339977e-02
1.69486161e-02 1.45766931e-03 -2.72697750e-02
1.82954073e-02 0.00000000e+00 -2.38846391e-02
1.89568549e-02 1.29713304e-03 -2.34246533e-02
1.84666831e-02 0.00000000e+00 -2.62179524e-02
1.91599838e-02 9.88499261e-04 -2.72554476e-02
1.56415207e-03 5.23211900e-03 -1.22433025e-02
0.00000000e+00 6.26177341e-03 -1.17522171e-02
4.11844812e-03 5.58722252e-03 -1.75486095e-02
0.00000000e+00 5.67269698e-03 -1.70274228e-02
4.57275007e-03 4.86040395e-03 -1.63120348e-02
8.72309506e-03 5.68808615e-03 -2.14149598e-02
8.10791831e-03 5.57695422e-03 -2.05173381e-02
1.18019003e-02 5.13413223e-03 -2.78591868e-02
1.33863185e-02 6.48688432e-03 -2.03741044e-02
1.40445270e-02 3.92148364e-03 -2.91577894e-02
1.72828082e-02 5.21974033e-03 -2.17007622e-02
1.73135716e-02 4.61261347e-03 -2.80528422e-02
2.03084443e-02 3.96502623e-03 -2.19927132e-02
2.05593612e-02 3.63660068e-03 -2.81179473e-02
7.66430283e-04 8.97447113e-03 -7.67183444e-03
0.00000000e+00 9.06007923e-03 -9.23156831e-03
2.73559708e-03 9.22947749e-03 -1.51005555e-02
0.00000000e+00 8.25129077e-03 -1.07935173e-02
4.09314828e-03 8.37672688e-03 -1.18324934e-02
9.27514583e-03 9.73140635e-03 -2.36752257e-02
3.35466070e-03 6.12877076e-03 -3.65716517e-02
1.45279728e-02 7.53167551e-03 -3.09528504e-02
5.85432863e-04 1.09690800e-02 -5.77529892e-03
0.00000000e+00 1.14102028e-02 -6.51753508e-03
1.22281723e-03 1.15301656e-02 -8.91008694e-03
0.00000000e+00 1.10725360e-02 -8.19127355e-03
0.00000000e+00 1.18157249e-02 -5.71524212e-03
1.46704796e-03 1.35328127e-02 -7.08316313e-03
0.00000000e+00 1.26727503e-02 -8.25790875e-03
1.56945875e-03 1.10648796e-02 -3.24703520e-03
4.30730358e-03 1.25383427e-02 -1.10153351e-02
5.02451882e-03 1.33725815e-02 -8.76702275e-03
0.00000000e+00 1.29442737e-02 -7.30070239e-03
2.61481898e-03 1.76708214e-02 -1.38369892e-02
0.00000000e+00 1.74243860e-02 -1.10797528e-02
6.34070672e-03 2.03338601e-02 -1.60811823e-02
1.13276476e-02 1.15555255e-02 -2.61270851e-02
1.55577473e-02 1.67942643e-02 -2.33729333e-02
0.00000000e+00 0.00000000e+00 -2.73024105e-02
5.33313910e-03 0.00000000e+00 -2.77401749e-02
5.69375977e-03 2.58508814e-03 -2.69008912e-02
0.00000000e+00 2.39151949e-03 -2.68126037e-02
9.72179137e-03 0.00000000e+00 -2.83322986e-02
1.03785284e-02 3.20911314e-03 -2.79827211e-02
1.29867755e-02 0.00000000e+00 -2.89053377e-02
1.33907311e-02 3.58091225e-03 -2.96062585e-02
1.53001901e-02 0.00000000e+00 -2.97787320e-02
1.53079778e-02 3.17382487e-03 -3.03260796e-02
1.72231290e-02 0.00000000e+00 -2.99522076e-02
1.70230847e-02 2.55247648e-03 -3.05349380e-02
1.89439319e-02 0.00000000e+00 -2.99239382e-02
1.90716609e-02 2.50553107e-03 -3.03008147e-02
6.98813889e-03 6.18703850e-03 -2.69375518e-02
0.00000000e+00 5.14507806e-03 -2.49630176e-02
1.20507348e-02 6.83830678e-03 -2.93518789e-02
1.47723388e-02 6.44037081e-03 -3.12286206e-02
1.58844180e-02 5.53565659e-03 -3.30683999e-02
1.69100724e-02 4.57420573e-03 -3.38085592e-02
1.79800522e-02 4.42597037e-03 -3.35167274e-02
7.58272409e-03 7.75904767e-03 -1.98510271e-02
0.00000000e+00 9.27999243e-03 -1.77766345e-02
1.38282571e-02 8.52274429e-03 -2.99273860e-02
1.67674571e-02 7.69874081e-03 -3.40504646e-02
1.53706484e-02 2.57232226e-03 -3.76478322e-02
1.74633078e-02 6.47588260e-03 -3.47307399e-02
6.21277653e-03 9.41909943e-03 -1.19427117e-02
0.00000000e+00 8.22272524e-03 -1.36206830e-02
1.55253485e-02 1.20724831e-02 -2.83161700e-02
6.86982600e-03 1.63937137e-02 -1.95081551e-02
0.00000000e+00 1.67824533e-02 -1.74186528e-02
7.55802915e-03 2.53014490e-02 -2.08533928e-02
0.00000000e+00 2.47488543e-02 -2.12449729e-02
1.30207166e-02 1.45639172e-02 -2.47676596e-02
1.76967550e-02 2.12847739e-02 -2.45580599e-02
1.75335538e-02 1.10386107e-02 -3.28662395e-02
2.26429794e-02 1.20924469e-02 -3.15346457e-02
1.08782304e-02 8.57372768e-03 -3.89618576e-02
1.66359022e-02 8.65066610e-03 -3.71656492e-02
2.00974997e-02 6.93940464e-03 -3.50654721e-02
2.25191973e-02 7.64257088e-03 -3.47431302e-02
2.03751437e-02 5.33397915e-03 -3.47860530e-02
2.03799251e-02 3.67432088e-03 -3.47924083e-02
2.20206119e-02 3.69658670e-03 -3.48089561e-02
2.19768733e-02 5.36512630e-03 -3.47306728e-02
2.03728769e-02 5.33199683e-03 -3.47732306e-02
2.03963518e-02 3.71892052e-03 -3.47895101e-02
2.20241174e-02 3.69055662e-03 -3.48016433e-02
2.21209843e-02 5.27245365e-03 -3.47419158e-02
0.00000000e+00 0.00000000e+00 -3.47795486e-02
5.78320632e-03 0.00000000e+00 -3.47795486e-02
6.49883039e-03 3.13317007e-03 -3.47795486e-02
0.00000000e+00 2.50216480e-03 -3.47795486e-02
1.05274543e-02 0.00000000e+00 -3.47795486e-02
1.11622391e-02 3.84993292e-03 -3.47795486e-02
1.35247223e-02 0.00000000e+00 -3.47795486e-02
1.41116735e-02 4.04924480e-03 -3.47795486e-02
1.54194664e-02 0.00000000e+00 -3.47795486e-02
1.57816969e-02 4.06781118e-03 -3.47795486e-02
1.73708480e-02 0.00000000e+00 -3.47795486e-02
1.70255955e-02 3.69484955e-03 -3.47795486e-02
1.96925886e-02 0.00000000e+00 -3.47795486e-02
1.85602792e-02 4.07262007e-03 -3.47795486e-02
8.14194418e-03 5.01653459e-03 -3.47795486e-02
0.00000000e+00 4.75245761e-03 -3.47795486e-02
1.34404954e-02 6.66829012e-03 -3.47795486e-02
1.56677905e-02 7.15880794e-03 -3.47795486e-02
1.67098120e-02 6.34986209e-03 -3.47795486e-02
1.69134568e-02 5.33120101e-03 -3.47795486e-02
1.72389913e-02 4.96447179e-03 -3.47795486e-02
1.05536887e-02 1.32363569e-02 -3.47795486e-02
0.00000000e+00 1.44563066e-02 -3.47795486e-02
1.65584423e-02 1.00444909e-02 -3.47795486e-02
1.75115727e-02 8.21171887e-03 -3.47795486e-02
1.75329782e-02 6.56849518e-03 -3.47795486e-02
1.75945163e-02 5.11413394e-03 -3.49256471e-02
1.76557228e-02 5.32263611e-03 -3.47795486e-02
1.76967196e-02 4.28374344e-03 -3.48702744e-02
1.76636782e-02 4.48948238e-03 -3.47795486e-02
1.89843029e-02 8.04351456e-03 -3.58705111e-02
1.92867350e-02 8.35619587e-03 -3.47795486e-02
1.98445786e-02 1.06074009e-02 -3.47795486e-02
1.89188365e-02 6.54008519e-03 -3.46565545e-02
1.88395400e-02 6.62568770e-03 -3.47795486e-02
1.87488087e-02 5.38953813e-03 -3.47786620e-02
1.87847652e-02 5.34916017e-03 -3.47795486e-02
1.87977739e-02 3.98864690e-03 -3.48060578e-02
1.87882204e-02 3.93987074e-03 -3.47795486e-02
0.00000000e+00 2.27754144e-03 -3.47795486e-02
1.70584451e-02 5.01472177e-03 -3.47795486e-02
1.10621229e-02 2.00283267e-02 -3.47795486e-02
0.00000000e+00 2.00918727e-02 -3.47795486e-02
2.03064140e-02 5.31119853e-03 -3.47795486e-02
2.02350244e-02 7.06495391e-03 -3.47795486e-02
2.04173923e-02 3.74954240e-03 -3.47795486e-02
1.20992465e-02 2.64699347e-02 -3.47795486e-02
0.00000000e+00 2.93900333e-02 -3.47795486e-02
1.54984184e-02 1.49299121e-02 -3.47795486e-02
2.20830142e-02 1.95743926e-02 -3.47795486e-02
1.94507260e-02 1.03661511e-02 -3.47795486e-02
2.40694806e-02 1.12205083e-02 -3.47795486e-02
2.27409918e-02 7.20783509e-03 -3.47795486e-02
2.21059471e-02 5.22374269e-03 -3.47795486e-02
2.20251437e-02 3.71075165e-03 -3.47795486e-02
</DataArray>
<DataArray type="Float32" Name="Spatial_acceleration" NumberOfComponents="3" format="ascii">
3.26613588e-07 5.81890333e-07 -1.37646987e-06
3.85105608e-07 3.19759039e-07 -6.79651862e-07
8.28385339e-07 1.39101348e-06 -1.77097320e-06
4.30424990e-07 1.17862226e-06 -1.93786627e-06
5.44945408e-07 2.20090146e-06 -1.94056815e-06
4.51950797e-07 1.21053063e-06 -2.64812638e-06
7.94092784e-07 2.49226878e-06 -1.79481503e-06
9.04003770e-08 1.86483066e-06 -2.96433768e-06
1.18533774e-06 -3.20792196e-07 -3.31242887e-07
6.76512684e-07 -9.37779703e-08 -2.22396852e-06
-2.16166185e-07 3.74688057e-07 -1.02488195e-06
2.93207177e-06 1.94986654e-07 -2.51388542e-06
8.31248826e-07 9.63268667e-06 2.92266895e-06
2.11228922e-07 9.96192284e-06 7.31176624e-06
1.48612386e-07 1.25409615e-05 -9.74067007e-06
-9.04401134e-07 7.23703715e-06 -4.95939457e-06
3.69048621e-06 2.00357390e-05 1.07673604e-05
5.82052689e-06 2.68732365e-05 -1.96620317e-06
-2.07800167e-06 2.26592601e-05 -1.00018826e-06
-1.20135894e-06 2.28968565e-05 -1.31745173e-05
0.00000000e+00 0.00000000e+00 -5.61396291e-07
5.52160657e-07 0.00000000e+00 -1.08591712e-06
5.39484120e-07 2.19265615e-07 -1.12740202e-06
0.00000000e+00 3.01559766e-07 -1.61202752e-06
0.00000000e+00 0.00000000e+00 -2.69571933e-06
9.62018930e-07 0.00000000e+00 -1.82501469e-06
2.03959644e-07 8.53637872e-08 -1.43241880e-06
0.00000000e+00 6.79552556e-07 -1.56497958e-06
1.10051030e-06 0.00000000e+00 -7.70886743e-07
8.42710335e-07 5.14586773e-08 -1.76747633e-07
7.43707005e-07 0.00000000e+00 -1.05985009e-06
6.86804469e-07 4.96357700e-07 -1.45101546e-06
1.32854780e-06 0.00000000e+00 -9.53674251e-10
1.01625915e-06 2.96195338e-07 2.99771614e-07
1.17697562e-06 0.00000000e+00 -8.24292499e-07
8.37991649e-07 9.05970751e-07 -4.31060784e-07
1.73978015e-06 0.00000000e+00 3.92913819e-07
1.49238110e-06 5.76953084e-07 -1.22388201e-07
1.72092518e-06 0.00000000e+00 -7.19070442e-07
1.75223749e-06 1.10904374e-07 -1.01947785e-06
2.27882470e-06 0.00000000e+00 -3.24249250e-08
1.58982971e-06 6.21780771e-07 -2.19027200e-07
1.54701866e-06 0.00000000e+00 5.69025680e-08
2.16317176e-06 4.81724726e-07 -1.10753376e-06
1.33351489e-06 0.00000000e+00 3.16619861e-07
2.65262520e-06 -3.37858978e-07 -6.85056023e-07
2.61863079e-06 0.00000000e+00 -5.99543228e-07
1.78905327e-06 5.40971769e-07 -7.50859556e-07
5.08149469e-07 1.85072423e-07 -4.39643856e-07
0.00000000e+00 7.74065654e-07 -7.91549667e-07
5.83807605e-07 7.18951242e-07 -1.48169192e-06
0.00000000e+00 7.91152331e-07 -1.70739486e-06
7.07444656e-07 5.84965676e-07 -8.90822605e-07
9.19024160e-07 1.24705832e-06 -1.42653778e-06
1.38931273e-06 6.03230774e-07 -1.27029421e-06
1.44545231e-06 1.57065620e-06 -1.26466296e-06
1.29956004e-06 7.52449012e-07 -3.08990479e-07
9.99641429e-07 1.14021304e-06 -9.05354852e-07
1.60574416e-06 9.67115170e-07 -3.49044797e-07
2.05930064e-06 1.32497155e-06 -1.04777018e-06
2.48185802e-06 1.62851813e-06 -4.54584750e-07
3.04613513e-06 1.69505668e-07 -3.00280249e-06
3.65075607e-07 5.94547828e-07 -1.01216631e-06
0.00000000e+00 6.49929063e-07 -1.19241076e-06
3.17936838e-07 1.67074654e-06 -1.74803961e-06
0.00000000e+00 1.19419894e-06 -1.55925750e-06
5.56945793e-07 3.92834352e-07 -1.29826867e-06
9.76943966e-07 1.51760582e-06 -2.05459605e-06
-1.59621237e-07 2.42956480e-06 -2.37347672e-06
1.51369306e-06 1.55470104e-06 -3.45060562e-06
-1.10467276e-07 6.14211672e-07 -1.16075785e-06
0.00000000e+00 1.75094601e-06 -1.04411447e-06
6.22272523e-07 2.06167169e-06 -1.80138488e-06
0.00000000e+00 2.30952855e-06 -1.19717913e-06
0.00000000e+00 1.32715695e-06 -1.75635023e-06
-1.80318239e-07 2.37735117e-06 -2.59835383e-06
0.00000000e+00 2.42145848e-06 -2.90489197e-06
-1.91688542e-07 1.34595234e-06 -4.95274833e-07
1.02468334e-06 1.55703231e-06 -3.17891431e-06
3.67895780e-07 1.68259942e-06 -2.17742922e-06
0.00000000e+00 1.51324275e-06 -3.79053745e-06
6.98963788e-07 2.91442871e-06 -3.32959485e-06
0.00000000e+00 3.79880271e-06 -3.47010291e-06
1.45550564e-06 1.23476980e-06 -2.31170657e-06
7.62515583e-07 7.47786657e-07 -2.21337223e-06
1.52068674e-06 5.31938333e-08 -3.19205401e-06
0.00000000e+00 0.00000000e+00 -2.95639029e-06
4.52995295e-07 0.00000000e+00 -2.49671939e-06
6.99758516e-07 3.94677130e-07 -2.34651566e-06
0.00000000e+00 -2.62260436e-08 -2.90870662e-06
7.72267583e-07 0.00000000e+00 -1.50871278e-06
1.13105773e-06 8.44637555e-07 -1.97633108e-06
1.86117484e-06 0.00000000e+00 -1.91752110e-06
8.33829233e-07 1.10310316e-06 -2.04563139e-06
1.48705635e-06 0.00000000e+00 -1.98745715e-06
1.93624692e-06 9.85542897e-07 -1.58945716e-06
2.52082941e-06 0.00000000e+00 -1.81770326e-06
1.99512647e-06 1.36148924e-06 -8.50677509e-07
1.93687288e-06 0.00000000e+00 -2.38609300e-06
3.19290166e-06 1.07022129e-06 -2.02624005e-06
4.59512080e-07 1.03751813e-06 -2.63277684e-06
0.00000000e+00 1.16475417e-06 -2.81969710e-06
9.65595291e-07 1.55742964e-06 -2.41343173e-06
1.30172566e-06 1.86165175e-06 -2.79680876e-06
2.48332253e-06 1.91970094e-06 -3.04303853e-06
2.15114483e-06 2.12807117e-06 -3.45102944e-06
3.15263537e-06 1.56911221e-06 -2.49989830e-06
1.21593473e-06 1.62866377e-06 -2.17013894e-06
0.00000000e+00 1.91391837e-06 -3.09414327e-06
1.47043340e-06 2.37623863e-06 -2.43547220e-06
1.24835969e-06 1.94433005e-06 -2.59484182e-06
1.23596192e-06 1.29254659e-06 -3.91699859e-06
2.20953621e-06 2.68325812e-06 -4.04383354e-06
1.05428694e-06 3.04889682e-06 -2.61688228e-06
0.00000000e+00 1.85076397e-06 -2.55076088e-06
1.25175711e-06 2.90913385e-06 -2.82923384e-06
-1.06387667e-07 3.67042753e-06 -3.12889961e-06
0.00000000e+00 3.90923014e-06 -3.55275461e-06
9.16322051e-07 3.66445374e-06 -4.14657598e-06
0.00000000e+00 4.01401530e-06 -4.17645788e-06
1.50740149e-07 2.26943689e-06 -1.35612481e-06
1.44680337e-06 2.41204111e-06 -3.66592394e-06
1.02074944e-06 5.84880524e-07 -1.72360740e-06
1.61099433e-06 1.25201541e-06 -3.54448957e-06
1.67528782e-07 -6.03258627e-07 -1.83782970e-06
2.08274514e-06 -7.60634748e-07 -3.98246448e-06
2.91951505e-06 1.74562138e-06 -2.80483550e-06
9.89490104e-07 1.51602433e-06 -3.17033141e-06
4.78205311e-06 7.02334046e-06 -1.23391646e-05
4.99561929e-06 8.68615643e-06 8.83722066e-07
3.54295958e-06 4.21000004e-06 -4.83072654e-06
4.39420091e-06 1.07327814e-05 1.65406834e-06
2.03777154e-06 3.50350547e-06 -3.22460232e-06
1.67078440e-06 3.49953439e-06 -6.90808247e-06
2.25883718e-06 6.89069429e-06 -3.82572409e-07
1.22504764e-06 1.34346226e-06 -3.54223789e-06
0.00000000e+00 0.00000000e+00 -3.45608782e-06
5.58276952e-07 0.00000000e+00 -3.45608782e-06
1.43051139e-07 5.87786246e-07 -3.45608782e-06
0.00000000e+00 9.67184747e-07 -3.45608782e-06
1.23608106e-06 0.00000000e+00 -3.45608782e-06
8.55525343e-07 1.19193396e-06 -3.45608782e-06
5.26507677e-07 0.00000000e+00 -3.45608782e-06
2.39404039e-06 1.68768565e-06 -3.45608782e-06
1.47978460e-06 0.00000000e+00 -3.45608782e-06
1.66512530e-06 1.97156260e-06 -3.45608782e-06
2.28261956e-06 0.00000000e+00 -3.45608782e-06
2.09081168e-06 1.50187805e-06 -3.45608782e-06
1.99993951e-06 0.00000000e+00 -3.45608782e-06
3.68618953e-06 3.86079137e-07 -3.45608782e-06
8.91049694e-07 1.34547554e-06 -3.45608782e-06
0.00000000e+00 3.89417011e-07 -3.45608782e-06
1.28134093e-06 1.88952936e-06 -3.45608782e-06
2.16682747e-06 2.11683914e-06 -3.45608782e-06
1.94533663e-06 2.91013725e-06 -3.45608782e-06
2.50132871e-06 2.55115833e-06 -3.45608782e-06
2.12351483e-06 3.07909636e-06 -3.45608782e-06
2.83718098e-08 1.60801414e-06 -3.45608782e-06
0.00000000e+00 1.25352540e-06 -3.45608782e-06
1.70771284e-06 2.65685730e-06 -3.45608782e-06
2.58970249e-06 2.67076484e-06 -3.45608782e-06
1.91720324e-06 1.63779657e-06 -3.45608782e-06
2.66667212e-06 2.15204545e-06 -3.69381905e-06
1.28101306e-06 3.40565043e-06 -3.45608782e-06
1.76463527e-06 3.73951593e-06 -2.86769864e-06
2.44788316e-06 1.05571746e-06 -3.45608782e-06
3.46692400e-06 7.65800451e-07 -5.07036839e-06
1.53271355e-06 3.60679633e-06 -3.45608782e-06
2.42825354e-06 2.76638571e-06 -3.45608782e-06
2.73365458e-06 2.83728718e-06 -2.59481544e-06
2.03789614e-06 2.01119315e-06 -3.45608782e-06
2.56403291e-06 3.23029349e-06 -3.51480639e-06
2.92273353e-06 1.84607507e-06 -3.45608782e-06
2.58429850e-06 2.24558516e-06 -2.79216647e-06
2.41669022e-06 4.24734753e-06 -3.45608782e-06
0.00000000e+00 4.04403181e-06 -3.45608782e-06
4.69823675e-07 4.28476187e-06 -3.45608782e-06
-5.61078402e-08 4.30509772e-06 -3.45608782e-06
0.00000000e+00 4.03412196e-06 -3.45608782e-06
3.17724539e-06 1.49216248e-06 -3.45608782e-06
2.80332574e-06 3.18612001e-06 -3.45608782e-06
3.65328788e-06 4.19998150e-06 -3.45608782e-06
-1.88469883e-07 4.17554384e-06 -3.45608782e-06
0.00000000e+00 4.07920288e-06 -3.45608782e-06
-3.75429778e-07 3.56225178e-06 -3.45608782e-06
9.24587255e-07 3.76462935e-06 -3.45608782e-06
1.48681795e-06 1.08544032e-06 -3.45608782e-06
1.35827065e-06 2.16786066e-06 -3.45608782e-06
4.41233311e-07 2.32021011e-06 -3.45608782e-06
2.35764173e-06 3.90323021e-06 -3.45608782e-06
5.31435035e-07 5.97755104e-07 -3.45608782e-06
</DataArray>
<DataArray type="Float32" Name="Spatial_velocity" NumberOfComponents="3" format="ascii">
1.49751913e-05 1.63851990e-04 -5.76842249e-05
3.10554933e-05 1.58557406e-04 -3.55232951e-05
2.77478903e-05 1.88281876e-04 -5.80628039e-05
8.88215527e-06 1.83084732e-04 -7.27995939e-05
1.20931700e-05 1.79609997e-04 -8.36619001e-05
3.09123643e-05 1.83491473e-04 -8.29679848e-05
1.91153813e-05 2.23413706e-04 -1.08143082e-04
9.09676965e-06 1.92063570e-04 -8.87816132e-05
5.25718497e-05 1.51188462e-04 -2.54004208e-05
5.77602550e-05 1.83468626e-04 -4.95580716e-05
6.73769900e-05 1.64841957e-04 -8.06409516e-05
1.12329195e-04 2.48621160e-04 -2.02185052e-04
5.45324365e-05 1.67892562e-04 2.27416052e-07
5.49370234e-05 1.78389833e-04 -4.01894476e-06
4.37130839e-05 1.78382659e-04 1.91511754e-06
4.39718642e-05 1.68014987e-04 3.05848243e-06
5.78326290e-05 1.63186909e-04 -1.70040391e-06
5.75863269e-05 1.73953798e-04 -2.29179955e-06
4.69701008e-05 1.74258297e-04 -1.97200151e-07
4.66943056e-05 1.62714932e-04 5.30146508e-06
0.00000000e+00 0.00000000e+00 -2.07072808e-04
3.97268996e-05 0.00000000e+00 -2.12874409e-04
3.93246155e-05 4.12803856e-05 -1.98663081e-04
0.00000000e+00 4.08122978e-05 -1.91763305e-04
0.00000000e+00 0.00000000e+00 -2.79187894e-04
5.79151274e-05 0.00000000e+00 -2.79094529e-04
5.82783396e-05 3.60703852e-05 -2.77607003e-04
0.00000000e+00 3.57160170e-05 -2.66462099e-04
8.76092381e-05 0.00000000e+00 -2.35416679e-04
7.61015472e-05 3.06054753e-05 -2.12763713e-04
1.11239999e-04 0.00000000e+00 -2.89701420e-04
1.14185037e-04 3.77956931e-05 -2.97561201e-04
1.30900764e-04 0.00000000e+00 -2.55228457e-04
1.31415320e-04 2.18385394e-05 -2.47279968e-04
1.62702971e-04 0.00000000e+00 -3.14539211e-04
1.60851298e-04 3.42587191e-05 -3.17340193e-04
1.83531287e-04 0.00000000e+00 -2.75569328e-04
1.83819226e-04 2.37836466e-05 -2.84510636e-04
2.05059594e-04 0.00000000e+00 -3.34844051e-04
2.05179545e-04 2.70974542e-05 -3.45617125e-04
2.28371486e-04 0.00000000e+00 -3.05058289e-04
2.32826584e-04 2.74962440e-05 -3.00190441e-04
2.39730274e-04 0.00000000e+00 -3.43976077e-04
2.41154718e-04 2.21102018e-05 -3.63133964e-04
2.63969850e-04 0.00000000e+00 -3.17370461e-04
2.72273872e-04 2.11653078e-05 -3.11123906e-04
2.64989591e-04 0.00000000e+00 -3.48390371e-04
2.74804159e-04 1.61522112e-05 -3.62546969e-04
2.33843002e-05 7.54651337e-05 -1.64107594e-04
0.00000000e+00 9.01596577e-05 -1.58908369e-04
5.75542435e-05 8.13082079e-05 -2.33799947e-04
0.00000000e+00 8.23752343e-05 -2.29820551e-04
6.72699825e-05 7.15522765e-05 -2.10893151e-04
1.22566795e-04 8.28925113e-05 -2.82082066e-04
1.17370946e-04 8.33967351e-05 -2.67980155e-04
1.67840684e-04 7.52165070e-05 -3.63987230e-04
1.88675112e-04 9.50376707e-05 -2.73057754e-04
1.98993090e-04 5.94315752e-05 -3.84304760e-04
2.45534698e-04 7.81438139e-05 -2.85650342e-04
2.45639618e-04 6.93087641e-05 -3.75829259e-04
2.89906660e-04 6.15087702e-05 -2.92082666e-04
2.93556892e-04 5.70253105e-05 -3.74844560e-04
1.24026446e-05 1.29667184e-04 -1.06390391e-04
0.00000000e+00 1.28400381e-04 -1.24817336e-04
4.15757168e-05 1.29522057e-04 -1.97292378e-04
0.00000000e+00 1.19053497e-04 -1.51266402e-04
6.06404246e-05 1.20714758e-04 -1.56732640e-04
1.33149515e-04 1.38545467e-04 -3.05145979e-04
5.22864502e-05 9.62848353e-05 -4.74665052e-04
2.06373326e-04 1.08437504e-04 -4.11942950e-04
1.01314681e-05 1.57023518e-04 -8.15674284e-05
0.00000000e+00 1.63754288e-04 -8.80495863e-05
1.96464825e-05 1.66116457e-04 -1.19926299e-04
0.00000000e+00 1.62689525e-04 -1.15805073e-04
0.00000000e+00 1.71899897e-04 -7.85439988e-05
2.42025089e-05 1.98281268e-04 -1.02361482e-04
0.00000000e+00 1.85056968e-04 -1.19764125e-04
2.79589131e-05 1.56436174e-04 -4.70615341e-05
7.27084116e-05 1.76717978e-04 -1.52590132e-04
7.77414389e-05 1.96660956e-04 -1.26299623e-04
0.00000000e+00 1.93597065e-04 -1.03295999e-04
4.42888922e-05 2.56656291e-04 -1.89997008e-04
0.00000000e+00 2.59895314e-04 -1.55560847e-04
9.18239530e-05 2.83661240e-04 -2.15255277e-04
1.51793894e-04 1.66611455e-04 -3.34471348e-04
2.15320106e-04 2.31788348e-04 -3.01412219e-04
0.00000000e+00 0.00000000e+00 -3.62730789e-04
7.44334757e-05 0.00000000e+00 -3.69234418e-04
7.91106286e-05 3.78241566e-05 -3.57680110e-04
0.00000000e+00 3.52698044e-05 -3.58143996e-04
1.35770941e-04 0.00000000e+00 -3.75545234e-04
1.45440397e-04 4.66636811e-05 -3.70647700e-04
1.82894568e-04 0.00000000e+00 -3.82579456e-04
1.88799939e-04 5.14964559e-05 -3.90762405e-04
2.17079520e-04 0.00000000e+00 -3.96214717e-04
2.17013076e-04 4.58455288e-05 -4.00514284e-04
2.45230680e-04 0.00000000e+00 -3.98824777e-04
2.41820642e-04 3.66785462e-05 -4.05709376e-04
2.69290438e-04 0.00000000e+00 -3.96965421e-04
2.72006640e-04 3.57460449e-05 -4.03377460e-04
9.74236900e-05 8.98644139e-05 -3.55228141e-04
0.00000000e+00 7.46203659e-05 -3.30873823e-04
1.68432729e-04 9.94061847e-05 -3.85100720e-04
2.08699246e-04 9.38733356e-05 -4.12244990e-04
2.26332821e-04 8.12246799e-05 -4.36438189e-04
2.39581466e-04 6.74503244e-05 -4.49032872e-04
2.54699728e-04 6.40710568e-05 -4.47095430e-04
1.02745100e-04 1.14575334e-04 -2.71080207e-04
0.00000000e+00 1.36180912e-04 -2.39814617e-04
1.93972577e-04 1.22728321e-04 -3.95966985e-04
2.39305286e-04 1.13712886e-04 -4.49886749e-04
2.20367889e-04 3.91809263e-05 -5.01926697e-04
2.48931581e-04 9.57850425e-05 -4.60148818e-04
9.01846943e-05 1.44947902e-04 -1.66567159e-04
0.00000000e+00 1.23284379e-04 -1.97541813e-04
2.18968940e-04 1.76319387e-04 -3.72396869e-04
9.22751569e-05 2.40037567e-04 -2.62810412e-04
0.00000000e+00 2.47194024e-04 -2.43641756e-04
1.04340383e-04 3.58882360e-04 -2.89425283e-04
0.00000000e+00 3.53303825e-04 -2.89623567e-04
1.68466038e-04 2.06415600e-04 -3.14965495e-04
2.43042305e-04 2.97475606e-04 -3.21745320e-04
2.40028254e-04 1.46857172e-04 -4.35668597e-04
3.11506708e-04 1.67649239e-04 -4.11094632e-04
1.43923404e-04 1.21136567e-04 -5.29939774e-04
2.23743162e-04 1.27154621e-04 -4.89031838e-04
2.84594280e-04 9.46624277e-05 -4.62646451e-04
3.08216404e-04 1.02077312e-04 -4.60216019e-04
2.85195856e-04 7.74400542e-05 -4.60316514e-04
2.84836016e-04 5.81618406e-05 -4.60248673e-04
3.04143847e-04 5.87491013e-05 -4.62648546e-04
3.03479173e-04 7.71292980e-05 -4.60956100e-04
2.85800255e-04 7.86103483e-05 -4.60597483e-04
2.85221729e-04 5.96022837e-05 -4.61166259e-04
3.04849615e-04 5.96179307e-05 -4.61495103e-04
3.04783025e-04 7.79310212e-05 -4.60770476e-04
0.00000000e+00 0.00000000e+00 -4.61010612e-04
7.97542598e-05 0.00000000e+00 -4.61010612e-04
9.02652246e-05 4.52934473e-05 -4.61010612e-04
0.00000000e+00 3.59611113e-05 -4.61010612e-04
1.47289029e-04 0.00000000e+00 -4.61010612e-04
1.55364716e-04 5.54955950e-05 -4.61010612e-04
1.90554667e-04 0.00000000e+00 -4.61010612e-04
1.99050090e-04 5.79933549e-05 -4.61010612e-04
2.18717119e-04 0.00000000e+00 -4.61010612e-04
2.23855095e-04 5.78485888e-05 -4.61010612e-04
2.47437303e-04 0.00000000e+00 -4.61010612e-04
2.41946109e-04 5.17412773e-05 -4.61010612e-04
2.78629421e-04 0.00000000e+00 -4.61010612e-04
2.63206312e-04 5.70093762e-05 -4.61010612e-04
1.13251001e-04 7.42011471e-05 -4.61010612e-04
0.00000000e+00 7.09551750e-05 -4.61010612e-04
1.88749909e-04 9.68620370e-05 -4.61010612e-04
2.21045804e-04 1.03665785e-04 -4.61010612e-04
2.38136345e-04 9.23893822e-05 -4.61010612e-04
2.40067806e-04 7.67611782e-05 -4.61010612e-04
2.45041447e-04 6.82941609e-05 -4.61010612e-04
1.44748294e-04 1.86330290e-04 -4.61010612e-04
0.00000000e+00 2.02440715e-04 -4.61010612e-04
2.30457925e-04 1.44306949e-04 -4.61010612e-04
2.49170000e-04 1.19635202e-04 -4.61010612e-04
2.49896199e-04 9.63443963e-05 -4.61010612e-04
2.50728015e-04 7.66007652e-05 -4.62058815e-04
2.52096273e-04 7.65383011e-05 -4.61010612e-04
2.52515805e-04 6.24926543e-05 -4.62007039e-04
2.52278842e-04 6.42557352e-05 -4.61010612e-04
2.71392841e-04 1.17199401e-04 -4.73566703e-04
2.74944061e-04 1.21834601e-04 -4.61010612e-04
2.79746891e-04 1.57097995e-04 -4.61010612e-04
2.68761331e-04 9.49772584e-05 -4.59780073e-04
2.69037846e-04 9.55562064e-05 -4.61010612e-04
2.67626339e-04 7.81631461e-05 -4.61323187e-04
2.67853582e-04 7.77018577e-05 -4.61010612e-04
2.67811265e-04 6.10861025e-05 -4.60648473e-04
2.66825897e-04 6.06873291e-05 -4.61010612e-04
0.00000000e+00 5.53029749e-05 -4.61010612e-04
2.14243963e-04 8.80015650e-05 -4.61010612e-04
1.41194425e-04 2.87617208e-04 -4.61010612e-04
0.00000000e+00 2.90155789e-04 -4.61010612e-04
2.85483227e-04 7.85747980e-05 -4.61010612e-04
2.84961163e-04 9.57080847e-05 -4.61010612e-04
2.86432420e-04 5.98408005e-05 -4.61010612e-04
1.55471702e-04 3.76241253e-04 -4.61010612e-04
0.00000000e+00 4.07722546e-04 -4.61010612e-04
2.01998046e-04 2.09138103e-04 -4.61010612e-04
3.01591645e-04 2.79868604e-04 -4.61010612e-04
2.67237920e-04 1.34074071e-04 -4.61010612e-04
3.29661911e-04 1.51272368e-04 -4.61010612e-04
3.09671974e-04 9.89736654e-05 -4.61010612e-04
3.04915069e-04 7.76774250e-05 -4.61010612e-04
3.04434157e-04 5.99990162e-05 -4.61010612e-04
</DataArray>
<DataArray type="Float32" Name="Reaction_force" NumberOfComponents="3" format="ascii">
0.00000000e+00 0.00000000e+00 0.00000000e+00
0.00000000e+00 0.00000000e+00 0.00000000e+00
0.00000000e+00 0.00000000e+00 0.00000000e+00
0.00000000e+00 0.00000000e+00 0.00000000e+00
0.00000000e+00 0.00000000e+00 0.00000000e+00
0.00000000e+00 0.00000000e+00 0.00000000e+00
0.00000000e+00 0.00000000e+00 0.00000000e+00
0.00000000e+00 0.00000000e+00 0.00000000e+00
0.00000000e+00 0.00000000e+00 0.00000000e+00
0.00000000e+00 0.00000000e+00 0.00000000e+00
0.00000000e+00 0.00000000e+00 0.00000000e+00
0.00000000e+00 0.00000000e+00 0.00000000e+00
0.00000000e+00 0.00000000e+00 0.00000000e+00
0.00000000e+00 0.00000000e+00 0.00000000e+00
0.00000000e+00 0.00000000e+00 0.00000000e+00
0.00000000e+00 0.00000000e+00 0.00000000e+00
0.00000000e+00 0.00000000e+00 0.00000000e+00
0.00000000e+00 0.00000000e+00 0.00000000e+00
0.00000000e+00 0.00000000e+00 0.00000000e+00
0.00000000e+00 0.00000000e+00 0.00000000e+00
-3.14082921e-01 -3.38084996e-01 0.00000000e+00
0.00000000e+00 7.57707894e-01 0.00000000e+00
0.00000000e+00 0.00000000e+00 0.00000000e+00
7.48170614e-01 0.00000000e+00 0.00000000e+00
-7.99878895e-01 1.81482315e+00 0.00000000e+00
0.00000000e+00 3.41324496e+00 0.00000000e+00
0.00000000e+00 0.00000000e+00 0.00000000e+00
-6.36082172e-01 0.00000000e+00 0.00000000e+00
0.00000000e+00 1.77946174e+00 0.00000000e+00
0.00000000e+00 0.00000000e+00 0.00000000e+00
0.00000000e+00 3.50085521e+00 0.00000000e+00
0.00000000e+00 0.00000000e+00 0.00000000e+00
0.00000000e+00 3.21164417e+00 0.00000000e+00
0.00000000e+00 0.00000000e+00 0.00000000e+00
0.00000000e+00 2.76734376e+00 0.00000000e+00
0.00000000e+00 0.00000000e+00 0.00000000e+00
0.00000000e+00 4.73388863e+00 0.00000000e+00
0.00000000e+00 0.00000000e+00 0.00000000e+00
0.00000000e+00 1.02913582e+00 0.00000000e+00
0.00000000e+00 0.00000000e+00 0.00000000e+00
0.00000000e+00 4.39765978e+00 0.00000000e+00
0.00000000e+00 0.00000000e+00 0.00000000e+00
0.00000000e+00 6.04995012e-01 0.00000000e+00
0.00000000e+00 0.00000000e+00 0.00000000e+00
0.00000000e+00 2.92493320e+00 0.00000000e+00
0.00000000e+00 0.00000000e+00 0.00000000e+00
0.00000000e+00 1.15665805e+00 0.00000000e+00
0.00000000e+00 0.00000000e+00 0.00000000e+00
0.00000000e+00 0.00000000e+00 0.00000000e+00
1.30628920e+00 0.00000000e+00 0.00000000e+00
0.00000000e+00 0.00000000e+00 0.00000000e+00
4.17982876e-01 0.00000000e+00 0.00000000e+00
0.00000000e+00 0.00000000e+00 0.00000000e+00
0.00000000e+00 0.00000000e+00 0.00000000e+00
0.00000000e+00 0.00000000e+00 0.00000000e+00
0.00000000e+00 0.00000000e+00 0.00000000e+00
0.00000000e+00 0.00000000e+00 0.00000000e+00
0.00000000e+00 0.00000000e+00 0.00000000e+00
0.00000000e+00 0.00000000e+00 0.00000000e+00
0.00000000e+00 0.00000000e+00 0.00000000e+00
0.00000000e+00 0.00000000e+00 0.00000000e+00
0.00000000e+00 0.00000000e+00 0.00000000e+00
0.00000000e+00 0.00000000e+00 0.00000000e+00
3.17059541e+00 0.00000000e+00 0.00000000e+00
0.00000000e+00 0.00000000e+00 0.00000000e+00
4.39440966e-01 0.00000000e+00 0.00000000e+00
0.00000000e+00 0.00000000e+00 0.00000000e+00
0.00000000e+00 0.00000000e+00 0.00000000e+00
0.00000000e+00 0.00000000e+00 0.00000000e+00
0.00000000e+00 0.00000000e+00 0.00000000e+00
0.00000000e+00 0.00000000e+00 0.00000000e+00
5.51402569e-01 0.00000000e+00 0.00000000e+00
0.00000000e+00 0.00000000e+00 0.00000000e+00
-1.26838064e+00 0.00000000e+00 0.00000000e+00
-8.66675973e-02 0.00000000e+00 0.00000000e+00
0.00000000e+00 0.00000000e+00 0.00000000e+00
1.50528026e+00 0.00000000e+00 0.00000000e+00
0.00000000e+00 0.00000000e+00 0.00000000e+00
0.00000000e+00 0.00000000e+00 0.00000000e+00
0.00000000e+00 0.00000000e+00 0.00000000e+00
1.98862255e+00 0.00000000e+00 0.00000000e+00
0.00000000e+00 0.00000000e+00 0.00000000e+00
2.69330168e+00 0.00000000e+00 0.00000000e+00
0.00000000e+00 0.00000000e+00 0.00000000e+00
0.00000000e+00 0.00000000e+00 0.00000000e+00
0.00000000e+00 0.00000000e+00 0.00000000e+00
-8.66998315e-01 3.18504858e+00 0.00000000e+00
0.00000000e+00 4.92464638e+00 0.00000000e+00
0.00000000e+00 0.00000000e+00 0.00000000e+00
-1.49250185e+00 0.00000000e+00 0.00000000e+00
0.00000000e+00 2.16779971e+00 0.00000000e+00
0.00000000e+00 0.00000000e+00 0.00000000e+00
0.00000000e+00 -3.33927035e-01 0.00000000e+00
0.00000000e+00 0.00000000e+00 0.00000000e+00
0.00000000e+00 -2.19177508e+00 0.00000000e+00
0.00000000e+00 0.00000000e+00 0.00000000e+00
0.00000000e+00 -3.40853238e+00 0.00000000e+00
0.00000000e+00 0.00000000e+00 0.00000000e+00
0.00000000e+00 -1.73729634e+00 0.00000000e+00
0.00000000e+00 0.00000000e+00 0.00000000e+00
0.00000000e+00 0.00000000e+00 0.00000000e+00
3.30138683e-01 0.00000000e+00 0.00000000e+00
0.00000000e+00 0.00000000e+00 0.00000000e+00
0.00000000e+00 0.00000000e+00 0.00000000e+00
0.00000000e+00 0.00000000e+00 0.00000000e+00
0.00000000e+00 0.00000000e+00 0.00000000e+00
0.00000000e+00 0.00000000e+00 0.00000000e+00
0.00000000e+00 0.00000000e+00 0.00000000e+00
-2.10813618e+00 0.00000000e+00 0.00000000e+00
0.00000000e+00 0.00000000e+00 0.00000000e+00
0.00000000e+00 0.00000000e+00 0.00000000e+00
0.00000000e+00 0.00000000e+00 0.00000000e+00
0.00000000e+00 0.00000000e+00 0.00000000e+00
0.00000000e+00 0.00000000e+00 0.00000000e+00
5.55729866e-02 0.00000000e+00 0.00000000e+00
0.00000000e+00 0.00000000e+00 0.00000000e+00
0.00000000e+00 0.00000000e+00 0.00000000e+00
2.82272768e+00 0.00000000e+00 0.00000000e+00
0.00000000e+00 0.00000000e+00 0.00000000e+00
1.00836909e+00 0.00000000e+00 0.00000000e+00
0.00000000e+00 0.00000000e+00 0.00000000e+00
0.00000000e+00 0.00000000e+00 0.00000000e+00
0.00000000e+00 0.00000000e+00 0.00000000e+00
0.00000000e+00 0.00000000e+00 0.00000000e+00
0.00000000e+00 0.00000000e+00 0.00000000e+00
0.00000000e+00 0.00000000e+00 0.00000000e+00
0.00000000e+00 0.00000000e+00 0.00000000e+00
0.00000000e+00 0.00000000e+00 0.00000000e+00
0.00000000e+00 0.00000000e+00 0.00000000e+00
0.00000000e+00 0.00000000e+00 0.00000000e+00
0.00000000e+00 0.00000000e+00 0.00000000e+00
0.00000000e+00 0.00000000e+00 0.00000000e+00
0.00000000e+00 0.00000000e+00 0.00000000e+00
0.00000000e+00 0.00000000e+00 0.00000000e+00
0.00000000e+00 0.00000000e+00 0.00000000e+00
0.00000000e+00 0.00000000e+00 0.00000000e+00
-4.25012708e-01 1.82633853e+00 -9.02453041e+00
0.00000000e+00 3.16132736e+00 -1.80785828e+01
0.00000000e+00 0.00000000e+00 -3.39066620e+01
-9.04475510e-01 0.00000000e+00 -1.79817753e+01
0.00000000e+00 1.29680204e+00 -1.70939083e+01
0.00000000e+00 0.00000000e+00 -3.11266899e+01
0.00000000e+00 -8.67203355e-01 -1.54559593e+01
0.00000000e+00 0.00000000e+00 -2.89040451e+01
0.00000000e+00 -1.49978006e+00 -1.50184565e+01
0.00000000e+00 0.00000000e+00 -2.63248787e+01
0.00000000e+00 -1.76934409e+00 -1.44723797e+01
0.00000000e+00 0.00000000e+00 -2.56443577e+01
0.00000000e+00 -1.25065637e+00 -6.83795595e+00
0.00000000e+00 0.00000000e+00 -1.35061111e+01
0.00000000e+00 0.00000000e+00 -3.68144035e+01
7.49767482e-01 0.00000000e+00 -1.99776859e+01
0.00000000e+00 0.00000000e+00 -2.92703247e+01
0.00000000e+00 0.00000000e+00 -2.36217270e+01
0.00000000e+00 0.00000000e+00 -1.85434437e+01
0.00000000e+00 0.00000000e+00 -1.82452278e+01
0.00000000e+00 0.00000000e+00 -1.16274662e+01
0.00000000e+00 0.00000000e+00 -1.80897770e+01
5.13975322e-01 0.00000000e+00 -1.01115370e+01
0.00000000e+00 0.00000000e+00 -2.16503468e+01
0.00000000e+00 0.00000000e+00 -1.72157898e+01
0.00000000e+00 0.00000000e+00 -6.18364000e+00
0.00000000e+00 0.00000000e+00 0.00000000e+00
0.00000000e+00 0.00000000e+00 -5.40910959e+00
0.00000000e+00 0.00000000e+00 0.00000000e+00
0.00000000e+00 0.00000000e+00 -2.75168324e+00
0.00000000e+00 0.00000000e+00 0.00000000e+00
0.00000000e+00 0.00000000e+00 -5.36626863e+00
0.00000000e+00 0.00000000e+00 -7.22103071e+00
0.00000000e+00 0.00000000e+00 0.00000000e+00
0.00000000e+00 0.00000000e+00 5.25514603e+00
0.00000000e+00 0.00000000e+00 0.00000000e+00
0.00000000e+00 0.00000000e+00 3.07231903e+00
0.00000000e+00 0.00000000e+00 0.00000000e+00
0.00000000e+00 0.00000000e+00 1.44427240e+00
1.64035654e+00 0.00000000e+00 -1.14184580e+01
0.00000000e+00 0.00000000e+00 -9.93094063e+00
0.00000000e+00 0.00000000e+00 -2.64217987e+01
2.08861041e+00 0.00000000e+00 -1.99199467e+01
0.00000000e+00 0.00000000e+00 2.36844516e+00
0.00000000e+00 0.00000000e+00 -3.69814491e+00
0.00000000e+00 0.00000000e+00 -7.72103369e-01
0.00000000e+00 0.00000000e+00 -1.55367317e+01
-2.50162035e-02 0.00000000e+00 -7.84366846e+00
0.00000000e+00 0.00000000e+00 -1.38888588e+01
0.00000000e+00 0.00000000e+00 -1.46018562e+01
0.00000000e+00 0.00000000e+00 -1.16071739e+01
0.00000000e+00 0.00000000e+00 -1.20426311e+01
0.00000000e+00 0.00000000e+00 -4.72593117e+00
0.00000000e+00 0.00000000e+00 1.24639595e+00
0.00000000e+00 0.00000000e+00 -2.58323759e-01
</DataArray>
<DataArray type="Float32" Name="Equivalent_plastic_strain" format="ascii">
1.39454954e-03
1.79623805e-03
2.33065657e-03
1.33253743e-03
1.00032455e-03
2.51349850e-03
5.60408639e-03
2.87824697e-03
1.84314713e-03
5.13031997e-03
8.22717013e-03
1.02022667e-02
0.00000000e+00
0.00000000e+00
0.00000000e+00
0.00000000e+00
0.00000000e+00
0.00000000e+00
0.00000000e+00
0.00000000e+00
4.60941321e-03
4.52760793e-03
4.66337113e-03
4.67718625e-03
5.36268810e-03
5.28364046e-03
5.60025254e-03
5.77096618e-03
4.39263840e-03
4.69457696e-03
4.87060007e-03
5.34191786e-03
4.25078406e-03
4.92844533e-03
4.34416311e-03
4.82790096e-03
3.86187469e-03
5.36789512e-03
3.79345834e-03
3.87838914e-03
3.15811101e-03
4.68567089e-03
2.92630121e-03
3.51144845e-03
2.59912736e-03
3.87549138e-03
2.37388990e-03
3.02892836e-03
4.65107127e-03
4.24117642e-03
6.79481076e-03
6.25932310e-03
5.32891678e-03
6.02512324e-03
8.08563801e-03
4.70288161e-03
7.77822640e-03
4.98376386e-03
6.55973831e-03
5.26239793e-03
5.55618713e-03
5.00265765e-03
4.34553116e-03
2.71691589e-03
6.02273251e-03
4.87939524e-03
8.44491867e-03
8.35374827e-03
7.94355478e-03
1.78935286e-03
1.99234118e-03
1.78910120e-03
3.35302743e-03
2.86519853e-03
1.24147422e-03
5.79000158e-03
4.87843895e-03
3.16747668e-03
9.62413778e-03
8.91617476e-03
2.11189274e-03
6.32957648e-03
6.47202507e-03
9.54315765e-03
1.02214473e-02
8.34482551e-03
6.52187830e-03
6.34630118e-03
6.62878423e-03
6.95784320e-03
5.83640544e-03
5.76227403e-03
5.02649322e-03
4.73318581e-03
4.20943438e-03
3.78284551e-03
3.73191957e-03
3.29575263e-03
3.59686697e-03
3.28828610e-03
8.16111109e-03
8.90781172e-03
5.89487952e-03
3.16863888e-03
2.22431183e-03
2.24235742e-03
2.25106390e-03
9.04410107e-03
1.05496946e-02
5.58243048e-03
1.94751981e-03
2.96801305e-03
-3.51873647e-04
1.05178892e-02
1.06130644e-02
9.43520083e-03
1.28163116e-02
1.25329585e-02
1.19811126e-02
1.18432310e-02
1.13571829e-02
1.00340436e-02
3.77936082e-03
4.66110936e-03
-7.12615671e-04
2.57529574e-03
7.92869839e-04
-4.05481696e-05
0.00000000e+00
0.00000000e+00
0.00000000e+00
0.00000000e+00
-7.22638133e-06
0.00000000e+00
0.00000000e+00
-1.56688014e-05
7.01946532e-03
6.67790556e-03
7.26557034e-03
7.60245393e-03
6.02824101e-03
6.16125925e-03
5.33778057e-03
4.75511665e-03
4.67560068e-03
3.92703572e-03
4.46595298e-03
3.57162877e-03
4.70127258e-03
3.75950814e-03
8.36948538e-03
1.02109183e-02
5.51160972e-03
3.14222422e-03
1.42164549e-03
6.52435177e-04
7.18937343e-04
1.39108240e-02
1.63525343e-02
4.37053021e-03
3.65484419e-04
-1.36488583e-04
-1.54116024e-05
-6.69089204e-05
1.20928962e-04
-1.21484401e-04
1.99637457e-03
-7.88021527e-04
3.92133323e-03
2.83819621e-05
-3.09884357e-05
-2.30109526e-06
6.16576585e-07
0.00000000e+00
0.00000000e+00
2.33876854e-02
2.41186358e-02
1.51823756e-02
1.81641411e-02
2.33323671e-06
-1.77117870e-04
0.00000000e+00
1.42072029e-02
1.49771171e-02
8.55740346e-03
9.66009591e-03
1.95893372e-03
2.27763614e-03
1.22219870e-04
-2.65919880e-05
0.00000000e+00
</DataArray>
<DataArray type="Float32" Name="Stress_Mises" format="ascii">
2.89171917e+01
2.94598777e+01
3.17318377e+01
3.10542912e+01
2.54599379e+01
2.82737334e+01
3.47730570e+01
3.26620092e+01
3.04106121e+01
4.12698193e+01
4.91685804e+01
4.96846485e+01
1.44189191e+00
1.66125703e+00
1.14995265e+00
1.71707630e+00
7.84448624e-01
7.19784915e-01
8.42744589e-01
8.85137439e-01
2.91960449e+01
2.95520988e+01
2.97827697e+01
2.97601919e+01
3.05416183e+01
3.07500615e+01
3.08843288e+01
3.11371756e+01
2.97542739e+01
3.06952934e+01
3.05814800e+01
3.15583806e+01
2.95966358e+01
3.15345335e+01
3.00309954e+01
3.17921507e+01
2.89378271e+01
3.24006312e+01
2.94628797e+01
2.97075629e+01
2.79197998e+01
3.04343505e+01
2.84578333e+01
2.98828831e+01
2.71790838e+01
2.80963931e+01
2.77911263e+01
2.89542422e+01
3.03219647e+01
2.86106334e+01
3.31888678e+01
3.15742636e+01
3.40823174e+01
3.11744790e+01
4.49562393e+01
3.12592585e+01
3.97887735e+01
3.77489067e+01
3.45517559e+01
3.65169725e+01
3.08341169e+01
3.58265247e+01
3.38380312e+01
2.65494685e+01
3.03821204e+01
2.95162745e+01
5.18693523e+01
3.91643452e+01
5.34967880e+01
2.78099864e+01
2.91488977e+01
2.64806623e+01
2.51456906e+01
2.16513174e+01
2.71856484e+01
3.16035012e+01
2.70742221e+01
3.92815170e+01
5.51515732e+01
4.09000973e+01
3.17237101e+01
2.89301705e+01
3.34346523e+01
3.66004515e+01
4.76184127e+01
3.75929356e+01
3.22281952e+01
3.22882710e+01
3.20788827e+01
3.23353815e+01
3.22380233e+01
3.13957372e+01
3.13085365e+01
3.08039358e+01
3.00009975e+01
2.98189704e+01
2.90736222e+01
2.96356864e+01
2.87688742e+01
3.04806046e+01
3.31697161e+01
3.41588831e+01
2.99959452e+01
2.65404115e+01
2.79887194e+01
3.07759441e+01
3.31492672e+01
3.54144459e+01
4.12486216e+01
3.03342349e+01
2.79044628e+01
5.04134979e+01
2.48647488e+01
3.47240062e+01
3.13911165e+01
5.50658474e+01
3.48129061e+01
3.16153340e+01
3.31728768e+01
3.08619251e+01
3.92112260e+01
3.36931953e+01
2.82216392e+01
3.08403692e+01
3.78608894e+01
3.71659966e+01
3.26311455e+01
3.16400363e+01
3.02610993e+00
1.50811911e+00
3.29008436e+00
4.22175884e+00
9.92256966e+00
5.48186429e+00
4.84755397e+00
1.44260928e+01
3.27066917e+01
3.24749336e+01
3.32108030e+01
3.32593117e+01
3.21225357e+01
3.21992764e+01
3.16156273e+01
3.03948040e+01
3.10567398e+01
2.99139996e+01
3.04521379e+01
3.01937952e+01
3.08607750e+01
3.17838583e+01
3.19021649e+01
3.50537472e+01
2.91919446e+01
2.77371612e+01
2.45549669e+01
2.65642605e+01
3.01010351e+01
5.17355347e+01
5.41274414e+01
2.99806779e+01
2.51966209e+01
1.80767084e+01
2.61775966e+01
1.54361246e+01
2.89232073e+01
3.05559578e+01
3.42606831e+01
2.55124836e+01
4.05912209e+01
2.42832514e+01
1.90831987e+01
1.47493048e+01
7.69822717e+00
1.62159324e+01
1.87757320e+01
5.61189995e+01
5.94676208e+01
3.27366625e+01
3.98356895e+01
8.67047393e+00
2.82947013e+01
8.66243768e+00
3.46734552e+01
3.26157990e+01
2.82359028e+01
3.29492712e+01
2.61074476e+01
2.77473955e+01
3.31596127e+01
1.89811058e+01
5.08205700e+00
</DataArray>
<DataArray type="Float32" Name="Stress_Max_Principal" format="ascii">
4.55455059e+00
4.79547901e+00
2.15584871e+00
2.59339764e+00
8.62505844e+00
8.37766601e+00
3.95934479e+00
4.23986697e+00
5.00732484e+00
-7.24018717e+00
-5.38153640e+00
-6.13131469e+00
7.12355286e-01
9.43683296e-01
4.25347716e-01
1.03385878e+00
5.23090601e-01
5.17902672e-01
5.77784419e-01
6.42393649e-01
1.01556164e+00
1.08430610e+00
2.21162732e+00
1.25745506e+00
2.23850167e+00
1.83471791e+00
1.19643935e+00
1.00448334e+00
2.93663107e+00
2.93134459e+00
1.67357892e+00
5.78933157e-01
4.15182465e+00
2.57348733e+00
1.97527647e+00
5.67406742e-02
4.76782006e+00
1.39020348e+00
2.41142535e+00
2.88255554e+00
4.40842333e+00
2.00772233e+00
2.92237017e+00
2.62117054e+00
5.93670368e+00
4.13263753e+00
5.22453737e+00
4.34460959e+00
4.14827675e+00
5.18609178e+00
-5.44259427e-01
3.56838912e-01
3.69726317e-01
9.33924302e-01
-7.76088065e+00
3.21845477e+00
-5.98990124e+00
-4.65760231e-01
-2.72882801e+00
-3.39522170e+00
-2.63220668e-02
-2.73332518e+00
3.16142091e+00
8.59098458e+00
3.66091285e+00
3.72835422e+00
-9.00915325e+00
-2.08551152e+00
8.88657761e+00
1.95090585e+01
5.48478978e+00
7.60907960e+00
9.42549707e+00
1.15755436e+01
7.64563513e+00
4.36194030e+00
7.66464245e+00
2.19552422e+00
-1.49520860e+01
-3.27003887e+00
3.81721365e+00
6.11053306e+00
1.98260544e+00
1.26860142e-02
-5.21266294e+00
2.20195472e+00
2.08468282e+00
1.25740502e+00
1.81324830e+00
2.05829784e+00
-2.44396649e-01
1.78980646e+00
6.66904800e-01
2.11357441e+00
2.27233231e+00
2.84763157e+00
2.70773101e+00
2.69411156e+00
3.26507187e+00
2.68757128e+00
1.93415588e+00
5.45662276e-01
3.96127206e+00
6.77354848e+00
7.85724337e+00
6.99048218e+00
6.52846706e+00
1.07047530e+00
-3.28943046e+00
6.28180222e+00
1.33196944e+01
1.82598362e+01
2.12915201e+01
2.11958843e+00
5.10524263e+00
-7.63083553e+00
-1.59852803e+00
5.56018651e-01
2.81035036e-01
7.70759583e-03
-4.49781990e+00
2.29542410e+00
1.31458282e+01
9.28128254e+00
3.85514488e+01
2.24098339e+01
2.24525242e+01
2.34992288e+01
1.67986202e+00
6.37177348e-01
1.56131423e+00
2.44729710e+00
7.18588542e+00
6.78687831e-01
1.48172942e+00
6.56474431e+00
1.87752867e+00
9.73550372e-01
1.77844663e+00
2.19173577e+00
-1.71796277e-01
1.34420935e+00
1.49860823e+00
3.13850081e+00
3.10952950e+00
4.26356947e+00
2.83401239e+00
3.52630906e+00
3.37650490e+00
3.50914085e+00
4.18482086e+00
-1.23175681e-01
6.62255049e+00
7.16606700e+00
1.04434842e+01
1.28158588e+01
1.29936213e+01
-1.45372200e+01
-1.87961349e+01
6.00925295e+00
1.70838487e+01
1.53136013e+01
1.67442286e+01
9.79815114e+00
1.15479426e+01
1.23297558e+01
1.55106382e+01
2.47576351e+01
-1.26704431e+00
1.96241976e+01
1.64202994e+01
1.03761318e+01
5.95027367e+00
5.41777647e+00
5.23115635e+00
-1.94971333e+01
-2.16606236e+01
1.41785352e+00
-5.38636434e+00
6.49785629e+00
1.96285642e+01
2.72001946e+00
8.43804419e-01
2.54742235e-01
4.42808843e+00
2.45765531e+00
1.48473420e+01
1.49131231e+01
1.79980779e+01
8.26163971e+00
5.54765582e-01
</DataArray>
<DataArray type="Float32" Name="Stress_Mid_Principal" format="ascii">
-1.80693724e+00
-3.01896969e+00
-2.59808010e+00
-1.10547644e+00
3.83214910e+00
2.14694224e+00
-8.24334818e+00
-4.08926593e+00
-5.30788779e-01
-8.20980835e+00
-1.69477154e+01
-2.08218842e+01
-3.51230055e-02
-2.78262332e-01
1.38910392e-01
-4.67409566e-01
5.04722707e-02
-2.92620510e-02
3.00397724e-03
-1.25602916e-01
6.42390162e-01
4.58635390e-03
-1.34239560e+00
-4.69292235e-01
-3.12636137e+00
-3.11306673e+00
-2.39789633e+00
-2.82781528e+00
-2.00364759e+00
-3.49297733e+00
-2.39615424e+00
-2.53487507e+00
-3.49521881e+00
-4.41159108e+00
-1.75558987e+00
-2.20874682e+00
-2.75108503e+00
-4.88483426e+00
-1.10927169e+00
-1.42617278e+00
-2.33912885e-01
-2.32174823e+00
4.69583385e-01
-1.66655195e+00
-6.46427929e-01
-3.86162013e-01
-6.55556008e-01
-1.61657140e+00
-4.09740180e+00
-2.20382731e+00
-3.81828512e+00
-1.93170384e+00
-2.74365615e+00
-1.65855592e+00
-1.21032756e+01
-2.31441230e+00
-9.75364077e+00
-5.95610054e+00
-4.51277244e+00
-6.58329469e+00
-7.82623351e-01
-6.05845177e+00
-6.62997234e+00
-3.56939130e-01
-1.88343760e+00
1.95682895e+00
-1.81915159e+01
-9.96183031e+00
-1.44583120e+01
9.98708528e+00
-6.78923215e-01
-7.29751006e-01
3.39399532e+00
6.60151380e+00
1.00771654e+00
-3.86618090e+00
-5.27659968e-01
-7.16446620e+00
-2.25207977e+01
-1.02879761e+01
-3.44944090e+00
-3.05372477e-01
-5.02093148e+00
-8.35152891e+00
-1.40153386e+01
-8.89440219e+00
-6.38282204e+00
-5.42252195e+00
-5.43513182e+00
-6.29984564e+00
-3.49972135e+00
-4.23855117e+00
-2.69309673e+00
-3.31454906e+00
-2.00138931e+00
-1.97946304e+00
-8.38294800e-01
-1.01892946e+00
-6.10734761e-01
-1.82855420e+00
-6.41460946e+00
-7.35030264e+00
-3.24336044e+00
-2.30059370e-01
-3.01954363e-02
-3.22378296e+00
-6.12554375e+00
-8.61462267e+00
-1.50752878e+01
-2.88692137e+00
-1.36664606e+00
-9.35848427e+00
3.58222340e+00
-6.66770446e+00
-5.32566071e+00
-2.23075833e+01
-5.09144375e+00
-2.19969290e+00
-4.54786479e+00
-9.30251837e-01
-8.99082446e+00
-6.07907586e+00
1.88295850e+00
-1.61891240e+00
1.64886036e+01
-3.72835207e+00
-7.04807365e+00
2.98674687e+00
-7.29930580e-01
-3.01206648e-01
-9.96178985e-02
-9.26971138e-01
-1.01644971e+00
4.39977000e-02
-5.13436250e-01
2.59869262e+00
-7.07517672e+00
-5.44169593e+00
-7.80846691e+00
-8.49470544e+00
-3.48197389e+00
-5.32095504e+00
-4.46924400e+00
-3.99580014e+00
-5.22179937e+00
-3.86723292e+00
-3.66759491e+00
-2.77246749e+00
-4.85058165e+00
-5.09300232e+00
-6.65907371e+00
-8.31348789e+00
-5.39438391e+00
-2.72725535e+00
1.99962848e+00
2.02373314e+00
-3.78624129e+00
-1.97922440e+01
-2.14396152e+01
-3.13870875e+00
6.41947693e+00
4.54856414e+00
-2.00803626e+00
7.52246439e-01
4.03253198e-01
3.63212105e+00
-7.77247024e+00
7.22270560e+00
-6.24093819e+00
5.17563470e+00
5.85922603e+00
1.14460531e+00
2.15528387e+00
2.15257668e+00
4.18276444e+00
-2.40529346e+01
-2.73065872e+01
-5.36718432e+00
-1.10492597e+01
3.68854254e-01
2.76800966e+00
-1.71977279e+00
-8.63393259e+00
-4.45968199e+00
7.82330990e-01
-6.02059820e+00
2.09366107e+00
-1.10745859e+00
6.99193269e-01
4.19854811e+00
-8.57577920e-01
</DataArray>
<DataArray type="Float32" Name="Stress_Min_Principal" format="ascii">
-2.70023072e+01
-2.76666337e+01
-3.16740811e+01
-3.00131712e+01
-1.87931440e+01
-2.23375126e+01
-3.51613045e+01
-3.12347937e+01
-2.77715449e+01
-4.89817142e+01
-5.89926669e+01
-6.15041771e+01
-9.49144691e-01
-9.37340140e-01
-8.36171746e-01
-8.38371217e-01
-3.82422268e-01
-2.97480732e-01
-3.89634460e-01
-3.25646013e-01
-2.83652792e+01
-2.89875760e+01
-2.91215537e+01
-2.93078547e+01
-3.06293116e+01
-3.10822420e+01
-3.12946806e+01
-3.18380280e+01
-2.89732919e+01
-3.04344203e+01
-3.07341328e+01
-3.24027617e+01
-2.84979529e+01
-3.17960050e+01
-2.97276025e+01
-3.27792454e+01
-2.71708755e+01
-3.36574333e+01
-2.86371908e+01
-2.87288418e+01
-2.55097456e+01
-3.03385963e+01
-2.66425676e+01
-2.91648026e+01
-2.39196100e+01
-2.59253993e+01
-2.50250082e+01
-2.71091657e+01
-2.93704295e+01
-2.63775740e+01
-3.52379615e+01
-3.22989640e+01
-3.51582819e+01
-3.14275911e+01
-5.46660194e+01
-3.03124379e+01
-4.75253477e+01
-4.05887722e+01
-3.81377487e+01
-4.13917131e+01
-3.12309675e+01
-4.01017265e+01
-3.41983204e+01
-2.12447387e+01
-2.89710279e+01
-2.66243467e+01
-6.47067337e+01
-4.44931995e+01
-5.23153343e+01
-1.14940815e+01
-2.60527684e+01
-2.16618702e+01
-1.80823397e+01
-1.19914005e+01
-2.21328144e+01
-3.02571289e+01
-2.22935104e+01
-4.04497156e+01
-7.33575554e+01
-4.69698566e+01
-3.09085093e+01
-2.54030011e+01
-3.43806858e+01
-4.00025930e+01
-5.64475066e+01
-3.96858800e+01
-3.35297928e+01
-3.38301787e+01
-3.32550492e+01
-3.36299114e+01
-3.39772701e+01
-3.21537590e+01
-3.21556377e+01
-3.10252221e+01
-2.96255031e+01
-2.90535996e+01
-2.79709296e+01
-2.85784476e+01
-2.72431326e+01
-2.97518706e+01
-3.45656738e+01
-3.67656431e+01
-2.88830950e+01
-2.25035353e+01
-2.31895448e+01
-2.74233351e+01
-3.06655763e+01
-3.80366124e+01
-4.82653516e+01
-2.73297853e+01
-1.85821230e+01
-3.99277191e+01
-6.54347019e+00
-3.54673858e+01
-2.92412357e+01
-6.85296574e+01
-3.79864067e+01
-3.23332357e+01
-3.50229516e+01
-3.13124666e+01
-4.57318122e+01
-3.47809057e+01
-1.87203949e+01
-2.51192889e+01
-5.16590738e+00
-2.01365013e+01
-1.25479288e+01
-1.26867321e+01
-1.71638453e+00
-1.10244751e+00
-2.22814369e+00
-2.28679967e+00
-3.39725361e+00
-5.06497260e+00
-4.04499447e+00
-9.34160074e+00
-3.43732567e+01
-3.42165909e+01
-3.50853996e+01
-3.50971489e+01
-3.38211861e+01
-3.35654159e+01
-3.26341524e+01
-3.01484494e+01
-3.12630739e+01
-2.87952280e+01
-3.03417683e+01
-2.90994816e+01
-3.07640896e+01
-3.15906572e+01
-3.15874090e+01
-3.82649317e+01
-2.66283407e+01
-2.40762849e+01
-1.68616080e+01
-1.67963455e+01
-2.14924841e+01
-6.86993370e+01
-7.41968842e+01
-2.74780439e+01
-1.14685981e+01
-5.51234093e+00
-1.27438251e+01
-7.75412923e+00
-2.10147209e+01
-2.12410746e+01
-2.35255222e+01
-4.29920691e+00
-4.41160049e+01
-8.04038429e+00
-4.59315928e+00
-6.17961681e+00
-2.81001523e+00
-1.21817675e+01
-1.40253868e+01
-7.77551727e+01
-8.37498703e+01
-3.41658363e+01
-4.76526718e+01
-3.38731197e+00
-1.22353967e+01
-7.13037539e+00
-3.75541916e+01
-3.44617157e+01
-2.54524970e+01
-3.38937426e+01
-1.51165993e+01
-1.69567793e+01
-2.02305837e+01
-1.22960205e+01
-5.08407974e+00
</DataArray>
<DataArray type="Float32" Name="Stress_Pressure" format="ascii">
8.08489788e+00
8.63004154e+00
1.07054375e+01
9.50841689e+00
2.11197890e+00
3.93763494e+00
1.31484358e+01
1.03613971e+01
7.76500297e+00
2.14772358e+01
2.71073058e+01
2.94857931e+01
9.06374753e-02
9.06397142e-02
9.06378776e-02
9.06406753e-02
-6.37135282e-02
-6.37199730e-02
-6.37179837e-02
-6.37149140e-02
8.90244246e+00
9.29956102e+00
9.41744059e+00
9.50656402e+00
1.05057240e+01
1.07868636e+01
1.08320457e+01
1.12204533e+01
9.34676933e+00
1.03320178e+01
1.04855692e+01
1.14529014e+01
9.28044915e+00
1.12113695e+01
9.83597183e+00
1.16437504e+01
8.38471329e+00
1.23840213e+01
9.11167932e+00
9.09081948e+00
7.11174500e+00
1.02175410e+01
7.75020444e+00
9.40339440e+00
6.20977783e+00
7.39297469e+00
6.81867552e+00
8.12704265e+00
9.77318478e+00
7.79843652e+00
1.32001688e+01
1.12912760e+01
1.25107373e+01
1.07174075e+01
2.48433922e+01
9.80279836e+00
2.10896304e+01
1.56702114e+01
1.51264496e+01
1.71234097e+01
1.06799707e+01
1.62978349e+01
1.25556239e+01
4.33689779e+00
9.06451763e+00
6.97972155e+00
3.06358004e+01
1.88468472e+01
1.92956905e+01
-6.00068776e+00
7.08230059e+00
4.92751372e+00
1.75428243e+00
-2.06188563e+00
4.49315423e+00
9.92045649e+00
5.05217600e+00
1.51395526e+01
3.69434814e+01
2.01759571e+01
1.01802454e+01
6.53261375e+00
1.24730043e+01
1.61138120e+01
2.52251685e+01
1.54594421e+01
1.26093111e+01
1.26650987e+01
1.22923111e+01
1.26238201e+01
1.25737960e+01
1.15341679e+01
1.13939431e+01
1.07420654e+01
9.78485346e+00
9.39514369e+00
8.70049798e+00
8.96775508e+00
8.19626546e+00
9.63095140e+00
1.30153757e+01
1.45234284e+01
9.38839452e+00
5.32001543e+00
5.12083231e+00
7.88554526e+00
1.00875514e+01
1.51935866e+01
2.22100232e+01
7.97830129e+00
2.20969143e+00
1.03421221e+01
-6.11009088e+00
1.33385010e+01
9.82055092e+00
3.28226929e+01
1.48921264e+01
1.13256366e+01
1.30965935e+01
1.07450038e+01
1.97401522e+01
1.28548521e+01
1.23053634e+00
5.81897283e+00
-1.66247158e+01
4.85006124e-01
-9.52173904e-01
-4.59974800e+00
2.55484372e-01
2.55492270e-01
2.55482465e-01
2.55491257e-01
-9.24060678e-01
1.44742900e+00
1.02556707e+00
5.93879322e-02
1.31903019e+01
1.28949122e+01
1.37051399e+01
1.38000398e+01
1.24916530e+01
1.25140538e+01
1.18682628e+01
1.03352497e+01
1.11251149e+01
9.46629715e+00
1.03917832e+01
9.44854653e+00
1.07460556e+01
1.10581732e+01
1.13538870e+01
1.55671978e+01
8.46672463e+00
6.54582453e+00
1.47283161e+00
6.52251273e-01
4.09503466e+00
3.43429337e+01
3.81442108e+01
8.20250018e+00
-4.01157580e+00
-4.78327471e+00
-6.64122596e-01
-9.32089448e-01
3.02117515e+00
1.75973296e+00
5.26245177e+00
-9.22704458e+00
1.72079964e+01
-5.58648284e+00
-5.89545520e+00
-1.78037347e+00
-1.76518083e+00
1.53713807e+00
1.53715536e+00
4.04350815e+01
4.42390289e+01
1.27050556e+01
2.13627653e+01
-1.15979955e+00
-3.38705901e+00
2.04337615e+00
1.51147738e+01
1.28888855e+01
6.74735928e+00
1.24855614e+01
-6.08134747e-01
1.05037165e+00
5.11104196e-01
-5.47224283e-02
1.79563069e+00
</DataArray>
<DataArray type="Float32" Name="Stress_Tresca" format="ascii">
3.15568578e+01
3.24621127e+01
3.38299303e+01
3.26065693e+01
2.74182030e+01
3.07151788e+01
3.91206493e+01
3.54746614e+01
3.27788701e+01
4.17415276e+01
5.36111310e+01
5.53728600e+01
1.66149998e+00
1.88102341e+00
1.26151949e+00
1.87222993e+00
9.05512869e-01
8.15383434e-01
9.67418909e-01
9.68039632e-01
2.93808413e+01
3.00718818e+01
3.13331816e+01
3.05653095e+01
3.28678131e+01
3.29169598e+01
3.24911199e+01
3.28425117e+01
3.19099231e+01
3.33657653e+01
3.24077125e+01
3.29816952e+01
3.26497784e+01
3.43694925e+01
3.17028790e+01
3.28359861e+01
3.19386950e+01
3.50476365e+01
3.10486169e+01
3.16113973e+01
2.99181685e+01
3.23463185e+01
2.95649381e+01
3.17859728e+01
2.98563137e+01
3.00580373e+01
3.02495451e+01
3.14537759e+01
3.35187063e+01
3.15636659e+01
3.46937022e+01
3.26558022e+01
3.55280086e+01
3.23615153e+01
4.69051392e+01
3.35308931e+01
4.15354462e+01
4.01230125e+01
3.54089203e+01
3.79964914e+01
3.12046461e+01
3.73684025e+01
3.73597409e+01
2.98357229e+01
3.26319406e+01
3.03527002e+01
5.56975813e+01
4.24076878e+01
6.12019119e+01
3.10031401e+01
3.15375579e+01
2.92709494e+01
2.75078376e+01
2.35669444e+01
2.97784491e+01
3.46190687e+01
2.99581528e+01
4.26452398e+01
5.84054699e+01
4.36998184e+01
3.47257233e+01
3.15135345e+01
3.63632917e+01
4.00152788e+01
5.12348448e+01
4.18878339e+01
3.56144753e+01
3.50875835e+01
3.50682974e+01
3.56882095e+01
3.37328730e+01
3.39435658e+01
3.28225431e+01
3.31387968e+01
3.18978353e+01
3.19012315e+01
3.06786604e+01
3.12725589e+01
3.05082045e+01
3.24394417e+01
3.64998291e+01
3.73113050e+01
3.28443670e+01
2.92770836e+01
3.10467886e+01
3.44138171e+01
3.71940435e+01
3.91070875e+01
4.49759204e+01
3.36115869e+01
3.19018170e+01
5.81875534e+01
2.78349903e+01
3.75869746e+01
3.43464775e+01
6.08988209e+01
3.63878789e+01
3.28892536e+01
3.53039865e+01
3.13201733e+01
4.12339926e+01
3.70763302e+01
3.18662229e+01
3.44005718e+01
4.37173576e+01
4.25463333e+01
3.50004520e+01
3.61859608e+01
3.39624643e+00
1.73962486e+00
3.78945780e+00
4.73409653e+00
1.05831391e+01
5.74366037e+00
5.52672386e+00
1.59063450e+01
3.62507858e+01
3.51901417e+01
3.68638458e+01
3.72888851e+01
3.36493893e+01
3.49096251e+01
3.41327610e+01
3.32869501e+01
3.43726044e+01
3.30587983e+01
3.31757793e+01
3.26257906e+01
3.41405945e+01
3.50997982e+01
3.57722301e+01
3.81417561e+01
3.32508912e+01
3.12423515e+01
2.73050919e+01
2.96122046e+01
3.44861050e+01
5.41621170e+01
5.54007492e+01
3.34872964e+01
2.85524468e+01
2.08259418e+01
2.94880533e+01
1.75522807e+01
3.25626640e+01
3.35708294e+01
3.90361614e+01
2.90568409e+01
4.28489609e+01
2.76645819e+01
2.10134592e+01
1.65557487e+01
8.76028872e+00
1.75995440e+01
1.92565432e+01
5.82580414e+01
6.20892487e+01
3.55836894e+01
4.22663078e+01
9.88516819e+00
3.18639596e+01
9.85039473e+00
3.83979950e+01
3.47164574e+01
2.98805847e+01
3.63513985e+01
2.99639416e+01
3.18699036e+01
3.82286615e+01
2.05576601e+01
5.63884544e+00
</DataArray>
<DataArray type="Float32" Name="Stress_Third_Invariant" format="ascii">
-2.72337215e+01
-2.64698353e+01
-3.08807025e+01
-3.01197481e+01
-2.40491986e+01
-2.60827586e+01
-2.86741996e+01
-2.56457336e+01
-2.91744637e+01
-4.12304688e+01
-4.45394739e+01
-4.43866997e+01
-7.79302031e-01
1.25032216e+00
-1.04720977e+00
1.62318176e+00
3.32123458e-01
5.90523720e-01
5.75916231e-01
8.31964970e-01
-2.91906710e+01
-2.94917479e+01
-2.90837305e+01
-2.95843310e+01
-2.94507771e+01
-2.98114147e+01
-3.03035543e+01
-3.04931111e+01
-2.87920771e+01
-2.90000536e+01
-2.99475012e+01
-3.11531708e+01
-2.71572804e+01
-2.94506795e+01
-2.94414644e+01
-3.15231013e+01
-2.65371437e+01
-3.08761435e+01
-2.89318061e+01
-2.89418263e+01
-2.69232583e+01
-2.96602290e+01
-2.80948014e+01
-2.91486340e+01
-2.52530155e+01
-2.71809959e+01
-2.62962465e+01
-2.74601378e+01
-2.72939475e+01
-2.62634583e+01
-3.27885907e+01
-3.13854160e+01
-3.37471905e+01
-3.08431101e+01
-4.42739532e+01
-2.96732949e+01
-3.93807497e+01
-3.66032063e+01
-3.44471540e+01
-3.61709499e+01
-3.08112373e+01
-3.54620953e+01
-2.83378323e+01
-2.25918698e+01
-2.87072283e+01
-2.93675237e+01
-4.94793539e+01
-3.69576408e+01
-3.93155174e+01
-1.80426583e+01
-2.68342866e+01
-2.11847544e+01
-2.30196466e+01
-1.97346153e+01
-2.47965031e+01
-2.76529634e+01
-2.25001779e+01
-3.45767398e+01
-5.35087147e+01
-3.86126820e+01
-2.97602873e+01
-2.69291768e+01
-3.16548223e+01
-3.41919003e+01
-4.51241004e+01
-3.35822023e+01
-2.95576401e+01
-3.06100445e+01
-3.00970826e+01
-2.97331309e+01
-3.18360457e+01
-2.99513316e+01
-3.08032279e+01
-2.96374846e+01
-2.92691655e+01
-2.87964621e+01
-2.85640664e+01
-2.89615245e+01
-2.81657772e+01
-2.95584002e+01
-3.04776777e+01
-3.16108947e+01
-2.75151120e+01
-2.40703619e+01
-2.51092352e+01
-2.55868937e+01
-2.32510920e+01
-3.16066974e+01
-2.18362153e+01
-2.53239717e+01
-6.75291681e+00
-2.23983002e+01
1.17140615e+01
-2.87306352e+01
-1.35274105e+01
-5.03006725e+01
-3.42907650e+01
-3.13007884e+01
-3.23078399e+01
-3.08297119e+01
-3.85290952e+01
-3.11649890e+01
-1.65672505e+01
-1.80009747e+01
9.57536221e+00
2.70076466e+01
3.14555593e+01
7.62928263e+00
2.62603211e+00
7.75614917e-01
-1.96101081e+00
3.67833734e+00
6.59957950e+00
-5.30403356e+00
-3.74054933e+00
-1.27523093e+01
-2.97572098e+01
-3.09527044e+01
-2.94630833e+01
-2.90011721e+01
-3.17352276e+01
-3.02177186e+01
-3.01649952e+01
-2.82664781e+01
-2.83744736e+01
-2.69082742e+01
-2.88202572e+01
-2.78290577e+01
-2.82311821e+01
-2.85586233e+01
-2.65370941e+01
-3.17140646e+01
-2.22723794e+01
-2.26635695e+01
-1.56638861e+01
-1.19288185e+01
-2.65554237e+00
-5.11287479e+01
-5.39819183e+01
-2.65495103e+01
-1.64602711e+01
2.06678987e+00
1.71998527e+01
6.36057854e-02
-2.14181585e+01
-2.57455158e+01
1.12445579e+01
8.63005304e+00
-3.98969688e+01
-3.11778037e+00
-1.66001066e+00
1.78908205e+00
-1.10650572e+00
-1.54482317e+01
-1.86440520e+01
-5.57006798e+01
-5.88600922e+01
-3.10456104e+01
-3.85947704e+01
6.18318880e+00
-1.69572830e+00
-2.18824410e+00
-3.14360018e+01
-3.18356857e+01
-2.76953650e+01
-3.03117733e+01
-1.00388703e+01
-4.26318598e+00
-1.80213666e+01
-1.74311519e+01
-4.60855150e+00
</DataArray>
<DataArray type="Float32" Name="Logarithmic_strain_Max_Principal" format="ascii">
1.26780350e-03
1.60770791e-03
1.91295007e-03
1.12550483e-03
1.15049227e-03
2.61691336e-03
5.31725324e-03
2.48745596e-03
1.59000250e-03
3.42315820e-03
7.01333854e-03
9.25798668e-03
1.81566156e-05
2.39613528e-05
1.18976354e-05
2.56879430e-05
1.19931201e-05
1.20189179e-05
1.26448658e-05
1.51292761e-05
2.91693048e-03
2.96368403e-03
3.38821849e-03
3.16522055e-03
4.10446501e-03
3.99483333e-03
3.99727077e-03
4.13341669e-03
3.37875314e-03
3.76764365e-03
3.58453591e-03
3.78793315e-03
3.59988463e-03
3.97986959e-03
3.18536995e-03
3.31612697e-03
3.29198147e-03
4.16158541e-03
2.79422122e-03
2.95808155e-03
2.48754845e-03
3.47463373e-03
2.11836825e-03
2.65159926e-03
2.25744711e-03
2.97007861e-03
1.99826213e-03
2.48920877e-03
3.96741019e-03
3.61724506e-03
4.77584518e-03
4.24993731e-03
4.00802633e-03
4.17430940e-03
5.88873941e-03
3.74865336e-03
5.38293610e-03
3.82936709e-03
4.29811585e-03
3.63488175e-03
3.58294463e-03
3.47926118e-03
3.83613029e-03
2.72760744e-03
4.87336663e-03
3.59589921e-03
6.89131476e-03
6.71035983e-03
1.06433704e-02
3.69466376e-03
1.84067947e-03
1.79305859e-03
2.98569367e-03
2.67269195e-03
1.22647222e-03
4.64427341e-03
4.18321928e-03
2.95481033e-03
6.93410006e-03
7.05448459e-03
1.87836972e-03
5.52130083e-03
5.08776866e-03
7.67358171e-03
8.22964854e-03
7.35407121e-03
5.34722372e-03
4.95828094e-03
5.26285777e-03
5.68420009e-03
4.07248741e-03
4.44948341e-03
3.55132954e-03
3.62407003e-03
3.14110343e-03
2.89567467e-03
2.72490294e-03
2.45829919e-03
2.66002933e-03
2.51070433e-03
6.67727209e-03
6.96068513e-03
4.88015884e-03
2.76983622e-03
2.05909258e-03
2.08028708e-03
2.13181080e-03
7.60491542e-03
8.44584747e-03
5.16077810e-03
2.32199515e-03
3.88296670e-03
1.00665929e-03
8.45530420e-03
8.61133666e-03
8.36911798e-03
8.70077785e-03
8.33575951e-03
8.65444879e-03
7.59342127e-03
8.19125818e-03
8.25964229e-03
4.24613839e-03
4.69718789e-03
3.59650725e-03
4.95087635e-03
1.97805583e-03
1.55232726e-03
4.35463662e-05
1.80434818e-05
4.04908969e-05
6.15258396e-05
1.56361130e-04
3.33306981e-05
4.79315622e-05
1.46188485e-04
5.79362223e-03
5.14043216e-03
6.09147188e-03
6.52678194e-03
4.21304535e-03
4.81087749e-03
4.09110379e-03
3.85532755e-03
3.91039439e-03
3.36198992e-03
3.53345752e-03
2.94384069e-03
3.89152789e-03
3.27673764e-03
7.33806961e-03
7.95021071e-03
5.26243588e-03
2.97505804e-03
1.53591631e-03
1.08190354e-03
1.22716060e-03
9.64515610e-03
1.04040662e-02
4.01112810e-03
8.54799495e-04
3.17047474e-04
4.57001217e-04
1.80763021e-04
4.68062120e-04
2.34965555e-04
2.91963958e-03
9.43847554e-04
2.95784674e-03
4.51988628e-04
3.30906793e-04
2.26385897e-04
1.21857770e-04
1.48383486e-04
1.43958772e-04
1.53883379e-02
1.66607704e-02
1.17327319e-02
1.29332612e-02
1.39563572e-04
4.22608495e-04
8.96807542e-05
1.15960604e-02
1.09170675e-02
6.24371087e-03
7.97370612e-03
2.51984951e-03
3.02486541e-03
7.31651380e-04
1.79045146e-04
3.46712441e-05
</DataArray>
<DataArray type="Float32" Name="Logarithmic_strain_Min_Principal" format="ascii">
-1.94479768e-03
-2.34358441e-03
-3.07978899e-03
-2.00017414e-03
-1.61813755e-03
-3.44908813e-03
-6.42769103e-03
-3.63226072e-03
-2.55287066e-03
-6.30557036e-03
-9.68547429e-03
-1.17785702e-02
-2.17737470e-05
-2.16462190e-05
-1.90862611e-05
-1.89518414e-05
-1.02202721e-05
-7.69650342e-06
-1.05807967e-05
-8.33584181e-06
-5.20297885e-03
-5.13136561e-03
-5.25664655e-03
-5.28443849e-03
-5.92041411e-03
-5.85399324e-03
-6.22025365e-03
-6.37955719e-03
-4.96995903e-03
-5.28523710e-03
-5.47327939e-03
-6.02044247e-03
-4.72396659e-03
-5.55316213e-03
-4.93302487e-03
-5.52852888e-03
-4.34905721e-03
-6.02869689e-03
-4.37203678e-03
-4.49520937e-03
-3.68821534e-03
-5.29307593e-03
-3.49225692e-03
-4.12101380e-03
-3.07197706e-03
-4.40960110e-03
-2.89376348e-03
-3.59139289e-03
-5.17516013e-03
-4.73404396e-03
-7.57131621e-03
-6.99424185e-03
-6.45692999e-03
-6.75812241e-03
-9.64709390e-03
-5.46936797e-03
-8.74855043e-03
-6.01394437e-03
-7.33824319e-03
-6.11220801e-03
-6.22403901e-03
-5.81924990e-03
-5.06869341e-03
-3.24727001e-03
-6.75181027e-03
-5.84223628e-03
-1.03991763e-02
-9.47288387e-03
-1.14576435e-02
-4.03422645e-03
-2.62888543e-03
-2.18159627e-03
-4.14161865e-03
-3.48093000e-03
-1.79596283e-03
-6.54277724e-03
-5.40547463e-03
-4.17979847e-03
-1.14506360e-02
-1.02558576e-02
-2.80906807e-03
-7.05802871e-03
-7.27673224e-03
-1.05693417e-02
-1.20256223e-02
-9.54976864e-03
-6.99797762e-03
-6.89658825e-03
-7.17510306e-03
-7.45058048e-03
-6.48837467e-03
-6.32773800e-03
-5.65884577e-03
-5.31928812e-03
-4.79305070e-03
-4.36690048e-03
-4.29691921e-03
-3.90330589e-03
-4.16307547e-03
-3.93200206e-03
-8.81755189e-03
-9.52804973e-03
-6.43884385e-03
-3.64347582e-03
-2.76108871e-03
-2.84239322e-03
-2.88740115e-03
-9.73652427e-03
-1.12286881e-02
-6.24692556e-03
-2.43448862e-03
-4.57667885e-03
-6.77141803e-04
-1.13335375e-02
-1.10463891e-02
-1.13233468e-02
-1.37785355e-02
-1.33280377e-02
-1.28296402e-02
-1.25787407e-02
-1.24596013e-02
-1.08801443e-02
-4.67811729e-03
-5.28577541e-03
-2.96594482e-03
-3.43608321e-03
-1.13742600e-03
-1.48535097e-03
-3.83069964e-05
-2.30543210e-05
-5.02376934e-05
-5.20860231e-05
-9.15480785e-05
-1.03861765e-04
-8.44916140e-05
-2.15958649e-04
-7.47740176e-03
-7.24460557e-03
-7.69044715e-03
-7.97377015e-03
-6.67123427e-03
-6.71075832e-03
-5.90797095e-03
-5.26797830e-03
-5.17921709e-03
-4.42107732e-03
-5.01501956e-03
-4.12402523e-03
-5.23052737e-03
-4.32655297e-03
-8.83596228e-03
-1.08265788e-02
-5.72764524e-03
-3.54582520e-03
-1.82716013e-03
-1.06831040e-03
-1.14638708e-03
-1.54867237e-02
-1.78802833e-02
-5.07318197e-03
-9.33449279e-04
-1.66288861e-04
-3.29687755e-04
-1.96140345e-04
-6.19258950e-04
-4.72488289e-04
-2.43968831e-03
-7.37634778e-04
-5.08301519e-03
-3.23377928e-04
-1.64790144e-04
-1.69629046e-04
-8.84940255e-05
-2.73806436e-04
-3.17917715e-04
-2.51752902e-02
-2.59664655e-02
-1.58283326e-02
-1.90858804e-02
-9.30318274e-05
-3.70824443e-04
-1.46771010e-04
-1.46950497e-02
-1.56655069e-02
-9.29988874e-03
-1.02838627e-02
-2.51776772e-03
-2.63373298e-03
-9.07038630e-04
-2.78646228e-04
-1.00949408e-04
</DataArray>
<DataArray type="Float32" Name="Plastic_strain_Max_Principal" format="ascii">
1.06170095e-03
1.39032633e-03
1.73329405e-03
9.49656460e-04
9.19850892e-04
2.36644669e-03
5.06574725e-03
2.26891761e-03
1.38004805e-03
3.35157843e-03
6.84781660e-03
9.04769357e-03
0.00000000e+00
0.00000000e+00
0.00000000e+00
0.00000000e+00
0.00000000e+00
0.00000000e+00
0.00000000e+00
0.00000000e+00
2.78591423e-03
2.82703806e-03
3.22380595e-03
3.02115543e-03
3.92431498e-03
3.82163253e-03
3.83801776e-03
3.97465425e-03
3.19590629e-03
3.57324426e-03
3.41804372e-03
3.63742645e-03
3.38880776e-03
3.78047954e-03
3.01921449e-03
3.17606441e-03
3.07507487e-03
3.97893306e-03
2.62682326e-03
2.77813346e-03
2.29432824e-03
3.30361939e-03
1.95515793e-03
2.47479542e-03
2.03843310e-03
2.78107694e-03
1.79064344e-03
2.28536478e-03
3.74901426e-03
3.40000325e-03
4.63547284e-03
4.10694769e-03
3.85263246e-03
4.02499214e-03
5.79377376e-03
3.55549496e-03
5.28024859e-03
3.65818786e-03
4.18709748e-03
3.51510593e-03
3.45682737e-03
3.35218862e-03
3.61121589e-03
2.46764114e-03
4.67200171e-03
3.42606416e-03
6.75247412e-03
6.54019965e-03
1.01173101e-02
3.29021753e-03
1.62427365e-03
1.55129092e-03
2.73422780e-03
2.41812330e-03
9.90708242e-04
4.42849715e-03
3.94262635e-03
2.72292222e-03
6.89076376e-03
6.89257439e-03
1.66505843e-03
5.28423733e-03
4.89308126e-03
7.47119857e-03
8.06376788e-03
7.10835075e-03
5.14594000e-03
4.77611774e-03
5.07088692e-03
5.48260799e-03
3.92817857e-03
4.26756509e-03
3.39872675e-03
3.44499864e-03
2.96937698e-03
2.71466147e-03
2.55634409e-03
2.28538024e-03
2.48405966e-03
2.32961512e-03
6.47622661e-03
6.77124842e-03
4.67540117e-03
2.54254552e-03
1.81038106e-03
1.81944587e-03
1.85485601e-03
7.40181647e-03
8.28022324e-03
4.90967219e-03
1.97936418e-03
3.30967596e-03
6.90196489e-04
8.24646081e-03
8.38136906e-03
8.16977071e-03
8.56352388e-03
8.18662310e-03
8.48315249e-03
7.45591731e-03
8.08216201e-03
8.03704048e-03
3.91878345e-03
4.40841881e-03
2.85331602e-03
4.38535493e-03
1.45726737e-03
1.07288301e-03
0.00000000e+00
0.00000000e+00
0.00000000e+00
0.00000000e+00
6.51834321e-06
0.00000000e+00
0.00000000e+00
1.52280300e-05
5.58980135e-03
4.96142148e-03
5.88605483e-03
6.30857749e-03
4.06625587e-03
4.63053863e-03
3.91399150e-03
3.65619082e-03
3.70262028e-03
3.14680202e-03
3.34091415e-03
2.74703273e-03
3.68159846e-03
3.06335883e-03
7.09294563e-03
7.75963813e-03
4.99976694e-03
2.72463600e-03
1.27741937e-03
7.70286970e-04
8.68849223e-04
9.60417371e-03
1.04266284e-02
3.76566833e-03
5.11905255e-04
1.18306469e-04
1.13397258e-04
6.44180982e-05
1.56469672e-04
7.08730076e-05
2.48490326e-03
7.54496243e-04
2.79025454e-03
5.63877475e-05
3.29714643e-05
1.26902819e-06
6.90747299e-07
0.00000000e+00
0.00000000e+00
1.53900748e-02
1.66824404e-02
1.15429359e-02
1.28053348e-02
2.92519969e-06
9.33146120e-05
0.00000000e+00
1.13991220e-02
1.07443342e-02
6.05684519e-03
7.76122510e-03
2.17288459e-03
2.65512784e-03
3.25502529e-04
2.71301215e-05
0.00000000e+00
</DataArray>
<DataArray type="Float32" Name="Plastic_strain_Min_Principal" format="ascii">
-1.39387054e-03
-1.78340152e-03
-2.44892965e-03
-1.39526029e-03
-1.19455886e-03
-2.96203526e-03
-5.74527902e-03
-3.01310363e-03
-1.98266029e-03
-5.39364864e-03
-8.59866710e-03
-1.06455088e-02
0.00000000e+00
0.00000000e+00
0.00000000e+00
0.00000000e+00
0.00000000e+00
0.00000000e+00
0.00000000e+00
0.00000000e+00
-4.62983362e-03
-4.54683427e-03
-4.67220391e-03
-4.69487999e-03
-5.31187258e-03
-5.23817108e-03
-5.59934409e-03
-5.75072248e-03
-4.38764971e-03
-4.67969934e-03
-4.86161956e-03
-5.37970674e-03
-4.15302720e-03
-4.92421770e-03
-4.33786213e-03
-4.88224247e-03
-3.79812543e-03
-5.36935817e-03
-3.79485363e-03
-3.91681041e-03
-3.16225551e-03
-4.68846670e-03
-2.94680794e-03
-3.53432493e-03
-2.57418409e-03
-3.87877773e-03
-2.37665465e-03
-3.03940027e-03
-4.58935648e-03
-4.19605017e-03
-6.88308658e-03
-6.35608996e-03
-5.76291912e-03
-6.13126007e-03
-8.62656897e-03
-4.86016526e-03
-7.85475830e-03
-5.23087559e-03
-6.60671201e-03
-5.32154238e-03
-5.60644059e-03
-5.05073811e-03
-4.39870037e-03
-2.79180770e-03
-6.16807943e-03
-5.29208186e-03
-9.22578876e-03
-8.62340843e-03
-1.04968753e-02
-3.69393453e-03
-2.08955281e-03
-1.72237278e-03
-3.73220277e-03
-3.17588341e-03
-1.31978984e-03
-5.94501976e-03
-4.94030694e-03
-3.39177105e-03
-1.01455168e-02
-9.37087974e-03
-2.19178549e-03
-6.54427882e-03
-6.60736416e-03
-9.78984451e-03
-1.09895874e-02
-8.77521358e-03
-6.34553842e-03
-6.23730430e-03
-6.52375241e-03
-6.79572718e-03
-5.82362071e-03
-5.69338840e-03
-5.02279412e-03
-4.70353290e-03
-4.19924688e-03
-3.78277648e-03
-3.73094116e-03
-3.32596109e-03
-3.60830489e-03
-3.33447423e-03
-8.14750203e-03
-8.82047892e-03
-5.85890550e-03
-3.16804455e-03
-2.26786453e-03
-2.28182300e-03
-2.27493874e-03
-9.01377558e-03
-1.03317218e-02
-5.68788716e-03
-2.01758842e-03
-3.75379412e-03
-5.18007440e-04
-1.06565686e-02
-1.04798869e-02
-1.00822903e-02
-1.30521360e-02
-1.26999975e-02
-1.21219771e-02
-1.19549693e-02
-1.15987547e-02
-1.01919137e-02
-4.24533270e-03
-4.76320309e-03
-2.69184099e-03
-2.98965862e-03
-8.25334997e-04
-1.12230451e-03
0.00000000e+00
0.00000000e+00
0.00000000e+00
0.00000000e+00
-1.03721872e-05
0.00000000e+00
0.00000000e+00
-1.89431194e-05
-6.81196293e-03
-6.57758606e-03
-7.01410684e-03
-7.29742297e-03
-6.00809976e-03
-6.05483761e-03
-5.26601938e-03
-4.66749130e-03
-4.56104195e-03
-3.84308316e-03
-4.40985034e-03
-3.53902689e-03
-4.61819256e-03
-3.70080851e-03
-8.20693735e-03
-1.00834914e-02
-5.18974476e-03
-3.04684718e-03
-1.44073711e-03
-6.77008655e-04
-6.84342376e-04
-1.42236636e-02
-1.65132526e-02
-4.51415614e-03
-6.23156055e-04
-1.47515731e-04
-1.08362230e-04
-6.39394293e-05
-1.53459216e-04
-1.03331760e-04
-1.93908863e-03
-7.01966084e-04
-4.23844345e-03
-7.76918805e-05
-4.44418301e-05
-2.57790430e-06
-3.40035058e-07
0.00000000e+00
0.00000000e+00
-2.36497130e-02
-2.43805125e-02
-1.51566990e-02
-1.81528088e-02
-2.86235222e-06
-1.20787496e-04
0.00000000e+00
-1.39601775e-02
-1.49598997e-02
-8.78282497e-03
-9.62747401e-03
-2.14995129e-03
-2.24706030e-03
-4.33231602e-04
-2.27563924e-05
0.00000000e+00
</DataArray>
</PointData>
<Cells>
<DataArray type="Int32" Name="connectivity" format="ascii">
0 1 2 3 4 5 6 7
1 8 9 2 5 10 11 6
12 13 14 15 16 17 18 19
20 21 22 23 24 25 26 27
21 28 29 22 25 30 31 26
28 32 33 29 30 34 35 31
32 36 37 33 34 38 39 35
36 40 41 37 38 42 43 39
40 44 45 41 42 46 47 43
23 22 48 49 27 26 50 51
22 29 52 48 26 31 53 50
29 33 54 52 31 35 55 53
33 37 56 54 35 39 57 55
37 41 58 56 39 43 59 57
41 45 60 58 43 47 61 59
49 48 62 63 51 50 64 65
48 52 66 62 50 53 67 64
52 54 68 66 53 55 69 67
63 62 70 71 65 64 72 73
71 70 4 74 73 72 75 76
70 77 5 4 72 78 79 75
74 4 7 80 76 75 81 82
4 5 6 7 75 79 83 81
5 10 11 6 79 84 85 83
24 25 26 27 86 87 88 89
25 30 31 26 87 90 91 88
30 34 35 31 90 92 93 91
34 38 39 35 92 94 95 93
38 42 43 39 94 96 97 95
42 46 47 43 96 98 99 97
27 26 50 51 89 88 100 101
26 31 53 50 88 91 102 100
31 35 55 53 91 93 103 102
35 39 57 55 93 95 104 103
39 43 59 57 95 97 105 104
43 47 61 59 97 99 106 105
51 50 64 65 101 100 107 108
50 53 67 64 100 102 109 107
53 55 69 67 102 103 110 109
55 57 111 69 103 104 112 110
65 64 72 73 108 107 113 114
64 67 78 72 107 109 115 113
73 72 75 76 114 113 116 117
76 75 81 82 117 116 118 119
75 79 83 81 116 120 121 118
79 84 85 83 120 122 123 121
84 124 125 85 122 126 127 123
128 129 130 131 132 133 134 135
86 87 88 89 136 137 138 139
87 90 91 88 137 140 141 138
90 92 93 91 140 142 143 141
92 94 95 93 142 144 145 143
94 96 97 95 144 146 147 145
96 98 99 97 146 148 149 147
89 88 100 101 139 138 150 151
88 91 102 100 138 141 152 150
91 93 103 102 141 143 153 152
93 95 104 103 143 145 154 153
95 97 105 104 145 147 155 154
97 99 106 105 147 149 156 155
101 100 107 108 151 150 157 158
100 102 109 107 150 152 159 157
102 103 110 109 152 153 160 159
103 104 112 110 153 154 161 160
104 105 162 112 154 155 163 161
105 106 164 162 155 156 165 163
109 110 166 115 159 160 167 168
110 112 169 166 160 161 170 167
112 162 171 169 161 163 172 170
162 164 173 171 163 165 174 172
114 113 116 117 175 176 177 178
169 171 132 126 170 172 179 180
171 173 133 132 172 174 181 179
117 116 118 119 178 177 182 183
116 120 121 118 177 184 185 182
120 122 123 121 184 186 187 185
122 126 127 123 186 180 188 187
126 132 135 127 180 179 189 188
132 133 134 135 179 181 190 189
</DataArray>
<DataArray type="Int32" Name="offsets" format="ascii">
8
16
24
32
40
48
56
64
72
80
88
96
104
112
120
128
136
144
152
160
168
176
184
192
200
208
216
224
232
240
248
256
264
272
280
288
296
304
312
320
328
336
344
352
360
368
376
384
392
400
408
416
424
432
440
448
456
464
472
480
488
496
504
512
520
528
536
544
552
560
568
576
584
592
600
608
616
624
632
</DataArray>
<DataArray type="UInt8" Name="types" format="ascii">
12
12
12
12
12
12
12
12
12
12
12
12
12
12
12
12
12
12
12
12
12
12
12
12
12
12
12
12
12
12
12
12
12
12
12
12
12
12
12
12
12
12
12
12
12
12
12
12
12
12
12
12
12
12
12
12
12
12
12
12
12
12
12
12
12
12
12
12
12
12
12
12
12
12
12
12
12
12
12
</DataArray>
</Cells>
</Piece>
</UnstructuredGrid>
</VTKFile>
