<VTKFile type="UnstructuredGrid" version="0.1" byte_order="LittleEndian">
<UnstructuredGrid>
<Piece NumberOfPoints="173" NumberOfCells="80">
<Points>
<DataArray type="Float64" NumberOfComponents="3" format="ascii">
 0.00000000e+00  0.00000000e+00  0.00000000e+00
 1.00140214e+00  0.00000000e+00  0.00000000e+00
 1.00168777e+00  1.00487995e+00  0.00000000e+00
 0.00000000e+00  1.00454462e+00  0.00000000e+00
 0.00000000e+00  0.00000000e+00  9.94607568e-01
 1.00152576e+00  0.00000000e+00  9.94205177e-01
 1.00153208e+00  1.00431883e+00  9.94638085e-01
 0.00000000e+00  1.00425684e+00  9.95092332e-01
 2.00331450e+00  0.00000000e+00  0.00000000e+00
 2.00353765e+00  1.00573301e+00  0.00000000e+00
 2.00344110e+00  0.00000000e+00  9.92954433e-01
 2.00355172e+00  1.00467312e+00  9.93962407e-01
 3.00573850e+00  0.00000000e+00  0.00000000e+00
 3.00569773e+00  1.00670719e+00  0.00000000e+00
 3.00618076e+00  0.00000000e+00  9.91793931e-01
 3.00598598e+00  1.00516462e+00  9.92967665e-01
 4.00904369e+00  0.00000000e+00  0.00000000e+00
 4.00833321e+00  1.00739241e+00  0.00000000e+00
 4.00967264e+00  0.00000000e+00  9.91060853e-01
 4.00897932e+00  1.00538790e+00  9.91492391e-01
 5.01382399e+00  0.00000000e+00  0.00000000e+00
 5.01209879e+00  1.00829232e+00  0.00000000e+00
 5.01399422e+00  0.00000000e+00  9.89218175e-01
 5.01297092e+00  1.00571275e+00  9.90072966e-01
 6.01978588e+00  0.00000000e+00  0.00000000e+00
 6.01613092e+00  1.01139641e+00  0.00000000e+00
 6.01825762e+00  0.00000000e+00  9.88048315e-01
 6.01779175e+00  1.00734794e+00  9.88265276e-01
 1.00204968e+00  2.00803137e+00  0.00000000e+00
 0.00000000e+00  2.00771379e+00  0.00000000e+00
 1.00172842e+00  2.00771117e+00  9.96145427e-01
 0.00000000e+00  2.00750923e+00  9.96058643e-01
 2.00395203e+00  2.00884223e+00  0.00000000e+00
 2.00358152e+00  2.00841761e+00  9.96448696e-01
 3.00553584e+00  2.00989747e+00  0.00000000e+00
 3.00526977e+00  2.00908780e+00  9.97184277e-01
 4.00703621e+00  2.01140952e+00  0.00000000e+00
 4.00750923e+00  2.00964117e+00  9.96551871e-01
 5.00853252e+00  2.01243520e+00  0.00000000e+00
 5.00939465e+00  2.01064229e+00  9.96873319e-01
 6.01003075e+00  2.01528645e+00  0.00000000e+00
 6.01219749e+00  2.01352906e+00  9.96638358e-01
 1.00214803e+00  3.00945544e+00  0.00000000e+00
 0.00000000e+00  3.00929928e+00  0.00000000e+00
 1.00181210e+00  3.00945568e+00  9.97465789e-01
 0.00000000e+00  3.00938439e+00  9.96987224e-01
 2.00384569e+00  3.00982738e+00  0.00000000e+00
 2.00350142e+00  3.00977874e+00  9.98259962e-01
 3.00489378e+00  3.01046681e+00  0.00000000e+00
 3.00443244e+00  3.01025248e+00  9.99496043e-01
 4.00514746e+00  3.01140404e+00  0.00000000e+00
 4.00491285e+00  3.01073694e+00  1.00027430e+00
 5.00650501e+00  3.01218176e+00  0.00000000e+00
 5.00631571e+00  3.01157165e+00  1.00041795e+00
 6.00648642e+00  3.01476884e+00  0.00000000e+00
 6.00664330e+00  3.01447248e+00  1.00023246e+00
 1.00202191e+00  4.01005268e+00  0.00000000e+00
 0.00000000e+00  4.01010180e+00  0.00000000e+00
 1.00172675e+00  4.01023817e+00  9.97842491e-01
 0.00000000e+00  4.01024961e+00  9.97495115e-01
 2.00347614e+00  4.01016903e+00  0.00000000e+00
 2.00307035e+00  4.01009703e+00  9.98653173e-01
 3.00404072e+00  4.01052761e+00  0.00000000e+00
 3.00363135e+00  4.01042509e+00  9.99716222e-01
 4.00399256e+00  4.01130247e+00  0.00000000e+00
 4.00393438e+00  4.01134014e+00  1.00002599e+00
 6.00434208e+00  4.01370239e+00  0.00000000e+00
 5.00428486e+00  4.01222801e+00  0.00000000e+00
 6.00439215e+00  4.01382637e+00  9.99994099e-01
 5.00430489e+00  4.01232958e+00  1.00007772e+00
 1.00184178e+00  5.01073265e+00  0.00000000e+00
 0.00000000e+00  5.01093102e+00  0.00000000e+00
 1.00156784e+00  5.01083946e+00  9.97745514e-01
 0.00000000e+00  5.01099062e+00  9.97199774e-01
 2.00304532e+00  5.01048565e+00  0.00000000e+00
 2.00258875e+00  5.01055574e+00  9.98668015e-01
 3.00330639e+00  5.01071692e+00  0.00000000e+00
 3.00306845e+00  5.01070929e+00  9.99696910e-01
 4.00330639e+00  5.01131678e+00  0.00000000e+00
 4.00321531e+00  5.01131868e+00  1.00003767e+00
 5.00318336e+00  5.01233196e+00  0.00000000e+00
 5.00321341e+00  5.01234293e+00  9.99997735e-01
 6.00319958e+00  5.01347303e+00  0.00000000e+00
 6.00321579e+00  5.01343012e+00  9.99973714e-01
 1.00207603e+00  6.01176214e+00  0.00000000e+00
 0.00000000e+00  6.01208448e+00  0.00000000e+00
 1.00160086e+00  6.01177216e+00  9.97454107e-01
 0.00000000e+00  6.01211977e+00  9.96791899e-01
 2.00306439e+00  6.01100349e+00  0.00000000e+00
 2.00256634e+00  6.01127672e+00  9.98398542e-01
 3.00295758e+00  6.01080942e+00  0.00000000e+00
 3.00278306e+00  6.01102734e+00  9.99525547e-01
 4.00255394e+00  6.01140356e+00  0.00000000e+00
 4.00245857e+00  6.01138926e+00  1.00006163e+00
 5.00227880e+00  6.01235247e+00  0.00000000e+00
 5.00226355e+00  6.01235867e+00  1.00002754e+00
 6.00220442e+00  6.01339436e+00  0.00000000e+00
 6.00221634e+00  6.01337099e+00  1.00002623e+00
 0.00000000e+00  0.00000000e+00  1.98955834e+00
 1.00194967e+00  0.00000000e+00  1.98899114e+00
 1.00170827e+00  1.00334644e+00  1.98984742e+00
 0.00000000e+00  1.00356495e+00  1.99031305e+00
 2.00444627e+00  0.00000000e+00  1.98800051e+00
 2.00377917e+00  1.00266218e+00  1.98783958e+00
 3.00723219e+00  0.00000000e+00  1.98594928e+00
 3.00725460e+00  1.00244355e+00  1.98614907e+00
 4.01113987e+00  0.00000000e+00  1.98310935e+00
 4.01080322e+00  1.00275254e+00  1.98555446e+00
 5.01487017e+00  0.00000000e+00  1.98089468e+00
 5.01473379e+00  1.00284123e+00  1.98343170e+00
 6.01771259e+00  0.00000000e+00  1.97958040e+00
 6.01862240e+00  1.00263119e+00  1.98173785e+00
 1.00103700e+00  2.00669098e+00  1.99169922e+00
 0.00000000e+00  2.00688410e+00  1.99262702e+00
 2.00319266e+00  2.00647068e+00  1.99147439e+00
 3.00633645e+00  2.00712395e+00  1.99095154e+00
 4.01023006e+00  2.00785112e+00  1.98793352e+00
 5.01468658e+00  2.00808215e+00  1.98749113e+00
 6.01983404e+00  2.00770998e+00  1.98523819e+00
 1.00092876e+00  3.00948882e+00  1.99419832e+00
 0.00000000e+00  3.00928426e+00  1.99485612e+00
 2.00226045e+00  3.00954413e+00  1.99637473e+00
 3.00198054e+00  3.00971508e+00  2.00049973e+00
 1.00113714e+00  4.01069784e+00  1.99592149e+00
 0.00000000e+00  4.01065540e+00  1.99546909e+00
 2.00208664e+00  4.01044607e+00  1.99755263e+00
 3.00247383e+00  4.00983143e+00  1.99902034e+00
 1.00088143e+00  5.01126719e+00  1.99576032e+00
 0.00000000e+00  5.01144075e+00  1.99522376e+00
 2.00187564e+00  5.01093292e+00  1.99726486e+00
 3.00303030e+00  5.01052952e+00  1.99794948e+00
 1.00048780e+00  6.01234674e+00  1.99478447e+00
 0.00000000e+00  6.01192713e+00  1.99505579e+00
 2.00155807e+00  6.01263809e+00  1.99582565e+00
 3.00320792e+00  6.01222944e+00  1.99659073e+00
 5.00325203e+00  5.01232147e+00  1.99999750e+00
 6.00325441e+00  5.01331758e+00  1.99996543e+00
 6.00224257e+00  6.01333332e+00  2.00003266e+00
 5.00222683e+00  6.01232433e+00  2.00004196e+00
 0.00000000e+00  0.00000000e+00  2.98450184e+00
 1.00278878e+00  0.00000000e+00  2.98396087e+00
 1.00268400e+00  1.00278831e+00  2.98512793e+00
 0.00000000e+00  1.00283611e+00  2.98564363e+00
 2.00607538e+00  0.00000000e+00  2.98225856e+00
 2.00533462e+00  1.00203383e+00  2.98397255e+00
 3.00922918e+00  0.00000000e+00  2.98070550e+00
 3.00923610e+00  1.00142074e+00  2.98131919e+00
 4.01295519e+00  0.00000000e+00  2.97912550e+00
 4.01293802e+00  1.00156331e+00  2.97845554e+00
 5.01601124e+00  0.00000000e+00  2.97704864e+00
 5.01633739e+00  1.00181210e+00  2.97731900e+00
 6.01829529e+00  0.00000000e+00  2.97611547e+00
 6.01895666e+00  1.00129712e+00  2.97657537e+00
 1.00156415e+00  2.00523210e+00  2.98775673e+00
 0.00000000e+00  2.00626183e+00  2.98824787e+00
 2.00457287e+00  2.00486040e+00  2.98368788e+00
 3.00810790e+00  2.00557685e+00  2.97948265e+00
 4.01338625e+00  2.00648689e+00  2.97962594e+00
 5.01728296e+00  2.00521970e+00  2.97829914e+00
 6.02030849e+00  2.00396514e+00  2.97800732e+00
 1.00076640e+00  3.00897455e+00  2.99232817e+00
 0.00000000e+00  3.00906014e+00  2.99076843e+00
 2.00409317e+00  3.00837684e+00  2.98816752e+00
 1.00058544e+00  4.01096916e+00  2.99422479e+00
 0.00000000e+00  4.01141024e+00  2.99348235e+00
 2.00156951e+00  4.01106501e+00  2.99675298e+00
 1.00068736e+00  5.01232815e+00  2.99395990e+00
 0.00000000e+00  5.01181555e+00  2.99428487e+00
 2.00169134e+00  5.01264095e+00  2.99409223e+00
 3.00112605e+00  4.01149130e+00  3.00022531e+00
 3.00391626e+00  5.01126099e+00  2.99484205e+00
 1.00037456e+00  6.01284885e+00  2.99365163e+00
 0.00000000e+00  6.01294422e+00  2.99269938e+00
</DataArray>
</Points>
<PointData Tensors="Stress_Components,Plastic_strain_components" Vevtors="Spatial_displacement,Reaction_force" Scalars="Equivalent_plastic_strain,Stress_Mises,Stress_Max_Principal,Stress_Mid_Principal,Stress_Min_Principal,Stress_Pressure,Stress_Tresca,Stress_Third_Invariant,Plastic_strain_Max_Principal,Plastic_strain_Min_Principal">
<DataArray type="Float32" Name="Stress_Components" NumberOfComponents="9" format="ascii">
-4.43347025e+00 -9.95584764e-04 1.00289099e-03 -9.95584764e-04 5.67219210e+00 3.91225331e-04 1.00289099e-03 3.91225331e-04 -2.67902584e+01
-4.99687111e+00 4.63629097e-01 -9.87925101e-04 4.63629097e-01 4.89654994e+00 2.28754647e-01 -9.87925101e-04 2.28754647e-01 -2.83687391e+01
-3.39827645e+00 1.57466495e+00 -8.81263673e-01 1.57466495e+00 4.03319174e+00 -2.46973537e-01 -8.81263673e-01 -2.46973537e-01 -2.80501552e+01
-2.89107740e+00 5.88948518e-01 -4.61939275e-01 5.88948518e-01 4.76438224e+00 -6.29012357e-04 -4.61939275e-01 -6.29012357e-04 -2.68269224e+01
-3.86527860e+00 -4.12855297e-06 8.77748758e-01 -4.12855297e-06 5.29679132e+00 -5.14677629e-01 8.77748758e-01 -5.14677629e-01 -2.68639202e+01
-3.82335418e+00 9.39561275e-03 5.19256949e-01 9.39561275e-03 4.65141320e+00 -7.28269868e-01 5.19256949e-01 -7.28269868e-01 -2.77714553e+01
-2.98660734e+00 5.95400985e-01 2.67774794e-01 5.95400985e-01 4.27604613e+00 -1.02512753e+00 2.67774794e-01 -1.02512753e+00 -2.75068142e+01
-3.04345375e+00 1.17887259e-01 4.63873975e-01 1.17887259e-01 4.88037169e+00 -9.33014557e-01 4.63873975e-01 -9.33014557e-01 -2.67604833e+01
-6.92045832e+00 2.91582555e-01 -3.97623051e-03 2.91582555e-01 2.92841613e+00 1.38141543e-01 -3.97623051e-03 1.38141543e-01 -3.28131771e+01
-3.88817436e+00 2.01293010e+00 -1.52339306e+00 2.01293010e+00 3.23169088e+00 7.10737519e-02 -1.52339306e+00 7.10737519e-02 -2.93706470e+01
-3.68825126e+00 2.32530452e-01 1.17178050e+00 2.32530452e-01 3.53159910e+00 -8.65397412e-01 1.17178050e+00 -8.65397412e-01 -2.92404575e+01
-3.93035830e+00 8.94154564e-01 1.10051718e-01 8.94154564e-01 2.43545524e+00 -1.19786232e+00 1.10051718e-01 -1.19786232e+00 -3.08596385e+01
-8.24667168e+00 6.39005974e-02 -6.13291026e-03 6.39005974e-02 1.32685494e+00 5.97694397e-01 -6.13291026e-03 5.97694397e-01 -3.61455841e+01
-4.48201880e+00 1.08582325e+00 -2.07177487e+00 1.08582325e+00 2.25475623e+00 2.92629272e-01 -2.07177487e+00 2.92629272e-01 -3.13725715e+01
-4.06734937e+00 -3.02025899e-01 1.29209065e+00 -3.02025899e-01 1.73435456e+00 -3.50656878e-01 1.29209065e+00 -3.50656878e-01 -3.20919023e+01
-4.17400269e+00 -8.69617998e-02 6.80101998e-01 -8.69617998e-02 1.30781830e+00 -5.75388473e-01 6.80101998e-01 -5.75388473e-01 -3.23906438e+01
-6.64532137e+00 -8.90448660e-01 -7.43639306e-04 -8.90448660e-01 8.17460671e-01 6.33716077e-01 -7.43639306e-04 6.33716077e-01 -3.54541788e+01
-5.94525301e+00 -4.71653808e-01 -2.45832688e+00 -4.71653808e-01 3.36128056e-01 7.55025908e-01 -2.45832688e+00 7.55025908e-01 -3.52217422e+01
-3.81296751e+00 -9.53582034e-01 5.27766369e-01 -9.53582034e-01 4.05552685e-02 -2.68480547e-01 5.27766369e-01 -2.68480547e-01 -3.39746017e+01
-2.72117156e+00 -1.20843264e+00 5.59456199e-01 -1.20843264e+00 1.10496579e+00 -5.18385172e-02 5.59456199e-01 -5.18385172e-02 -3.10885577e+01
-5.29285330e+00 -1.58892322e+00 -1.47249302e-03 -1.58892322e+00 4.04560447e-01 1.48529269e-01 -1.47249302e-03 1.48529269e-01 -3.48091497e+01
-4.93597671e+00 -1.33078274e+00 -2.74691871e+00 -1.33078274e+00 -1.58857085e-01 9.40416068e-01 -2.74691871e+00 9.40416068e-01 -3.47191467e+01
-2.03967726e+00 -1.10238089e+00 1.02084485e+00 -1.10238089e+00 1.15834218e+00 -9.21432495e-01 1.02084485e+00 -9.21432495e-01 -3.07765675e+01
-2.32134026e+00 -1.98565364e+00 1.55571248e+00 -1.98565364e+00 9.11997259e-03 -2.11208507e-01 1.55571248e+00 -2.11208507e-01 -3.16708009e+01
-1.09025497e+01 -3.22160339e+00 -3.97666637e-03 -3.22160339e+00 -1.26713061e+00 -1.18203211e+00 -3.97666637e-03 -1.18203211e+00 -4.15695839e+01
-9.95607901e+00 -2.14936540e+00 -4.03650856e+00 -2.14936540e+00 -3.20447242e+00 2.03268600e+00 -4.03650856e+00 2.03268600e+00 -4.23030701e+01
-4.45077622e+00 -4.87035140e-01 2.30609402e-01 -4.87035140e-01 2.02000620e+00 -1.79258496e+00 2.30609402e-01 -1.79258496e+00 -3.21682835e+01
-5.34835282e+00 -1.91198012e+00 3.99499714e-01 -1.91198012e+00 -9.85629648e-01 -3.64201276e-01 3.99499714e-01 -3.64201276e-01 -3.55573573e+01
1.25181869e+00 1.93572307e+00 -6.88526958e-01 1.93572307e+00 2.26888421e+00 -7.06197813e-01 -6.88526958e-01 -7.06197813e-01 -2.56684408e+01
6.33182526e-01 7.39293993e-01 -5.11312440e-01 7.39293993e-01 1.83301467e+00 -1.83204142e-03 -5.11312440e-01 -1.83204142e-03 -2.71039772e+01
-4.39826299e-01 1.39899196e+00 1.44959030e+00 1.39899196e+00 2.62213716e+00 -9.14565414e-01 1.44959030e+00 -9.14565414e-01 -2.70240505e+01
9.42767635e-02 5.53186581e-01 1.12397185e+00 5.53186581e-01 3.64804110e+00 -9.67693999e-02 1.12397185e+00 -9.67693999e-02 -2.56281505e+01
2.65227687e+00 2.64446706e+00 -1.12605987e+00 2.64446706e+00 3.40739636e+00 -9.01826099e-01 -1.12605987e+00 -9.01826099e-01 -2.25695181e+01
4.30068251e-01 1.56500752e+00 1.87434293e+00 1.56500752e+00 3.02971306e+00 1.34748556e-01 1.87434293e+00 1.34748556e-01 -2.55231032e+01
5.71072495e+00 2.06765914e+00 -2.11834496e+00 2.06765914e+00 5.99743430e+00 -4.40091297e-01 -2.11834496e+00 -4.40091297e-01 -1.65490296e+01
1.22824492e+00 1.08349669e-02 3.65586344e+00 1.08349669e-02 3.29155878e+00 7.88639946e-01 3.65586344e+00 7.88639946e-01 -2.43630804e+01
6.35222900e+00 -7.24690467e-01 -3.59090644e+00 -7.24690467e-01 7.09341604e+00 1.07120095e+00 -3.59090644e+00 1.07120095e+00 -1.43332975e+01
-2.95722961e-01 -2.28149841e+00 4.28996042e+00 -2.28149841e+00 3.35122383e+00 1.63442818e+00 4.28996042e+00 1.63442818e+00 -2.51837115e+01
7.76898086e+00 -1.86924189e+00 -3.54808396e+00 -1.86924189e+00 6.40527534e+00 1.92492542e+00 -3.54808396e+00 1.92492542e+00 -1.16899092e+01
-5.52685330e-01 -2.91008015e+00 5.05211127e+00 -2.91008015e+00 1.26532849e+00 4.11207563e+00 5.05211127e+00 4.11207563e+00 -2.59996618e+01
6.52526748e+00 -2.50565839e+00 -4.05104899e+00 -2.50565839e+00 2.82455873e+00 4.90182829e+00 -4.05104899e+00 4.90182829e+00 -1.72907953e+01
-5.26469462e+00 -5.51022458e+00 5.57176542e+00 -5.51022458e+00 -4.21954966e+00 6.31893341e+00 5.57176542e+00 6.31893341e+00 -3.45277427e+01
5.52383196e+00 1.05688244e+00 -9.35691632e-02 1.05688244e+00 -5.29747814e-01 -1.09350245e+00 -9.35691632e-02 -1.09350245e+00 -2.36757975e+01
4.18553174e+00 5.85239708e-01 2.28859887e-01 5.85239708e-01 -1.69736612e+00 5.17469598e-03 2.28859887e-01 5.17469598e-03 -2.66523256e+01
3.59810387e+00 7.87575596e-01 2.34989570e+00 7.87575596e-01 1.69479877e-01 -8.10593907e-02 2.34989570e+00 -8.10593907e-02 -2.52797203e+01
3.99865133e+00 2.86090683e-01 2.07370085e+00 2.86090683e-01 8.41716290e-01 1.24848756e+00 2.07370085e+00 1.24848756e+00 -2.42722707e+01
7.43219936e+00 1.67516509e+00 -2.04993140e-01 1.67516509e+00 1.70142430e+00 -1.33945465e+00 -2.04993140e-01 -1.33945465e+00 -1.93959193e+01
7.00568594e+00 1.03104000e+00 3.48667375e+00 1.03104000e+00 3.35162115e+00 1.42257143e+00 3.48667375e+00 1.42257143e+00 -1.84110796e+01
1.22665436e+01 1.00437701e+00 -1.54560652e+00 1.00437701e+00 7.30264556e+00 -3.38245982e+00 -1.54560652e+00 -3.38245982e+00 -9.44259804e+00
1.07038734e+01 -2.55329696e+00 3.21032342e+00 -2.55329696e+00 5.55477103e+00 -4.82519289e-01 3.21032342e+00 -4.82519289e-01 -4.78688951e+00
1.52538856e+01 -6.53573791e+00 -5.46086629e+00 -6.53573791e+00 6.84353836e+00 -1.36311940e+00 -5.46086629e+00 -1.36311940e+00 5.96707014e+00
4.46200577e+00 -6.13338916e+00 4.68480078e+00 -6.13338916e+00 7.67868249e+00 2.61444467e+00 4.68480078e+00 2.61444467e+00 3.08753808e-01
1.31779610e+01 4.24671030e+00 -7.27466897e+00 4.24671030e+00 5.59094469e-01 -1.24215649e+00 -7.27466897e+00 -1.24215649e+00 4.64656798e+00
-3.47372770e-01 8.84822766e-01 6.38084412e+00 8.84822766e-01 5.65564911e+00 -2.19498582e+00 6.38084412e+00 -2.19498582e+00 -2.11997430e+00
8.16512632e+00 -6.82963431e+00 -5.23298837e-01 -6.82963431e+00 -9.53022933e+00 3.79770917e+00 -5.23298837e-01 3.79770917e+00 3.94316089e+00
-4.96300220e-01 -2.08595324e+00 4.33677053e+00 -2.08595324e+00 -8.32465303e+00 2.14667013e-02 4.33677053e+00 2.14667013e-02 -2.07661653e+00
6.16515458e+00 -2.76681434e-01 6.90857410e-01 -2.76681434e-01 -2.72393042e+00 -1.22367194e+00 6.90857410e-01 -1.22367194e+00 -2.47650604e+01
5.29871893e+00 -1.56436853e-01 4.85406071e-01 -1.56436853e-01 -3.38130903e+00 3.53966723e-03 4.85406071e-01 3.53966723e-03 -2.66135950e+01
5.70114142e+00 -7.34732155e-01 1.99551159e+00 -7.34732155e-01 -1.48016169e+00 4.55527535e-01 1.99551159e+00 4.55527535e-01 -2.42010005e+01
5.18781579e+00 -5.40860584e-02 1.27627853e+00 -5.40860584e-02 -2.04047164e+00 1.25202513e+00 1.27627853e+00 1.25202513e+00 -2.53274798e+01
7.63422322e+00 -4.05351698e-01 -5.81354067e-01 -4.05351698e-01 9.28900540e-02 -2.36944109e+00 -5.81354067e-01 -2.36944109e+00 -2.04585633e+01
7.30980030e+00 -1.83747650e+00 2.31515963e+00 -1.83747650e+00 3.64413142e-01 1.39916168e+00 2.31515963e+00 1.39916168e+00 -1.96864352e+01
9.14092982e+00 -2.51305027e+00 -1.70949733e+00 -2.51305027e+00 6.57978601e+00 -6.58716583e+00 -1.70949733e+00 -6.58716583e+00 -8.72335066e+00
1.05161862e+01 -8.27655375e-01 -1.54736435e+00 -8.27655375e-01 4.87468352e+00 2.14508704e+00 -1.54736435e+00 2.14508704e+00 -1.29996771e+01
7.61678700e+00 -6.82796597e-01 2.49140918e-01 -6.82796597e-01 3.72029404e+00 -1.41209010e+00 2.49140918e-01 -1.41209010e+00 5.49816187e+00
1.16959909e+01 2.81047833e+00 -9.31950847e-01 2.81047833e+00 5.16139253e+00 3.40068632e+00 -9.31950847e-01 3.40068632e+00 -4.11752284e-01
5.52695072e+00 1.11111617e+00 1.93018347e+00 1.11111617e+00 -1.20324302e+01 8.00441980e-01 1.93018347e+00 8.00441980e-01 3.40333238e+00
4.25420515e+00 -4.65757783e+00 2.17700410e+00 -4.65757783e+00 -2.18279243e-01 4.73713169e-01 2.17700410e+00 4.73713169e-01 1.94851812e+00
9.18072701e+00 -2.19743133e+00 4.17146325e-01 -2.19743133e+00 -1.53972273e+01 -4.50556710e-01 4.17146325e-01 -4.50556710e-01 5.64133203e+00
2.20941981e+00 -1.28410109e+00 -2.29968455e+00 -1.28410109e+00 5.75643341e+00 -7.06633290e-01 -2.29968455e+00 -7.06633290e-01 -2.04182533e+00
3.64676884e+00 -8.90778437e-01 4.47322510e-01 -8.90778437e-01 -1.78388301e+00 -1.19791815e+00 4.47322510e-01 -1.19791815e+00 -2.73806777e+01
3.63255215e+00 -7.72950441e-01 1.34543173e-01 -7.72950441e-01 -2.49051058e+00 8.78067501e-03 1.34543173e-01 8.78067501e-03 -2.81464558e+01
3.49292246e+00 -1.37174387e+00 3.13845884e-01 -1.37174387e+00 -1.18959145e+00 1.28421219e+00 3.13845884e-01 1.28421219e+00 -2.67363572e+01
3.31430167e+00 -6.18507087e-01 -4.52093013e-01 -6.18507087e-01 -1.90710212e+00 2.30261806e+00 -4.52093013e-01 2.30261806e+00 -2.75924397e+01
3.12792575e+00 -9.08841550e-01 5.19496374e-01 -9.08841550e-01 1.94420218e-02 -3.40310103e+00 5.19496374e-01 -3.40310103e+00 -2.51297359e+01
2.63957521e+00 -2.10864723e+00 7.04476625e-01 -2.10864723e+00 9.23545495e-01 2.65375490e+00 7.04476625e-01 2.65375490e+00 -2.53825228e+01
3.58935389e+00 -1.84857011e+00 -1.34984517e-01 -1.84857011e+00 4.59992606e+00 -4.45749980e+00 -1.34984517e-01 -4.45749980e+00 -1.65059485e+01
2.64318559e+00 -4.15811161e-01 -1.71696026e+00 -4.15811161e-01 2.22644821e+00 6.90518097e+00 -1.71696026e+00 6.90518097e+00 -2.07964916e+01
-2.62724793e+00 1.83765972e+00 4.10102867e-02 1.83765972e+00 2.03830296e+00 -1.89563993e+00 4.10102867e-02 -1.89563993e+00 1.49250146e+00
1.45569611e+00 1.65001458e+00 4.13891405e-01 1.65001458e+00 -5.42681277e-01 1.23784423e+00 4.13891405e-01 1.23784423e+00 -9.44066048e-03
-2.23801324e+00 1.56184688e+00 2.28594523e-01 1.56184688e+00 2.59093850e+00 6.28929287e-01 2.28594523e-01 6.28929287e-01 -1.22292340e-01
-1.44542247e-01 1.15406175e+00 -2.01558304e-01 1.15406175e+00 4.49660230e-01 2.93040723e-02 -2.01558304e-01 2.93040723e-02 -2.67586184e-01
1.31805399e+00 1.50564145e+00 -8.85729373e-01 1.50564145e+00 -5.76733863e+00 3.42447698e-01 -8.85729373e-01 3.42447698e-01 -4.69349295e-01
1.56089893e+00 6.08460029e-01 -7.84332256e-01 6.08460029e-01 -5.68205682e+00 -5.47887385e-03 -7.84332256e-01 -5.47887385e-03 5.97090075e-01
1.66355681e+00 -1.38659853e+00 -1.11446697e-02 -1.38659853e+00 -1.81843799e+00 -1.98784071e+00 -1.11446697e-02 -1.98784071e+00 -2.95168800e+01
2.86651611e+00 -9.92611408e-01 1.37608156e-01 -9.92611408e-01 -3.32092905e+00 1.35083050e-02 1.37608156e-01 1.35083050e-02 -2.99094620e+01
1.17676363e+00 -1.63324299e+00 4.66540456e-02 -1.63324299e+00 -1.64704898e+00 7.74121732e-02 4.66540456e-02 7.74121732e-02 -3.02628946e+01
2.22343689e+00 -1.47138429e+00 -2.01387465e+00 -1.47138429e+00 -1.77809870e+00 2.75752270e+00 -2.01387465e+00 2.75752270e+00 -2.87529049e+01
-2.08518064e+00 -2.74859557e+00 2.17991388e+00 -2.74859557e+00 7.34027147e-01 -3.86247063e+00 2.17991388e+00 -3.86247063e+00 -2.93475132e+01
-2.15306055e+00 -2.50033891e+00 2.92967302e+00 -2.50033891e+00 1.96759474e-01 2.00982339e+00 2.92967302e+00 2.00982339e+00 -3.11319385e+01
-7.64062786e+00 -2.47375178e+00 4.37371898e+00 -2.47375178e+00 7.53910661e+00 -3.15450954e+00 4.37371898e+00 -3.15450954e+00 -1.90521479e+01
-6.55064297e+00 -2.79185259e+00 2.53104057e+00 -2.79185259e+00 3.25485897e+00 9.60710478e+00 2.53104057e+00 9.60710478e+00 -2.49888986e+01
-1.48336620e+01 3.90487790e-01 -2.95975670e-01 3.90487790e-01 2.92938793e+00 -1.98496234e+00 -2.95975670e-01 -1.98496234e+00 1.86655343e+00
-1.23992696e+01 -1.90566182e+00 2.06116170e-01 -1.90566182e+00 1.37294722e+00 3.24358809e+00 2.06116170e-01 3.24358809e+00 9.88624364e-01
-7.08009660e+00 1.88517308e+00 1.30101107e-01 1.88517308e+00 1.06186307e+00 -3.21278468e-01 1.30101107e-01 -3.21278468e-01 1.33394121e+00
-4.33654316e+00 9.92160082e-01 4.68122318e-01 9.92160082e-01 3.41097593e-01 -7.23566413e-01 4.68122318e-01 -7.23566413e-01 6.27592823e-01
-2.55176497e+00 9.72552180e-01 -4.83117759e-01 9.72552180e-01 -2.72748637e+00 2.50085056e-01 -4.83117759e-01 2.50085056e-01 1.62080359e+00
-1.43328592e+00 2.67175972e-01 4.58579868e-01 2.67175972e-01 -1.94793564e+00 3.69784832e-01 4.58579868e-01 3.69784832e-01 1.18451619e+00
-1.95159841e+00 6.20468752e-04 1.05257952e+00 6.20468752e-04 3.83885479e+00 -1.16890723e+00 1.05257952e+00 -1.16890723e+00 -2.72840366e+01
-1.27446988e+00 -3.61366577e-01 1.59919968e+00 -3.61366577e-01 2.83277944e+00 -2.78907374e-01 1.59919968e+00 -2.78907374e-01 -2.79547749e+01
-1.89331988e+00 -1.60054835e+00 1.14071403e+00 -1.60054835e+00 3.58111385e+00 -1.00419343e+00 1.14071403e+00 -1.00419343e+00 -2.72138088e+01
-2.33998811e+00 -3.31191733e-01 1.42566998e+00 -3.31191733e-01 4.09792274e+00 -6.55950844e-01 1.42566998e+00 -6.55950844e-01 -2.71065292e+01
1.05309110e+00 -1.23482686e+00 -2.04808787e-01 -1.23482686e+00 1.43828693e+00 -1.31824970e-01 -2.04808787e-01 -1.31824970e-01 -2.74872217e+01
-1.22788274e+00 -1.96946281e+00 6.22322246e-01 -1.96946281e+00 7.67063469e-01 -1.69872078e+00 6.22322246e-01 -1.69872078e+00 -2.93358209e+01
2.22468214e+00 1.10961264e-01 1.97386220e-01 1.10961264e-01 -4.80824180e-01 -1.45723635e+00 1.97386220e-01 -1.45723635e+00 -2.81553035e+01
-1.39071928e+00 -6.14551824e-01 6.28354251e-01 -6.14551824e-01 -1.07500636e+00 7.07569808e-01 6.28354251e-01 7.07569808e-01 -3.19098170e+01
1.26983854e+00 -6.22225963e-01 3.74017072e+00 -6.22225963e-01 -2.13475353e+00 -1.39088254e+00 3.74017072e+00 -1.39088254e+00 -3.01627569e+01
-1.22961068e+00 -4.79503274e-01 7.67721856e-01 -4.79503274e-01 -5.20208202e-01 1.02818736e+00 7.67721856e-01 1.02818736e+00 -3.18168073e+01
1.41620080e+00 -3.06509759e-01 3.81787217e+00 -3.06509759e-01 1.02310122e-01 -1.17237882e+00 3.81787217e+00 -1.17237882e+00 -2.73859477e+01
2.96159089e-03 -2.25045356e-01 2.02260425e+00 -2.25045356e-01 2.63388626e-01 -2.03891253e-01 2.02260425e+00 -2.03891253e-01 -2.94704247e+01
2.35661715e+00 1.57509673e+00 3.51493788e+00 1.57509673e+00 1.82707155e+00 -1.81399941e+00 3.51493788e+00 -1.81399941e+00 -2.46012163e+01
2.27539534e+00 1.11464393e+00 2.19442934e-01 1.11464393e+00 1.89535058e+00 -1.41729864e+00 2.19442934e-01 -1.41729864e+00 -2.52788363e+01
-2.29826796e+00 -1.27165969e+00 1.78170505e+00 -1.27165969e+00 3.76599979e+00 -1.59932726e+00 1.78170505e+00 -1.59932726e+00 -2.74233623e+01
-2.40389438e+00 -5.31530388e-01 3.55556279e+00 -5.31530388e-01 5.20226127e+00 -1.94284061e+00 3.55556279e+00 -1.94284061e+00 -2.47535281e+01
-6.10067356e+00 -8.99958442e-01 4.13796653e+00 -8.99958442e-01 -2.65445295e+00 -1.22978142e-01 4.13796653e+00 -1.22978142e-01 -3.88686984e+01
-1.02405034e+01 -1.56010031e+00 6.30837541e+00 -1.56010031e+00 -7.54237936e+00 1.17116356e-01 6.30837541e+00 1.17116356e-01 -4.71601433e+01
-7.22311831e+00 -1.78320289e-01 1.29692572e+00 -1.78320289e-01 -4.24955952e+00 2.01588523e+00 1.29692572e+00 2.01588523e+00 -4.20874023e+01
-8.44076169e+00 -4.97369468e-02 2.16289413e+00 -4.97369468e-02 -6.76788580e+00 3.88175356e+00 2.16289413e+00 3.88175356e+00 -4.56143436e+01
-7.48472655e+00 8.68284702e-01 -1.07619672e+00 8.68284702e-01 -6.77081132e+00 2.60629821e+00 -1.07619672e+00 2.60629821e+00 -4.46648865e+01
1.01428196e-01 4.49986251e-01 5.14449292e+00 4.49986251e-01 4.23333397e+00 1.41809136e-01 5.14449292e+00 1.41809136e-01 -2.26943970e+01
-4.15505603e-01 4.05084468e-01 3.13103038e+00 4.05084468e-01 4.73911372e+00 -2.05576721e+00 3.13103038e+00 -2.05576721e+00 -2.40172496e+01
-5.11265465e+00 -9.57782204e-01 6.30626404e+00 -9.57782204e-01 1.76910803e-01 6.68698176e+00 6.30626404e+00 6.68698176e+00 -2.99352522e+01
-1.47018838e+01 -1.27864170e+00 2.71491623e+00 -1.27864170e+00 -3.40751871e+00 1.04281261e+01 2.71491623e+00 1.04281261e+01 -6.62217140e-01
3.21721363e+00 -6.33477431e-01 4.22614790e+00 -6.33477431e-01 1.48803984e+00 1.86462907e+00 4.22614790e+00 1.86462907e+00 -2.16749113e+01
2.90877241e+00 2.64999095e-01 3.03646722e+00 2.64999095e-01 2.29470137e+00 1.92705056e+00 3.03646722e+00 1.92705056e+00 -2.36590195e+01
5.02755070e+00 -4.37312078e+00 4.64220369e+00 -4.37312078e+00 4.48437511e+00 4.45976802e+00 4.64220369e+00 4.45976802e+00 -1.70614834e+01
3.85133870e+00 1.56554021e+00 -1.11985220e+01 1.56554021e+00 5.33370709e+00 6.08817140e+00 -1.11985220e+01 6.08817140e+00 -9.45524140e+00
1.39418654e+00 -2.89627272e+00 8.25601947e-01 -2.89627272e+00 5.23630425e-01 2.71625753e+00 8.25601947e-01 2.71625753e+00 -2.61725106e+01
4.11546785e+00 -1.11733277e+00 1.28313735e+00 -1.11733277e+00 1.04916234e+00 3.14403218e+00 1.28313735e+00 3.14403218e+00 -2.43864045e+01
6.13930896e-01 -2.62285015e+00 3.23909625e-01 -2.62285015e+00 2.95046099e-01 2.58486500e+00 3.23909625e-01 2.58486500e+00 -2.67991016e+01
2.07842720e+00 -1.86275691e-03 -3.70020003e+00 -1.86275691e-03 1.19112650e+00 3.52550954e+00 -3.70020003e+00 3.52550954e+00 -2.65645623e+01
-1.53157696e+00 -2.14238800e-02 -1.91754898e+00 -2.14238800e-02 2.20804771e+00 -8.45157467e-01 -1.91754898e+00 -8.45157467e-01 -2.92017207e+01
8.49321902e-01 2.52250254e+00 1.51433492e+00 2.52250254e+00 1.05046269e+00 -1.72483939e+00 1.51433492e+00 -1.72483939e+00 -2.80681581e+01
-1.66024727e+00 -6.27966024e-01 1.38570768e+00 -6.27966024e-01 1.08413219e+00 -6.06187433e-02 1.38570768e+00 -6.06187433e-02 -3.15401971e+01
-8.58378673e+00 -1.97069794e-02 2.45800260e+00 -1.97069794e-02 -8.06209779e+00 6.05867386e+00 2.45800260e+00 6.05867386e+00 -4.77858257e+01
6.42846376e-02 -5.96998096e-01 5.89956343e-02 -5.96998096e-01 7.46175051e-02 -7.97892436e-02 5.89956343e-02 -7.97892436e-02 -4.10814568e-01
-2.18730807e-01 -3.23566645e-01 -2.30529964e-01 -3.23566645e-01 3.07709679e-01 -1.69567302e-01 -2.30529964e-01 -1.69567302e-01 -3.60898021e-01
1.50738094e-01 -6.55248649e-02 2.96417259e-01 -6.55248649e-02 1.30205732e-01 2.21985012e-01 2.96417259e-01 2.21985012e-01 -5.52857459e-01
1.23601167e-01 -3.38978142e-01 -1.61848143e-01 -3.38978142e-01 -4.12950873e-01 -1.82572544e-01 -1.61848143e-01 -1.82572544e-01 1.74276866e-02
6.28499418e-01 2.42748676e-04 2.01224864e+00 2.42748676e-04 8.68644923e-01 -8.03665906e-01 2.01224864e+00 -8.03665906e-01 -2.82044716e+01
8.29662722e-01 -7.44392816e-02 1.97621152e+00 -7.44392816e-02 7.59040713e-02 3.89303267e-03 1.97621152e+00 3.89303267e-03 -2.88042498e+01
3.24689822e-01 -1.75474960e+00 2.47234920e+00 -1.75474960e+00 2.24877945e-01 7.43638664e-01 2.47234920e+00 7.43638664e-01 -2.88018897e+01
-4.97629412e-01 4.14658552e-02 2.22558430e+00 4.14658552e-02 1.05111539e+00 -9.10897732e-01 2.22558430e+00 -9.10897732e-01 -2.90731778e+01
2.37512538e+00 -1.59078544e+00 3.25592315e+00 -1.59078544e+00 -1.84661648e+00 2.48806583e-01 3.25592315e+00 2.48806583e-01 -2.85688171e+01
1.00733135e+00 -2.69672486e+00 1.52416342e+00 -2.69672486e+00 -1.89029236e+00 5.64567048e-01 1.52416342e+00 5.64567048e-01 -3.01130919e+01
4.09149820e+00 9.53435134e-02 1.20151716e+00 9.53435134e-02 -3.55000085e+00 1.30176769e+00 1.20151716e+00 1.30176769e+00 -2.83828444e+01
7.39982262e-01 -1.29310939e+00 -8.33038144e-01 -1.29310939e+00 -2.87651750e+00 -1.11049725e+00 -8.33038144e-01 -1.11049725e+00 -3.14975734e+01
4.74793988e+00 2.05271528e-03 -1.33190355e+00 2.05271528e-03 -2.82378288e+00 -4.12305467e-01 -1.33190355e+00 -4.12305467e-01 -2.70782971e+01
-1.07065096e+00 6.46213550e-01 -6.86614875e-01 6.46213550e-01 -2.62984005e+00 -2.26741821e-01 -6.86614875e-01 -2.26741821e-01 -3.34515727e+01
4.13986510e+00 7.77877882e-01 8.75657037e-01 7.77877882e-01 -1.22495562e-01 -1.27184712e+00 8.75657037e-01 -1.27184712e+00 -2.53526044e+01
6.98350981e-01 8.49520687e-01 -3.32816490e-02 8.49520687e-01 -1.07296368e+00 1.87876247e-01 -3.32816490e-02 1.87876247e-01 -3.02780099e+01
5.41298103e+00 1.65927953e+00 1.37429047e+00 1.65927953e+00 -3.42454016e-01 -1.65440938e+00 1.37429047e+00 -1.65440938e+00 -2.36998606e+01
3.32977322e+00 8.61044519e-01 1.69838129e-01 8.61044519e-01 3.00669849e-01 -1.11406606e+00 1.69838129e-01 -1.11406606e+00 -2.58093672e+01
-2.19315638e+00 -3.14621790e+00 5.27298534e+00 -3.14621790e+00 7.31195834e-01 -1.01478179e+00 5.27298534e+00 -1.01478179e+00 -2.78575940e+01
-1.50359000e+00 -2.05048805e+00 3.59300059e+00 -2.05048805e+00 4.04798490e+00 -7.45096266e-01 3.59300059e+00 -7.45096266e-01 -2.59397044e+01
-1.38444647e+00 -6.68017081e-01 2.40323610e+00 -6.68017081e-01 -1.91773158e+00 -1.73586005e+00 2.40323610e+00 -1.73586005e+00 -3.42300336e+01
-1.09354242e+01 -1.28049467e+00 -7.79047689e+00 -1.28049467e+00 -1.22964664e+01 4.47491014e-01 -7.79047689e+00 4.47491014e-01 -5.12982841e+01
-8.73156977e+00 2.63115197e-01 -1.75186259e+00 2.63115197e-01 -7.27371466e+00 1.71146265e+00 -1.75186259e+00 1.71146265e+00 -4.72636061e+01
-3.75379395e+00 -4.82971065e-01 -8.92865852e-01 -4.82971065e-01 -3.70176423e+00 6.95106864e-01 -8.92865852e-01 6.95106864e-01 -3.79237909e+01
-3.54178548e-02 9.40176621e-02 -6.82374775e-01 9.40176621e-02 -1.03243494e+00 1.38561130e-02 -6.82374775e-01 1.38561130e-02 -3.09720602e+01
-5.34228827e+00 -1.65466035e+00 6.44605742e+00 -1.65466035e+00 -1.01080779e+00 -2.39834241e-01 6.44605742e+00 -2.39834241e-01 -3.13137757e+01
-8.46563622e-01 1.67883899e-01 5.14776427e+00 1.67883899e-01 7.57399827e+00 3.38512850e+00 5.14776427e+00 3.38512850e+00 -1.97381281e+01
-1.75516539e+01 -3.39716682e+00 9.04315603e+00 -3.39716682e+00 -1.53992555e+01 -8.02782673e+00 9.04315603e+00 -8.02782673e+00 -5.89564934e+01
-1.48027089e+00 -1.00730560e+00 3.55419440e+00 -1.00730560e+00 4.19275754e+00 4.61744238e+00 3.55419440e+00 4.61744238e+00 -2.39593885e+01
-7.17005730e-02 -1.77049884e+00 6.92486316e+00 -1.77049884e+00 4.65320849e+00 2.13768169e+00 6.92486316e+00 2.13768169e+00 -1.93640494e+01
-1.17257111e+01 -2.72861257e-01 -1.75551057e-01 -2.72861257e-01 -3.52766526e+00 1.00932465e+01 -1.75551057e-01 1.00932465e+01 -3.01652815e+01
5.05671845e+00 1.51726555e+00 3.73490480e+00 1.51726555e+00 6.53127358e+00 5.37407313e-01 3.73490480e+00 5.37407313e-01 -1.79239286e+01
2.58202261e+00 2.53344825e+00 4.09482658e-01 2.53344825e+00 4.35907835e+00 -1.62330458e+00 4.09482658e-01 -1.62330458e+00 -2.04205637e+01
3.34676540e+00 -1.45763234e+00 -1.88836767e+00 -1.45763234e+00 5.87532358e+00 3.00284245e+00 -1.88836767e+00 3.00284245e+00 -2.10349936e+01
-1.56307163e+01 1.20896082e+01 -1.67821407e+01 1.20896082e+01 -1.58229074e+01 7.26320410e+00 -1.67821407e+01 7.26320410e+00 4.36795473e-01
-1.51387515e+01 3.50188700e+00 -1.36576662e+01 3.50188700e+00 -1.30416628e+01 4.85081553e+00 -1.36576662e+01 4.85081553e+00 -5.31415037e+01
-2.33592875e+00 2.63192664e+00 4.71892270e+00 2.63192664e+00 -3.40025067e-01 1.86930847e+00 4.71892270e+00 1.86930847e+00 -2.84082384e+01
-3.97789603e+00 -4.59454343e-01 2.68369210e+00 -4.59454343e-01 2.54905427e+00 3.92684722e+00 2.68369210e+00 3.92684722e+00 -2.91118946e+01
</DataArray>
<DataArray type="Float32" Name="Logarithmic_strain_components" NumberOfComponents="9" format="ascii">
1.44052727e-03 -2.36004325e-07 3.09654752e-07 -2.36004325e-07 4.57457919e-03 -3.47554305e-08 3.09654752e-07 -3.47554305e-08 -5.36715053e-03
1.64829835e-03 2.85202914e-04 -2.06026016e-07 2.85202914e-04 4.86035505e-03 1.23364116e-04 -2.06026016e-07 1.23364116e-04 -5.81979891e-03
1.83193004e-03 9.14964796e-04 -5.58939792e-04 9.14964796e-04 4.07216430e-03 -1.55161870e-04 -5.58939792e-04 -1.55161870e-04 -5.31152391e-03
1.66526390e-03 3.33991789e-04 -2.87209405e-04 3.33991789e-04 3.82816431e-03 4.11507699e-08 -2.87209405e-04 4.11507699e-08 -4.94093914e-03
1.54848123e-03 3.10897804e-07 4.87684229e-04 3.10897804e-07 4.27093077e-03 -4.04576596e-04 4.87684229e-04 -4.04576596e-04 -5.21054608e-03
1.76022603e-03 6.40348253e-06 4.35336064e-04 6.40348253e-06 4.35087725e-03 -5.57882235e-04 4.35336064e-04 -5.57882235e-04 -5.47749689e-03
1.78277180e-03 3.08508116e-04 2.11054197e-04 3.08508116e-04 3.85675716e-03 -5.57485695e-04 2.11054197e-04 -5.57485695e-04 -5.08026243e-03
1.56696152e-03 6.19947587e-05 2.40863261e-04 6.19947587e-05 3.78391944e-03 -4.56435715e-04 2.40863261e-04 -4.56435715e-04 -4.81910037e-03
2.16313172e-03 2.22649374e-04 6.22899279e-08 2.22649374e-04 5.71391615e-03 1.26255378e-04 6.22899279e-08 1.26255378e-04 -7.07319053e-03
2.11051843e-03 1.22739660e-03 -1.05555035e-03 1.22739660e-03 4.51911130e-03 1.46107775e-05 -1.05555035e-03 1.46107775e-05 -5.94815612e-03
2.23824114e-03 1.10623791e-04 1.01443130e-03 1.10623791e-04 4.57517942e-03 -6.48376990e-04 1.01443130e-03 -6.48376990e-04 -6.10480970e-03
2.32711181e-03 4.90864186e-04 2.28260014e-04 4.90864186e-04 4.30371027e-03 -7.19510721e-04 2.28260014e-04 -7.19510721e-04 -5.99330629e-03
2.74339085e-03 -4.07742027e-05 2.56231715e-07 -4.07742027e-05 6.56806584e-03 4.42966542e-04 2.56231715e-07 4.42966542e-04 -8.35822569e-03
2.57036631e-03 7.23703110e-04 -1.53515374e-03 7.23703110e-04 5.11199608e-03 2.87828276e-04 -1.53515374e-03 2.87828276e-04 -6.88103656e-03
2.98246543e-03 -1.94112024e-04 1.18224073e-03 -1.94112024e-04 5.02307760e-03 -2.09347621e-04 1.18224073e-03 -2.09347621e-04 -7.17937842e-03
2.86011331e-03 -9.99695781e-05 5.90648371e-04 -9.99695781e-05 4.68432688e-03 -4.68389602e-04 5.90648371e-04 -4.68389602e-04 -6.79407996e-03
3.61615268e-03 -7.07823114e-04 -2.84726411e-08 -7.07823114e-04 6.94785011e-03 6.25726563e-04 -2.84726411e-08 6.25726563e-04 -9.40353982e-03
3.40268260e-03 -2.13237637e-04 -1.99278566e-03 -2.13237637e-04 5.89562906e-03 6.43861204e-04 -1.99278566e-03 6.43861204e-04 -8.33614252e-03
3.96737922e-03 -6.90286382e-04 4.35422517e-04 -6.90286382e-04 5.44058951e-03 -2.55147326e-04 4.35422517e-04 -2.55147326e-04 -8.41216347e-03
3.43146102e-03 -8.08266446e-04 4.55692629e-04 -8.08266446e-04 4.75447087e-03 -2.30085439e-04 4.55692629e-04 -2.30085439e-04 -7.29994749e-03
4.93779057e-03 -1.71668781e-03 5.61519300e-07 -1.71668781e-03 7.83907948e-03 1.68368191e-04 5.61519300e-07 1.68368191e-04 -1.12663223e-02
4.25879192e-03 -6.46508634e-04 -2.56329123e-03 -6.46508634e-04 6.56473625e-03 8.67289767e-04 -2.56329123e-03 8.67289767e-04 -9.60999215e-03
4.57134226e-03 -1.01792690e-03 8.62965549e-04 -1.01792690e-03 5.98329515e-03 -1.00027390e-03 8.62965549e-04 -1.00027390e-03 -9.30509553e-03
4.29522901e-03 -1.31823045e-03 1.14603832e-03 -1.31823045e-03 5.20384870e-03 -3.24629212e-04 1.14603832e-03 -3.24629212e-04 -8.41404899e-03
4.77093970e-03 -3.63602769e-03 -2.38460734e-06 -3.63602769e-03 1.01588313e-02 -1.52217958e-03 -2.38460734e-06 -1.52217958e-03 -1.32205235e-02
4.53625771e-03 -1.77778088e-03 -4.01601475e-03 -1.77778088e-03 8.11844599e-03 1.64795038e-03 -4.01601475e-03 1.64795038e-03 -1.13008022e-02
4.27877484e-03 -4.63044576e-04 2.19811736e-04 -4.63044576e-04 7.34586408e-03 -2.21417582e-03 2.19811736e-04 -2.21417582e-03 -1.02370018e-02
4.41703270e-03 -1.39619393e-03 -2.35360349e-05 -1.39619393e-03 6.35051867e-03 -6.03043729e-04 -2.35360349e-05 -6.03043729e-04 -9.56080772e-03
1.96511572e-03 7.92787345e-04 -3.19566461e-04 7.92787345e-04 2.27622932e-03 -3.20606501e-04 -3.19566461e-04 -3.20606501e-04 -3.87136702e-03
2.00732774e-03 3.16388439e-04 -2.04194293e-04 3.16388439e-04 2.33428954e-03 9.13195208e-08 -2.04194293e-04 9.13195208e-08 -3.98963573e-03
1.84993586e-03 5.93362965e-04 7.51493997e-04 5.93362965e-04 2.62600568e-03 -3.09601080e-04 7.51493997e-04 -3.09601080e-04 -4.09723801e-03
1.64713268e-03 2.01289866e-04 5.37171778e-04 2.01289866e-04 2.48044272e-03 8.71867578e-05 5.37171778e-04 8.71867578e-05 -3.77340039e-03
1.79337221e-03 1.08511245e-03 -4.23549231e-04 1.08511245e-03 2.09701242e-03 -3.69594469e-04 -4.23549231e-04 -3.69594469e-04 -3.50547023e-03
1.89583057e-03 6.61809863e-04 9.75606992e-04 6.61809863e-04 2.67689810e-03 1.42650064e-04 9.75606992e-04 1.42650064e-04 -4.14261399e-03
1.48197764e-03 8.80155705e-04 -8.08795201e-04 8.80155705e-04 1.82017234e-03 -2.65298564e-04 -8.08795201e-04 -2.65298564e-04 -2.87924049e-03
1.96379251e-03 -1.49393385e-04 2.11442731e-03 -1.49393385e-04 2.77799378e-03 4.52942568e-04 2.11442731e-03 4.52942568e-04 -4.24381389e-03
1.67292121e-03 -3.24181754e-04 -1.76512898e-03 -3.24181754e-04 2.17922880e-03 4.71673993e-04 -1.76512898e-03 4.71673993e-04 -3.27979558e-03
2.24668249e-03 -1.07031396e-03 2.86810574e-03 -1.07031396e-03 3.37841661e-03 1.05636286e-03 2.86810574e-03 1.05636286e-03 -4.99321101e-03
1.59348077e-03 -8.59036722e-04 -1.78978918e-03 -8.59036722e-04 2.03852706e-03 8.60758955e-04 -1.78978918e-03 8.60758955e-04 -3.03904689e-03
2.33989309e-03 -1.47496957e-03 3.70732559e-03 -1.47496957e-03 3.57985533e-03 2.35957026e-03 3.70732559e-03 2.35957026e-03 -5.22511243e-03
1.73618871e-03 -1.97096574e-03 -1.75369234e-03 -1.97096574e-03 1.91504053e-03 2.16119073e-03 -1.75369234e-03 2.16119073e-03 -3.14126897e-03
2.64504358e-03 -2.71289524e-03 3.73516348e-03 -2.71289524e-03 4.25635100e-03 3.70982608e-03 3.73516348e-03 3.70982608e-03 -6.21961996e-03
1.85033205e-03 2.50039394e-04 8.86666385e-09 2.50039394e-04 9.39411053e-04 -3.35504948e-04 8.86666385e-09 -3.35504948e-04 -2.60872795e-03
2.10187107e-03 1.56054593e-04 8.48275231e-05 1.56054593e-04 1.14913733e-03 1.75380819e-07 8.48275231e-05 1.75380819e-07 -3.06189782e-03
1.77748944e-03 1.96044199e-04 8.67886458e-04 1.96044199e-04 1.29038064e-03 2.96138296e-05 8.67886458e-04 2.96138296e-05 -2.87671271e-03
1.67180641e-03 7.10306995e-05 7.12797817e-04 7.10306995e-05 1.23062469e-03 4.80121889e-04 7.12797817e-04 4.80121889e-04 -2.71430425e-03
1.32056008e-03 2.67963076e-04 -4.86404560e-05 2.67963076e-04 6.11948504e-04 -3.43754713e-04 -4.86404560e-05 -3.43754713e-04 -1.79350268e-03
1.26074667e-03 1.43174554e-04 9.63242061e-04 1.43174554e-04 7.89980666e-04 2.25185311e-04 9.63242061e-04 2.25185311e-04 -1.86258614e-03
5.57342071e-04 4.12006541e-05 -2.14705498e-04 4.12006541e-05 2.21468228e-04 -4.61052194e-04 -2.14705498e-04 -4.61052194e-04 -5.97883205e-04
3.67239769e-04 -3.40562915e-04 9.45052545e-04 -3.40562915e-04 2.54439209e-04 -4.07149540e-05 9.45052545e-04 -4.07149540e-05 -4.15109889e-04
4.49533468e-04 -7.59006434e-04 -6.67677727e-04 -7.59006434e-04 -2.09876615e-04 -2.34646131e-04 -6.67677727e-04 -2.34646131e-04 1.00507777e-04
2.38241177e-04 -1.45520188e-03 1.73332948e-03 -1.45520188e-03 3.78468413e-04 3.28226100e-04 1.73332948e-03 3.28226100e-04 -2.73860792e-04
2.67353413e-04 -1.06707371e-04 -6.10841807e-04 -1.06707371e-04 -3.25635599e-04 -1.89011087e-04 -6.10841807e-04 -1.89011087e-04 2.42904255e-04
9.11310635e-05 -5.10641315e-04 1.63958660e-03 -5.10641315e-04 2.75438748e-04 -2.70681456e-04 1.63958660e-03 -2.70681456e-04 -1.77313443e-04
1.84704022e-04 -2.54927611e-04 -2.96809783e-04 -2.54927611e-04 -5.90006603e-04 1.57331982e-04 -2.96809783e-04 1.57331982e-04 4.31260152e-04
1.05057276e-04 -1.00186424e-03 1.38125519e-03 -1.00186424e-03 -7.92067440e-05 -3.54407484e-05 1.38125519e-03 -3.54407484e-05 3.46658635e-06
1.69003601e-03 -1.19423434e-04 1.85265464e-04 -1.19423434e-04 5.91991789e-04 -2.94869278e-04 1.85265464e-04 -2.94869278e-04 -2.20681378e-03
1.94400368e-03 -4.93215521e-05 1.47396677e-04 -4.93215521e-05 7.39507086e-04 -7.20026492e-08 1.47396677e-04 -7.20026492e-08 -2.58432177e-03
1.49466122e-03 -1.98235352e-04 4.62564132e-04 -1.98235352e-04 6.52330440e-04 1.38422723e-04 4.62564132e-04 1.38422723e-04 -2.08059771e-03
1.66703382e-03 -1.17309501e-05 3.83175677e-04 -1.17309501e-05 7.44349571e-04 3.47954934e-04 3.83175677e-04 3.47954934e-04 -2.32637901e-03
1.02020644e-03 -1.62403604e-04 -7.23103913e-05 -1.62403604e-04 3.40394814e-04 -4.05534818e-04 -7.23103913e-05 -4.05534818e-04 -1.33662540e-03
9.21348212e-04 -3.62602255e-04 3.42758767e-04 -3.62602255e-04 3.57433899e-04 2.43803826e-04 3.42758767e-04 2.43803826e-04 -1.25502626e-03
2.57758026e-04 -2.26741422e-04 -1.02532436e-04 -2.26741422e-04 1.24479098e-04 -4.09334862e-04 -1.02532436e-04 -4.09334862e-04 -2.84951544e-04
4.02869501e-04 -1.57749722e-04 -1.65274528e-04 -1.57749722e-04 1.55799912e-04 1.54019090e-04 -1.65274528e-04 1.54019090e-04 -4.93444944e-04
1.09031000e-04 -1.67967883e-05 3.73717085e-05 -1.67967883e-05 1.92989173e-05 -5.82234558e-05 3.73717085e-05 -5.82234558e-05 6.91611094e-05
2.12216633e-04 1.34418561e-04 -3.73576756e-05 1.34418561e-04 7.35198216e-05 1.65507807e-04 -3.73576756e-05 1.65507807e-04 -8.75257222e-05
2.55692496e-04 -1.67823979e-04 1.23965212e-04 -1.67823979e-04 -4.49907180e-04 4.94801297e-05 1.23965212e-04 4.94801297e-05 1.91409188e-04
5.87637533e-05 -1.83176429e-04 1.01286069e-04 -1.83176429e-04 7.13338098e-06 2.04709468e-05 1.01286069e-04 2.04709468e-05 -4.77933099e-07
2.33823324e-04 -2.15599706e-04 -5.46358933e-06 -2.15599706e-04 -3.74787647e-04 -3.33855915e-05 -5.46358933e-06 -3.33855915e-05 1.39598258e-04
2.97561206e-05 -7.04513416e-05 -6.51366602e-05 -7.04513416e-05 1.09635177e-04 -1.78070525e-05 -6.51366602e-05 -1.78070525e-05 -7.55825358e-05
1.49007485e-03 -1.95565458e-04 1.06311956e-04 -1.95565458e-04 8.22933522e-04 -2.73446007e-04 1.06311956e-04 -2.73446007e-04 -2.28853995e-03
1.86314451e-03 -1.98007838e-04 5.91274456e-05 -1.98007838e-04 1.01402414e-03 -1.78458777e-08 5.91274456e-05 -1.78458777e-08 -2.78091570e-03
1.31551852e-03 -2.80120091e-04 7.23927587e-05 -2.80120091e-04 7.88464647e-04 2.55976573e-04 7.23927587e-05 2.55976573e-04 -2.10034481e-03
1.54330762e-03 -1.51212862e-04 -9.77416921e-05 -1.51212862e-04 9.11300143e-04 5.47040414e-04 -9.77416921e-05 5.47040414e-04 -2.41420820e-03
7.56900219e-04 -2.13538642e-04 7.00856126e-05 -2.13538642e-04 4.41971286e-04 -4.56083581e-04 7.00856126e-05 -4.56083581e-04 -1.30814125e-03
7.27945317e-04 -3.16913101e-04 9.62230761e-05 -3.16913101e-04 5.67715077e-04 3.92587517e-04 9.62230761e-05 3.92587517e-04 -1.39033864e-03
1.05905298e-04 -1.26086106e-04 -7.79703464e-06 -1.26086106e-04 1.16005351e-04 -2.37977631e-04 -7.79703464e-06 -2.37977631e-04 -3.28397575e-04
3.66951753e-04 -1.18543529e-04 -1.60235023e-04 -1.18543529e-04 2.99633650e-04 6.29067519e-04 -1.60235023e-04 6.29067519e-04 -7.86269380e-04
-6.67822169e-05 8.82008026e-05 1.77456940e-06 8.82008026e-05 4.50568164e-05 -9.09762803e-05 1.77456940e-06 -9.09762803e-05 3.21745031e-05
3.14839065e-05 7.92290157e-05 2.00743461e-05 7.92290157e-05 -1.64637979e-05 5.92312390e-05 2.00743461e-05 5.92312390e-05 -4.08540268e-06
-5.43310516e-05 7.51157713e-05 1.07702342e-05 7.51157713e-05 6.14939725e-05 3.02743297e-05 1.07702342e-05 3.02743297e-05 -3.94877043e-06
-3.51682784e-06 5.52367785e-05 -9.66542848e-06 5.52367785e-05 1.07246432e-05 1.38706437e-06 -9.66542848e-06 1.38706437e-06 -6.66098531e-06
5.13491923e-05 7.21712872e-05 -4.27243122e-05 7.21712872e-05 -1.18611122e-04 1.64661669e-05 -4.27243122e-05 1.64661669e-05 7.44274439e-06
5.16260946e-05 2.95715581e-05 -3.78217795e-05 2.95715581e-05 -1.22339249e-04 -3.72905409e-07 -3.78217795e-05 -3.72905409e-07 2.82914176e-05
1.53249392e-03 -3.06136735e-04 9.31508066e-06 -3.06136735e-04 1.03081000e-03 -4.74164233e-04 9.31508066e-06 -4.74164233e-04 -2.54812324e-03
2.10988149e-03 -3.21483036e-04 3.51072958e-05 -3.21483036e-04 1.18925492e-03 -1.66473910e-07 3.51072958e-05 -1.66473910e-07 -3.17670777e-03
1.40948672e-03 -3.88432876e-04 -6.12599251e-07 -3.88432876e-04 1.05898242e-03 1.22217243e-05 -6.12599251e-07 1.22217243e-05 -2.48342712e-03
1.52664277e-03 -3.47084730e-04 -4.87467623e-04 -3.47084730e-04 1.05644829e-03 6.63500163e-04 -4.87467623e-04 6.63500163e-04 -2.54845375e-03
5.90217976e-04 -4.57170223e-04 2.73049125e-04 -4.57170223e-04 6.66960375e-04 -4.97953442e-04 2.73049125e-04 -4.97953442e-04 -1.45319296e-03
7.98932619e-04 -3.95266630e-04 5.46311207e-04 -3.95266630e-04 9.28745168e-04 2.85148011e-04 5.46311207e-04 2.85148011e-04 -1.88082413e-03
-1.21962792e-04 -1.48863954e-04 2.17727618e-04 -1.48863954e-04 2.25297532e-04 -1.74535446e-04 2.17727618e-04 -1.74535446e-04 -3.41808860e-04
2.76709371e-04 -3.31075173e-04 3.74314539e-04 -3.31075173e-04 5.59558262e-04 9.56429799e-04 3.74314539e-04 9.56429799e-04 -1.05473294e-03
-3.15584621e-04 1.85483805e-05 -1.43001776e-05 1.85483805e-05 1.10788184e-04 -9.53899980e-05 -1.43001776e-05 -9.53899980e-05 8.49236603e-05
-2.57511339e-04 -9.14995107e-05 9.74102477e-06 -9.14995107e-05 7.32015178e-05 1.55565991e-04 9.74102477e-06 1.55565991e-04 6.37665544e-05
-1.51015378e-04 9.08869279e-05 6.08691630e-06 9.08869279e-05 4.43675431e-05 -1.53628062e-05 6.08691630e-06 -1.53628062e-05 5.05420521e-05
-9.07570757e-05 4.74720667e-05 2.23696109e-05 4.74720667e-05 2.15025342e-05 -3.45874220e-05 2.23696109e-05 -3.45874220e-05 2.84931187e-05
-4.66450656e-05 4.63426950e-05 -2.36409851e-05 4.63426950e-05 -5.07496297e-05 1.23131476e-05 -2.36409851e-05 1.23131476e-05 5.40557194e-05
-2.58764212e-05 1.24656053e-05 2.21530627e-05 1.24656053e-05 -3.79478315e-05 1.74279353e-05 2.21530627e-05 1.74279353e-05 3.66788772e-05
1.98358542e-03 2.51720849e-08 7.58656970e-04 2.51720849e-08 3.59476497e-03 -5.70292090e-04 7.58656970e-04 -5.70292090e-04 -5.02902735e-03
2.25830497e-03 -2.40859230e-04 8.60609347e-04 -2.40859230e-04 3.37814062e-03 -1.52956523e-04 8.60609347e-04 -1.52956523e-04 -5.09665243e-03
1.90149552e-03 -9.05401714e-04 5.98043825e-04 -9.05401714e-04 3.35376072e-03 -6.68281573e-04 5.98043825e-04 -6.68281573e-04 -4.75095602e-03
1.73648761e-03 -2.17750468e-04 8.33610943e-04 -2.17750468e-04 3.46579455e-03 -4.67776154e-04 8.33610943e-04 -4.67776154e-04 -4.70421975e-03
2.84559000e-03 -6.65378291e-04 -1.61754346e-04 -6.65378291e-04 2.86542886e-03 -2.15580221e-04 -1.61754346e-04 -2.15580221e-04 -5.15271071e-03
2.61535755e-03 -1.07592501e-03 4.30839536e-04 -1.07592501e-03 3.07605852e-03 -9.70306095e-04 4.30839536e-04 -9.70306095e-04 -5.15943271e-03
3.46589141e-03 2.23860293e-05 2.00647373e-04 2.23860293e-05 2.56393471e-03 -9.39917540e-04 2.00647373e-04 -9.39917540e-04 -5.43262251e-03
3.30800493e-03 -4.04396767e-04 6.51619623e-04 -4.04396767e-04 3.35718491e-03 4.68933020e-04 6.51619623e-04 4.68933020e-04 -6.03745296e-03
3.83844331e-03 -3.34375356e-04 2.45960616e-03 -3.34375356e-04 2.77328031e-03 -9.07903835e-04 2.45960616e-03 -9.07903835e-04 -5.95534546e-03
3.60683995e-03 -2.59082685e-04 5.22798568e-04 -2.59082685e-04 3.79175402e-03 6.03525865e-04 5.22798568e-04 6.03525865e-04 -6.66587311e-03
3.51312582e-03 -1.34953229e-04 2.55226466e-03 -1.34953229e-04 3.06810666e-03 -7.69758804e-04 2.55226466e-03 -7.69758804e-04 -5.86635724e-03
3.65317010e-03 -1.55060849e-04 1.37772109e-03 -1.55060849e-04 3.78427788e-03 -2.43647292e-04 1.37772109e-03 -2.43647292e-04 -6.64307422e-03
3.25062207e-03 9.08673072e-04 2.17053271e-03 9.08673072e-04 3.04020208e-03 -1.30145467e-03 2.17053271e-03 -1.30145467e-03 -5.56605845e-03
3.53051693e-03 8.46359413e-04 -1.66933314e-04 8.46359413e-04 3.50276532e-03 -1.11911181e-03 -1.66933314e-04 -1.11911181e-03 -6.20964228e-03
1.57406669e-03 -5.94985158e-04 9.48336037e-04 -5.94985158e-04 3.04599444e-03 -6.60886002e-04 9.48336037e-04 -6.60886002e-04 -4.22225922e-03
1.17407533e-03 -1.92065967e-04 1.65836976e-03 -1.92065967e-04 2.99294834e-03 -9.31180111e-04 1.65836976e-03 -9.31180111e-04 -3.77227308e-03
2.76117828e-03 -5.79062976e-04 2.40489410e-03 -5.79062976e-04 3.67231537e-03 1.15878647e-05 2.40489410e-03 1.15878647e-05 -6.00605671e-03
3.85399605e-03 -9.22551515e-04 4.00508400e-03 -9.22551515e-04 4.66439077e-03 -1.96822663e-04 4.00508400e-03 -1.96822663e-04 -7.93025438e-03
4.18025465e-03 -9.90610351e-05 8.29496814e-04 -9.90610351e-05 5.09696454e-03 1.18068419e-03 8.29496814e-04 1.18068419e-03 -8.48479848e-03
4.84352070e-03 -1.28328331e-04 1.39983938e-03 -1.28328331e-04 5.27766999e-03 2.56590326e-03 1.39983938e-03 2.56590326e-03 -9.27494001e-03
5.15217148e-03 8.17136664e-04 -1.22452651e-03 8.17136664e-04 5.08707459e-03 1.76655804e-03 -1.22452651e-03 1.76655804e-03 -9.34446603e-03
1.02206389e-03 1.79411400e-04 1.87640688e-03 1.79411400e-04 1.89314671e-03 2.39635658e-04 1.87640688e-03 2.39635658e-04 -2.67825241e-03
1.10986715e-03 2.04792868e-04 1.26354732e-03 2.04792868e-04 2.06458822e-03 -6.59920581e-04 1.26354732e-03 -6.59920581e-04 -2.93153623e-03
1.27661705e-03 -4.62514458e-04 2.50716373e-03 -4.62514458e-04 2.46616421e-03 2.61698771e-03 2.50716373e-03 2.61698771e-03 -3.51171855e-03
-8.83752946e-04 -1.76313668e-03 3.49992095e-03 -1.76313668e-03 7.33822482e-04 1.66411104e-03 3.49992095e-03 1.66411104e-03 4.14010152e-04
1.03190767e-03 -1.28770346e-04 1.14763521e-03 -1.28770346e-04 8.77550119e-04 4.73765611e-04 1.14763521e-03 4.73765611e-04 -1.82049198e-03
1.09332593e-03 4.17855899e-05 7.63951648e-04 4.17855899e-05 1.03471676e-03 4.53289373e-04 7.63951648e-04 4.53289373e-04 -2.05182168e-03
5.93556707e-04 -6.02751812e-04 8.04604285e-04 -6.02751812e-04 5.50249458e-04 7.79928286e-04 8.04604285e-04 7.79928286e-04 -1.08574454e-03
1.10561596e-04 -7.98217673e-05 -1.05113507e-03 -7.98217673e-05 2.27896172e-04 2.47726974e-04 -1.05113507e-03 2.47726974e-04 -3.38306321e-04
9.71388443e-04 -5.78442901e-04 1.74163292e-04 -5.78442901e-04 8.58730695e-04 5.82841107e-04 1.74163292e-04 5.82841107e-04 -1.85975707e-03
8.46885130e-04 -1.73329423e-04 2.05482727e-04 -1.73329423e-04 6.01656960e-04 5.37483706e-04 2.05482727e-04 5.37483706e-04 -1.49264306e-03
1.12218608e-03 -6.32836687e-04 1.75627706e-04 -6.32836687e-04 1.14434997e-03 6.48840290e-04 1.75627706e-04 6.48840290e-04 -2.24105388e-03
1.20139743e-03 -3.58100988e-05 -9.41597769e-04 -3.58100988e-05 1.24708605e-03 1.11062809e-03 -9.41597769e-04 1.11062809e-03 -2.38146388e-03
7.63374599e-04 -3.80233305e-05 -4.39698830e-04 -3.80233305e-05 1.06325386e-03 -2.26574472e-04 -4.39698830e-04 -2.26574472e-04 -1.91816146e-03
8.11737729e-04 4.19094591e-04 2.43746574e-04 4.19094591e-04 8.10800906e-04 -2.71606012e-04 2.43746574e-04 -2.71606012e-04 -1.72331929e-03
1.38272272e-03 -3.77269057e-04 4.34868733e-04 -3.77269057e-04 1.72779706e-03 7.15983879e-06 4.34868733e-04 7.15983879e-06 -3.05647316e-03
3.01380875e-03 -2.21187329e-04 1.90380969e-03 -2.21187329e-04 3.06832348e-03 3.03042482e-03 1.90380969e-03 3.03042482e-03 -5.91187784e-03
2.54728457e-06 -2.88047622e-05 3.31394767e-06 -2.88047622e-05 2.56352075e-06 -3.75611194e-06 3.31394767e-06 -3.75611194e-06 -8.71135808e-06
-4.68995518e-06 -1.55387111e-05 -1.12461439e-05 -1.55387111e-05 8.77814182e-06 -8.08118534e-06 -1.12461439e-05 -8.08118534e-06 -7.59002198e-06
5.12368456e-06 -2.59981221e-06 1.46850696e-05 -2.59981221e-06 4.38535071e-06 1.07052992e-05 1.46850696e-05 1.07052992e-05 -1.20558825e-05
4.34590845e-06 -1.59386209e-05 -8.10972051e-06 -1.59386209e-05 -8.84521774e-06 -8.48101627e-06 -8.10972051e-06 -8.48101627e-06 1.27934504e-06
2.82456796e-03 3.38781120e-07 1.14765292e-03 3.38781120e-07 2.87170056e-03 -5.43822069e-04 1.14765292e-03 -5.43822069e-04 -5.15297707e-03
2.91937275e-03 -1.04484670e-04 1.17293728e-03 -1.04484670e-04 2.66981433e-03 -5.83194706e-05 1.17293728e-03 -5.83194706e-05 -5.07497427e-03
2.87486447e-03 -1.01149539e-03 1.45202715e-03 -1.01149539e-03 2.82216293e-03 3.68732479e-04 1.45202715e-03 3.68732479e-04 -5.16248104e-03
2.64978362e-03 -4.73352538e-05 1.30694396e-03 -4.73352538e-05 3.09509010e-03 -5.18319779e-04 1.30694396e-03 -5.18319779e-04 -5.21100522e-03
3.26783617e-03 -7.38333867e-04 1.72284641e-03 -7.38333867e-04 2.08228338e-03 8.55517228e-05 1.72284641e-03 8.55517228e-05 -4.86164296e-03
3.27619264e-03 -1.43077121e-03 6.63730429e-04 -1.43077121e-03 2.43049924e-03 2.27881183e-04 6.63730429e-04 2.27881183e-04 -5.19798789e-03
3.58959800e-03 6.77551236e-06 6.16514444e-04 6.77551236e-06 1.57304772e-03 5.55474471e-04 6.16514444e-04 5.55474471e-04 -4.69866476e-03
3.49524090e-03 -7.93606390e-04 -6.79691846e-04 -7.93606390e-04 2.48257397e-03 -7.01020661e-04 -6.79691846e-04 -7.01020661e-04 -5.45211561e-03
3.28809943e-03 -1.70030617e-05 -6.72962604e-04 -1.70030617e-05 1.46294630e-03 -1.76109656e-04 -6.72962604e-04 -1.76109656e-04 -4.32569010e-03
3.41734063e-03 4.08967137e-04 -2.15039073e-04 4.08967137e-04 3.10913735e-03 -1.70626339e-04 -2.15039073e-04 -1.70626339e-04 -5.96510770e-03
2.42811232e-03 3.25290777e-04 2.71440091e-04 3.25290777e-04 1.57139747e-03 -5.35634601e-04 2.71440091e-04 -5.35634601e-04 -3.65905429e-03
3.09330682e-03 5.00004207e-04 -6.12725307e-05 5.00004207e-04 2.69456553e-03 1.59318099e-04 -6.12725307e-05 1.59318099e-04 -5.27623913e-03
2.14658532e-03 6.60104823e-04 4.61460659e-04 6.60104823e-04 1.16143166e-03 -5.59895721e-04 4.61460659e-04 -5.59895721e-04 -3.03842209e-03
2.74057582e-03 4.89570088e-04 1.30825640e-04 4.89570088e-04 2.10506291e-03 -4.77398760e-04 1.30825640e-04 -4.77398760e-04 -4.38058091e-03
2.21165297e-03 -1.65431513e-03 3.06763637e-03 -1.65431513e-03 3.01352760e-03 -7.54849773e-04 3.06763637e-03 -7.54849773e-04 -4.70044208e-03
1.78940280e-03 -1.02594681e-03 1.97039131e-03 -1.02594681e-03 3.33313376e-03 -4.91840765e-04 1.97039131e-03 -4.91840765e-04 -4.60825302e-03
3.38717666e-03 -5.43478793e-04 1.55099557e-03 -5.43478793e-04 3.27026834e-03 -1.19812634e-03 1.55099557e-03 -1.19812634e-03 -6.11557273e-03
4.87960088e-03 -1.05732027e-03 -5.59642590e-03 -1.05732027e-03 4.07029546e-03 4.24166548e-04 -5.59642590e-03 4.24166548e-04 -8.36751843e-03
4.50253359e-03 2.65231996e-04 -7.75428467e-04 2.65231996e-04 4.83736477e-03 1.30163987e-03 -7.75428467e-04 1.30163987e-03 -8.65952903e-03
3.99434817e-03 -3.17558093e-04 -7.39555915e-04 -3.17558093e-04 3.94164532e-03 4.93486303e-04 -7.39555915e-04 4.93486303e-04 -7.25878519e-03
3.57624993e-03 9.50320064e-05 -5.88700990e-04 9.50320064e-05 3.22231615e-03 6.97633550e-05 -5.88700990e-04 6.97633550e-05 -6.14076015e-03
1.78484823e-03 -8.36735724e-04 3.25610259e-03 -8.36735724e-04 2.90922934e-03 -1.46351938e-04 3.25610259e-03 -1.46351938e-04 -4.33473499e-03
7.15544527e-04 -8.75975238e-05 2.10966391e-03 -8.75975238e-05 2.51955888e-03 1.56535325e-03 2.10966391e-03 1.56535325e-03 -2.87736341e-03
3.92116932e-03 -1.97642931e-03 5.63792739e-03 -1.97642931e-03 4.92406683e-03 -5.88853858e-03 5.63792739e-03 -5.88853858e-03 -8.37423059e-03
7.72102025e-04 -2.30828450e-04 1.05788360e-03 -2.30828450e-04 1.64631643e-03 1.46942065e-03 1.05788360e-03 1.46942065e-03 -2.29911380e-03
5.95063939e-04 -4.41335338e-04 1.96983420e-03 -4.41335338e-04 1.38549854e-03 7.44004341e-04 1.96983420e-03 7.44004341e-04 -1.82097327e-03
6.63487173e-04 -3.61212486e-04 9.79655364e-04 -3.61212486e-04 1.88563540e-03 3.06597777e-03 9.79655364e-04 3.06597777e-03 -2.50333043e-03
7.62305248e-04 3.07057467e-04 8.45784372e-04 3.07057467e-04 8.57563289e-04 1.96545435e-04 8.45784372e-04 1.96545435e-04 -1.50603063e-03
8.07003002e-04 5.11753198e-04 2.23274081e-04 5.11753198e-04 8.86256865e-04 -3.26043024e-04 2.23274081e-04 -3.26043024e-04 -1.62187740e-03
1.46373045e-03 -8.86639015e-04 -9.10724700e-04 -8.86639015e-04 1.98067357e-03 1.72511767e-03 -9.10724700e-04 1.72511767e-03 -3.10844748e-03
-6.20496634e-04 3.21944524e-03 -3.72111890e-03 3.21944524e-03 -4.11722314e-04 2.11562961e-03 -3.72111890e-03 2.11562961e-03 1.04135426e-03
3.32028537e-03 1.82345894e-03 -7.83402907e-03 1.82345894e-03 5.20126611e-03 3.78561358e-03 -7.83402907e-03 3.78561358e-03 -8.00822939e-03
1.57226050e-03 7.36479167e-04 2.34677598e-03 7.36479167e-04 1.71591545e-03 8.33110651e-04 2.34677598e-03 8.33110651e-04 -3.12784157e-03
9.05692519e-04 -9.54700845e-05 1.15428056e-03 -9.54700845e-05 1.66329689e-03 9.55432304e-04 1.15428056e-03 9.55432304e-04 -2.53816566e-03
</DataArray>
<DataArray type="Float32" Name="Plastic_strain_components" NumberOfComponents="9" format="ascii">
1.44489866e-03 3.20260369e-08 -4.63841161e-08 3.20260369e-08 4.33553942e-03 -2.71156750e-08 -4.63841161e-08 -2.71156750e-08 -4.82673431e-03
1.65462063e-03 2.62895395e-04 3.46788056e-08 2.62895395e-04 4.62932489e-03 1.12488313e-04 3.46788056e-08 1.12488313e-04 -5.25206700e-03
1.80421557e-03 8.39478482e-04 -5.16529122e-04 8.39478482e-04 3.86600062e-03 -1.43414451e-04 -5.16529122e-04 -1.43414451e-04 -4.74764558e-03
1.63473631e-03 3.05733643e-04 -2.64468399e-04 3.05733643e-04 3.61392659e-03 4.90056209e-08 -2.64468399e-04 4.90056209e-08 -4.39688959e-03
1.53940776e-03 9.01361545e-08 4.45197322e-04 9.01361545e-08 4.04271600e-03 -3.79795252e-04 4.45197322e-04 -3.79795252e-04 -4.66769724e-03
1.74451992e-03 5.82198970e-06 4.10346722e-04 5.82198970e-06 4.13163402e-03 -5.22835555e-04 4.10346722e-04 -5.22835555e-04 -4.91911545e-03
1.74961543e-03 2.79904067e-04 1.98246861e-04 2.79904067e-04 3.64933681e-03 -5.08295576e-04 1.98246861e-04 -5.08295576e-04 -4.52482287e-03
1.54033845e-03 5.60959379e-05 2.18764926e-04 5.60959379e-05 3.56690295e-03 -4.11681111e-04 2.18764926e-04 -4.11681111e-04 -4.27626679e-03
2.18380487e-03 2.08607024e-04 1.74303750e-07 2.08607024e-04 5.49827353e-03 1.19620810e-04 1.74303750e-07 1.19620810e-04 -6.43112208e-03
2.08464352e-03 1.13102671e-03 -9.82162601e-04 1.13102671e-03 4.32201760e-03 1.12296382e-05 -9.82162601e-04 1.12296382e-05 -5.36247029e-03
2.20871138e-03 9.94198272e-05 9.57777040e-04 9.94198272e-05 4.37283242e-03 -6.06860060e-04 9.57777040e-04 -6.06860060e-04 -5.52014413e-03
2.29278539e-03 4.48042567e-04 2.23102721e-04 4.48042567e-04 4.11680929e-03 -6.62044124e-04 2.23102721e-04 -6.62044124e-04 -5.38215804e-03
2.77196709e-03 -4.38085572e-05 2.95732434e-07 -4.38085572e-05 6.36676047e-03 4.12225767e-04 2.95732434e-07 4.12225767e-04 -7.65860896e-03
2.54531033e-03 6.71916750e-04 -1.43580564e-03 6.71916750e-04 4.92514379e-03 2.74021484e-04 -1.43580564e-03 2.74021484e-04 -6.26141205e-03
2.94277439e-03 -1.79531908e-04 1.12005800e-03 -1.79531908e-04 4.84364049e-03 -1.92308758e-04 1.12005800e-03 -1.92308758e-04 -6.54558698e-03
2.81939650e-03 -9.60327573e-05 5.58454860e-04 -9.60327573e-05 4.51261137e-03 -4.40794347e-04 5.58454860e-04 -4.40794347e-04 -6.15855469e-03
3.61172785e-03 -6.64677325e-04 2.71751560e-07 -6.64677325e-04 6.76325918e-03 5.95889142e-04 2.71751560e-07 5.95889142e-04 -8.71065119e-03
3.38644983e-03 -1.90615647e-04 -1.87519073e-03 -1.90615647e-04 5.72878483e-03 6.07696347e-04 -1.87519073e-03 6.07696347e-04 -7.65122368e-03
3.90960084e-03 -6.44485059e-04 4.09816690e-04 -6.44485059e-04 5.29096951e-03 -2.42163369e-04 4.09816690e-04 -2.42163369e-04 -7.74630799e-03
3.36484006e-03 -7.50107185e-04 4.29108783e-04 -7.50107185e-04 4.59570778e-03 -2.27832930e-04 4.29108783e-04 -2.27832930e-04 -6.68541377e-03
4.90908325e-03 -1.64010335e-03 3.98302745e-07 -1.64010335e-03 7.67254480e-03 1.61324249e-04 3.98302745e-07 1.61324249e-04 -1.05802105e-02
4.22366324e-03 -5.83424509e-04 -2.43177643e-03 -5.83424509e-04 6.41507015e-03 8.22627946e-04 -2.43177643e-03 8.22627946e-04 -8.93379655e-03
4.49691690e-03 -9.65306754e-04 8.13523628e-04 -9.65306754e-04 5.83305489e-03 -9.56337863e-04 8.13523628e-04 -9.56337863e-04 -8.69490951e-03
4.21343115e-03 -1.22291494e-03 1.07137930e-03 -1.22291494e-03 5.06653055e-03 -3.14918543e-04 1.07137930e-03 -3.14918543e-04 -7.79032975e-03
4.82736435e-03 -3.47836479e-03 -1.79771905e-06 -3.47836479e-03 9.97868367e-03 -1.46436389e-03 -1.79771905e-06 -1.46436389e-03 -1.24073196e-02
4.56617004e-03 -1.67706286e-03 -3.82296927e-03 -1.67706286e-03 7.98483402e-03 1.55108923e-03 -3.82296927e-03 1.55108923e-03 -1.05003975e-02
4.25258372e-03 -4.40060685e-04 2.07806654e-04 -4.40060685e-04 7.16592744e-03 -2.12866539e-03 2.07806654e-04 -2.12866539e-03 -9.59908823e-03
4.37677745e-03 -1.30431223e-03 -4.16263938e-05 -1.30431223e-03 6.20548998e-03 -5.85315447e-04 -4.16263938e-05 -5.85315447e-04 -8.87159153e-03
1.84627215e-03 6.99651580e-04 -2.86232775e-04 6.99651580e-04 2.13281499e-03 -2.86641975e-04 -2.86232775e-04 -2.86641975e-04 -3.34357063e-03
1.89377641e-03 2.81182671e-04 -1.79661518e-04 2.81182671e-04 2.19159178e-03 1.06053903e-07 -1.79661518e-04 1.06053903e-07 -3.43726820e-03
1.76131005e-03 5.26174235e-04 6.81832498e-04 5.26174235e-04 2.46364738e-03 -2.65679971e-04 6.81832498e-04 -2.65679971e-04 -3.54803252e-03
1.55658374e-03 1.74787088e-04 4.83153221e-04 1.74787088e-04 2.30458000e-03 9.17711259e-05 4.83153221e-04 9.17711259e-05 -3.24598246e-03
1.66301438e-03 9.58215285e-04 -3.69310146e-04 9.58215285e-04 1.94848498e-03 -3.26475340e-04 -3.69310146e-04 -3.26475340e-04 -3.03044694e-03
1.79748081e-03 5.86671740e-04 8.85568879e-04 5.86671740e-04 2.51582592e-03 1.36144569e-04 8.85568879e-04 1.36144569e-04 -3.61858556e-03
1.32404311e-03 7.80650618e-04 -7.06631021e-04 7.80650618e-04 1.65478834e-03 -2.44243576e-04 -7.06631021e-04 -2.44243576e-04 -2.50190939e-03
1.85419972e-03 -1.49924777e-04 1.93888231e-03 -1.49924777e-04 2.61874636e-03 4.15321922e-04 1.93888231e-03 4.15321922e-04 -3.73969866e-03
1.51528895e-03 -2.89819149e-04 -1.59241949e-03 -2.89819149e-04 2.00320347e-03 4.20367840e-04 -1.59241949e-03 4.20367840e-04 -2.94081937e-03
2.16443111e-03 -9.61129777e-04 2.66263871e-03 -9.61129777e-04 3.20880585e-03 9.78589645e-04 2.66263871e-03 9.78589645e-04 -4.48006077e-03
1.41455838e-03 -7.68861573e-04 -1.61888986e-03 -7.68861573e-04 1.89165121e-03 7.68109006e-04 -1.61888986e-03 7.68109006e-04 -2.74972655e-03
2.24983726e-03 -1.33536736e-03 3.46480847e-03 -1.33536736e-03 3.44601576e-03 2.16337043e-03 3.46480847e-03 2.16337043e-03 -4.70559435e-03
1.54351129e-03 -1.85041275e-03 -1.55801163e-03 -1.85041275e-03 1.81072092e-03 1.92654616e-03 -1.55801163e-03 1.92654616e-03 -2.76161922e-03
2.59088011e-03 -2.44800087e-03 3.46609861e-03 -2.44800087e-03 4.17664269e-03 3.40755392e-03 3.46609861e-03 3.40755392e-03 -5.57218158e-03
1.64289557e-03 1.99265182e-04 4.65479161e-06 1.99265182e-04 8.77261802e-04 -2.82804554e-04 4.65479161e-06 -2.82804554e-04 -2.11476412e-03
1.90445670e-03 1.28073705e-04 7.40148098e-05 1.28073705e-04 1.09328146e-03 -2.62369099e-07 7.40148098e-05 -2.62369099e-07 -2.51842698e-03
1.60515941e-03 1.58288429e-04 7.55044181e-04 1.58288429e-04 1.20030916e-03 3.35054692e-05 7.55044181e-04 3.35054692e-05 -2.35584937e-03
1.49770261e-03 5.73312682e-05 6.13107717e-04 5.73312682e-05 1.13210797e-03 4.19859593e-04 6.13107717e-04 4.19859593e-04 -2.20926901e-03
1.10072078e-03 1.87417495e-04 -3.87604377e-05 1.87417495e-04 5.29648765e-04 -2.79509841e-04 -3.87604377e-05 -2.79509841e-04 -1.36881511e-03
1.05977715e-03 9.35767140e-05 7.95870172e-04 9.35767140e-05 6.76765998e-04 1.56885303e-04 7.95870172e-04 1.56885303e-04 -1.45299280e-03
3.02944054e-04 -7.10677614e-06 -1.40161685e-04 -7.10677614e-06 8.63290761e-05 -2.98630373e-04 -1.40161685e-04 -2.98630373e-04 -3.31102841e-04
1.55110836e-04 -2.18032687e-04 7.90522726e-04 -2.18032687e-04 1.65675765e-04 -1.75074868e-05 7.90522726e-04 -1.75074868e-05 -2.54400829e-04
1.95261792e-04 -4.45089094e-04 -4.05006940e-04 -4.45089094e-04 -2.62180035e-04 -1.69396689e-04 -4.05006940e-04 -1.69396689e-04 7.00236196e-05
1.79622421e-04 -1.16002289e-03 1.50741470e-03 -1.16002289e-03 2.43053449e-04 2.02470444e-04 1.50741470e-03 2.02470444e-04 -2.32188380e-04
2.46737654e-05 -3.10262408e-04 -2.61159924e-04 -3.10262408e-04 -2.65163720e-04 -1.29473112e-04 -2.61159924e-04 -1.29473112e-04 2.05804320e-04
1.10912435e-04 -5.52753122e-04 1.33239486e-03 -5.52753122e-04 1.51310880e-04 -1.65024520e-04 1.33239486e-03 -1.65024520e-04 -1.14564638e-04
-1.83959492e-06 7.25115606e-05 -2.71411322e-04 7.25115606e-05 -3.51274430e-04 -2.51314596e-05 -2.71411322e-04 -2.51314596e-05 3.46897825e-04
7.16816357e-05 -9.00658226e-04 1.17241434e-03 -9.00658226e-04 7.49249666e-05 -3.65057704e-05 1.17241434e-03 -3.65057704e-05 8.88492286e-06
1.45682806e-03 -1.06114881e-04 1.52080000e-04 -1.06114881e-04 5.71968296e-04 -2.35959847e-04 1.52080000e-04 -2.35959847e-04 -1.69722323e-03
1.71805685e-03 -4.18710752e-05 1.24129925e-04 -4.18710752e-05 7.22073572e-04 -1.66548261e-07 1.24129925e-04 -1.66548261e-07 -2.04394909e-03
1.27791618e-03 -1.63048257e-04 3.66725770e-04 -1.63048257e-04 6.07840244e-04 1.16611281e-04 3.66725770e-04 1.16611281e-04 -1.57964042e-03
1.45362824e-03 -9.07016556e-06 3.21830452e-04 -9.07016556e-06 7.04634003e-04 2.88063675e-04 3.21830452e-04 2.88063675e-04 -1.80720582e-03
7.86002289e-04 -1.42984660e-04 -4.41266047e-05 -1.42984660e-04 2.87086921e-04 -2.91795834e-04 -4.41266047e-05 -2.91795834e-04 -8.96422105e-04
6.97467094e-04 -2.74377056e-04 2.31786138e-04 -2.74377056e-04 3.00484575e-04 1.76655915e-04 2.31786138e-04 1.76655915e-04 -8.30753699e-04
6.62703196e-05 -1.06065929e-04 -2.03580603e-05 -1.06065929e-04 -5.65755249e-06 -9.30119913e-05 -2.03580603e-05 -9.30119913e-05 -4.73129776e-05
1.59823356e-04 -1.18080951e-04 -9.09582829e-05 -1.18080951e-04 4.83867389e-05 5.09288147e-05 -9.09582829e-05 5.09288147e-05 -1.71954465e-04
-6.27806730e-06 1.56434920e-05 2.55964745e-05 1.56434920e-05 -2.57210710e-06 9.41722525e-06 2.55964745e-05 9.41722525e-06 4.89304148e-06
-2.74404677e-06 -2.45678810e-07 7.49769909e-06 -2.45678810e-07 1.53705744e-05 2.27042619e-06 7.49769909e-06 2.27042619e-06 -1.19086484e-05
1.11312722e-04 -2.21250273e-04 3.14316057e-05 -2.21250273e-04 -1.73198176e-04 1.16120646e-05 3.14316057e-05 1.16120646e-05 9.76469164e-05
-1.97800837e-05 4.07355158e-05 -2.81247624e-06 4.07355158e-05 3.63716220e-05 -2.41853043e-06 -2.81247624e-06 -2.41853043e-06 -2.35003754e-05
1.12605685e-05 -1.10369416e-04 -2.54921924e-05 -1.10369416e-04 -7.56394775e-06 -1.17141544e-05 -2.54921924e-05 -1.17141544e-05 1.74196543e-06
7.17129524e-07 -8.68875941e-06 4.52926130e-05 -8.68875941e-06 -4.70223101e-06 1.59710471e-05 4.52926130e-05 1.59710471e-05 -2.19875650e-06
1.30034599e-03 -1.52913013e-04 8.50632696e-05 -1.52913013e-04 7.63674267e-04 -2.15936092e-04 8.50632696e-05 -2.15936092e-04 -1.73352641e-03
1.66821631e-03 -1.61089542e-04 5.28793498e-05 -1.61089542e-04 9.65846120e-04 -4.16901003e-07 5.28793498e-05 -4.16901003e-07 -2.21330649e-03
1.13385257e-03 -2.14331283e-04 5.73117278e-05 -2.14331283e-04 7.19424548e-04 1.94534259e-04 5.73117278e-05 1.94534259e-04 -1.55607674e-03
1.35906649e-03 -1.21280649e-04 -7.61552765e-05 -1.21280649e-04 8.52587575e-04 4.36506423e-04 -7.61552765e-05 4.36506423e-04 -1.85668247e-03
5.93883509e-04 -1.70091014e-04 4.54052206e-05 -1.70091014e-04 3.53491472e-04 -2.92831188e-04 4.54052206e-05 -2.92831188e-04 -7.92890700e-04
5.77137042e-04 -2.15807463e-04 6.23146566e-05 -2.15807463e-04 4.57965649e-04 2.65221783e-04 6.23146566e-05 2.65221783e-04 -8.68513525e-04
-1.37513771e-05 -3.71538838e-05 -1.19356798e-06 -3.71538838e-05 -2.77831587e-05 -2.39268784e-05 -1.19356798e-06 -2.39268784e-05 3.46703173e-05
2.39986022e-04 -9.86879762e-05 -7.76609804e-05 -9.86879762e-05 1.82594109e-04 2.97580033e-04 -7.76609804e-05 2.97580033e-04 -3.50907233e-04
0.00000000e+00 0.00000000e+00 0.00000000e+00 0.00000000e+00 0.00000000e+00 0.00000000e+00 0.00000000e+00 0.00000000e+00 0.00000000e+00
0.00000000e+00 0.00000000e+00 0.00000000e+00 0.00000000e+00 0.00000000e+00 0.00000000e+00 0.00000000e+00 0.00000000e+00 0.00000000e+00
0.00000000e+00 0.00000000e+00 0.00000000e+00 0.00000000e+00 0.00000000e+00 0.00000000e+00 0.00000000e+00 0.00000000e+00 0.00000000e+00
0.00000000e+00 0.00000000e+00 0.00000000e+00 0.00000000e+00 0.00000000e+00 0.00000000e+00 0.00000000e+00 0.00000000e+00 0.00000000e+00
0.00000000e+00 0.00000000e+00 0.00000000e+00 0.00000000e+00 0.00000000e+00 0.00000000e+00 0.00000000e+00 0.00000000e+00 0.00000000e+00
0.00000000e+00 0.00000000e+00 0.00000000e+00 0.00000000e+00 0.00000000e+00 0.00000000e+00 0.00000000e+00 0.00000000e+00 0.00000000e+00
1.37437292e-03 -2.39567435e-04 1.02138906e-05 -2.39567435e-04 9.56184842e-04 -3.79030476e-04 1.02138906e-05 -3.79030476e-04 -1.95747998e-03
1.92079181e-03 -2.74137419e-04 2.88203446e-05 -2.74137419e-04 1.14822271e-03 -6.42647137e-07 2.88203446e-05 -6.42647137e-07 -2.57964386e-03
1.25865338e-03 -3.10038289e-04 -2.75501952e-06 -3.10038289e-04 9.76226744e-04 8.58165731e-06 -2.75501952e-06 8.58165731e-06 -1.88019159e-03
1.36052840e-03 -2.76667255e-04 -3.90815636e-04 -2.76667255e-04 9.85883991e-04 5.31379716e-04 -3.90815636e-04 5.31379716e-04 -1.97076402e-03
5.16959532e-04 -3.25364636e-04 1.68671395e-04 -3.25364636e-04 5.26565884e-04 -3.12435877e-04 1.68671395e-04 -3.12435877e-04 -8.72145814e-04
7.18364761e-04 -2.75215782e-04 4.05892807e-04 -2.75215782e-04 7.92012637e-04 1.88695554e-04 4.05892807e-04 1.88695554e-04 -1.26629627e-03
-1.52796238e-05 -3.00884985e-05 8.34140701e-06 -3.00884985e-05 -3.18413404e-05 -2.31333470e-05 8.34140701e-06 -2.31333470e-05 3.92643560e-05
3.21049073e-04 -1.97123275e-04 2.53022468e-04 -1.97123275e-04 3.68178167e-04 4.95596488e-04 2.53022468e-04 4.95596488e-04 -5.68474168e-04
0.00000000e+00 0.00000000e+00 0.00000000e+00 0.00000000e+00 0.00000000e+00 0.00000000e+00 0.00000000e+00 0.00000000e+00 0.00000000e+00
0.00000000e+00 0.00000000e+00 0.00000000e+00 0.00000000e+00 0.00000000e+00 0.00000000e+00 0.00000000e+00 0.00000000e+00 0.00000000e+00
0.00000000e+00 0.00000000e+00 0.00000000e+00 0.00000000e+00 0.00000000e+00 0.00000000e+00 0.00000000e+00 0.00000000e+00 0.00000000e+00
0.00000000e+00 0.00000000e+00 0.00000000e+00 0.00000000e+00 0.00000000e+00 0.00000000e+00 0.00000000e+00 0.00000000e+00 0.00000000e+00
0.00000000e+00 0.00000000e+00 0.00000000e+00 0.00000000e+00 0.00000000e+00 0.00000000e+00 0.00000000e+00 0.00000000e+00 0.00000000e+00
0.00000000e+00 0.00000000e+00 0.00000000e+00 0.00000000e+00 0.00000000e+00 0.00000000e+00 0.00000000e+00 0.00000000e+00 0.00000000e+00
1.92940136e-03 1.83550412e-07 7.07901490e-04 1.83550412e-07 3.40120844e-03 -5.13979117e-04 7.07901490e-04 -5.13979117e-04 -4.47569462e-03
2.18361575e-03 -2.23512834e-04 7.83875003e-04 -2.23512834e-04 3.20491736e-03 -1.39559124e-04 7.83875003e-04 -1.39559124e-04 -4.53165267e-03
1.84464391e-03 -8.28724736e-04 5.43304357e-04 -8.28724736e-04 3.16549186e-03 -6.19860690e-04 5.43304357e-04 -6.19860690e-04 -4.20020154e-03
1.69128118e-03 -2.01696079e-04 7.65184760e-04 -2.01696079e-04 3.26615444e-03 -4.36225913e-04 7.65184760e-04 -4.36225913e-04 -4.15537891e-03
2.72008206e-03 -6.06045651e-04 -1.52065739e-04 -6.06045651e-04 2.73093831e-03 -2.09167165e-04 -1.52065739e-04 -2.09167165e-04 -4.59470891e-03
2.52410237e-03 -9.81188801e-04 4.00509933e-04 -9.81188801e-04 2.93703642e-03 -8.88912244e-04 4.00509933e-04 -8.88912244e-04 -4.57486702e-03
3.30563710e-03 1.69691466e-05 1.91426258e-04 1.69691466e-05 2.46921304e-03 -8.70167174e-04 1.91426258e-04 -8.70167174e-04 -4.86416335e-03
3.20174205e-03 -3.74625790e-04 6.20372353e-04 -3.74625790e-04 3.24289419e-03 4.34841142e-04 6.20372353e-04 4.34841142e-04 -5.40965574e-03
3.68394598e-03 -3.04726222e-04 2.27998436e-03 -3.04726222e-04 2.70035252e-03 -8.41111490e-04 2.27998436e-03 -8.41111490e-04 -5.35746082e-03
3.50020724e-03 -2.35945064e-04 4.86045878e-04 -2.35945064e-04 3.66809018e-03 5.54033423e-04 4.86045878e-04 5.54033423e-04 -6.03635330e-03
3.37671407e-03 -1.20483310e-04 2.36916041e-03 -1.20483310e-04 2.96308513e-03 -7.13701087e-04 2.36916041e-03 -7.13701087e-04 -5.31567930e-03
3.53358561e-03 -1.44315992e-04 1.27976167e-03 -1.44315992e-04 3.65827864e-03 -2.33896498e-04 1.27976167e-03 -2.33896498e-04 -6.05233473e-03
3.11424816e-03 8.33388185e-04 2.00214254e-03 8.33388185e-04 2.91614397e-03 -1.21522404e-03 2.00214254e-03 -1.21522404e-03 -5.06203109e-03
3.38796701e-03 7.92184699e-04 -1.78076938e-04 7.92184699e-04 3.36948893e-03 -1.05091424e-03 -1.78076938e-04 -1.05091424e-03 -5.68750943e-03
1.52488328e-03 -5.33885173e-04 8.62838799e-04 -5.33885173e-04 2.85130457e-03 -5.84196081e-04 8.62838799e-04 -5.84196081e-04 -3.66825890e-03
1.14390986e-03 -1.66506303e-04 1.48792862e-03 -1.66506303e-04 2.78011744e-03 -8.38028762e-04 1.48792862e-03 -8.38028762e-04 -3.26694263e-03
2.71888749e-03 -5.36059683e-04 2.20694714e-03 -5.36059683e-04 3.54755400e-03 1.78353595e-05 2.20694714e-03 1.78353595e-05 -5.26352287e-03
3.84543990e-03 -8.48063806e-04 3.70410904e-03 -8.48063806e-04 4.59182938e-03 -2.02172610e-04 3.70410904e-03 -2.02172610e-04 -7.05791805e-03
4.14330326e-03 -9.03172659e-05 7.66797777e-04 -9.03172659e-05 4.98830748e-03 1.08375970e-03 7.66797777e-04 1.08375970e-03 -7.68510031e-03
4.80899564e-03 -1.25741233e-04 1.29631374e-03 -1.25741233e-04 5.20301342e-03 2.37928719e-03 1.29631374e-03 2.37928719e-03 -8.41772114e-03
5.10158623e-03 7.75778666e-04 -1.17352780e-03 7.75778666e-04 5.01927291e-03 1.64333003e-03 -1.17352780e-03 1.64333003e-03 -8.50385264e-03
9.45135132e-04 1.57891747e-04 1.62932451e-03 1.57891747e-04 1.71655610e-03 2.32352992e-04 1.62932451e-03 2.32352992e-04 -2.20732704e-03
1.04110868e-03 1.85290730e-04 1.11343200e-03 1.85290730e-04 1.87244712e-03 -5.61236229e-04 1.11343200e-03 -5.61236229e-04 -2.43446734e-03
1.26218020e-03 -4.16818827e-04 2.20503218e-03 -4.16818827e-04 2.32492193e-03 2.29756409e-03 2.20503218e-03 2.29756409e-03 -2.93417884e-03
-6.09826282e-04 -1.70005964e-03 3.36590479e-03 -1.70005964e-03 7.35849266e-04 1.16247503e-03 3.36590479e-03 1.16247503e-03 3.51985444e-04
8.86477254e-04 -9.83431314e-05 9.44698439e-04 -9.83431314e-05 7.73478227e-04 3.84204802e-04 9.44698439e-04 3.84204802e-04 -1.36865865e-03
9.49677589e-04 2.92431678e-05 6.18164067e-04 2.92431678e-05 9.05665278e-04 3.60834310e-04 6.18164067e-04 3.60834310e-04 -1.55751806e-03
4.41955689e-04 -3.92775317e-04 5.81761822e-04 -3.92775317e-04 4.11504780e-04 5.65621732e-04 5.81761822e-04 5.65621732e-04 -7.06709148e-04
1.68239494e-05 -1.54940112e-04 -5.13406955e-04 -1.54940112e-04 9.83178373e-05 -4.46029590e-05 -5.13406955e-04 -4.46029590e-05 -1.12812200e-04
8.40990630e-04 -4.39373860e-04 1.34481038e-04 -4.39373860e-04 7.48952400e-04 4.52510171e-04 1.34481038e-04 4.52510171e-04 -1.32869559e-03
6.70831796e-04 -1.19730630e-04 1.43825779e-04 -1.19730630e-04 4.99087160e-04 3.86526299e-04 1.43825779e-04 3.86526299e-04 -9.84757819e-04
1.00413893e-03 -5.07028646e-04 1.60162928e-04 -5.07028646e-04 1.03394498e-03 5.24976622e-04 1.60162928e-04 5.24976622e-04 -1.70158278e-03
1.05765785e-03 -3.54783788e-05 -7.64753357e-04 -3.54783788e-05 1.12486324e-03 9.41226703e-04 -7.64753357e-04 9.41226703e-04 -1.83722397e-03
6.85668500e-04 -3.74711308e-05 -3.47449677e-04 -3.74711308e-05 8.95906647e-04 -1.86077379e-04 -3.47449677e-04 -1.86077379e-04 -1.33194223e-03
6.87476218e-04 2.98302650e-04 1.70982297e-04 2.98302650e-04 6.81427657e-04 -1.88986152e-04 1.70982297e-04 -1.88986152e-04 -1.15473318e-03
1.29312032e-03 -3.47295113e-04 3.68127412e-04 -3.47295113e-04 1.57221075e-03 9.12096084e-06 3.68127412e-04 9.12096084e-06 -2.42871349e-03
2.97343545e-03 -2.19201276e-04 1.78800771e-03 -2.19201276e-04 3.01561638e-03 2.74287324e-03 1.78800771e-03 2.74287324e-03 -5.02794969e-03
0.00000000e+00 0.00000000e+00 0.00000000e+00 0.00000000e+00 0.00000000e+00 0.00000000e+00 0.00000000e+00 0.00000000e+00 0.00000000e+00
0.00000000e+00 0.00000000e+00 0.00000000e+00 0.00000000e+00 0.00000000e+00 0.00000000e+00 0.00000000e+00 0.00000000e+00 0.00000000e+00
0.00000000e+00 0.00000000e+00 0.00000000e+00 0.00000000e+00 0.00000000e+00 0.00000000e+00 0.00000000e+00 0.00000000e+00 0.00000000e+00
0.00000000e+00 0.00000000e+00 0.00000000e+00 0.00000000e+00 0.00000000e+00 0.00000000e+00 0.00000000e+00 0.00000000e+00 0.00000000e+00
2.70301721e-03 2.93263767e-07 1.05100026e-03 2.93263767e-07 2.74413195e-03 -5.05170174e-04 1.05100026e-03 -5.05170174e-04 -4.58367169e-03
2.78716849e-03 -1.00859264e-04 1.07780387e-03 -1.00859264e-04 2.55583244e-03 -5.84133231e-05 1.07780387e-03 -5.84133231e-05 -4.49480140e-03
2.75473163e-03 -9.27359151e-04 1.33370578e-03 -9.27359151e-04 2.70455389e-03 3.33129145e-04 1.33370578e-03 3.33129145e-04 -4.58565087e-03
2.54760776e-03 -4.92649806e-05 1.20011003e-03 -4.92649806e-05 2.95561983e-03 -4.74641354e-04 1.20011003e-03 -4.74641354e-04 -4.62704850e-03
3.09809123e-03 -6.61963175e-04 1.56626935e-03 -6.61963175e-04 2.01389065e-03 7.35955364e-05 1.56626935e-03 7.35955364e-05 -4.28905903e-03
3.12760481e-03 -1.30148786e-03 5.90941616e-04 -1.30148786e-03 2.35166335e-03 2.01228492e-04 5.90941616e-04 2.01228492e-04 -4.59981849e-03
3.37988680e-03 2.14903287e-06 5.58845102e-04 2.14903287e-06 1.54686105e-03 4.93670115e-04 5.58845102e-04 4.93670115e-04 -4.13043925e-03
3.33977313e-03 -7.31186388e-04 -6.38737532e-04 -7.31186388e-04 2.41374038e-03 -6.47577835e-04 -6.38737532e-04 -6.47577835e-04 -4.83021839e-03
3.07162950e-03 -1.71777124e-05 -6.08928662e-04 -1.71777124e-05 1.42880974e-03 -1.56515254e-04 -6.08928662e-04 -1.56515254e-04 -3.77694238e-03
3.29383471e-03 3.77858385e-04 -1.82434465e-04 3.77858385e-04 3.02234587e-03 -1.59530071e-04 -1.82434465e-04 -1.59530071e-04 -5.31057117e-03
2.24122315e-03 2.87887240e-04 2.29407771e-04 2.87887240e-04 1.48721851e-03 -4.74263024e-04 2.29407771e-04 -4.74263024e-04 -3.13682895e-03
2.95369612e-03 4.59246985e-04 -5.96045356e-05 4.59246985e-04 2.59719463e-03 1.50466191e-04 -5.96045356e-05 1.50466191e-04 -4.67307435e-03
1.93992793e-03 5.80336782e-04 3.95556679e-04 5.80336782e-04 1.09284103e-03 -4.80178831e-04 3.95556679e-04 -4.80178831e-04 -2.54586479e-03
2.57062819e-03 4.48228562e-04 1.22888670e-04 4.48228562e-04 2.00789640e-03 -4.24487211e-04 1.22888670e-04 -4.24487211e-04 -3.85250291e-03
2.14517750e-03 -1.50347021e-03 2.81444709e-03 -1.50347021e-03 2.87660828e-03 -7.05447380e-04 2.81444709e-03 -7.05447380e-04 -4.15047933e-03
1.73226168e-03 -9.27520348e-04 1.79860517e-03 -9.27520348e-04 3.14291677e-03 -4.56184825e-04 1.79860517e-03 -4.56184825e-04 -4.08062286e-03
3.27282053e-03 -5.11102947e-04 1.43582889e-03 -5.11102947e-04 3.16851230e-03 -1.11399594e-03 1.43582889e-03 -1.11399594e-03 -5.44303170e-03
4.85900752e-03 -9.97090852e-04 -5.22649712e-03 -9.97090852e-04 4.08228338e-03 4.00202244e-04 -5.22649712e-03 4.00202244e-04 -7.42655965e-03
4.46422817e-03 2.52589758e-04 -6.90391240e-04 2.52589758e-04 4.76462184e-03 1.21934594e-03 -6.90391240e-04 1.21934594e-03 -7.77166325e-03
3.90728447e-03 -2.94422571e-04 -6.97081989e-04 -2.94422571e-04 3.85378703e-03 4.60891741e-04 -6.97081989e-04 4.60891741e-04 -6.53223682e-03
3.45026259e-03 9.06277237e-05 -5.56440675e-04 9.06277237e-05 3.12005903e-03 6.90004990e-05 -5.56440675e-04 6.90004990e-05 -5.52935805e-03
1.76324617e-03 -7.56834812e-04 2.94624372e-03 -7.56834812e-04 2.78412675e-03 -1.33234625e-04 2.94624372e-03 -1.33234625e-04 -3.73328612e-03
6.82082409e-04 -9.54819079e-05 1.86235603e-03 -9.54819079e-05 2.28364437e-03 1.40211111e-03 1.86235603e-03 1.40211111e-03 -2.45674583e-03
3.98197380e-03 -1.81724817e-03 5.20798989e-03 -1.81724817e-03 4.93503315e-03 -5.51533666e-03 5.20798989e-03 -5.51533666e-03 -7.33495154e-03
7.22275140e-04 -1.82527141e-04 8.87545865e-04 -1.82527141e-04 1.46034528e-03 1.24757545e-03 8.87545865e-04 1.24757545e-03 -1.80937741e-03
5.37143125e-04 -3.56243800e-04 1.63717482e-03 -3.56243800e-04 1.21397080e-03 6.41281644e-04 1.63717482e-03 6.41281644e-04 -1.41595036e-03
7.64860510e-04 -3.47500387e-04 9.86456900e-04 -3.47500387e-04 1.79005813e-03 2.58312080e-03 9.86456900e-04 2.58312080e-03 -1.96153944e-03
6.14696182e-04 2.34082489e-04 6.65726315e-04 2.34082489e-04 6.74469360e-04 1.70349324e-04 6.65726315e-04 1.70349324e-04 -1.10176982e-03
6.90920584e-04 3.90475754e-04 2.03563890e-04 3.90475754e-04 7.27888102e-04 -2.47886503e-04 2.03563890e-04 -2.47886503e-04 -1.18622479e-03
1.33332746e-03 -8.16579617e-04 -8.20003381e-04 -8.16579617e-04 1.78920049e-03 1.57887481e-03 -8.20003381e-04 1.57887481e-03 -2.65164986e-03
-3.73786868e-04 2.63853907e-03 -2.91466853e-03 2.63853907e-03 -1.60165466e-04 1.76659902e-03 -2.91466853e-03 1.76659902e-03 9.02775442e-04
3.38376449e-03 1.65759842e-03 -7.18709780e-03 1.65759842e-03 5.21636110e-03 3.56081272e-03 -7.18709780e-03 3.56081272e-03 -7.05886267e-03
1.50876803e-03 6.11292715e-04 2.12373235e-03 6.11292715e-04 1.60465654e-03 7.45265541e-04 2.12373235e-03 7.45265541e-04 -2.57421465e-03
8.79217230e-04 -7.31468026e-05 1.02610656e-03 -7.31468026e-05 1.48032146e-03 7.66438374e-04 1.02610656e-03 7.66438374e-04 -1.96389086e-03
</DataArray>
<DataArray type="Float32" Name="Spatial_displacement" NumberOfComponents="3" format="ascii">
0.00000000e+00 0.00000000e+00 0.00000000e+00
1.40212011e-03 0.00000000e+00 0.00000000e+00
1.68779120e-03 4.87994449e-03 0.00000000e+00
0.00000000e+00 4.54462599e-03 0.00000000e+00
0.00000000e+00 0.00000000e+00 -5.39245503e-03
1.52581511e-03 0.00000000e+00 -5.79484459e-03
1.53203146e-03 4.31883242e-03 -5.36194444e-03
0.00000000e+00 4.25689993e-03 -4.90766345e-03
3.31456214e-03 0.00000000e+00 0.00000000e+00
3.53776501e-03 5.73305320e-03 0.00000000e+00
3.44115379e-03 0.00000000e+00 -7.04556191e-03
3.55183426e-03 4.67316853e-03 -6.03759242e-03
5.73849212e-03 0.00000000e+00 0.00000000e+00
5.69775468e-03 6.70724083e-03 0.00000000e+00
6.18075440e-03 0.00000000e+00 -8.20607599e-03
5.98592591e-03 5.16457157e-03 -7.03231478e-03
9.04349051e-03 0.00000000e+00 0.00000000e+00
8.33325088e-03 7.39242323e-03 0.00000000e+00
9.67247225e-03 0.00000000e+00 -8.93914793e-03
8.97953473e-03 5.38789015e-03 -8.50760285e-03
1.38240680e-02 0.00000000e+00 0.00000000e+00
1.20985545e-02 8.29230435e-03 0.00000000e+00
1.39940921e-02 0.00000000e+00 -1.07818525e-02
1.29710529e-02 5.71279135e-03 -9.92703065e-03
1.97857153e-02 0.00000000e+00 0.00000000e+00
1.61308572e-02 1.13964230e-02 0.00000000e+00
1.82576254e-02 0.00000000e+00 -1.19516933e-02
1.77915096e-02 7.34792370e-03 -1.17347501e-02
2.04972108e-03 8.03127326e-03 0.00000000e+00
0.00000000e+00 7.71385105e-03 0.00000000e+00
1.72842853e-03 7.71113159e-03 -3.85455601e-03
0.00000000e+00 7.50916265e-03 -3.94135807e-03
3.95210180e-03 8.84214044e-03 0.00000000e+00
3.58146033e-03 8.41769949e-03 -3.55132716e-03
5.53582842e-03 9.89758223e-03 0.00000000e+00
5.26965503e-03 9.08769481e-03 -2.81570293e-03
7.03627989e-03 1.14094093e-02 0.00000000e+00
7.50899594e-03 9.64107923e-03 -3.44813149e-03
8.53230990e-03 1.24352593e-02 0.00000000e+00
9.39466245e-03 1.06423199e-02 -3.12669668e-03
1.00307241e-02 1.52864056e-02 0.00000000e+00
1.21973157e-02 1.35290241e-02 -3.36162886e-03
2.14797352e-03 9.45554953e-03 0.00000000e+00
0.00000000e+00 9.29922145e-03 0.00000000e+00
1.81204826e-03 9.45566315e-03 -2.53421906e-03
0.00000000e+00 9.38431919e-03 -3.01277312e-03
3.84579110e-03 9.82739963e-03 0.00000000e+00
3.50152305e-03 9.77870449e-03 -1.74000999e-03
4.89372574e-03 1.04669286e-02 0.00000000e+00
4.43243282e-03 1.02524608e-02 -5.03985211e-04
5.14767459e-03 1.14040244e-02 0.00000000e+00
4.91280807e-03 1.07369758e-02 2.74275430e-04
6.50506467e-03 1.21818110e-02 0.00000000e+00
6.31563086e-03 1.15715945e-02 4.17905860e-04
6.48645405e-03 1.47688091e-02 0.00000000e+00
6.64310902e-03 1.44724939e-02 2.32491642e-04
2.02193740e-03 1.00525897e-02 0.00000000e+00
0.00000000e+00 1.01020169e-02 0.00000000e+00
1.72672025e-03 1.02379508e-02 -2.15748185e-03
0.00000000e+00 1.02495588e-02 -2.50486052e-03
3.47620156e-03 1.01690283e-02 0.00000000e+00
3.07026552e-03 1.00969933e-02 -1.34682609e-03
4.04064497e-03 1.05274338e-02 0.00000000e+00
3.63136362e-03 1.04250554e-02 -2.83803791e-04
3.99256917e-03 1.13026612e-02 0.00000000e+00
3.93420784e-03 1.13402251e-02 2.60109082e-05
4.34203539e-03 1.37023916e-02 0.00000000e+00
4.28475253e-03 1.22278528e-02 0.00000000e+00
4.39208094e-03 1.38263823e-02 -5.91296703e-06
4.30508610e-03 1.23295495e-02 7.76983798e-05
1.84172788e-03 1.07327094e-02 0.00000000e+00
0.00000000e+00 1.09310783e-02 0.00000000e+00
1.56786572e-03 1.08393636e-02 -2.25449773e-03
0.00000000e+00 1.09904818e-02 -2.80023646e-03
3.04535707e-03 1.04854312e-02 0.00000000e+00
2.58883880e-03 1.05558466e-02 -1.33201014e-03
3.30638164e-03 1.07167596e-02 0.00000000e+00
3.06846946e-03 1.07090957e-02 -3.03078443e-04
3.30651738e-03 1.13166813e-02 0.00000000e+00
3.21553391e-03 1.13186492e-02 3.76543030e-05
3.18343844e-03 1.23319272e-02 0.00000000e+00
3.21362563e-03 1.23429038e-02 -2.26031989e-06
3.19944392e-03 1.34728393e-02 0.00000000e+00
3.21587827e-03 1.34303309e-02 -2.63126567e-05
2.07599066e-03 1.17623396e-02 0.00000000e+00
0.00000000e+00 1.20844692e-02 0.00000000e+00
1.60082383e-03 1.17721371e-02 -2.54591694e-03
0.00000000e+00 1.21199423e-02 -3.20808915e-03
3.06446594e-03 1.10033322e-02 0.00000000e+00
2.56636087e-03 1.12769175e-02 -1.60148740e-03
2.95761134e-03 1.08092260e-02 0.00000000e+00
2.78308894e-03 1.10275298e-02 -4.74460423e-04
2.55398871e-03 1.14034973e-02 0.00000000e+00
2.45873583e-03 1.13892853e-02 6.16023317e-05
2.27877079e-03 1.23524163e-02 0.00000000e+00
2.26335158e-03 1.23586655e-02 2.75187194e-05
2.20436440e-03 1.33941704e-02 0.00000000e+00
2.21636659e-03 1.33709842e-02 2.62241811e-05
0.00000000e+00 0.00000000e+00 -1.04416162e-02
1.94967282e-03 0.00000000e+00 -1.10088531e-02
1.70822022e-03 3.34643410e-03 -1.01525616e-02
0.00000000e+00 3.56495637e-03 -9.68700275e-03
4.44620056e-03 0.00000000e+00 -1.19994422e-02
3.77921388e-03 2.66223121e-03 -1.21604167e-02
7.23215751e-03 0.00000000e+00 -1.40507650e-02
7.25452323e-03 2.44350079e-03 -1.38508696e-02
1.11397719e-02 0.00000000e+00 -1.68906543e-02
1.08031314e-02 2.75259954e-03 -1.44455023e-02
1.48703847e-02 0.00000000e+00 -1.91053133e-02
1.47337522e-02 2.84127332e-03 -1.65682584e-02
1.77125167e-02 0.00000000e+00 -2.04195995e-02
1.86224971e-02 2.63124658e-03 -1.82621330e-02
1.03695923e-03 6.69087237e-03 -8.30078218e-03
0.00000000e+00 6.88414508e-03 -7.37300050e-03
3.19266086e-03 6.47072913e-03 -8.52561090e-03
6.33636862e-03 7.12394109e-03 -9.04841069e-03
1.02300216e-02 7.85101019e-03 -1.20665012e-02
1.46867763e-02 8.08222592e-03 -1.25088813e-02
1.98338628e-02 7.71004800e-03 -1.47617795e-02
9.28711845e-04 9.48891044e-03 -5.80168609e-03
0.00000000e+00 9.28428210e-03 -5.14384918e-03
2.26050965e-03 9.54413414e-03 -3.62527464e-03
1.98063743e-03 9.71512031e-03 4.99780290e-04
1.13710947e-03 1.06977951e-02 -4.07850370e-03
0.00000000e+00 1.06556211e-02 -4.53087827e-03
2.08664266e-03 1.04461014e-02 -2.44739885e-03
2.47372733e-03 9.83128883e-03 -9.79702920e-04
8.81480519e-04 1.12673752e-02 -4.23962623e-03
0.00000000e+00 1.14408247e-02 -4.77624964e-03
1.87554187e-03 1.09329270e-02 -2.73515610e-03
3.03028850e-03 1.05296131e-02 -2.05056882e-03
4.87861224e-04 1.23469038e-02 -5.21549396e-03
0.00000000e+00 1.19272675e-02 -4.94423043e-03
1.55799696e-03 1.26383025e-02 -4.17434936e-03
3.20782699e-03 1.22294948e-02 -3.40932561e-03
3.25183198e-03 1.23213744e-02 -2.51177698e-06
3.25448019e-03 1.33178104e-02 -3.46284360e-05
2.24253628e-03 1.33331018e-02 3.26801091e-05
2.22674687e-03 1.23242978e-02 4.18834388e-05
0.00000000e+00 0.00000000e+00 -1.54980812e-02
2.78878328e-03 0.00000000e+00 -1.60390213e-02
2.68400228e-03 2.78832205e-03 -1.48721300e-02
0.00000000e+00 2.83607142e-03 -1.43564064e-02
6.07529329e-03 0.00000000e+00 -1.77415516e-02
5.33468742e-03 2.03381246e-03 -1.60274189e-02
9.22915712e-03 0.00000000e+00 -1.92944407e-02
9.23604332e-03 1.42078730e-03 -1.86808240e-02
1.29550416e-02 0.00000000e+00 -2.08744984e-02
1.29380543e-02 1.56331551e-03 -2.15445403e-02
1.60114318e-02 0.00000000e+00 -2.29514241e-02
1.63376052e-02 1.81212742e-03 -2.26810426e-02
1.82954073e-02 0.00000000e+00 -2.38846391e-02
1.89568549e-02 1.29713304e-03 -2.34246533e-02
1.56415207e-03 5.23211900e-03 -1.22433025e-02
0.00000000e+00 6.26177341e-03 -1.17522171e-02
4.57275007e-03 4.86040395e-03 -1.63120348e-02
8.10791831e-03 5.57695422e-03 -2.05173381e-02
1.33863185e-02 6.48688432e-03 -2.03741044e-02
1.72828082e-02 5.21974033e-03 -2.17007622e-02
2.03084443e-02 3.96502623e-03 -2.19927132e-02
7.66430283e-04 8.97447113e-03 -7.67183444e-03
0.00000000e+00 9.06007923e-03 -9.23156831e-03
4.09314828e-03 8.37672688e-03 -1.18324934e-02
5.85432863e-04 1.09690800e-02 -5.77529892e-03
0.00000000e+00 1.14102028e-02 -6.51753508e-03
1.56945875e-03 1.10648796e-02 -3.24703520e-03
6.87395688e-04 1.23280575e-02 -6.04020711e-03
0.00000000e+00 1.18157249e-02 -5.71524212e-03
1.69123965e-03 1.26408162e-02 -5.90776000e-03
1.12613570e-03 1.14912633e-02 2.25316733e-04
3.91618069e-03 1.12611577e-02 -5.15794940e-03
3.74541152e-04 1.28490198e-02 -6.34835847e-03
0.00000000e+00 1.29442737e-02 -7.30070239e-03
</DataArray>
<DataArray type="Float32" Name="Spatial_acceleration" NumberOfComponents="3" format="ascii">
0.00000000e+00 0.00000000e+00 0.00000000e+00
1.36343635e-06 0.00000000e+00 0.00000000e+00
-6.09854851e-08 -5.38746519e-07 0.00000000e+00
0.00000000e+00 -1.21895471e-06 0.00000000e+00
0.00000000e+00 0.00000000e+00 5.55038469e-07
-5.49554819e-08 0.00000000e+00 7.72476199e-08
1.89979872e-07 -5.48640855e-07 -4.51882670e-07
0.00000000e+00 -1.21434525e-07 6.32921854e-07
4.39484921e-07 0.00000000e+00 0.00000000e+00
7.65899813e-07 -6.79651862e-07 0.00000000e+00
1.33172671e-06 0.00000000e+00 8.84056078e-07
2.42590914e-07 -1.04705489e-08 -6.80128721e-07
1.84504188e-06 0.00000000e+00 0.00000000e+00
7.96695531e-07 -1.11317638e-06 0.00000000e+00
1.33450828e-06 0.00000000e+00 6.86645478e-08
8.69353585e-07 -1.03523334e-07 -4.33444967e-07
1.95026405e-06 0.00000000e+00 0.00000000e+00
1.62025287e-06 -2.63889632e-07 0.00000000e+00
1.41127907e-06 0.00000000e+00 -2.22206111e-07
1.71005729e-06 7.71284121e-08 1.19209290e-07
1.89701711e-06 0.00000000e+00 0.00000000e+00
2.08304323e-06 -2.27610272e-07 0.00000000e+00
1.19750200e-06 0.00000000e+00 2.52405812e-07
1.71546139e-06 6.34392109e-07 -2.30948132e-07
1.82270378e-06 0.00000000e+00 0.00000000e+00
2.14322404e-06 5.60919432e-07 0.00000000e+00
1.58278147e-06 0.00000000e+00 -3.38236475e-07
1.72098476e-06 -1.16666158e-07 2.84830719e-07
-3.39508063e-07 -1.26759204e-07 0.00000000e+00
0.00000000e+00 -1.01113324e-06 0.00000000e+00
5.79029290e-07 -2.75770816e-07 -3.80357108e-07
0.00000000e+00 -8.09272137e-07 -8.07444280e-08
5.93423863e-07 -1.81992839e-08 0.00000000e+00
7.33127195e-07 -1.12334888e-07 -4.20729322e-07
6.83625558e-07 -2.61147818e-07 0.00000000e+00
7.14199871e-07 -6.48135199e-07 -5.11714404e-07
9.46839634e-07 -3.98000083e-07 0.00000000e+00
1.16422439e-06 -5.22746006e-07 -8.90519914e-07
2.79426581e-06 3.80913406e-07 0.00000000e+00
1.54882014e-06 4.29948166e-08 -6.21795664e-07
2.87437433e-06 1.19384129e-06 0.00000000e+00
1.81070970e-06 1.00866953e-06 2.06841364e-07
2.49703731e-07 -4.61154315e-07 0.00000000e+00
0.00000000e+00 -3.05096307e-07 0.00000000e+00
2.43584310e-07 1.08540057e-07 -5.03857933e-08
0.00000000e+00 -6.64353365e-07 -6.35782871e-10
1.85807551e-07 -1.08242034e-07 0.00000000e+00
6.06377910e-07 -9.91225235e-08 -3.41494882e-07
5.33739694e-07 2.77360286e-08 0.00000000e+00
9.25699908e-07 -2.63108149e-07 -6.03993726e-08
2.47955327e-08 -4.70373379e-07 0.00000000e+00
1.48306958e-06 -6.20947958e-07 -6.23067251e-07
2.12940245e-06 -1.60005357e-07 0.00000000e+00
-7.13878194e-07 9.98603014e-07 -1.26584371e-06
2.08822894e-06 2.08028155e-06 0.00000000e+00
7.88370755e-08 8.25881955e-07 2.79108690e-06
-4.98374277e-07 -6.18298870e-08 0.00000000e+00
0.00000000e+00 -2.55584723e-07 0.00000000e+00
4.97659016e-07 -1.28110244e-07 -1.10467276e-07
0.00000000e+00 -4.13020445e-07 -4.17391448e-07
3.65495680e-07 1.80356196e-07 0.00000000e+00
2.14656197e-07 -2.50180562e-07 -6.07967365e-07
7.65363382e-07 -1.17778775e-07 0.00000000e+00
4.70691276e-07 -2.90446820e-07 -1.34362111e-07
3.50104443e-07 -8.46015098e-07 0.00000000e+00
1.83465750e-06 -4.41869119e-08 -1.12586554e-06
2.41510065e-06 1.04363755e-06 0.00000000e+00
1.02954436e-06 5.27779264e-07 0.00000000e+00
-1.68720874e-07 -2.77201337e-07 5.78284244e-07
8.40293069e-07 8.62624915e-07 -4.88970045e-07
-7.45112686e-07 -7.97510111e-08 0.00000000e+00
0.00000000e+00 2.88645424e-07 0.00000000e+00
4.43781403e-08 -3.68893154e-07 -4.47114303e-07
0.00000000e+00 5.33183425e-07 -2.00271604e-08
2.82923374e-08 1.53998528e-07 0.00000000e+00
4.71035634e-07 -3.81986297e-07 -1.18891400e-07
1.93119050e-08 -1.09434126e-07 0.00000000e+00
6.00443968e-07 -6.90354227e-07 1.44110786e-07
-3.72409829e-07 1.83105470e-07 0.00000000e+00
2.78741112e-07 -7.62542101e-08 -8.27113809e-08
9.81708354e-07 -2.64247262e-07 0.00000000e+00
-1.44934660e-07 4.49625645e-07 -8.77479689e-09
-1.44068395e-06 2.29771922e-06 0.00000000e+00
1.49297716e-06 1.89733510e-06 1.16238334e-06
-2.50736861e-07 6.92009905e-07 0.00000000e+00
0.00000000e+00 7.63485843e-07 0.00000000e+00
1.57912567e-07 -9.69568870e-09 -5.66482527e-07
0.00000000e+00 2.42948516e-07 6.00179021e-07
1.78573532e-06 -8.72135161e-07 0.00000000e+00
-4.09021965e-07 -3.06804964e-07 -1.98173529e-06
1.29604337e-06 -1.94867454e-07 0.00000000e+00
1.23765730e-07 5.96258360e-07 1.04183619e-06
5.67436189e-07 -1.34869413e-06 0.00000000e+00
-3.86555996e-07 5.46812998e-07 -3.57627847e-08
-2.43234626e-06 9.45568047e-07 0.00000000e+00
-4.96149084e-07 8.01563260e-07 -7.69466169e-07
-2.26809334e-07 1.94853055e-06 0.00000000e+00
-3.67880352e-06 3.09779739e-06 -3.09796133e-06
0.00000000e+00 0.00000000e+00 -1.71025590e-07
1.26173097e-06 0.00000000e+00 -4.76201365e-07
7.16765726e-07 -9.90182158e-08 -4.27563975e-08
0.00000000e+00 5.73794026e-08 -8.86917135e-08
9.82046117e-07 0.00000000e+00 -4.50452177e-07
1.11341478e-06 3.28381844e-07 -1.12215673e-07
1.27975147e-06 0.00000000e+00 -7.24792457e-08
1.07669825e-06 -2.10414328e-07 -1.66575106e-07
9.35847538e-07 0.00000000e+00 4.11033625e-07
9.60946068e-07 -1.75709530e-07 2.06311540e-07
1.47243338e-06 0.00000000e+00 -1.24931333e-07
1.43250827e-06 2.87095698e-08 4.82082385e-07
1.61599121e-06 0.00000000e+00 -8.32875529e-08
1.24134624e-06 1.73012410e-07 -5.67118320e-07
4.51803203e-07 -8.35855758e-08 -9.17116779e-07
0.00000000e+00 -6.99361147e-09 -5.84602333e-07
7.06945116e-07 -1.85625893e-07 -4.31969056e-07
1.06452308e-06 -2.33491264e-07 -4.83194981e-07
9.15537271e-07 -9.57647970e-08 -6.79016125e-07
1.20852076e-06 -3.79482890e-09 -5.65846747e-08
1.36140977e-06 -1.19785469e-07 5.78562435e-07
2.84582370e-07 -7.27176674e-09 -7.18434649e-07
0.00000000e+00 1.68323510e-07 -2.76565544e-07
7.14560372e-07 -1.36852265e-07 -1.30759346e-07
9.20772550e-07 -1.71661370e-08 -1.33864080e-06
1.00572905e-07 1.48673848e-07 -5.93423863e-07
0.00000000e+00 3.25282400e-07 -5.37236531e-08
6.93820766e-07 -7.27517246e-08 -9.10986060e-08
1.08083088e-06 -7.98543283e-07 -8.13378222e-07
3.26613588e-07 5.81890333e-07 -1.37646987e-06
0.00000000e+00 -2.82347202e-07 -1.14250179e-06
3.85105608e-07 3.19759039e-07 -6.79651862e-07
1.18533774e-06 -3.20792196e-07 -3.31242887e-07
4.30424990e-07 1.17862226e-06 -1.93786627e-06
0.00000000e+00 1.84146563e-06 -1.47565208e-06
8.28385339e-07 1.39101348e-06 -1.77097320e-06
6.76512684e-07 -9.37779703e-08 -2.22396852e-06
8.31248826e-07 9.63268667e-06 2.92266895e-06
2.11228922e-07 9.96192284e-06 7.31176624e-06
1.48612386e-07 1.25409615e-05 -9.74067007e-06
-9.04401134e-07 7.23703715e-06 -4.95939457e-06
0.00000000e+00 0.00000000e+00 -5.61396291e-07
5.52160657e-07 0.00000000e+00 -1.08591712e-06
5.39484120e-07 2.19265615e-07 -1.12740202e-06
0.00000000e+00 3.01559766e-07 -1.61202752e-06
1.10051030e-06 0.00000000e+00 -7.70886743e-07
8.42710335e-07 5.14586773e-08 -1.76747633e-07
1.32854780e-06 0.00000000e+00 -9.53674251e-10
1.01625915e-06 2.96195338e-07 2.99771614e-07
1.73978015e-06 0.00000000e+00 3.92913819e-07
1.49238110e-06 5.76953084e-07 -1.22388201e-07
2.27882470e-06 0.00000000e+00 -3.24249250e-08
1.58982971e-06 6.21780771e-07 -2.19027200e-07
1.33351489e-06 0.00000000e+00 3.16619861e-07
2.65262520e-06 -3.37858978e-07 -6.85056023e-07
5.08149469e-07 1.85072423e-07 -4.39643856e-07
0.00000000e+00 7.74065654e-07 -7.91549667e-07
7.07444656e-07 5.84965676e-07 -8.90822605e-07
1.38931273e-06 6.03230774e-07 -1.27029421e-06
1.29956004e-06 7.52449012e-07 -3.08990479e-07
1.60574416e-06 9.67115170e-07 -3.49044797e-07
2.48185802e-06 1.62851813e-06 -4.54584750e-07
3.65075607e-07 5.94547828e-07 -1.01216631e-06
0.00000000e+00 6.49929063e-07 -1.19241076e-06
5.56945793e-07 3.92834352e-07 -1.29826867e-06
-1.10467276e-07 6.14211672e-07 -1.16075785e-06
0.00000000e+00 1.75094601e-06 -1.04411447e-06
-1.91688542e-07 1.34595234e-06 -4.95274833e-07
5.44945408e-07 2.20090146e-06 -1.94056815e-06
0.00000000e+00 1.32715695e-06 -1.75635023e-06
4.51950797e-07 1.21053063e-06 -2.64812638e-06
-1.38562916e-06 1.46524110e-06 2.24685664e-06
-2.16166185e-07 3.74688057e-07 -1.02488195e-06
9.04003770e-08 1.86483066e-06 -2.96433768e-06
0.00000000e+00 1.51324275e-06 -3.79053745e-06
</DataArray>
<DataArray type="Float32" Name="Spatial_velocity" NumberOfComponents="3" format="ascii">
0.00000000e+00 0.00000000e+00 0.00000000e+00
2.11816605e-05 0.00000000e+00 0.00000000e+00
2.50337343e-05 6.70360678e-05 0.00000000e+00
0.00000000e+00 6.27126137e-05 0.00000000e+00
0.00000000e+00 0.00000000e+00 -7.17233415e-05
2.28894496e-05 0.00000000e+00 -7.55391738e-05
2.31177455e-05 6.02032414e-05 -7.14867347e-05
0.00000000e+00 5.90816817e-05 -6.45604960e-05
4.99443340e-05 0.00000000e+00 0.00000000e+00
5.25696669e-05 7.82712959e-05 0.00000000e+00
5.09533784e-05 0.00000000e+00 -9.10798335e-05
5.30457510e-05 6.52663948e-05 -8.12410144e-05
8.46059484e-05 0.00000000e+00 0.00000000e+00
8.54360624e-05 9.24341948e-05 0.00000000e+00
9.10850213e-05 0.00000000e+00 -1.06900799e-04
8.80516091e-05 7.27543811e-05 -9.45635984e-05
1.33305497e-04 0.00000000e+00 0.00000000e+00
1.22283120e-04 1.01696394e-04 0.00000000e+00
1.40972785e-04 0.00000000e+00 -1.17711788e-04
1.30491811e-04 7.55678411e-05 -1.11665919e-04
1.98563648e-04 0.00000000e+00 0.00000000e+00
1.75022971e-04 1.12132373e-04 0.00000000e+00
2.00961731e-04 0.00000000e+00 -1.41180295e-04
1.86675839e-04 7.93334984e-05 -1.27754451e-04
2.76567385e-04 0.00000000e+00 0.00000000e+00
2.25004376e-04 1.53346016e-04 0.00000000e+00
2.58826476e-04 0.00000000e+00 -1.55116475e-04
2.51503894e-04 1.02891907e-04 -1.52054243e-04
3.03242559e-05 1.12737995e-04 0.00000000e+00
0.00000000e+00 1.08256951e-04 0.00000000e+00
2.60272845e-05 1.08662825e-04 -5.34498213e-05
0.00000000e+00 1.05285304e-04 -5.27695556e-05
5.93271652e-05 1.25295905e-04 0.00000000e+00
5.38047752e-05 1.18491225e-04 -5.10180653e-05
8.26353571e-05 1.39972835e-04 0.00000000e+00
7.93295039e-05 1.28648375e-04 -4.00313766e-05
1.03730221e-04 1.61389791e-04 0.00000000e+00
1.10575347e-04 1.37559269e-04 -4.86301797e-05
1.21716548e-04 1.71507578e-04 0.00000000e+00
1.33916576e-04 1.48027349e-04 -4.27854611e-05
1.45168233e-04 2.06463214e-04 0.00000000e+00
1.73251479e-04 1.85361132e-04 -4.32349589e-05
3.26832269e-05 1.35365844e-04 0.00000000e+00
0.00000000e+00 1.32581554e-04 0.00000000e+00
2.76855826e-05 1.35101800e-04 -3.58292164e-05
0.00000000e+00 1.33876165e-04 -4.13830167e-05
5.87567411e-05 1.41275872e-04 0.00000000e+00
5.38946006e-05 1.40462304e-04 -2.42468250e-05
7.42054835e-05 1.51282351e-04 0.00000000e+00
6.87194115e-05 1.47788000e-04 -7.76332581e-06
7.67344900e-05 1.63563920e-04 0.00000000e+00
7.36706788e-05 1.54947687e-04 2.19855360e-06
9.41247708e-05 1.66831756e-04 0.00000000e+00
9.10301969e-05 1.60501790e-04 5.23636618e-06
9.53944254e-05 2.04977783e-04 0.00000000e+00
9.59563040e-05 1.99600749e-04 5.33698403e-06
3.15611032e-05 1.45125028e-04 0.00000000e+00
0.00000000e+00 1.45855272e-04 0.00000000e+00
2.68991644e-05 1.47577011e-04 -2.95513473e-05
0.00000000e+00 1.48018997e-04 -3.42450621e-05
5.43790375e-05 1.47128128e-04 0.00000000e+00
4.83527692e-05 1.45390266e-04 -1.75351124e-05
6.27534318e-05 1.52084394e-04 0.00000000e+00
5.83730034e-05 1.50248787e-04 -3.28454621e-06
6.14618475e-05 1.61903052e-04 0.00000000e+00
6.16093093e-05 1.61412900e-04 -6.17240289e-07
6.61349841e-05 1.85307610e-04 0.00000000e+00
6.45943946e-05 1.69781270e-04 0.00000000e+00
6.62697421e-05 1.86534162e-04 8.04282934e-07
6.40692233e-05 1.71098465e-04 6.68279995e-07
2.91039341e-05 1.56133072e-04 0.00000000e+00
0.00000000e+00 1.59759089e-04 0.00000000e+00
2.47931512e-05 1.57855698e-04 -3.05301146e-05
0.00000000e+00 1.60378506e-04 -3.91000212e-05
4.82653122e-05 1.51423796e-04 0.00000000e+00
4.14491478e-05 1.52490553e-04 -1.63109507e-05
5.25398355e-05 1.54108013e-04 0.00000000e+00
5.06072975e-05 1.53885863e-04 -1.33957428e-06
5.32778467e-05 1.61036529e-04 0.00000000e+00
5.21539150e-05 1.61051314e-04 1.90169089e-07
5.23809686e-05 1.71544205e-04 0.00000000e+00
5.29813442e-05 1.70870961e-04 -1.22733709e-07
5.21799775e-05 1.83184762e-04 0.00000000e+00
5.22828486e-05 1.82950622e-04 -1.26755538e-06
3.26355694e-05 1.72811706e-04 0.00000000e+00
0.00000000e+00 1.77536465e-04 0.00000000e+00
2.52700975e-05 1.73092834e-04 -3.55068041e-05
0.00000000e+00 1.78276372e-04 -4.49837535e-05
4.95493623e-05 1.60183277e-04 0.00000000e+00
4.11668079e-05 1.65707082e-04 -2.05889046e-05
4.85247583e-05 1.55153379e-04 0.00000000e+00
4.65421217e-05 1.58766081e-04 -3.60967647e-06
4.43588979e-05 1.61433054e-04 0.00000000e+00
4.43328463e-05 1.60815966e-04 4.26746936e-07
4.24950304e-05 1.71867592e-04 0.00000000e+00
4.18397576e-05 1.71212450e-04 1.46388447e-06
4.14690294e-05 1.82773147e-04 0.00000000e+00
4.24234386e-05 1.81734678e-04 7.70402153e-07
0.00000000e+00 0.00000000e+00 -1.37282797e-04
2.85719379e-05 0.00000000e+00 -1.46296414e-04
2.57696265e-05 4.80321905e-05 -1.34565198e-04
0.00000000e+00 5.04558157e-05 -1.29962689e-04
6.51537193e-05 0.00000000e+00 -1.58816401e-04
5.54188191e-05 3.91747562e-05 -1.60443466e-04
1.03877959e-04 0.00000000e+00 -1.85197583e-04
1.04897139e-04 3.62713472e-05 -1.83924640e-04
1.59923351e-04 0.00000000e+00 -2.22264614e-04
1.54594964e-04 4.01684883e-05 -1.92210035e-04
2.12975778e-04 0.00000000e+00 -2.50463607e-04
2.10367056e-04 4.13167363e-05 -2.18593588e-04
2.54602899e-04 0.00000000e+00 -2.69944343e-04
2.67805939e-04 3.93868286e-05 -2.40963491e-04
1.70608910e-05 9.48135348e-05 -1.11598150e-04
0.00000000e+00 9.82071142e-05 -1.00104895e-04
4.77201393e-05 9.27891670e-05 -1.17172749e-04
9.25133718e-05 1.02361206e-04 -1.23805716e-04
1.45732774e-04 1.13487265e-04 -1.57379414e-04
2.09757287e-04 1.17382995e-04 -1.61145697e-04
2.80152570e-04 1.13988397e-04 -1.89955375e-04
1.46218927e-05 1.34276415e-04 -8.00241542e-05
0.00000000e+00 1.32756599e-04 -7.06933133e-05
3.73357252e-05 1.35769471e-04 -5.41213230e-05
3.32490599e-05 1.37649011e-04 7.70277984e-06
1.75698697e-05 1.54571346e-04 -5.61311426e-05
0.00000000e+00 1.53444838e-04 -6.30119685e-05
3.44290966e-05 1.49659230e-04 -3.31121009e-05
4.17455485e-05 1.38257659e-04 -1.22769889e-05
1.49751913e-05 1.63851990e-04 -5.76842249e-05
0.00000000e+00 1.66797749e-04 -6.51436567e-05
3.10554933e-05 1.58557406e-04 -3.55232951e-05
5.25718497e-05 1.51188462e-04 -2.54004208e-05
8.88215527e-06 1.83084732e-04 -7.27995939e-05
0.00000000e+00 1.75879497e-04 -6.84746410e-05
2.77478903e-05 1.88281876e-04 -5.80628039e-05
5.77602550e-05 1.83468626e-04 -4.95580716e-05
5.45324365e-05 1.67892562e-04 2.27416052e-07
5.49370234e-05 1.78389833e-04 -4.01894476e-06
4.37130839e-05 1.78382659e-04 1.91511754e-06
4.39718642e-05 1.68014987e-04 3.05848243e-06
0.00000000e+00 0.00000000e+00 -2.07072808e-04
3.97268996e-05 0.00000000e+00 -2.12874409e-04
3.93246155e-05 4.12803856e-05 -1.98663081e-04
0.00000000e+00 4.08122978e-05 -1.91763305e-04
8.76092381e-05 0.00000000e+00 -2.35416679e-04
7.61015472e-05 3.06054753e-05 -2.12763713e-04
1.30900764e-04 0.00000000e+00 -2.55228457e-04
1.31415320e-04 2.18385394e-05 -2.47279968e-04
1.83531287e-04 0.00000000e+00 -2.75569328e-04
1.83819226e-04 2.37836466e-05 -2.84510636e-04
2.28371486e-04 0.00000000e+00 -3.05058289e-04
2.32826584e-04 2.74962440e-05 -3.00190441e-04
2.63969850e-04 0.00000000e+00 -3.17370461e-04
2.72273872e-04 2.11653078e-05 -3.11123906e-04
2.33843002e-05 7.54651337e-05 -1.64107594e-04
0.00000000e+00 9.01596577e-05 -1.58908369e-04
6.72699825e-05 7.15522765e-05 -2.10893151e-04
1.17370946e-04 8.33967351e-05 -2.67980155e-04
1.88675112e-04 9.50376707e-05 -2.73057754e-04
2.45534698e-04 7.81438139e-05 -2.85650342e-04
2.89906660e-04 6.15087702e-05 -2.92082666e-04
1.24026446e-05 1.29667184e-04 -1.06390391e-04
0.00000000e+00 1.28400381e-04 -1.24817336e-04
6.06404246e-05 1.20714758e-04 -1.56732640e-04
1.01314681e-05 1.57023518e-04 -8.15674284e-05
0.00000000e+00 1.63754288e-04 -8.80495863e-05
2.79589131e-05 1.56436174e-04 -4.70615341e-05
1.20931700e-05 1.79609997e-04 -8.36619001e-05
0.00000000e+00 1.71899897e-04 -7.85439988e-05
3.09123643e-05 1.83491473e-04 -8.29679848e-05
2.47935768e-05 1.63239165e-04 1.35744122e-05
6.73769900e-05 1.64841957e-04 -8.06409516e-05
9.09676965e-06 1.92063570e-04 -8.87816132e-05
0.00000000e+00 1.93597065e-04 -1.03295999e-04
</DataArray>
<DataArray type="Float32" Name="Reaction_force" NumberOfComponents="3" format="ascii">
1.02929068e+00 -1.48088324e+00 6.77324438e+00
0.00000000e+00 -2.60497761e+00 1.40953064e+01
0.00000000e+00 0.00000000e+00 2.71914806e+01
1.60253215e+00 0.00000000e+00 1.36937132e+01
1.75319481e+00 -2.75451756e+00 0.00000000e+00
0.00000000e+00 -4.80525923e+00 0.00000000e+00
0.00000000e+00 0.00000000e+00 0.00000000e+00
2.90941262e+00 0.00000000e+00 0.00000000e+00
0.00000000e+00 -2.08233619e+00 1.50127773e+01
0.00000000e+00 0.00000000e+00 2.74526520e+01
0.00000000e+00 -2.95057487e+00 0.00000000e+00
0.00000000e+00 0.00000000e+00 0.00000000e+00
0.00000000e+00 -1.43838000e+00 1.60078621e+01
0.00000000e+00 0.00000000e+00 2.80055790e+01
0.00000000e+00 -1.52306616e+00 0.00000000e+00
0.00000000e+00 0.00000000e+00 0.00000000e+00
0.00000000e+00 -8.08289647e-01 1.66518803e+01
0.00000000e+00 0.00000000e+00 2.89284801e+01
0.00000000e+00 -1.48018897e+00 0.00000000e+00
0.00000000e+00 0.00000000e+00 0.00000000e+00
0.00000000e+00 -1.41581476e+00 1.52792320e+01
0.00000000e+00 0.00000000e+00 2.78376770e+01
0.00000000e+00 -3.04987431e+00 0.00000000e+00
0.00000000e+00 0.00000000e+00 0.00000000e+00
0.00000000e+00 -1.51177049e+00 7.12158728e+00
0.00000000e+00 0.00000000e+00 1.39580994e+01
0.00000000e+00 -2.34900808e+00 0.00000000e+00
0.00000000e+00 0.00000000e+00 0.00000000e+00
0.00000000e+00 0.00000000e+00 2.56593246e+01
-2.06792355e-02 0.00000000e+00 1.35287151e+01
0.00000000e+00 0.00000000e+00 0.00000000e+00
1.28692234e+00 0.00000000e+00 0.00000000e+00
0.00000000e+00 0.00000000e+00 2.31585083e+01
0.00000000e+00 0.00000000e+00 0.00000000e+00
0.00000000e+00 0.00000000e+00 2.10036583e+01
0.00000000e+00 0.00000000e+00 0.00000000e+00
0.00000000e+00 0.00000000e+00 1.64833241e+01
0.00000000e+00 0.00000000e+00 0.00000000e+00
0.00000000e+00 0.00000000e+00 1.78714714e+01
0.00000000e+00 0.00000000e+00 0.00000000e+00
0.00000000e+00 0.00000000e+00 1.28628540e+01
0.00000000e+00 0.00000000e+00 0.00000000e+00
0.00000000e+00 0.00000000e+00 2.44146099e+01
-2.01089430e+00 0.00000000e+00 1.30312452e+01
0.00000000e+00 0.00000000e+00 0.00000000e+00
-1.89586473e+00 0.00000000e+00 0.00000000e+00
0.00000000e+00 0.00000000e+00 2.08467522e+01
0.00000000e+00 0.00000000e+00 0.00000000e+00
0.00000000e+00 0.00000000e+00 1.42376404e+01
0.00000000e+00 0.00000000e+00 0.00000000e+00
0.00000000e+00 0.00000000e+00 3.70653629e+00
0.00000000e+00 0.00000000e+00 0.00000000e+00
0.00000000e+00 0.00000000e+00 5.01757812e+00
0.00000000e+00 0.00000000e+00 0.00000000e+00
0.00000000e+00 0.00000000e+00 4.29222870e+00
0.00000000e+00 0.00000000e+00 0.00000000e+00
0.00000000e+00 0.00000000e+00 2.49270363e+01
-2.73674774e+00 0.00000000e+00 1.32923355e+01
0.00000000e+00 0.00000000e+00 0.00000000e+00
-4.61931419e+00 0.00000000e+00 0.00000000e+00
0.00000000e+00 0.00000000e+00 2.05289936e+01
0.00000000e+00 0.00000000e+00 0.00000000e+00
0.00000000e+00 0.00000000e+00 1.03895750e+01
0.00000000e+00 0.00000000e+00 0.00000000e+00
0.00000000e+00 0.00000000e+00 -3.17764807e+00
0.00000000e+00 0.00000000e+00 0.00000000e+00
0.00000000e+00 0.00000000e+00 -2.56740189e+00
0.00000000e+00 0.00000000e+00 -3.01205087e+00
0.00000000e+00 0.00000000e+00 0.00000000e+00
0.00000000e+00 0.00000000e+00 0.00000000e+00
0.00000000e+00 0.00000000e+00 2.73134022e+01
-2.54543161e+00 0.00000000e+00 1.34837074e+01
0.00000000e+00 0.00000000e+00 0.00000000e+00
-4.01897669e+00 0.00000000e+00 0.00000000e+00
0.00000000e+00 0.00000000e+00 2.49623013e+01
0.00000000e+00 0.00000000e+00 0.00000000e+00
0.00000000e+00 0.00000000e+00 1.60251617e+01
0.00000000e+00 0.00000000e+00 0.00000000e+00
0.00000000e+00 0.00000000e+00 1.15311384e+00
0.00000000e+00 0.00000000e+00 0.00000000e+00
0.00000000e+00 0.00000000e+00 -9.36337411e-01
0.00000000e+00 0.00000000e+00 0.00000000e+00
0.00000000e+00 0.00000000e+00 4.51440513e-01
0.00000000e+00 0.00000000e+00 0.00000000e+00
0.00000000e+00 0.00000000e+00 1.41811714e+01
-1.36936879e+00 0.00000000e+00 6.67203569e+00
0.00000000e+00 0.00000000e+00 0.00000000e+00
-1.61536360e+00 0.00000000e+00 0.00000000e+00
0.00000000e+00 0.00000000e+00 1.46566353e+01
0.00000000e+00 0.00000000e+00 0.00000000e+00
0.00000000e+00 0.00000000e+00 1.02600174e+01
0.00000000e+00 0.00000000e+00 0.00000000e+00
0.00000000e+00 0.00000000e+00 1.85518086e+00
0.00000000e+00 0.00000000e+00 0.00000000e+00
0.00000000e+00 0.00000000e+00 -3.92973125e-01
0.00000000e+00 0.00000000e+00 0.00000000e+00
0.00000000e+00 0.00000000e+00 -4.33477089e-02
0.00000000e+00 0.00000000e+00 0.00000000e+00
7.67099321e-01 -2.07989693e+00 0.00000000e+00
0.00000000e+00 -3.15056992e+00 0.00000000e+00
0.00000000e+00 0.00000000e+00 0.00000000e+00
2.10406446e+00 0.00000000e+00 0.00000000e+00
0.00000000e+00 -1.65294755e+00 0.00000000e+00
0.00000000e+00 0.00000000e+00 0.00000000e+00
0.00000000e+00 9.11946058e-01 0.00000000e+00
0.00000000e+00 0.00000000e+00 0.00000000e+00
0.00000000e+00 1.88640034e+00 0.00000000e+00
0.00000000e+00 0.00000000e+00 0.00000000e+00
0.00000000e+00 -2.65208513e-01 0.00000000e+00
0.00000000e+00 0.00000000e+00 0.00000000e+00
0.00000000e+00 -2.27587238e-01 0.00000000e+00
0.00000000e+00 0.00000000e+00 0.00000000e+00
0.00000000e+00 0.00000000e+00 0.00000000e+00
1.68335724e+00 0.00000000e+00 0.00000000e+00
0.00000000e+00 0.00000000e+00 0.00000000e+00
0.00000000e+00 0.00000000e+00 0.00000000e+00
0.00000000e+00 0.00000000e+00 0.00000000e+00
0.00000000e+00 0.00000000e+00 0.00000000e+00
0.00000000e+00 0.00000000e+00 0.00000000e+00
0.00000000e+00 0.00000000e+00 0.00000000e+00
-4.85138655e-01 0.00000000e+00 0.00000000e+00
0.00000000e+00 0.00000000e+00 0.00000000e+00
0.00000000e+00 0.00000000e+00 0.00000000e+00
0.00000000e+00 0.00000000e+00 0.00000000e+00
-2.25681877e+00 0.00000000e+00 0.00000000e+00
0.00000000e+00 0.00000000e+00 0.00000000e+00
0.00000000e+00 0.00000000e+00 0.00000000e+00
0.00000000e+00 0.00000000e+00 0.00000000e+00
-2.00611329e+00 0.00000000e+00 0.00000000e+00
0.00000000e+00 0.00000000e+00 0.00000000e+00
0.00000000e+00 0.00000000e+00 0.00000000e+00
0.00000000e+00 0.00000000e+00 0.00000000e+00
-2.15982556e-01 0.00000000e+00 0.00000000e+00
0.00000000e+00 0.00000000e+00 0.00000000e+00
0.00000000e+00 0.00000000e+00 0.00000000e+00
0.00000000e+00 0.00000000e+00 0.00000000e+00
0.00000000e+00 0.00000000e+00 0.00000000e+00
0.00000000e+00 0.00000000e+00 0.00000000e+00
0.00000000e+00 0.00000000e+00 0.00000000e+00
-3.14082921e-01 -3.38084996e-01 0.00000000e+00
0.00000000e+00 7.57707894e-01 0.00000000e+00
0.00000000e+00 0.00000000e+00 0.00000000e+00
7.48170614e-01 0.00000000e+00 0.00000000e+00
0.00000000e+00 1.77946174e+00 0.00000000e+00
0.00000000e+00 0.00000000e+00 0.00000000e+00
0.00000000e+00 3.21164417e+00 0.00000000e+00
0.00000000e+00 0.00000000e+00 0.00000000e+00
0.00000000e+00 4.73388863e+00 0.00000000e+00
0.00000000e+00 0.00000000e+00 0.00000000e+00
0.00000000e+00 4.39765978e+00 0.00000000e+00
0.00000000e+00 0.00000000e+00 0.00000000e+00
0.00000000e+00 2.92493320e+00 0.00000000e+00
0.00000000e+00 0.00000000e+00 0.00000000e+00
0.00000000e+00 0.00000000e+00 0.00000000e+00
1.30628920e+00 0.00000000e+00 0.00000000e+00
0.00000000e+00 0.00000000e+00 0.00000000e+00
0.00000000e+00 0.00000000e+00 0.00000000e+00
0.00000000e+00 0.00000000e+00 0.00000000e+00
0.00000000e+00 0.00000000e+00 0.00000000e+00
0.00000000e+00 0.00000000e+00 0.00000000e+00
0.00000000e+00 0.00000000e+00 0.00000000e+00
3.17059541e+00 0.00000000e+00 0.00000000e+00
0.00000000e+00 0.00000000e+00 0.00000000e+00
0.00000000e+00 0.00000000e+00 0.00000000e+00
5.51402569e-01 0.00000000e+00 0.00000000e+00
0.00000000e+00 0.00000000e+00 0.00000000e+00
0.00000000e+00 0.00000000e+00 0.00000000e+00
-8.66675973e-02 0.00000000e+00 0.00000000e+00
0.00000000e+00 0.00000000e+00 0.00000000e+00
0.00000000e+00 0.00000000e+00 0.00000000e+00
0.00000000e+00 0.00000000e+00 0.00000000e+00
0.00000000e+00 0.00000000e+00 0.00000000e+00
1.98862255e+00 0.00000000e+00 0.00000000e+00
</DataArray>
<DataArray type="Float32" Name="Equivalent_plastic_strain" format="ascii">
5.09077962e-03
5.50806592e-03
4.92446066e-03
4.54665814e-03
4.88132727e-03
5.10889082e-03
4.66616714e-03
4.43585077e-03
6.67757099e-03
5.57381718e-03
5.66558202e-03
5.48433902e-03
7.90064083e-03
6.45388989e-03
6.62357803e-03
6.26384938e-03
8.88336264e-03
7.81452470e-03
7.76281371e-03
6.80655352e-03
1.06829875e-02
9.10072797e-03
8.72785016e-03
7.95174530e-03
1.28037585e-02
1.09462189e-02
9.71210934e-03
9.13147908e-03
3.39225866e-03
3.45971249e-03
3.61334646e-03
3.28368350e-03
3.10160319e-03
3.70836322e-03
2.54578091e-03
3.91402960e-03
3.08356172e-03
4.76772804e-03
2.97044183e-03
5.28591794e-03
3.16333608e-03
6.38071812e-03
2.16395227e-03
2.55847524e-03
2.40002185e-03
2.24491619e-03
1.39616293e-03
1.51354945e-03
3.10511943e-04
3.54360292e-04
1.65757156e-05
1.01681218e-03
-1.85150241e-04
7.88190674e-04
-3.31803603e-05
8.30002624e-04
1.76991700e-03
2.11479305e-03
1.63404693e-03
1.87394139e-03
9.43040257e-04
8.92497970e-04
7.09926030e-05
1.93529715e-04
-2.11229659e-05
3.83204891e-06
1.90894250e-04
-3.68792971e-05
2.90305106e-05
-3.30090528e-05
1.76414422e-03
2.24593189e-03
1.58640895e-03
1.89483375e-03
8.24635528e-04
8.89239236e-04
-3.66398917e-05
3.82594552e-04
0.00000000e+00
0.00000000e+00
0.00000000e+00
0.00000000e+00
0.00000000e+00
0.00000000e+00
1.99138094e-03
2.61224667e-03
1.89338953e-03
2.00522196e-03
9.14778764e-04
1.30288918e-03
-4.19386452e-05
6.44573219e-04
0.00000000e+00
0.00000000e+00
0.00000000e+00
0.00000000e+00
0.00000000e+00
0.00000000e+00
4.56340355e-03
4.57408780e-03
4.32334008e-03
4.28127625e-03
4.57075227e-03
4.73096210e-03
4.86102689e-03
5.52465930e-03
5.48138923e-03
6.04235288e-03
5.46682696e-03
6.08268857e-03
5.16892923e-03
5.71138749e-03
3.77892441e-03
3.50749912e-03
5.35352754e-03
7.36300210e-03
7.72137661e-03
8.51020683e-03
8.63166736e-03
2.42539836e-03
2.55736514e-03
3.48528042e-03
2.55159600e-03
1.55491849e-03
1.58978923e-03
7.83346173e-04
1.24329817e-05
1.39454954e-03
9.88379543e-04
1.79623805e-03
1.84314713e-03
1.33253743e-03
1.14318848e-03
2.33065657e-03
5.13031997e-03
0.00000000e+00
0.00000000e+00
0.00000000e+00
0.00000000e+00
4.60941321e-03
4.52760793e-03
4.66337113e-03
4.67718625e-03
4.39263840e-03
4.69457696e-03
4.25078406e-03
4.92844533e-03
3.86187469e-03
5.36789512e-03
3.15811101e-03
4.68567089e-03
2.59912736e-03
3.87549138e-03
4.65107127e-03
4.24117642e-03
5.32891678e-03
8.08563801e-03
7.77822640e-03
6.55973831e-03
5.55618713e-03
4.34553116e-03
2.71691589e-03
8.44491867e-03
1.99234118e-03
1.78910120e-03
3.16747668e-03
1.00032455e-03
1.24147422e-03
2.51349850e-03
1.96875213e-03
8.22717013e-03
2.87824697e-03
2.11189274e-03
</DataArray>
<DataArray type="Float32" Name="Stress_Mises" format="ascii">
2.87729130e+01
2.96125984e+01
2.93386621e+01
2.86210051e+01
2.87531357e+01
2.92010379e+01
2.90216305e+01
2.86177936e+01
3.19868851e+01
3.01451569e+01
2.99891968e+01
3.08581619e+01
3.37592945e+01
3.12897806e+01
3.14485326e+01
3.17382486e+01
3.32557020e+01
3.33524585e+01
3.23573599e+01
3.10509326e+01
3.28656197e+01
3.32082934e+01
3.06285548e+01
3.15893795e+01
3.69340744e+01
3.77629089e+01
3.16317444e+01
3.41295409e+01
2.79040885e+01
2.85593958e+01
2.87078209e+01
2.78697052e+01
2.64846053e+01
2.81102264e+01
2.36361790e+01
2.83525423e+01
2.32247844e+01
2.90981744e+01
2.19421685e+01
3.06540016e+01
2.65549164e+01
3.63816287e+01
2.70005050e+01
2.84639597e+01
2.79496462e+01
2.73439426e+01
2.50716596e+01
2.56834145e+01
2.20770636e+01
2.51410030e+01
2.04337502e+01
2.27001375e+01
2.85935586e+01
3.09721012e+01
2.93037357e+01
3.17607889e+01
2.77565355e+01
2.85925970e+01
2.74972422e+01
2.79428182e+01
2.59496875e+01
2.56862566e+01
2.31697588e+01
2.46770086e+01
1.18973959e+01
1.91114216e+01
2.04324751e+01
1.93111340e+01
2.79300175e+01
2.20222762e+01
2.89932494e+01
2.92484894e+01
2.86258843e+01
2.90349135e+01
2.86127591e+01
2.84884264e+01
2.43557978e+01
2.83166882e+01
9.61555147e+00
1.15453551e+01
7.23746765e+00
3.90498238e+00
8.04785752e+00
8.31524793e+00
3.01612272e+01
3.02119656e+01
3.05345559e+01
2.99493008e+01
3.12406530e+01
3.18320270e+01
2.92822714e+01
3.37760468e+01
1.88014021e+01
2.04893560e+01
9.51490593e+00
5.64440997e+00
4.67972517e+00
3.14197040e+00
2.87988949e+01
2.91218767e+01
2.89158688e+01
2.88020301e+01
2.88783364e+01
3.02979441e+01
2.93357778e+01
3.16882222e+01
3.07346373e+01
3.13002899e+01
2.90891747e+01
3.01231303e+01
2.77609949e+01
2.80753975e+01
2.92472677e+01
2.79329128e+01
3.57259369e+01
4.10237610e+01
3.67987137e+01
3.90438070e+01
3.86601257e+01
2.77837195e+01
2.77391119e+01
3.45172536e+01
4.00323105e+01
2.66478658e+01
2.72350039e+01
2.70732664e+01
3.08036696e+01
2.89171917e+01
2.78452911e+01
2.94598777e+01
3.04106121e+01
3.10542912e+01
3.02757988e+01
3.17318377e+01
4.12698193e+01
1.44189191e+00
1.66125703e+00
1.14995265e+00
1.71707630e+00
2.91960449e+01
2.95520988e+01
2.97827697e+01
2.97601919e+01
2.97542739e+01
3.06952934e+01
2.95966358e+01
3.15345335e+01
2.89378271e+01
3.24006312e+01
2.79197998e+01
3.04343505e+01
2.71790838e+01
2.80963931e+01
3.03219647e+01
2.86106334e+01
3.40823174e+01
4.49562393e+01
3.97887735e+01
3.45517559e+01
3.08341169e+01
3.38380312e+01
2.65494685e+01
5.18693523e+01
2.91488977e+01
2.64806623e+01
3.92815170e+01
2.54599379e+01
2.71856484e+01
2.82737334e+01
4.12668037e+01
4.91685804e+01
3.26620092e+01
3.17237101e+01
</DataArray>
<DataArray type="Float32" Name="Stress_Max_Principal" format="ascii">
5.67219210e+00
4.91840625e+00
4.45338637e+00
4.82026315e+00
5.32075834e+00
4.65975070e+00
4.38431433e+00
4.89731377e+00
2.93708396e+00
3.98554462e+00
3.57979256e+00
2.62949190e+00
1.32729065e+00
2.59591039e+00
1.80129611e+00
1.56013681e+00
9.25807636e-01
6.44658089e-01
2.85179332e-01
1.85141599e+00
8.23817492e-01
1.16830643e+00
1.55133893e+00
1.91389707e+00
-2.86433905e-01
-1.01248151e+00
2.06038740e+00
1.41600484e+00
4.49227095e+00
3.13417143e+00
3.59042081e+00
3.86113268e+00
6.66858685e+00
4.71766979e+00
9.62836516e+00
5.54656356e+00
1.11011974e+01
6.27566342e+00
1.24398146e+01
6.21654586e+00
1.13118176e+01
3.25524139e+00
5.95127106e+00
4.25354815e+00
4.23783234e+00
4.44050574e+00
8.48767650e+00
8.87835097e+00
1.46750906e+01
1.76578854e+01
2.10661748e+01
1.76473840e+01
2.39594148e+01
2.03312804e+01
1.65858889e+01
1.28404779e+01
6.23890424e+00
5.30154562e+00
5.84443480e+00
5.23986089e+00
7.94597006e+00
8.03521430e+00
1.40629499e+01
1.35064485e+01
1.20648877e+01
1.72625119e+01
7.91645336e+00
1.27453965e+01
1.20719113e+01
1.58124456e+01
3.93912480e+00
3.73137069e+00
4.16271552e+00
3.57143474e+00
6.07535881e+00
5.20115842e+00
9.81214666e+00
8.36452158e+00
5.14829113e+00
6.96937713e+00
4.16633156e+00
2.34793010e+00
2.18034637e+00
2.29282449e+00
3.12837106e+00
3.02185631e+00
2.34659627e+00
3.05819058e+00
5.24487424e+00
2.80466819e+00
1.19003439e+01
7.17894620e+00
3.84484160e+00
5.42752421e+00
1.97220361e+00
1.31072563e+00
1.67889714e+00
1.32665801e+00
3.87467790e+00
2.95176744e+00
4.17904577e+00
4.26253229e+00
2.52054568e+00
2.69106817e+00
2.33391124e+00
1.12708732e+00
1.53224535e+00
1.01501402e+00
1.91480505e+00
2.11159414e+00
3.75117135e+00
4.34181827e+00
4.21025287e+00
5.69894421e+00
-1.74890540e+00
-5.09295532e+00
-4.14994693e+00
-6.48033142e+00
-6.01765919e+00
5.81995430e+00
5.25133258e+00
3.50371520e+00
1.65582290e+01
5.58544493e+00
4.39731389e+00
1.03666742e+01
1.39473883e+01
4.55455059e+00
4.77225268e+00
4.79547901e+00
5.00732484e+00
2.59339764e+00
3.72797823e+00
2.15584871e+00
-7.24018717e+00
7.12355286e-01
9.43683296e-01
4.25347716e-01
1.03385878e+00
1.01556164e+00
1.08430610e+00
2.21162732e+00
1.25745506e+00
2.93663107e+00
2.93134459e+00
4.15182465e+00
2.57348733e+00
4.76782006e+00
1.39020348e+00
4.40842333e+00
2.00772233e+00
5.93670368e+00
4.13263753e+00
4.14827675e+00
5.18609178e+00
3.69726317e-01
-7.76088065e+00
-5.98990124e+00
-2.72882801e+00
-2.63220668e-02
3.16142091e+00
8.59098458e+00
-9.00915325e+00
5.48478978e+00
7.60907960e+00
2.19552422e+00
8.62505844e+00
7.64563513e+00
8.37766601e+00
1.09579134e+01
-5.38153640e+00
4.23986697e+00
3.81721365e+00
</DataArray>
<DataArray type="Float32" Name="Stress_Mid_Principal" format="ascii">
-4.43347025e+00
-5.01648450e+00
-3.79241610e+00
-2.94016421e+00
-3.85379803e+00
-3.77949280e+00
-3.01361655e+00
-3.00808644e+00
-6.92838740e+00
-4.56896663e+00
-3.64882204e+00
-4.00344561e+00
-8.23427939e+00
-4.68885577e+00
-4.07450235e+00
-4.19235513e+00
-6.73968768e+00
-6.06508446e+00
-4.02853549e+00
-3.17533531e+00
-5.71136034e+00
-6.01980349e+00
-2.36432415e+00
-3.81080297e+00
-1.18373451e+01
-1.16239815e+01
-4.37217379e+00
-7.16537037e+00
-9.38092358e-01
-6.58792496e-01
-1.27109510e+00
-7.04052970e-02
-5.33745691e-01
-1.02940179e+00
2.29694120e+00
-2.37773103e-01
3.03726336e+00
-2.31917097e+00
2.63053101e+00
-3.56989322e+00
-2.97593594e-01
-9.73629925e+00
-9.16048944e-01
-1.76326409e+00
-1.77317798e-01
6.26116663e-01
7.14088723e-01
2.33266190e+00
5.63074899e+00
4.93427656e+00
8.50887839e+00
3.15418112e+00
3.04659992e+00
-2.61433570e+00
2.02921927e+00
-1.27223301e+00
-2.72814491e+00
-3.37399530e+00
-1.33626079e+00
-1.86135583e+00
1.98403001e-03
2.58485556e-01
4.64233410e+00
3.34021027e+00
5.80361811e+00
2.92941908e+00
3.24636520e+00
2.55310321e+00
5.80524349e+00
-1.25370351e+00
-2.02319813e+00
-2.58861721e+00
-1.71431151e+00
-1.96558999e+00
-2.49244958e+00
-1.22494362e+00
-4.15374428e-01
-1.04528068e+00
1.47801802e+00
8.93328004e-02
1.09375626e-01
-1.62609112e-01
-3.48934256e-01
7.64698486e-01
-3.15400434e+00
-3.47554660e+00
-2.69587289e+00
-2.20854819e+00
-5.91000676e+00
-4.03166765e+00
-9.63687229e+00
-5.27677520e+00
1.94168079e+00
1.32260731e+00
1.21899594e+00
1.41921173e-01
-1.66892838e+00
-1.42795157e+00
-1.89816874e+00
-1.30144735e+00
-2.28554085e+00
-2.34357664e+00
1.31506622e-02
-2.63286636e+00
-4.88497235e-01
-3.06932738e+00
-1.82308269e+00
-2.64035417e+00
2.02556048e-01
-1.61684415e+00
1.07521023e+00
1.43789664e-01
-2.45810070e+00
-2.32816830e+00
-6.37141169e+00
-1.11396703e+01
-7.09397185e+00
-8.05742240e+00
-7.50605464e+00
7.19072148e-02
-2.50140041e-01
-4.41741208e+00
-5.77034664e+00
6.17574196e-01
1.36999215e+00
1.78618648e+00
5.83513904e+00
-1.80693724e+00
8.18945982e-01
-3.01896969e+00
-5.30788779e-01
-1.10547644e+00
-1.19263463e+00
-2.59808010e+00
-8.20980835e+00
-3.51230055e-02
-2.78262332e-01
1.38910392e-01
-4.67409566e-01
6.42390162e-01
4.58635390e-03
-1.34239560e+00
-4.69292235e-01
-2.00364759e+00
-3.49297733e+00
-3.49521881e+00
-4.41159108e+00
-2.75108503e+00
-4.88483426e+00
-2.33912885e-01
-2.32174823e+00
-6.46427929e-01
-3.86162013e-01
-4.09740180e+00
-2.20382731e+00
-2.74365615e+00
-1.21032756e+01
-9.75364077e+00
-4.51277244e+00
-7.82623351e-01
-6.62997234e+00
-3.56939130e-01
-1.81915159e+01
-6.78923215e-01
-7.29751006e-01
-7.16446620e+00
3.83214910e+00
1.00771654e+00
2.14694224e+00
-5.90484571e+00
-1.69477154e+01
-4.08926593e+00
-3.44944090e+00
</DataArray>
<DataArray type="Float32" Name="Stress_Min_Principal" format="ascii">
-2.67902584e+01
-2.83709822e+01
-2.80762100e+01
-2.68337173e+01
-2.68993683e+01
-2.78236542e+01
-2.75880730e+01
-2.68127928e+01
-3.28139162e+01
-2.94437084e+01
-2.93280797e+01
-3.09805882e+01
-3.61584129e+01
-3.15068884e+01
-3.21516910e+01
-3.26246097e+01
-3.54681606e+01
-3.54104409e+01
-3.40036583e+01
-3.13808441e+01
-3.48098993e+01
-3.49624839e+01
-3.08449173e+01
-3.20861151e+01
-4.16154861e+01
-4.28271599e+01
-3.22872667e+01
-3.61419735e+01
-2.57019162e+01
-2.71131582e+01
-2.71610653e+01
-2.56765599e+01
-2.26446862e+01
-2.57515900e+01
-1.67661766e+01
-2.51520672e+01
-1.50261129e+01
-2.60847038e+01
-1.25859985e+01
-2.79336708e+01
-1.89551939e+01
-3.75309296e+01
-2.37169352e+01
-2.66544437e+01
-2.55726511e+01
-2.44985256e+01
-1.94640603e+01
-1.92647853e+01
-1.01792481e+01
-1.11204070e+01
-1.51055884e+00
-8.35212334e+00
-8.62239059e+00
-1.45286434e+01
-1.60370507e+01
-2.24658146e+01
-2.48345957e+01
-2.66237354e+01
-2.44881947e+01
-2.55586400e+01
-2.06794038e+01
-2.03059218e+01
-1.17079192e+01
-1.44554663e+01
-1.03326279e+00
-3.74630030e+00
-1.42649660e+01
-9.31405535e+00
-1.84523230e+01
-8.63471411e+00
-2.74337187e+01
-2.81471672e+01
-2.68814301e+01
-2.77910852e+01
-2.55652776e+01
-2.57956171e+01
-1.77134409e+01
-2.32460988e+01
-5.72275293e+00
-6.15513599e+00
-4.04507424e+00
-2.14778924e+00
-6.75004578e+00
-6.58159081e+00
-2.96461267e+01
-2.99101849e+01
-3.03839035e+01
-2.91572094e+01
-3.00335350e+01
-3.18612399e+01
-2.14171410e+01
-3.01868534e+01
-1.58242431e+01
-1.67878299e+01
-7.87549210e+00
-4.82049966e+00
-3.66841650e+00
-2.09541178e+00
-2.73732891e+01
-2.80467858e+01
-2.74195199e+01
-2.72675500e+01
-2.75295401e+01
-2.98548422e+01
-2.82568598e+01
-3.24333026e+01
-3.07368345e+01
-3.19412861e+01
-2.79847984e+01
-2.96988242e+01
-2.52439089e+01
-2.55936985e+01
-2.77077825e+01
-2.53259368e+01
-3.95035073e+01
-4.87104012e+01
-4.23161612e+01
-4.62852373e+01
-4.53967094e+01
-2.42514964e+01
-2.46948342e+01
-3.39572992e+01
-2.95595016e+01
-2.31726768e+01
-2.42228522e+01
-1.97024183e+01
-2.00527232e+01
-2.70023072e+01
-2.48129725e+01
-2.76666337e+01
-2.77715449e+01
-3.00131712e+01
-2.87037172e+01
-3.16740811e+01
-4.89817142e+01
-9.49144691e-01
-9.37340140e-01
-8.36171746e-01
-8.38371217e-01
-2.83652792e+01
-2.89875760e+01
-2.91215537e+01
-2.93078547e+01
-2.89732919e+01
-3.04344203e+01
-2.84979529e+01
-3.17960050e+01
-2.71708755e+01
-3.36574333e+01
-2.55097456e+01
-3.03385963e+01
-2.39196100e+01
-2.59253993e+01
-2.93704295e+01
-2.63775740e+01
-3.51582819e+01
-5.46660194e+01
-4.75253477e+01
-3.81377487e+01
-3.12309675e+01
-3.41983204e+01
-2.12447387e+01
-6.47067337e+01
-2.60527684e+01
-2.16618702e+01
-4.04497156e+01
-1.87931440e+01
-2.21328144e+01
-2.23375126e+01
-3.60698967e+01
-5.89926669e+01
-3.12347937e+01
-3.09085093e+01
</DataArray>
<DataArray type="Float32" Name="Stress_Pressure" format="ascii">
8.51717854e+00
9.48968649e+00
9.13841343e+00
8.31787276e+00
8.47746897e+00
8.98113203e+00
8.73912531e+00
8.30785513e+00
1.22684064e+01
1.00090435e+01
9.79903698e+00
1.07848471e+01
1.43551340e+01
1.11999447e+01
1.14749658e+01
1.17522762e+01
1.37606802e+01
1.36102893e+01
1.25823381e+01
1.09015877e+01
1.32324805e+01
1.32713267e+01
1.05526342e+01
1.13276739e+01
1.79130878e+01
1.84878740e+01
1.15330179e+01
1.39637799e+01
7.38257933e+00
8.21259332e+00
8.28057998e+00
7.29527736e+00
5.50328147e+00
7.35444084e+00
1.61362350e+00
6.61442558e+00
2.95884207e-01
7.37607000e+00
-8.28115702e-01
8.42900603e+00
2.64698958e+00
1.46706625e+01
6.22723782e+00
8.05472016e+00
7.17071223e+00
6.47730118e+00
3.42076519e+00
2.68459086e+00
-3.37553030e+00
-3.82391826e+00
-9.35483138e+00
-4.14981397e+00
-6.12787437e+00
-1.06276743e+00
-8.59352607e-01
3.63252345e+00
7.10794544e+00
8.23206162e+00
6.66000688e+00
7.39337862e+00
4.24381667e+00
4.00407391e+00
-2.33245494e+00
-7.97064160e-01
-5.61174766e+00
-5.48187709e+00
1.03404899e+00
-1.99481471e+00
1.91722751e-01
-1.97467597e+00
8.50593078e+00
9.00147152e+00
8.14434218e+00
8.72841346e+00
7.32745600e+00
7.27313399e+00
2.77222294e+00
5.30895245e+00
-3.01185548e-01
-3.01191360e-01
-7.68776834e-02
-1.25105590e-02
1.63954467e+00
1.17468924e+00
9.89058685e+00
1.01212921e+01
1.02443932e+01
9.43585539e+00
1.02328887e+01
1.10294130e+01
6.38455653e+00
9.42822742e+00
3.34590697e+00
3.34589928e+00
1.56143075e+00
1.12261756e+00
1.21948254e+00
7.32235126e-01
8.46559334e+00
8.79882169e+00
8.50867158e+00
8.44953156e+00
8.33194792e+00
9.93221319e+00
8.80381525e+00
1.14585142e+01
1.03425572e+01
1.11888753e+01
8.62247872e+00
9.73469143e+00
6.80584240e+00
7.03603002e+00
8.65187687e+00
7.31838703e+00
1.58746082e+01
2.16476757e+01
1.78533602e+01
2.02743306e+01
1.96401410e+01
6.11987833e+00
6.56454706e+00
1.16236653e+01
6.25720663e+00
5.65655255e+00
6.15184855e+00
2.51651920e+00
9.00652210e-02
8.08489788e+00
6.40725797e+00
8.63004154e+00
7.76500297e+00
9.50841689e+00
8.72279096e+00
1.07054375e+01
2.14772358e+01
9.06374753e-02
9.06397142e-02
9.06378776e-02
9.06406753e-02
8.90244246e+00
9.29956102e+00
9.41744059e+00
9.50656402e+00
9.34676933e+00
1.03320178e+01
9.28044915e+00
1.12113695e+01
8.38471329e+00
1.23840213e+01
7.11174500e+00
1.02175410e+01
6.20977783e+00
7.39297469e+00
9.77318478e+00
7.79843652e+00
1.25107373e+01
2.48433922e+01
2.10896304e+01
1.51264496e+01
1.06799707e+01
1.25556239e+01
4.33689779e+00
3.06358004e+01
7.08230059e+00
4.92751372e+00
1.51395526e+01
2.11197890e+00
4.49315423e+00
3.93763494e+00
1.03389425e+01
2.71073058e+01
1.03613971e+01
1.01802454e+01
</DataArray>
<DataArray type="Float32" Name="Stress_Tresca" format="ascii">
3.24624519e+01
3.32893887e+01
3.25295963e+01
3.16539803e+01
3.22201271e+01
3.24834046e+01
3.19723871e+01
3.17101059e+01
3.57510014e+01
3.34292536e+01
3.29078722e+01
3.36100798e+01
3.74857044e+01
3.41027989e+01
3.39529877e+01
3.41847467e+01
3.63939686e+01
3.60550995e+01
3.42888370e+01
3.32322605e+01
3.56337166e+01
3.61307907e+01
3.23962555e+01
3.40000119e+01
4.13290520e+01
4.18146782e+01
3.43476553e+01
3.75579772e+01
3.01941867e+01
3.02473288e+01
3.07514865e+01
2.95376930e+01
2.93132730e+01
3.04692600e+01
2.63945417e+01
3.06986307e+01
2.61273103e+01
3.23603668e+01
2.50258131e+01
3.41502161e+01
3.02670116e+01
4.07861716e+01
2.96682062e+01
3.09079933e+01
2.98104837e+01
2.89390316e+01
2.79517369e+01
2.81431367e+01
2.48543386e+01
2.87782920e+01
2.25767333e+01
2.59995079e+01
3.25818055e+01
3.48599243e+01
3.26229391e+01
3.53062925e+01
3.10735006e+01
3.19252815e+01
3.03326294e+01
3.07985010e+01
2.86253738e+01
2.83411365e+01
2.57708693e+01
2.79619150e+01
1.30981501e+01
2.10088120e+01
2.21814194e+01
2.20594524e+01
3.05242348e+01
2.44471598e+01
3.13728437e+01
3.18785381e+01
3.10441453e+01
3.13625202e+01
3.16406364e+01
3.09967756e+01
2.75255871e+01
3.16106205e+01
1.08710442e+01
1.31245129e+01
8.21140563e+00
4.49571939e+00
8.93039203e+00
8.87441540e+00
3.27744980e+01
3.29320412e+01
3.27304993e+01
3.22153997e+01
3.52784081e+01
3.46659074e+01
3.33174858e+01
3.73658002e+01
1.96690845e+01
2.22153544e+01
9.84769559e+00
6.13122527e+00
5.34731388e+00
3.42206979e+00
3.12479668e+01
3.09985528e+01
3.15985658e+01
3.15300822e+01
3.00500860e+01
3.25459096e+01
3.05907707e+01
3.35603895e+01
3.22690792e+01
3.29563000e+01
2.98996034e+01
3.18104186e+01
2.89950800e+01
2.99355173e+01
3.19180360e+01
3.10248809e+01
3.77546022e+01
4.36174454e+01
3.81662140e+01
3.98049059e+01
3.93790512e+01
3.00714507e+01
2.99461665e+01
3.74610141e+01
4.61177311e+01
2.87581220e+01
2.86201658e+01
3.00690926e+01
3.40001106e+01
3.15568578e+01
2.95852246e+01
3.24621127e+01
3.27788701e+01
3.26065693e+01
3.24316959e+01
3.38299303e+01
4.17415276e+01
1.66149998e+00
1.88102341e+00
1.26151949e+00
1.87222993e+00
2.93808413e+01
3.00718818e+01
3.13331816e+01
3.05653095e+01
3.19099231e+01
3.33657653e+01
3.26497784e+01
3.43694925e+01
3.19386950e+01
3.50476365e+01
2.99181685e+01
3.23463185e+01
2.98563137e+01
3.00580373e+01
3.35187063e+01
3.15636659e+01
3.55280086e+01
4.69051392e+01
4.15354462e+01
3.54089203e+01
3.12046461e+01
3.73597409e+01
2.98357229e+01
5.56975813e+01
3.15375579e+01
2.92709494e+01
4.26452398e+01
2.74182030e+01
2.97784491e+01
3.07151788e+01
4.70278091e+01
5.36111310e+01
3.54746614e+01
3.47257233e+01
</DataArray>
<DataArray type="Float32" Name="Stress_Third_Invariant" format="ascii">
-2.42691422e+01
-2.53671303e+01
-2.63224635e+01
-2.58939133e+01
-2.51254206e+01
-2.62052307e+01
-2.66437972e+01
-2.58605185e+01
-2.82167368e+01
-2.69027901e+01
-2.77895536e+01
-2.90967853e+01
-3.03827591e+01
-2.85609274e+01
-3.01099944e+01
-3.04063637e+01
-3.10792227e+01
-3.12612424e+01
-3.16718249e+01
-3.00293517e+01
-3.13234320e+01
-3.10909276e+01
-3.00518537e+01
-3.01761682e+01
-3.24811783e+01
-3.36334925e+01
-3.00857897e+01
-3.13867164e+01
-2.65849118e+01
-2.79230347e+01
-2.75007887e+01
-2.69431438e+01
-2.40092378e+01
-2.64833283e+01
-2.06503921e+01
-2.66017380e+01
-1.93657920e+01
-2.56945591e+01
-1.08736546e+01
-2.55862614e+01
-1.62915902e+01
-2.86000983e+01
-2.44939046e+01
-2.66735725e+01
-2.68701100e+01
-2.63683858e+01
-2.16253047e+01
-2.28800423e+01
-9.86970091e+00
-3.70286441e+00
4.68575414e+00
6.56581752e+00
2.21940047e+01
1.84123206e+01
9.60276604e-01
-2.00232315e+00
-2.38659244e+01
-2.53663960e+01
-2.50815196e+01
-2.57535634e+01
-2.09552040e+01
-2.10570427e+01
-8.83966279e+00
-1.71796848e+01
-1.58987919e+00
6.84558137e+00
-1.84287376e+01
-3.05396859e+00
-2.62521524e+01
1.26905537e+01
-2.70611734e+01
-2.76004648e+01
-2.69839189e+01
-2.76600986e+01
-2.38350563e+01
-2.60912640e+01
-1.13524091e+01
-2.29162881e+01
-7.45040536e+00
1.61663890e-01
-2.16251016e-01
2.15087459e+00
-6.59802246e+00
-7.43727207e+00
-2.85131750e+01
-2.85758667e+01
-2.95377855e+01
-2.88187981e+01
-2.61117125e+01
-3.00092535e+01
2.28106003e+01
-1.35088755e+01
-1.85467663e+01
-1.94770136e+01
-9.38049197e+00
-5.33968234e+00
3.50521398e+00
2.97611809e+00
-2.74511576e+01
-2.83580208e+01
-2.72088180e+01
-2.70133619e+01
-2.86313009e+01
-2.90015604e+01
-2.88589544e+01
-3.09991932e+01
-3.03009939e+01
-3.07792652e+01
-2.89514928e+01
-2.95865736e+01
-2.74468269e+01
-2.73476362e+01
-2.71226187e+01
-2.49444232e+01
-3.48579538e+01
-3.96802227e+01
-3.64828711e+01
-3.89613295e+01
-3.85841846e+01
-2.58530831e+01
-2.59797049e+01
-3.06235607e+01
-3.15926552e+00
-2.54907308e+01
-2.68462396e+01
-2.25081436e+01
-2.80413113e+01
-2.72337215e+01
-2.71204886e+01
-2.64698353e+01
-2.91744637e+01
-3.01197481e+01
-2.93458481e+01
-3.08807025e+01
-4.12304688e+01
-7.79302031e-01
1.25032216e+00
-1.04720977e+00
1.62318176e+00
-2.91906710e+01
-2.94917479e+01
-2.90837305e+01
-2.95843310e+01
-2.87920771e+01
-2.90000536e+01
-2.71572804e+01
-2.94506795e+01
-2.65371437e+01
-3.08761435e+01
-2.69232583e+01
-2.96602290e+01
-2.52530155e+01
-2.71809959e+01
-2.72939475e+01
-2.62634583e+01
-3.37471905e+01
-4.42739532e+01
-3.93807497e+01
-3.44471540e+01
-3.08112373e+01
-2.83378323e+01
-2.25918698e+01
-4.94793539e+01
-2.68342866e+01
-2.11847544e+01
-3.45767398e+01
-2.40491986e+01
-2.47965031e+01
-2.60827586e+01
-3.20113106e+01
-4.45394739e+01
-2.56457336e+01
-2.97602873e+01
</DataArray>
<DataArray type="Float32" Name="Logarithmic_strain_Max_Principal" format="ascii">
4.57457919e-03
4.86671319e-03
4.19347308e-03
3.84470762e-03
4.27720905e-03
4.35571326e-03
3.88506820e-03
3.78901022e-03
5.71742118e-03
4.74170677e-03
4.60021116e-03
4.35466372e-03
6.56817597e-03
5.23300003e-03
5.05697681e-03
4.77512466e-03
6.98688929e-03
6.01290469e-03
5.52756584e-03
5.04845963e-03
8.08075396e-03
7.03281793e-03
6.16865011e-03
5.91338240e-03
1.07169440e-02
9.11130523e-03
7.36539578e-03
7.35967781e-03
2.72429112e-03
2.60206952e-03
2.82627757e-03
2.52196053e-03
2.71932659e-03
3.04051541e-03
2.46755764e-03
3.26568658e-03
3.03591019e-03
4.10132572e-03
3.19544983e-03
4.60728409e-03
3.60897311e-03
5.70948383e-03
1.89880835e-03
2.10944598e-03
1.88186200e-03
1.74918454e-03
1.40082897e-03
1.47866200e-03
6.98062780e-04
1.04653738e-03
7.25557339e-04
1.56273507e-03
7.61335308e-04
1.49816711e-03
5.30653313e-04
1.38789686e-03
1.70006906e-03
1.94450899e-03
1.51488518e-03
1.67473723e-03
1.04749133e-03
9.95025061e-04
4.12469868e-04
5.18636657e-04
2.12569588e-04
3.60375930e-04
3.47502610e-04
2.67164520e-04
3.37580335e-04
3.47365776e-04
1.52200909e-03
1.87493424e-03
1.37789705e-03
1.57267155e-03
9.14530698e-04
9.03422348e-04
2.73678135e-04
5.70076571e-04
1.19736398e-04
1.63706807e-04
9.93401891e-05
5.63602844e-05
7.20378266e-05
6.92465546e-05
1.68495084e-03
2.13714154e-03
1.54556611e-03
1.62269204e-03
1.03088495e-03
1.18116965e-03
3.53163166e-04
7.40768320e-04
1.32788802e-04
1.70497944e-04
6.61207250e-05
4.47350825e-05
5.55026490e-05
4.00242716e-05
3.61151446e-03
3.41439771e-03
3.52995566e-03
3.51440150e-03
3.20251583e-03
3.65236492e-03
3.49935115e-03
4.07956779e-03
3.91289114e-03
4.32134970e-03
3.65843566e-03
4.38730363e-03
3.62540816e-03
4.31183277e-03
3.15986050e-03
3.10660992e-03
3.94352948e-03
5.36706988e-03
5.12859493e-03
5.41522342e-03
5.62387728e-03
2.18113400e-03
2.17749237e-03
3.08264198e-03
3.57321097e-03
1.34638857e-03
1.27729264e-03
9.92595892e-04
8.25406227e-04
1.26780350e-03
9.03184322e-04
1.60770791e-03
1.59000250e-03
1.12550483e-03
1.03862508e-03
1.91295007e-03
3.42315820e-03
1.81566156e-05
2.39613528e-05
1.18976354e-05
2.56879430e-05
2.91693048e-03
2.96368403e-03
3.38821849e-03
3.16522055e-03
3.37875314e-03
3.76764365e-03
3.59988463e-03
3.97986959e-03
3.29198147e-03
4.16158541e-03
2.48754845e-03
3.47463373e-03
2.25744711e-03
2.97007861e-03
3.96741019e-03
3.61724506e-03
4.00802633e-03
5.88873941e-03
5.38293610e-03
4.29811585e-03
3.58294463e-03
3.83613029e-03
2.72760744e-03
6.89131476e-03
1.84067947e-03
1.79305859e-03
2.95481033e-03
1.15049227e-03
1.22647222e-03
2.61691336e-03
2.31279037e-03
7.01333854e-03
2.48745596e-03
1.87836972e-03
</DataArray>
<DataArray type="Float32" Name="Logarithmic_strain_Min_Principal" format="ascii">
-5.36715053e-03
-5.82030904e-03
-5.32048545e-03
-4.94330609e-03
-5.22285816e-03
-5.49941428e-03
-5.10371849e-03
-4.83200781e-03
-7.07362220e-03
-5.97531686e-03
-6.14578614e-03
-6.03047799e-03
-8.36264808e-03
-6.93397142e-03
-7.21236807e-03
-6.87391404e-03
-9.41108214e-03
-8.41482927e-03
-8.42634961e-03
-7.42847292e-03
-1.12667615e-02
-9.72439186e-03
-9.33767203e-03
-8.61122680e-03
-1.32529233e-02
-1.15461927e-02
-1.03222788e-02
-9.83519549e-03
-3.87946964e-03
-3.99131107e-03
-4.12987050e-03
-3.78667703e-03
-3.51890293e-03
-4.20771365e-03
-2.91867292e-03
-4.47976839e-03
-3.44555563e-03
-5.31381966e-03
-3.25123651e-03
-5.88524058e-03
-3.48564819e-03
-7.13071786e-03
-2.61505478e-03
-3.06232891e-03
-2.93466539e-03
-2.75985547e-03
-1.80319906e-03
-1.99297472e-03
-6.59681406e-04
-9.48900318e-04
-5.86428738e-04
-1.35112927e-03
-5.95478758e-04
-1.21686406e-03
-7.70254934e-04
-1.39260964e-03
-2.21532863e-03
-2.58595520e-03
-2.11354489e-03
-2.36014638e-03
-1.35562292e-03
-1.30571355e-03
-3.81697391e-04
-5.62533746e-04
-8.66249696e-05
-1.65411261e-04
-5.39168599e-04
-2.15506123e-04
-4.83941229e-04
-2.18362826e-04
-2.29430501e-03
-2.78114656e-03
-2.11482945e-03
-2.43662583e-03
-1.33482422e-03
-1.41985761e-03
-3.63960346e-04
-8.85607224e-04
-1.41080332e-04
-1.51299831e-04
-9.76775691e-05
-5.16262931e-05
-1.42219196e-04
-1.43994703e-04
-2.56212009e-03
-3.17677832e-03
-2.49628787e-03
-2.59330194e-03
-1.49103452e-03
-1.94353404e-03
-4.02834077e-04
-1.27291163e-03
-3.39393344e-04
-3.62737876e-04
-1.70192227e-04
-1.02275687e-04
-7.32641347e-05
-4.14049118e-05
-5.05720638e-03
-5.12200547e-03
-4.81272180e-03
-4.75247973e-03
-5.16705599e-03
-5.32803388e-03
-5.46723662e-03
-6.22110872e-03
-6.15411450e-03
-6.70816452e-03
-6.07476954e-03
-6.72113098e-03
-5.76807698e-03
-6.32995635e-03
-4.29627675e-03
-3.91328114e-03
-6.18992167e-03
-8.40286100e-03
-8.55865912e-03
-9.46914242e-03
-9.62573383e-03
-2.99926486e-03
-3.06496804e-03
-4.31199065e-03
-3.15342157e-03
-2.03432621e-03
-2.12571153e-03
-1.33018384e-03
-9.88058552e-04
-1.94479768e-03
-1.53092120e-03
-2.34358441e-03
-2.55287066e-03
-2.00017414e-03
-1.76932488e-03
-3.07978899e-03
-6.30557036e-03
-2.17737470e-05
-2.16462190e-05
-1.90862611e-05
-1.89518414e-05
-5.20297885e-03
-5.13136561e-03
-5.25664655e-03
-5.28443849e-03
-4.96995903e-03
-5.28523710e-03
-4.72396659e-03
-5.55316213e-03
-4.34905721e-03
-6.02869689e-03
-3.68821534e-03
-5.29307593e-03
-3.07197706e-03
-4.40960110e-03
-5.17516013e-03
-4.73404396e-03
-6.45692999e-03
-9.64709390e-03
-8.74855043e-03
-7.33824319e-03
-6.22403901e-03
-5.06869341e-03
-3.24727001e-03
-1.03991763e-02
-2.62888543e-03
-2.18159627e-03
-4.17979847e-03
-1.61813755e-03
-1.79596283e-03
-3.44908813e-03
-3.14935832e-03
-9.68547429e-03
-3.63226072e-03
-2.80906807e-03
</DataArray>
<DataArray type="Float32" Name="Plastic_strain_Max_Principal" format="ascii">
4.33553942e-03
4.63515823e-03
3.97726119e-03
3.62912810e-03
4.04841197e-03
4.13630100e-03
3.67509612e-03
3.57160240e-03
5.50156971e-03
4.52665519e-03
4.39683639e-03
4.16323965e-03
6.36689551e-03
5.03822783e-03
4.87602898e-03
4.59754345e-03
6.79969788e-03
5.83879452e-03
5.37207071e-03
4.87203803e-03
7.90420361e-03
6.85189338e-03
6.00897649e-03
5.73054684e-03
1.05128754e-02
8.92651337e-03
7.18450244e-03
7.15687475e-03
2.52759038e-03
2.42837577e-03
2.64081926e-03
2.34100083e-03
2.49268860e-03
2.83938259e-03
2.21530377e-03
3.05319634e-03
2.76632654e-03
3.86256073e-03
2.90628750e-03
4.35553185e-03
3.30214598e-03
5.45053487e-03
1.68137823e-03
1.91048131e-03
1.69456194e-03
1.56441017e-03
1.15699423e-03
1.23781090e-03
3.90087345e-04
6.98998245e-04
4.33319653e-04
1.18869400e-03
5.30763095e-04
1.02564511e-03
3.74312440e-04
1.03503207e-03
1.46526704e-03
1.71849725e-03
1.29485523e-03
1.46010116e-03
8.08488330e-04
7.54997633e-04
1.08677857e-04
2.05660454e-04
1.75467734e-05
1.58764306e-05
1.49267216e-04
4.30254925e-05
5.80861415e-05
1.96871879e-05
1.32534665e-03
1.67767162e-03
1.18027537e-03
1.38225593e-03
6.80978832e-04
6.92223010e-04
6.15565732e-05
3.06344700e-04
0.00000000e+00
0.00000000e+00
0.00000000e+00
0.00000000e+00
0.00000000e+00
0.00000000e+00
1.49159553e-03
1.94439141e-03
1.36673817e-03
1.43659627e-03
7.82896677e-04
9.82607133e-04
4.23233105e-05
4.56107620e-04
0.00000000e+00
0.00000000e+00
0.00000000e+00
0.00000000e+00
0.00000000e+00
0.00000000e+00
3.41716944e-03
3.23836069e-03
3.32747409e-03
3.31088586e-03
3.04238149e-03
3.46720571e-03
3.33665579e-03
3.91265657e-03
3.75217752e-03
4.16068346e-03
3.51016340e-03
4.21667827e-03
3.45564191e-03
4.11973399e-03
2.95466708e-03
2.88194086e-03
3.79762662e-03
5.23643391e-03
5.01755427e-03
5.33622946e-03
5.54016000e-03
1.96747750e-03
1.97340566e-03
2.86240903e-03
3.10017256e-03
1.14430457e-03
1.09810545e-03
7.15960516e-04
6.62876390e-04
1.06170095e-03
7.11663757e-04
1.39032633e-03
1.38004805e-03
9.49656460e-04
8.45451839e-04
1.73329405e-03
3.35157843e-03
0.00000000e+00
0.00000000e+00
0.00000000e+00
0.00000000e+00
2.78591423e-03
2.82703806e-03
3.22380595e-03
3.02115543e-03
3.19590629e-03
3.57324426e-03
3.38880776e-03
3.78047954e-03
3.07507487e-03
3.97893306e-03
2.29432824e-03
3.30361939e-03
2.03843310e-03
2.78107694e-03
3.74901426e-03
3.40000325e-03
3.85263246e-03
5.79377376e-03
5.28024859e-03
4.18709748e-03
3.45682737e-03
3.61121589e-03
2.46764114e-03
6.75247412e-03
1.62427365e-03
1.55129092e-03
2.72292222e-03
9.19850892e-04
9.90708242e-04
2.36644669e-03
1.92324270e-03
6.84781660e-03
2.26891761e-03
1.66505843e-03
</DataArray>
<DataArray type="Float32" Name="Plastic_strain_Min_Principal" format="ascii">
-4.82673431e-03
-5.25252568e-03
-4.75598534e-03
-4.39908681e-03
-4.67918301e-03
-4.93983773e-03
-4.54635633e-03
-4.28794615e-03
-6.43153768e-03
-5.38788363e-03
-5.55914501e-03
-5.41651435e-03
-7.66268675e-03
-6.31115586e-03
-6.57725253e-03
-6.23289059e-03
-8.71787965e-03
-7.72540842e-03
-7.75980088e-03
-6.80709805e-03
-1.05806324e-02
-9.04237293e-03
-8.72585201e-03
-7.97768775e-03
-1.24386195e-02
-1.07333539e-02
-9.68160806e-03
-9.13208607e-03
-3.35086609e-03
-3.43872502e-03
-3.57748594e-03
-3.25821416e-03
-3.04208579e-03
-3.67842475e-03
-2.53619417e-03
-3.95704393e-03
-3.09009221e-03
-4.77975382e-03
-2.94072740e-03
-5.32075697e-03
-3.06631252e-03
-6.41148204e-03
-2.12010584e-03
-2.51880963e-03
-2.40689900e-03
-2.24950755e-03
-1.37691692e-03
-1.56481529e-03
-3.79669302e-04
-6.60754784e-04
-4.57791713e-04
-1.10327972e-03
-5.07609731e-04
-8.62554099e-04
-4.08839478e-04
-8.99055813e-04
-1.70406848e-03
-2.04534119e-03
-1.60574088e-03
-1.83547192e-03
-9.10174960e-04
-8.66810646e-04
-8.48327045e-05
-2.08596609e-04
-1.42991157e-05
-1.25473598e-05
-2.12055500e-04
-2.65599131e-05
-5.72382269e-05
-2.86869326e-05
-1.73802569e-03
-2.21352687e-03
-1.56712683e-03
-1.87438162e-03
-8.09183766e-04
-8.88367504e-04
-4.73669679e-05
-3.91621060e-04
0.00000000e+00
0.00000000e+00
0.00000000e+00
0.00000000e+00
0.00000000e+00
0.00000000e+00
-1.96841912e-03
-2.57969950e-03
-1.89017016e-03
-2.00595235e-03
-8.93796503e-04
-1.31179683e-03
-4.08026463e-05
-6.63040439e-04
0.00000000e+00
0.00000000e+00
0.00000000e+00
0.00000000e+00
0.00000000e+00
0.00000000e+00
-4.50181635e-03
-4.55482514e-03
-4.25709161e-03
-4.19987598e-03
-4.60809050e-03
-4.73121015e-03
-4.89637873e-03
-5.58087166e-03
-5.54255280e-03
-6.07577222e-03
-5.50982461e-03
-6.12497982e-03
-5.24866662e-03
-5.80041797e-03
-3.73565359e-03
-3.39428621e-03
-5.43247030e-03
-7.49382116e-03
-7.75363669e-03
-8.59608105e-03
-8.76808353e-03
-2.49204041e-03
-2.55179507e-03
-3.63929013e-03
-2.53439986e-03
-1.54678471e-03
-1.61792204e-03
-8.90029154e-04
-6.84995107e-04
-1.39387054e-03
-1.01321464e-03
-1.78340152e-03
-1.98266029e-03
-1.39526029e-03
-1.18573144e-03
-2.44892965e-03
-5.39364864e-03
0.00000000e+00
0.00000000e+00
0.00000000e+00
0.00000000e+00
-4.62983362e-03
-4.54683427e-03
-4.67220391e-03
-4.69487999e-03
-4.38764971e-03
-4.67969934e-03
-4.15302720e-03
-4.92421770e-03
-3.79812543e-03
-5.36935817e-03
-3.16225551e-03
-4.68846670e-03
-2.57418409e-03
-3.87877773e-03
-4.58935648e-03
-4.19605017e-03
-5.76291912e-03
-8.62656897e-03
-7.85475830e-03
-6.60671201e-03
-5.60644059e-03
-4.39870037e-03
-2.79180770e-03
-9.22578876e-03
-2.08955281e-03
-1.72237278e-03
-3.39177105e-03
-1.19455886e-03
-1.31978984e-03
-2.96203526e-03
-2.41465098e-03
-8.59866710e-03
-3.01310363e-03
-2.19178549e-03
</DataArray>
</PointData>
<Cells>
<DataArray type="Int32" Name="connectivity" format="ascii">
0 1 2 3 4 5 6 7
1 8 9 2 5 10 11 6
8 12 13 9 10 14 15 11
12 16 17 13 14 18 19 15
16 20 21 17 18 22 23 19
20 24 25 21 22 26 27 23
3 2 28 29 7 6 30 31
2 9 32 28 6 11 33 30
9 13 34 32 11 15 35 33
13 17 36 34 15 19 37 35
17 21 38 36 19 23 39 37
21 25 40 38 23 27 41 39
29 28 42 43 31 30 44 45
28 32 46 42 30 33 47 44
32 34 48 46 33 35 49 47
34 36 50 48 35 37 51 49
36 38 52 50 37 39 53 51
38 40 54 52 39 41 55 53
43 42 56 57 45 44 58 59
42 46 60 56 44 47 61 58
46 48 62 60 47 49 63 61
48 50 64 62 49 51 65 63
52 54 66 67 53 55 68 69
57 56 70 71 59 58 72 73
56 60 74 70 58 61 75 72
60 62 76 74 61 63 77 75
62 64 78 76 63 65 79 77
64 67 80 78 65 69 81 79
67 66 82 80 69 68 83 81
71 70 84 85 73 72 86 87
70 74 88 84 72 75 89 86
74 76 90 88 75 77 91 89
76 78 92 90 77 79 93 91
78 80 94 92 79 81 95 93
80 82 96 94 81 83 97 95
4 5 6 7 98 99 100 101
5 10 11 6 99 102 103 100
10 14 15 11 102 104 105 103
14 18 19 15 104 106 107 105
18 22 23 19 106 108 109 107
22 26 27 23 108 110 111 109
7 6 30 31 101 100 112 113
6 11 33 30 100 103 114 112
11 15 35 33 103 105 115 114
15 19 37 35 105 107 116 115
19 23 39 37 107 109 117 116
23 27 41 39 109 111 118 117
31 30 44 45 113 112 119 120
30 33 47 44 112 114 121 119
33 35 49 47 114 115 122 121
45 44 58 59 120 119 123 124
44 47 61 58 119 121 125 123
47 49 63 61 121 122 126 125
59 58 72 73 124 123 127 128
58 61 75 72 123 125 129 127
61 63 77 75 125 126 130 129
73 72 86 87 128 127 131 132
72 75 89 86 127 129 133 131
75 77 91 89 129 130 134 133
81 83 97 95 135 136 137 138
98 99 100 101 139 140 141 142
99 102 103 100 140 143 144 141
102 104 105 103 143 145 146 144
104 106 107 105 145 147 148 146
106 108 109 107 147 149 150 148
108 110 111 109 149 151 152 150
101 100 112 113 142 141 153 154
100 103 114 112 141 144 155 153
103 105 115 114 144 146 156 155
105 107 116 115 146 148 157 156
107 109 117 116 148 150 158 157
109 111 118 117 150 152 159 158
113 112 119 120 154 153 160 161
112 114 121 119 153 155 162 160
120 119 123 124 161 160 163 164
119 121 125 123 160 162 165 163
124 123 127 128 164 163 166 167
123 125 129 127 163 165 168 166
125 126 130 129 165 169 170 168
128 127 131 132 167 166 171 172
</DataArray>
<DataArray type="Int32" Name="offsets" format="ascii">
8
16
24
32
40
48
56
64
72
80
88
96
104
112
120
128
136
144
152
160
168
176
184
192
200
208
216
224
232
240
248
256
264
272
280
288
296
304
312
320
328
336
344
352
360
368
376
384
392
400
408
416
424
432
440
448
456
464
472
480
488
496
504
512
520
528
536
544
552
560
568
576
584
592
600
608
616
624
632
640
</DataArray>
<DataArray type="UInt8" Name="types" format="ascii">
12
12
12
12
12
12
12
12
12
12
12
12
12
12
12
12
12
12
12
12
12
12
12
12
12
12
12
12
12
12
12
12
12
12
12
12
12
12
12
12
12
12
12
12
12
12
12
12
12
12
12
12
12
12
12
12
12
12
12
12
12
12
12
12
12
12
12
12
12
12
12
12
12
12
12
12
12
12
12
12
</DataArray>
</Cells>
</Piece>
</UnstructuredGrid>
</VTKFile>
