<VTKFile type="UnstructuredGrid" version="0.1" byte_order="LittleEndian">
<UnstructuredGrid>
<Piece NumberOfPoints="191" NumberOfCells="79">
<Points>
<DataArray type="Float64" NumberOfComponents="3" format="ascii">
 1.04490745e+00  5.24701834e+00  1.87881100e+00
 2.07478476e+00  5.23463821e+00  1.90103340e+00
 2.07642293e+00  6.29690647e+00  1.85690975e+00
 1.03957868e+00  6.29047775e+00  1.84801090e+00
 1.03648734e+00  5.28479767e+00  2.81429625e+00
 2.08007860e+00  5.28028536e+00  2.82493711e+00
 2.06734800e+00  6.36000109e+00  2.77066159e+00
 1.03991270e+00  6.32766438e+00  2.77748394e+00
 3.12677836e+00  5.21698761e+00  1.92348576e+00
 3.13759494e+00  6.28370523e+00  1.86012959e+00
 3.12163925e+00  5.27147388e+00  2.80240536e+00
 3.17576241e+00  6.33387232e+00  2.71949863e+00
 5.13390827e+00  5.20381069e+00  2.00003386e+00
 6.13390875e+00  5.20527267e+00  2.00003195e+00
 6.13244486e+00  6.20528030e+00  1.99998271e+00
 5.13241720e+00  6.20382452e+00  1.99996555e+00
 5.13389730e+00  5.20387411e+00  3.00002074e+00
 6.13389063e+00  5.20534468e+00  3.00004053e+00
 6.13242149e+00  6.20533562e+00  2.99997306e+00
 5.13243675e+00  6.20386362e+00  2.99997449e+00
 0.00000000e+00  0.00000000e+00  2.72617841e+00
 1.05208182e+00  0.00000000e+00  2.72419167e+00
 1.05520391e+00  1.05719519e+00  2.73007822e+00
 0.00000000e+00  1.05501294e+00  2.73529172e+00
 0.00000000e+00  0.00000000e+00  3.63289189e+00
 1.07003379e+00  0.00000000e+00  3.63369131e+00
 1.07197297e+00  1.05724859e+00  3.63536191e+00
 0.00000000e+00  1.05356574e+00  3.64398122e+00
 2.11562347e+00  0.00000000e+00  2.70994949e+00
 2.10331035e+00  1.04912984e+00  2.71897364e+00
 2.13564014e+00  0.00000000e+00  3.62343001e+00
 2.13863921e+00  1.06047893e+00  3.62308884e+00
 3.17203116e+00  0.00000000e+00  2.69427729e+00
 3.17319202e+00  1.04444826e+00  2.69812632e+00
 3.20232987e+00  0.00000000e+00  3.60654783e+00
 3.19540215e+00  1.05302608e+00  3.60831547e+00
 4.23994446e+00  0.00000000e+00  2.68070602e+00
 4.24292755e+00  1.04615879e+00  2.67579985e+00
 4.26109171e+00  0.00000000e+00  3.59427071e+00
 4.25785065e+00  1.04438210e+00  3.58750701e+00
 5.31161642e+00  0.00000000e+00  2.66408825e+00
 5.31202650e+00  1.04903603e+00  2.66641665e+00
 5.31816578e+00  0.00000000e+00  3.58528185e+00
 5.31721067e+00  1.04348969e+00  3.57334304e+00
 6.37794781e+00  0.00000000e+00  2.65877557e+00
 6.37740993e+00  1.04991782e+00  2.66042137e+00
 6.36436224e+00  0.00000000e+00  3.58180380e+00
 6.37921524e+00  1.04406524e+00  3.57348323e+00
 1.03911686e+00  2.10819340e+00  2.75134706e+00
 0.00000000e+00  2.12301350e+00  2.75475979e+00
 1.07174432e+00  2.11548686e+00  3.65875077e+00
 0.00000000e+00  2.11548042e+00  3.66038203e+00
 2.10320020e+00  2.11028910e+00  2.72962260e+00
 2.14837241e+00  2.12269497e+00  3.63132524e+00
 3.16263437e+00  2.11681247e+00  2.68674588e+00
 3.20551395e+00  2.11614180e+00  3.57496715e+00
 4.23801279e+00  2.12903166e+00  2.67566037e+00
 4.24729204e+00  2.10171652e+00  3.55655527e+00
 5.30618525e+00  2.12165642e+00  2.67803216e+00
 5.31175232e+00  2.11399746e+00  3.55742311e+00
 6.36473179e+00  2.12948918e+00  2.67252970e+00
 6.36776114e+00  2.11782527e+00  3.55641508e+00
 1.03503215e+00  3.18516684e+00  2.79570556e+00
 0.00000000e+00  3.18188548e+00  2.79180622e+00
 1.06822526e+00  3.18252683e+00  3.69462681e+00
 0.00000000e+00  3.18127775e+00  3.70429158e+00
 2.09275413e+00  3.16263914e+00  2.76451159e+00
 2.16626072e+00  3.18722963e+00  3.62106323e+00
 3.07267690e+00  3.13804626e+00  2.45579720e+00
 3.23430109e+00  3.16679621e+00  3.50095725e+00
 1.03552914e+00  4.22935629e+00  2.82832193e+00
 0.00000000e+00  4.23783159e+00  2.82078981e+00
 1.05513787e+00  4.25199032e+00  3.75883889e+00
 0.00000000e+00  4.25991678e+00  3.73669410e+00
 0.00000000e+00  5.27838993e+00  2.80999041e+00
 1.04910159e+00  5.33005238e+00  3.73742938e+00
 0.00000000e+00  5.30944347e+00  3.72342634e+00
 2.08314347e+00  4.22993612e+00  2.86320996e+00
 2.12325358e+00  4.26558495e+00  3.73418355e+00
 2.11826420e+00  5.30803442e+00  3.74226117e+00
 0.00000000e+00  6.33197641e+00  2.76602697e+00
 1.06912577e+00  6.38764811e+00  3.66561222e+00
 0.00000000e+00  6.40470219e+00  3.68476057e+00
 2.11789751e+00  6.41027308e+00  3.66850710e+00
 3.15599442e+00  5.28558826e+00  3.61323690e+00
 3.24599624e+00  6.32476425e+00  3.61631727e+00
 0.00000000e+00  0.00000000e+00  4.53096342e+00
 1.08681440e+00  0.00000000e+00  4.52817726e+00
 1.09064841e+00  1.05920589e+00  4.53138256e+00
 0.00000000e+00  1.05508792e+00  4.53452349e+00
 2.15885735e+00  0.00000000e+00  4.52339029e+00
 2.16949558e+00  1.06859875e+00  4.52204227e+00
 3.22021914e+00  0.00000000e+00  4.51476383e+00
 3.22679067e+00  1.07086086e+00  4.51401472e+00
 4.27652502e+00  0.00000000e+00  4.50602722e+00
 4.26965237e+00  1.06408620e+00  4.50555229e+00
 5.32194757e+00  0.00000000e+00  4.50183105e+00
 5.31508207e+00  1.05796576e+00  4.49732971e+00
 6.35873413e+00  0.00000000e+00  4.49901819e+00
 6.36039162e+00  1.06315470e+00  4.50018358e+00
 1.10344112e+00  2.12534428e+00  4.53845024e+00
 0.00000000e+00  2.11459589e+00  4.54616308e+00
 2.18881035e+00  2.13815308e+00  4.52123070e+00
 3.24446177e+00  2.13947058e+00  4.49404430e+00
 4.27686453e+00  2.12532878e+00  4.47139740e+00
 5.30041981e+00  2.10769796e+00  4.45871019e+00
 6.32985353e+00  2.11501312e+00  4.45877457e+00
 1.10526645e+00  3.17421603e+00  4.57689953e+00
 0.00000000e+00  3.19360685e+00  4.59250689e+00
 2.21111178e+00  3.18129373e+00  4.51429939e+00
 3.28272581e+00  3.17386818e+00  4.43972206e+00
 4.26668501e+00  3.07542920e+00  3.37028551e+00
 4.30013943e+00  3.15607166e+00  4.41699028e+00
 1.11113596e+00  4.24679661e+00  4.65514565e+00
 0.00000000e+00  4.23305941e+00  4.61304331e+00
 2.22299194e+00  4.22784615e+00  4.55516243e+00
 1.09171450e+00  5.36322594e+00  4.58541679e+00
 0.00000000e+00  5.37174654e+00  4.58594513e+00
 1.11135674e+00  6.47401714e+00  4.55106115e+00
 0.00000000e+00  6.46788883e+00  4.56522846e+00
 2.16928411e+00  5.33472633e+00  4.59215546e+00
 2.25536776e+00  6.41366100e+00  4.56130648e+00
 3.25976658e+00  5.24298143e+00  4.46913004e+00
 3.36640096e+00  6.27354860e+00  4.50005817e+00
 4.06315422e+00  5.21515036e+00  3.29370260e+00
 4.22138643e+00  6.20703363e+00  3.38396764e+00
 4.33510923e+00  5.15605831e+00  4.41570520e+00
 4.35405970e+00  6.15735674e+00  4.41604376e+00
 5.33542299e+00  5.13863659e+00  3.41585779e+00
 6.33525133e+00  5.12100029e+00  3.41583633e+00
 6.35289526e+00  6.12084913e+00  3.41587949e+00
 5.35301256e+00  6.13852072e+00  3.41595221e+00
 5.33539057e+00  5.13861561e+00  4.41585827e+00
 6.33531189e+00  5.12096119e+00  4.41585684e+00
 6.35289717e+00  6.12082100e+00  4.41587305e+00
 5.35314608e+00  6.13836432e+00  4.41594505e+00
 0.00000000e+00  0.00000000e+00  5.41588783e+00
 1.09208238e+00  0.00000000e+00  5.41588783e+00
 1.09933054e+00  1.06344831e+00  5.41588783e+00
 0.00000000e+00  1.05703139e+00  5.41588783e+00
 2.17076612e+00  0.00000000e+00  5.41588783e+00
 2.17788935e+00  1.07373798e+00  5.41588783e+00
 3.22793269e+00  0.00000000e+00  5.41588783e+00
 3.23949718e+00  1.07891083e+00  5.41588783e+00
 4.27928495e+00  0.00000000e+00  5.41588783e+00
 4.27995110e+00  1.07818222e+00  5.41588783e+00
 5.32134771e+00  0.00000000e+00  5.41588783e+00
 5.31681442e+00  1.07296133e+00  5.41588783e+00
 6.36528921e+00  0.00000000e+00  5.41588783e+00
 6.34114361e+00  1.08251345e+00  5.41588783e+00
 1.11979961e+00  2.11499071e+00  5.41588783e+00
 0.00000000e+00  2.10932112e+00  5.41588783e+00
 2.21173882e+00  2.13927770e+00  5.41588783e+00
 3.25933981e+00  2.15118766e+00  5.41588783e+00
 4.28843355e+00  2.14057350e+00  5.41588783e+00
 5.29749966e+00  2.12505937e+00  5.41588783e+00
 6.31726265e+00  2.12574363e+00  5.41588783e+00
 1.12812543e+00  3.21594286e+00  5.41588783e+00
 0.00000000e+00  3.22210026e+00  5.41588783e+00
 2.24532628e+00  3.19020724e+00  5.41588783e+00
 3.29854250e+00  3.18437886e+00  5.41588783e+00
 4.30080843e+00  3.15681219e+00  5.41588783e+00
 5.30050707e+00  3.13799238e+00  4.41517830e+00
 5.30105925e+00  3.13868213e+00  5.41588783e+00
 6.30256891e+00  3.12317872e+00  4.41450882e+00
 6.30281448e+00  3.12494898e+00  5.41588783e+00
 3.31796336e+00  4.17517948e+00  4.39894295e+00
 3.32766747e+00  4.18748665e+00  5.41588783e+00
 2.31471086e+00  4.21832323e+00  5.41588783e+00
 4.31808233e+00  4.15580797e+00  4.41614628e+00
 4.31823444e+00  4.15601492e+00  5.41588783e+00
 5.31785440e+00  4.13882589e+00  4.41584015e+00
 5.31794071e+00  4.13872814e+00  5.41588783e+00
 6.31757307e+00  4.12137175e+00  4.41593599e+00
 6.31748247e+00  4.12122726e+00  5.41588783e+00
 0.00000000e+00  4.20258045e+00  5.41588783e+00
 1.14054322e+00  4.23290443e+00  5.41588783e+00
 1.12541258e+00  5.39171219e+00  5.41588783e+00
 0.00000000e+00  5.41535568e+00  5.41588783e+00
 5.33533573e+00  5.13861370e+00  5.41588783e+00
 4.33550501e+00  5.15613794e+00  5.41588783e+00
 6.33534908e+00  5.12098646e+00  5.41588783e+00
 1.13520062e+00  6.49590015e+00  5.41588783e+00
 0.00000000e+00  6.48523951e+00  5.41588783e+00
 2.21240568e+00  5.34124756e+00  5.41588783e+00
 2.30537176e+00  6.40890837e+00  5.41588783e+00
 3.27816963e+00  5.22130394e+00  5.41588783e+00
 3.38833380e+00  6.25764084e+00  5.41588783e+00
 4.35442924e+00  6.15658236e+00  5.41588783e+00
 5.35315990e+00  6.13830280e+00  5.41588783e+00
 6.35289335e+00  6.12081861e+00  5.41588783e+00
</DataArray>
</Points>
<PointData Tensors="Stress_Components,Plastic_strain_components" Vevtors="Spatial_displacement,Reaction_force" Scalars="Equivalent_plastic_strain,Stress_Mises,Stress_Max_Principal,Stress_Mid_Principal,Stress_Min_Principal,Stress_Pressure,Stress_Tresca,Stress_Third_Invariant,Plastic_strain_Max_Principal,Plastic_strain_Min_Principal">
<DataArray type="Float32" Name="Stress_Components" NumberOfComponents="9" format="ascii">
1.75418697e+01 5.94254807e-02 1.82746183e-01 5.94254807e-02 1.46521957e+01 4.12288848e-02 1.82746183e-01 4.12288848e-02 5.00322360e+00
5.58846474e+00 -2.80345901e+00 8.99121493e-01 -2.80345901e+00 4.78375846e+00 2.47346435e+00 8.99121493e-01 2.47346435e+00 -1.63542843e+01
-1.24729223e+01 -3.93728696e-01 1.40566102e+00 -3.93728696e-01 -5.92178917e+00 -2.81927961e+00 1.40566102e+00 -2.81927961e+00 -4.92694874e+01
-2.97483605e+00 -8.93371850e-01 1.28252730e-02 -8.93371850e-01 -3.55678511e+00 -6.77508824e-02 1.28252730e-02 -6.77508824e-02 -3.71442471e+01
1.63300523e+01 6.37147939e-02 8.78819831e-01 6.37147939e-02 1.69681221e+01 -3.26415017e-01 8.78819831e-01 -3.26415017e-01 5.96165729e+00
2.32344674e+01 -2.42046744e+00 3.21505129e+00 -2.42046744e+00 2.58161779e+01 2.04399228e-01 3.21505129e+00 2.04399228e-01 1.86487075e+01
-1.27498933e+01 -2.10468560e-01 7.03472331e-01 -2.10468560e-01 5.96939921e-01 -4.73734047e-02 7.03472331e-01 -4.73734047e-02 -4.11799157e+01
1.21372390e+01 -2.62326494e-01 3.65176322e-01 -2.62326494e-01 1.08031772e+01 4.84448775e-01 3.65176322e-01 4.84448775e-01 -5.59175730e+00
-2.21055689e+01 -1.98929931e+00 -1.89377738e-01 -1.98929931e+00 -2.01510389e+01 6.29124835e+00 -1.89377738e-01 6.29124835e+00 -7.80248272e+01
-9.02666321e+01 -4.19998074e+00 -6.50449109e+00 -4.19998074e+00 -8.47213650e+01 4.85403347e+00 -6.50449109e+00 4.85403347e+00 -2.19246277e+02
-7.47639618e+01 8.97932911e+00 -2.79390846e+01 8.97932911e+00 -7.92278681e+01 -1.94187911e+00 -2.79390846e+01 -1.94187911e+00 -1.75467714e+02
-5.31313870e+01 -1.85111761e-02 -5.06572104e+00 -1.85111761e-02 -7.76456442e+01 -1.07728827e+00 -5.06572104e+00 -1.07728827e+00 -1.69478390e+02
-2.37200573e-01 -5.97363889e-01 -2.74064235e-01 -5.97363889e-01 3.21947120e-01 2.68538103e-01 -2.74064235e-01 2.68538103e-01 -4.69840318e-01
-4.31051027e-01 -4.01312578e-02 -9.25607383e-02 -4.01312578e-02 -1.19628660e-01 -2.32745528e-01 -9.25607383e-02 -2.32745528e-01 1.65732555e-01
6.95883423e-01 -1.63946360e-01 -1.25635874e-01 -1.63946360e-01 -1.07268315e-01 5.76575316e-01 -1.25635874e-01 5.76575316e-01 -9.73632634e-01
3.70423496e-01 -7.21386731e-01 3.26218307e-02 -7.21386731e-01 -1.84960058e-01 -5.17522484e-01 3.26218307e-02 -5.17522484e-01 -5.70591688e-01
2.33640403e-01 2.03636229e-01 3.78653437e-01 2.03636229e-01 5.85787222e-02 1.59644052e-01 3.78653437e-01 1.59644052e-01 -2.73911692e-02
-5.62972538e-02 2.53299177e-02 1.11455493e-01 2.53299177e-02 -1.56383291e-01 1.10873431e-02 1.11455493e-01 1.10873431e-02 4.77616459e-01
-5.12104295e-02 6.27753288e-02 -2.44314030e-01 6.27753288e-02 2.05345944e-01 -5.40708840e-01 -2.44314030e-01 -5.40708840e-01 1.10752039e-01
-3.13473344e-01 2.41113126e-01 -1.39474809e-01 2.41113126e-01 -1.31978989e-01 3.43217552e-01 -1.39474809e-01 3.43217552e-01 7.10150719e-01
1.38535810e+00 3.97147443e-02 1.51563298e-01 3.97147443e-02 2.15432072e+00 -1.00258393e-02 1.51563298e-01 -1.00258393e-02 -2.61953487e+01
2.11562560e+00 4.68194142e-01 2.86849523e-02 4.68194142e-01 2.09191471e+00 2.73376405e-01 2.86849523e-02 2.73376405e-01 -2.54155331e+01
6.53994734e+00 -1.95176559e-01 3.52627859e-02 -1.95176559e-01 7.13032975e+00 4.55216413e-01 3.52627859e-02 4.55216413e-01 -1.51776473e+01
1.91576439e+00 1.87665569e-01 1.41352612e-01 1.87665569e-01 3.32783574e+00 -1.98805528e-01 1.41352612e-01 -1.98805528e-01 -2.43063990e+01
6.77396846e+00 -3.01782833e-02 5.64268202e-01 -3.01782833e-02 5.76938581e+00 2.12193981e-01 5.64268202e-01 2.12193981e-01 -1.64237833e+01
3.57410252e-01 2.27929857e-01 -2.23310787e-01 2.27929857e-01 -4.41471934e-02 1.10065867e+00 -2.23310787e-01 1.10065867e+00 -2.95743449e+01
4.51212248e+00 3.61525315e-01 2.37183507e-01 3.61525315e-01 3.99361587e+00 3.98734612e-01 2.37183507e-01 3.98734612e-01 -2.07910165e+01
1.28816208e+00 3.46959528e-01 5.90170093e-01 3.46959528e-01 -1.28628761e-01 -6.35986347e-01 5.90170093e-01 -6.35986347e-01 -2.86841674e+01
7.14347982e+00 -8.00277725e-01 1.65665871e-01 -8.00277725e-01 6.42014861e+00 -6.14775503e-02 1.65665871e-01 -6.14775503e-02 -1.53091427e+01
6.04009420e+00 -4.93711507e-01 8.30561431e-01 -4.93711507e-01 6.02979660e+00 8.89991660e-01 8.30561431e-01 8.89991660e-01 -1.67231244e+01
1.62934780e-01 1.03444714e-01 -2.83836806e-03 1.03444714e-01 2.73627758e-01 3.22833428e-01 -2.83836806e-03 3.22833428e-01 -2.95831962e+01
-1.40177363e+00 6.22169416e-02 1.05073890e+00 6.22169416e-02 8.97323191e-02 1.81735301e+00 1.05073890e+00 1.81735301e+00 -3.11369245e+01
6.55880970e+00 1.26920233e-01 2.78378321e-01 1.26920233e-01 5.60135019e+00 6.35264333e-01 2.78378321e-01 6.35264333e-01 -1.67555928e+01
1.13623911e+01 -4.22779839e-02 5.60244883e-02 -4.22779839e-02 9.93371564e+00 -6.64686359e-02 5.60244883e-02 -6.64686359e-02 -6.96659555e+00
3.45190801e+00 -7.61090189e-01 3.36297713e-01 -7.61090189e-01 2.46910723e+00 8.63094348e-01 3.36297713e-01 8.63094348e-01 -2.35115905e+01
3.56730562e+00 -6.38370710e-01 5.40988739e-01 -6.38370710e-01 3.57538950e+00 7.51961151e-01 5.40988739e-01 7.51961151e-01 -2.21401118e+01
9.10865177e+00 9.42315590e-02 -1.79286330e-01 9.42315590e-02 7.18914628e+00 4.80470320e-01 -1.79286330e-01 4.80470320e-01 -1.22485131e+01
5.86470705e+00 5.75607829e-03 -4.76750073e-01 5.75607829e-03 3.76947296e+00 1.25605045e-01 -4.76750073e-01 1.25605045e-01 -1.94864344e+01
7.24598086e+00 -3.01124744e-01 -1.35494459e-01 -3.01124744e-01 5.57909584e+00 5.81385173e-01 -1.35494459e-01 5.81385173e-01 -1.60837542e+01
1.52299049e+01 -3.80653005e-01 3.33662918e-01 -3.80653005e-01 1.40521594e+01 -2.22776355e-01 3.33662918e-01 -2.22776355e-01 1.62400818e+00
1.23561366e+01 -1.94427943e-01 -3.65398801e-02 -1.94427943e-01 1.07963525e+01 3.14491652e-02 -3.65398801e-02 3.14491652e-02 -4.87595224e+00
1.00202761e+01 5.52902627e-02 -3.13832262e-01 5.52902627e-02 7.46486306e+00 9.70409280e-02 -3.13832262e-01 9.70409280e-02 -1.09884663e+01
1.68542879e+01 -1.50943911e-01 -1.35987804e-01 -1.50943911e-01 1.69819485e+01 -2.91731827e-01 -1.35987804e-01 -2.91731827e-01 6.57149839e+00
8.36486444e+00 -2.23962649e-01 -1.30702754e-01 -2.23962649e-01 7.04432124e+00 -3.08652118e-01 -1.30702754e-01 -3.08652118e-01 -1.32942110e+01
1.28638773e+01 -9.47965905e-02 -1.24070289e-01 -9.47965905e-02 1.21786101e+01 -2.64867067e-01 -1.24070289e-01 -2.64867067e-01 -2.78809261e+00
1.77016077e+01 3.31007450e-01 -4.34152635e-01 3.31007450e-01 1.57205745e+01 6.77890889e-02 -4.34152635e-01 6.77890889e-02 6.12096882e+00
1.87894311e+01 4.51018065e-01 2.92230155e-02 4.51018065e-01 1.96056600e+01 -6.83874711e-01 2.92230155e-02 -6.83874711e-01 1.15975599e+01
1.19103132e+01 5.45871258e-01 3.81990384e-01 5.45871258e-01 1.07480087e+01 -9.21836124e-01 3.81990384e-01 -9.21836124e-01 -5.31494927e+00
2.45833230e+00 -7.57104989e-01 1.34465474e+00 -7.57104989e-01 4.75249022e+00 1.68774053e-02 1.34465474e+00 1.68774053e-02 -2.16910202e+01
3.69927502e+00 -1.06944404e+00 8.83891139e-01 -1.06944404e+00 6.99331212e+00 -2.54220887e-01 8.83891139e-01 -2.54220887e-01 -1.81020877e+01
-5.04205719e+00 4.61741818e-01 2.26852017e+00 4.61741818e-01 -6.20843512e+00 2.08773752e+00 2.26852017e+00 2.08773752e+00 -4.16510491e+01
7.76696682e-01 -1.09134823e-01 3.62928445e-01 -1.09134823e-01 1.08320546e+00 -5.57183172e-02 3.62928445e-01 -5.57183172e-02 -2.80485692e+01
1.74336194e+01 2.94240838e+00 4.32409810e+00 2.94240838e+00 1.58748582e+01 3.57023811e+00 4.32409810e+00 3.57023811e+00 -9.65270315e-01
-6.89886647e+00 8.84748130e-01 -1.64696544e-01 8.84748130e-01 -6.66723570e+00 3.13280255e-01 -1.64696544e-01 3.13280255e-01 -4.32227664e+01
-8.28610558e+01 -7.14037060e+00 -1.82218377e+01 -7.14037060e+00 -8.37050186e+01 -2.15520437e+00 -1.82218377e+01 -2.15520437e+00 -1.89163260e+02
1.36279855e+01 1.44205947e+00 6.38812295e-01 1.44205947e+00 1.76919469e+01 1.30629074e+00 6.38812295e-01 1.30629074e+00 -1.02148989e+00
-5.28256493e+01 -1.36270404e+00 -4.00695580e+00 -1.36270404e+00 -4.80998225e+01 1.08827795e+00 -4.00695580e+00 1.08827795e+00 -1.38698296e+02
-3.78869398e+01 -2.01633113e+00 -1.78343160e+01 -2.01633113e+00 -4.81423805e+01 -1.36866882e+00 -1.78343160e+01 -1.36866882e+00 -1.00256634e+02
-3.52233896e+01 -1.71378189e+00 -1.43107343e-01 -1.71378189e+00 -3.07092028e+01 1.59989095e+00 -1.43107343e-01 1.59989095e+00 -1.01077240e+02
-4.74939556e+01 -4.30799386e-01 -4.29034817e+00 -4.30799386e-01 -4.18178668e+01 -1.72426743e+00 -4.29034817e+00 -1.72426743e+00 -1.26073519e+02
-3.00464802e+01 -2.76699388e+00 -7.72333816e-01 -2.76699388e+00 -2.09311247e+01 3.38866949e-01 -7.72333816e-01 3.38866949e-01 -8.42644958e+01
-4.76926212e+01 -4.50907338e+00 -4.90182257e+00 -4.50907338e+00 -3.60904856e+01 -3.76892487e+00 -4.90182257e+00 -3.76892487e+00 -1.18149635e+02
3.32389648e+00 1.30099283e-01 2.70487396e+00 1.30099283e-01 5.92634565e+00 5.85230524e-01 2.70487396e+00 5.85230524e-01 -1.92710333e+01
1.28753273e+01 7.01763660e-02 1.10380967e+00 7.01763660e-02 1.38943915e+01 -2.58133367e-01 1.10380967e+00 -2.58133367e-01 -8.99424314e-01
-1.03164501e+01 -4.15577400e-01 3.76574335e+00 -4.15577400e-01 -1.06657525e+01 1.69431452e+00 3.76574335e+00 1.69431452e+00 -5.16657411e+01
4.05813682e+00 4.43989225e-02 1.55225566e+00 4.43989225e-02 5.58366686e+00 1.05356830e-01 1.55225566e+00 1.05356830e-01 -1.95194545e+01
-1.12432240e+02 -1.23192668e+01 8.94514674e+00 -1.23192668e+01 -1.02570315e+02 -1.58592997e+01 8.94514674e+00 -1.58592997e+01 -2.34766365e+02
-2.09692102e+01 2.47962825e+00 2.57173840e+00 2.47962825e+00 -2.84029333e+01 -2.93847663e+00 2.57173840e+00 -2.93847663e+00 -8.43040830e+01
1.31029068e+02 1.45578852e+01 2.32639618e+01 1.45578852e+01 1.26499001e+02 2.31483517e+01 2.32639618e+01 2.31483517e+01 1.99626175e+02
7.47724915e+00 -5.51927813e+00 -8.42006052e+00 -5.51927813e+00 5.12506739e+00 -5.43877514e+00 -8.42006052e+00 -5.43877514e+00 -2.06387377e+00
2.45226460e+01 -6.48530083e-02 -2.41664803e+00 -6.48530083e-02 2.45992275e+01 2.22300368e-01 -2.41664803e+00 2.22300368e-01 2.23460391e+01
1.39546635e+01 -3.81709229e-01 1.21155338e+00 -3.81709229e-01 1.42066953e+01 6.63945299e-01 1.21155338e+00 6.63945299e-01 8.27253819e-01
2.15304156e+01 -5.89495038e-01 -2.60205050e-01 -5.89495038e-01 2.34436683e+01 1.05022003e+00 -2.60205050e-01 1.05022003e+00 1.94369227e+01
6.99862623e+00 -9.29895005e-01 2.44970399e+00 -9.29895005e-01 7.63193345e+00 1.77884888e+00 2.44970399e+00 1.77884888e+00 -1.34748821e+01
1.47218054e+01 -5.50504830e-02 7.40817469e-02 -5.50504830e-02 1.46517818e+01 2.52770849e-01 7.40817469e-02 2.52770849e-01 1.81406474e+00
2.13550189e+01 3.55561035e-01 1.05319684e+00 3.55561035e-01 2.21449272e+01 1.26152064e-01 1.05319684e+00 1.26152064e-01 1.72194233e+01
1.86735058e+00 1.93368971e+00 1.37236781e-01 1.93368971e+00 4.51021314e+00 1.19829178e+00 1.37236781e-01 1.19829178e+00 -2.28447426e+01
-6.01778553e+01 2.00043805e+00 6.07922513e+00 2.00043805e+00 -5.63204350e+01 1.95734695e+01 6.07922513e+00 1.95734695e+01 -1.35001066e+02
-1.06031368e+02 -3.81701344e+00 1.28860621e+01 -3.81701344e+00 -1.03220097e+02 1.20669775e+01 1.28860621e+01 1.20669775e+01 -2.52759117e+02
-5.75752206e+00 -3.05467888e+00 -3.03317069e+00 -3.05467888e+00 3.34056854e-01 5.12031851e+00 -3.03317069e+00 5.12031851e+00 -3.42634018e+01
4.10189152e+00 -4.40637559e-01 -3.16989586e-01 -4.40637559e-01 6.14220810e+00 7.77533546e-01 -3.16989586e-01 7.77533546e-01 -1.89257431e+01
1.11987734e+00 1.25765062e+00 -1.36179380e+00 1.25765062e+00 -6.87687874e-01 8.58700529e-01 -1.36179380e+00 8.58700529e-01 -2.95001936e+01
2.85204887e+00 -1.82993899e+00 2.28241992e+00 -1.82993899e+00 6.64753914e+00 -1.35060555e+00 2.28241992e+00 -1.35060555e+00 -1.94535751e+01
-2.29734654e+01 -3.58112938e+00 -4.36965382e+00 -3.58112938e+00 -1.78017998e+01 3.88528425e+00 -4.36965382e+00 3.88528425e+00 -6.98223991e+01
-8.95929705e+01 1.21406681e+01 5.78790963e-01 1.21406681e+01 -5.26037178e+01 -3.90625509e+01 5.78790963e-01 -3.90625509e+01 -1.26544314e+02
-1.96529039e+00 -4.08441873e+00 -7.37980381e-01 -4.08441873e+00 -7.55525970e+00 -3.47668688e+00 -7.37980381e-01 -3.47668688e+00 -3.60326182e+01
5.23907110e+00 -3.79872238e-02 1.95508532e-01 -3.79872238e-02 2.80649149e+00 -1.30890212e-02 1.95508532e-01 -1.30890212e-02 -2.11845250e+01
2.26497889e-01 1.25209653e-01 -6.88568261e-02 1.25209653e-01 -1.04129076e+00 7.27344689e-01 -6.88568261e-02 7.27344689e-01 -3.08043403e+01
8.57396016e-01 6.83824538e-01 2.35461548e-01 6.83824538e-01 -8.71295094e-01 3.73772699e-01 2.35461548e-01 3.73772699e-01 -2.99267863e+01
-3.88092309e-01 2.94412103e-01 3.88964973e-01 2.94412103e-01 -3.55439204e+00 -2.94358186e-01 3.88964973e-01 -2.94358186e-01 -3.40996127e+01
-5.62064278e+00 8.22008148e-01 -1.78333472e-01 8.22008148e-01 -3.92731071e+00 7.82591656e-01 -1.78333472e-01 7.82591656e-01 -4.02328069e+01
-6.49510759e+00 1.25054200e+00 4.84333126e-01 1.25054200e+00 -4.84145863e+00 1.51600915e+00 4.84333126e-01 1.51600915e+00 -4.19491239e+01
-6.73114735e+00 2.98434988e-01 5.79837911e-01 2.98434988e-01 -5.02666843e+00 3.88404284e-01 5.79837911e-01 3.88404284e-01 -4.27333789e+01
-1.36676125e+01 5.37318479e-01 7.85951056e-01 5.37318479e-01 -7.46723378e+00 1.81799666e+00 7.85951056e-01 1.81799666e+00 -5.21277784e+01
-4.44903755e+00 -1.27646621e+00 3.83285686e-01 -1.27646621e+00 -2.49224660e+00 5.81615071e-01 3.83285686e-01 5.81615071e-01 -3.73893111e+01
-2.13184443e+00 -7.06921207e-01 -1.34572435e-01 -7.06921207e-01 1.51507780e+00 -1.02765543e-01 -1.34572435e-01 -1.02765543e-01 -3.04167589e+01
5.00286381e+00 -5.33471011e-01 -7.37636024e-03 -5.33471011e-01 7.28911158e+00 -5.97660609e-01 -7.37636024e-03 -5.97660609e-01 -1.65737576e+01
9.40631175e+00 -1.04784971e+00 -1.83269914e-01 -1.04784971e+00 1.03100003e+01 -2.44415477e-02 -1.83269914e-01 -2.44415477e-02 -8.63861740e+00
5.98452091e-01 4.05058235e-01 8.51773888e-01 4.05058235e-01 5.21424556e+00 -1.35192096e+00 8.51773888e-01 -1.35192096e+00 -2.31940027e+01
-3.75513344e+00 -1.13566971e+00 1.64401144e-01 -1.13566971e+00 -2.95498371e-02 -2.09185746e+00 1.64401144e-01 -2.09185746e+00 -3.33841581e+01
-6.58609220e+00 1.34887976e+00 8.70803762e-01 1.34887976e+00 -1.03069659e+01 1.77094283e+00 8.70803762e-01 1.77094283e+00 -4.78544207e+01
-2.35313416e+00 7.76577502e-01 2.00643182e-01 7.76577502e-01 -5.99578571e+00 -9.53185004e-02 2.00643182e-01 -9.53185004e-02 -3.88451385e+01
-8.77975905e+00 2.85610719e+00 3.44040247e-01 2.85610719e+00 -9.01093090e+00 1.03687781e+00 3.44040247e-01 1.03687781e+00 -4.87814363e+01
6.55116487e+00 1.71364255e+00 -5.51050689e+00 1.71364255e+00 8.57396030e+00 -6.39977219e-01 -5.51050689e+00 -6.39977219e-01 -1.05538145e+01
1.26572268e+01 -2.25773361e-01 -2.43849340e+00 -2.25773361e-01 1.83220147e+01 -7.37828325e-02 -2.43849340e+00 -7.37828325e-02 2.21173368e+00
-1.10274351e+01 -2.79858383e+00 -7.53776660e+00 -2.79858383e+00 -4.11640763e+00 -1.90130912e+00 -7.53776660e+00 -1.90130912e+00 -4.27655563e+01
-6.28907649e+00 -5.99238666e+00 -9.25859177e+00 -5.99238666e+00 -9.70132128e+00 -2.31098008e+00 -9.25859177e+00 -2.31098008e+00 -4.17467702e+01
-2.44969123e+01 2.52509654e-01 4.45467818e+00 2.52509654e-01 -3.33643804e+01 3.25250501e-02 4.45467818e+00 3.25250501e-02 -9.11479931e+01
-2.86936401e+01 -1.43597154e+00 3.89074318e+00 -1.43597154e+00 -3.29091670e+01 -1.96325968e-01 3.89074318e+00 -1.96325968e-01 -9.61929181e+01
1.37035728e+01 2.37715097e+00 -6.19013477e-01 2.37715097e+00 9.29183626e+00 -4.33243653e+00 -6.19013477e-01 -4.33243653e+00 -3.73007852e+00
3.68605493e+01 1.66429655e+00 -2.23237714e+00 1.66429655e+00 3.23583660e+01 1.26373768e-02 -2.23237714e+00 1.26373768e-02 4.29959494e+01
8.15554199e+01 4.29068136e+00 2.65082779e+01 4.29068136e+00 9.91976318e+01 7.06972504e+00 2.65082779e+01 7.06972504e+00 1.28131332e+02
2.08967978e+01 -2.54805199e+00 -7.25923526e-01 -2.54805199e+00 1.47746716e+01 -3.12569070e+00 -7.25923526e-01 -3.12569070e+00 1.66016373e+01
-2.55562530e+01 -4.38980207e-01 1.08811498e-01 -4.38980207e-01 -2.29192127e+01 5.86447255e+00 1.08811498e-01 5.86447255e+00 -7.99770217e+01
2.29908562e+00 9.49679514e-02 -1.72310150e+00 9.49679514e-02 5.08711497e-01 2.94393139e+00 -1.72310150e+00 2.94393139e+00 -2.68136953e+01
-1.07405849e+02 -1.21817260e+01 1.16917815e+01 -1.21817260e+01 -1.58454502e+02 -1.33589454e+01 1.16917815e+01 -1.33589454e+01 -3.04096214e+02
-3.39630455e+01 3.23642706e-01 -1.84599291e+00 3.23642706e-01 -2.91101839e+01 4.89529065e+00 -1.84599291e+00 4.89529065e+00 -9.72449843e+01
-1.33656504e+01 -5.88209599e-01 3.95742636e+00 -5.88209599e-01 -1.03750232e+01 -2.41128840e-01 3.95742636e+00 -2.41128840e-01 -5.54533978e+01
2.06918055e+01 -2.47131705e-01 2.20233355e+00 -2.47131705e-01 1.91513809e+01 2.20946006e-01 2.20233355e+00 2.20946006e-01 1.30030701e+01
1.02155151e+01 4.84179348e-01 4.37547594e-01 4.84179348e-01 9.10959625e+00 -7.23698343e-01 4.37547594e-01 -7.23698343e-01 -8.97703934e+00
-3.24488091e+01 7.83767939e-01 -5.34962744e-01 7.83767939e-01 -4.09084233e+01 -3.73798311e+00 -5.34962744e-01 -3.73798311e+00 -1.07322436e+02
-1.16115549e+01 -1.44908088e+00 -3.25209555e+00 -1.44908088e+00 -2.14970324e+01 6.76028681e+00 -3.25209555e+00 6.76028681e+00 -6.11457338e+01
9.31634009e+00 -1.38290309e+00 -5.60338356e-01 -1.38290309e+00 -9.19851708e+00 6.29521549e+00 -5.60338356e-01 6.29521549e+00 -4.03919096e+01
1.29012518e+01 -1.88138819e+00 2.14084701e+00 -1.88138819e+00 2.11888237e+01 -3.85575620e+00 2.14084701e+00 -3.85575620e+00 8.64257514e+00
9.24205246e+01 -4.25286102e+00 7.57407904e-01 -4.25286102e+00 6.49256363e+01 2.21480217e+01 7.57407904e-01 2.21480217e+01 8.92939224e+01
4.20391769e+01 2.82013273e+00 -3.43446881e-01 2.82013273e+00 3.79079208e+01 5.94332886e+00 -3.43446881e-01 5.94332886e+00 5.56509438e+01
8.96765471e+00 -2.47098309e+00 -2.22972506e+00 -2.47098309e+00 1.00186048e+01 9.86644998e-01 -2.22972506e+00 9.86644998e-01 1.06644941e+01
4.50967832e+00 -4.79523774e+00 -1.85045201e+00 -4.79523774e+00 1.43559157e+01 -3.63483896e+00 -1.85045201e+00 -3.63483896e+00 7.34526650e+00
-1.16809547e+00 -9.49093699e-01 1.53011155e+00 -9.49093699e-01 1.17566383e+00 -1.09279418e+00 1.53011155e+00 -1.09279418e+00 -4.79137689e-01
-9.36804533e-01 1.60239846e-01 1.05614677e-01 1.60239846e-01 -1.08517855e-01 8.06670129e-01 1.05614677e-01 8.06670129e-01 5.73499680e-01
9.31972206e-01 -5.97272336e-01 3.53472263e-01 -5.97272336e-01 -4.59054053e-01 -1.45374215e+00 3.53472263e-01 -1.45374215e+00 -9.44865227e-01
4.10970092e-01 -1.70722139e+00 -1.27992928e+00 -1.70722139e+00 5.35574019e-01 1.31501102e+00 -1.27992928e+00 1.31501102e+00 -1.41849387e+00
7.09272485e+00 2.54820061e+00 1.59822297e+00 2.54820061e+00 -2.99833655e+00 9.79631758e-01 1.59822297e+00 9.79631758e-01 -7.06944713e-01
1.16722843e+00 -4.33949312e-01 -2.40057220e-01 -4.33949312e-01 -5.11646481e+00 8.97974292e-01 -2.40057220e-01 8.97974292e-01 -8.59903150e-01
-3.61489201e+00 9.17828798e-01 5.16826883e-02 9.17828798e-01 9.01592284e-01 -1.52441800e+00 5.16826883e-02 -1.52441800e+00 4.97883990e-01
-5.18880967e+00 -2.35600392e+00 -3.67432545e-01 -2.35600392e+00 2.43488006e+00 -6.25507394e-01 -3.67432545e-01 -6.25507394e-01 3.39979096e+00
2.14607501e+00 -3.48045826e-02 3.89105547e-03 -3.48045826e-02 -9.35786605e-01 3.14297620e-03 3.89105547e-03 3.14297620e-03 -2.85268307e+01
-5.87741733e-01 2.49161966e-01 -1.33316885e-02 2.49161966e-01 -2.24202335e+00 2.73719467e-01 -1.33316885e-02 2.73719467e-01 -3.30123711e+01
1.55434036e+00 8.89757164e-01 2.09846534e-01 8.89757164e-01 -4.82916832e-01 3.44367165e-01 2.09846534e-01 3.44367165e-01 -2.87178841e+01
9.27428722e-01 3.69589828e-01 1.30376048e-01 3.69589828e-01 -2.63965797e+00 -7.19002960e-03 1.30376048e-01 -7.19002960e-03 -3.16493340e+01
-8.65278137e+00 5.88082239e-01 -8.55597015e-03 5.88082239e-01 -6.44532669e+00 1.04806012e+00 -8.55597015e-03 1.04806012e+00 -4.61871204e+01
-6.52561267e+00 1.96664816e+00 2.45854367e-01 1.96664816e+00 -5.38415354e+00 6.42828134e-01 2.45854367e-01 6.42828134e-01 -4.26325572e+01
-1.16634269e+01 1.28963631e+00 2.95888875e-02 1.28963631e+00 -7.59102750e+00 5.60586005e-01 2.95888875e-02 5.60586005e-01 -5.05984745e+01
-2.28808812e+01 1.68738243e+00 1.17667919e+00 1.68738243e+00 -1.38174653e+01 1.96603274e+00 1.17667919e+00 1.96603274e+00 -6.85356479e+01
-1.22205541e+01 -7.68778443e-01 6.47820942e-02 -7.68778443e-01 -6.04984236e+00 3.57798189e-01 6.47820942e-02 3.57798189e-01 -4.92857618e+01
-1.97978193e+01 -8.56380925e-01 2.07492323e+00 -8.56380925e-01 -1.03087099e+01 1.33587709e+00 2.07492323e+00 1.33587709e+00 -6.14670098e+01
-9.63157034e+00 -2.63868958e-01 1.21500358e-01 -2.63868958e-01 -3.10674816e+00 -5.37627161e-01 1.21500358e-01 -5.37627161e-01 -4.32396240e+01
-4.92866302e+00 -2.13831393e+00 1.69148980e+00 -2.13831393e+00 2.49994874e+00 6.66438881e-02 1.69148980e+00 6.66438881e-02 -3.13161066e+01
-2.49518204e+01 -3.50940919e+00 2.25972056e-01 -3.50940919e+00 -1.37476902e+01 1.52403712e-01 2.25972056e-01 1.52403712e-01 -7.04039078e+01
-2.18367205e+01 -1.73069900e+00 2.37146878e+00 -1.73069900e+00 -7.20792055e+00 -3.88395762e+00 2.37146878e+00 -3.88395762e+00 -5.84853497e+01
1.34403312e+00 2.88367060e+00 -1.17345361e+00 2.88367060e+00 -3.19970310e+00 1.20979893e+00 -1.17345361e+00 1.20979893e+00 -3.13110361e+01
-1.52626038e-02 4.31386285e-01 -5.97796947e-01 4.31386285e-01 -7.32394218e+00 1.21431377e-01 -5.97796947e-01 1.21431377e-01 -3.72560730e+01
-9.54375634e+00 5.10972568e+00 5.53759851e-01 5.10972568e+00 -9.67201746e+00 2.28343499e+00 5.53759851e-01 2.28343499e+00 -4.90629301e+01
8.60576439e+00 1.11675641e+00 1.92487432e+00 1.11675641e+00 1.21698761e+01 9.20965195e-01 1.92487432e+00 9.20965195e-01 -7.78816605e+00
2.84839966e+01 -1.14552333e+00 2.11216830e+00 -1.14552333e+00 2.69631127e+01 2.66712487e-01 2.11216830e+00 2.66712487e-01 2.83067675e+01
1.98278718e+01 2.27998197e-02 2.73571359e+00 2.27998197e-02 1.82677245e+01 -4.59418595e-01 2.73571359e+00 -4.59418595e-01 9.83483887e+00
1.57946832e+01 -5.42273845e+00 2.08164549e+00 -5.42273845e+00 7.46922302e+00 -7.82074332e-01 2.08164549e+00 -7.82074332e-01 -2.80956078e+00
-9.27613945e+01 -2.97530079e+00 5.29145956e+00 -2.97530079e+00 -1.10059187e+02 3.44351912e+00 5.29145956e+00 3.44351912e+00 -2.47982529e+02
-1.05751961e+02 -7.01965317e-02 2.68786478e+00 -7.01965317e-02 -1.10956665e+02 1.45640910e-01 2.68786478e+00 1.45640910e-01 -2.64549805e+02
2.76550921e+01 4.14591757e+00 -9.49500491e-01 4.14591757e+00 2.69756522e+01 1.45626386e+00 -9.49500491e-01 1.45626386e+00 3.01077490e+01
3.11013770e+01 -2.20816246e+00 2.89788222e+00 -2.20816246e+00 3.15808706e+01 1.99578734e+00 2.89788222e+00 1.99578734e+00 3.52498593e+01
2.78289652e+01 -1.31193607e+00 -1.15335139e-01 -1.31193607e+00 2.70337331e+01 1.72706344e+00 -1.15335139e-01 1.72706344e+00 2.98886032e+01
2.11077739e+01 9.12846565e-01 3.84771350e+00 9.12846565e-01 1.87116186e+01 -2.94157304e+00 3.84771350e+00 -2.94157304e+00 2.64020950e+01
2.12115760e+01 1.03526954e+00 2.63935998e+00 1.03526954e+00 1.54682947e+01 1.35681378e+00 2.63935998e+00 1.35681378e+00 2.44323062e+01
5.28432274e+00 -6.14143074e+00 2.21925735e-01 -6.14143074e+00 -1.35762787e+00 -9.25887495e-01 2.21925735e-01 -9.25887495e-01 8.14925766e+00
2.68146300e+01 3.54253799e+00 2.96087861e+00 3.54253799e+00 1.29120626e+01 6.14181831e-01 2.96087861e+00 6.14181831e-01 3.28033487e+01
1.03810482e+01 5.56438684e+00 -1.01109626e+01 5.56438684e+00 2.11075249e+01 2.03076296e+01 -1.01109626e+01 2.03076296e+01 6.06736543e+01
2.45402699e+01 -2.68701494e+00 3.50142163e+00 -2.68701494e+00 2.87184525e+01 -3.88066614e+00 3.50142163e+00 -3.88066614e+00 3.76724243e+01
-1.00188267e+00 1.11352444e+01 -2.80751753e+00 1.11352444e+01 1.19119711e+01 2.12623672e+01 -2.80751753e+00 2.12623672e+01 -1.90528278e+01
2.11194505e+01 4.82119100e+00 -2.79603767e+00 4.82119100e+00 2.81305162e+01 -4.77387341e+00 -2.79603767e+00 -4.77387341e+00 1.40642447e+01
1.60615279e+01 6.95988148e-01 3.05866182e+00 6.95988148e-01 8.56733195e+00 2.51344023e+00 3.05866182e+00 2.51344023e+00 5.90277584e+00
2.15951264e-01 4.59071735e+00 4.80768317e+00 4.59071735e+00 1.01337287e+01 -8.85340393e-01 4.80768317e+00 -8.85340393e-01 3.38702643e+00
1.93152279e-02 -4.38657504e+00 -5.07141009e-01 -4.38657504e+00 6.99921048e+00 2.05755052e+00 -5.07141009e-01 2.05755052e+00 9.44602600e+00
3.06110811e+00 -1.69871998e+00 -5.06589770e-01 -1.69871998e+00 -6.60751271e+00 1.07095886e-01 -5.06589770e-01 1.07095886e-01 5.02083939e+00
-2.29154658e+00 -4.91853714e-01 -1.35263512e+00 -4.91853714e-01 -6.32457674e+00 -1.19729321e+00 -1.35263512e+00 -1.19729321e+00 2.79982650e+00
-1.00106544e+02 2.80531120e+00 -3.43036318e+00 2.80531120e+00 -6.80766678e+01 1.21299112e+00 -3.43036318e+00 1.21299112e+00 -2.08119629e+02
-1.44395309e+02 6.14788914e+00 1.35234976e+00 6.14788914e+00 -1.30489731e+02 1.29660928e+00 1.35234976e+00 1.29660928e+00 -3.27452789e+02
5.62298218e+00 -1.46428859e+00 1.25753442e+00 -1.46428859e+00 4.18175586e+00 2.02706264e+00 1.25753442e+00 2.02706264e+00 -1.94747861e+01
9.42274761e+00 -2.61548239e+00 3.99895692e+00 -2.61548239e+00 -1.60525703e+00 -1.69494405e-01 3.99895692e+00 -1.69494405e-01 -2.01846104e+01
1.96338598e+00 2.06333303e+00 -5.19012334e-02 2.06333303e+00 -6.87270880e-01 -8.82076861e-01 -5.19012334e-02 -8.82076861e-01 2.94444153e+00
1.20886764e+01 1.29927866e+00 4.33803121e-01 1.29927866e+00 2.58837694e+01 5.05684622e+00 4.33803121e-01 5.05684622e+00 2.37520606e+01
2.64729822e+00 1.54788780e+00 5.27013481e-01 1.54788780e+00 -6.48084188e+00 7.73107201e-01 5.27013481e-01 7.73107201e-01 -3.14292741e+00
7.49701548e+00 -1.36598426e+00 7.49195985e-01 -1.36598426e+00 4.10254002e+00 7.30827034e-01 7.49195985e-01 7.30827034e-01 -1.67862787e+01
1.96079826e+01 1.71883023e+00 -1.16759276e+00 1.71883023e+00 1.68880329e+01 6.38180692e-03 -1.16759276e+00 6.38180692e-03 9.64544868e+00
-1.33033800e+00 -9.61355925e-01 4.18861538e-01 -9.61355925e-01 -3.21217704e+00 3.98024571e+00 4.18861538e-01 3.98024571e+00 -3.49297795e+01
-6.02302432e+00 -2.30335036e+00 -3.10701806e-01 -2.30335036e+00 -1.66543083e+01 3.22983420e+00 -3.10701806e-01 3.22983420e+00 -5.24503784e+01
1.14874921e+01 3.01901191e+00 -2.43589017e+00 3.01901191e+00 3.50934410e+00 1.01250654e+00 -2.43589017e+00 1.01250654e+00 -1.40736198e+01
1.36325150e+01 -6.15147471e-01 -1.22991795e+00 -6.15147471e-01 2.73436165e+01 2.64694986e+00 -1.22991795e+00 2.64694986e+00 1.64363670e+01
1.98088367e+01 2.74961644e+00 -2.05985485e+00 2.74961644e+00 2.34667687e+01 1.13381350e+00 -2.05985485e+00 1.13381350e+00 2.18979664e+01
-5.76082706e+00 1.38651681e+00 -1.16196269e+00 1.38651681e+00 1.78374350e+00 5.89670330e-01 -1.16196269e+00 5.89670330e-01 3.88151440e+00
-4.45940828e+00 1.29071605e+00 -4.94642109e-02 1.29071605e+00 -3.69140863e-01 -7.93335363e-02 -4.94642109e-02 -7.93335363e-02 8.69444251e-01
</DataArray>
<DataArray type="Float32" Name="Logarithmic_strain_components" NumberOfComponents="9" format="ascii">
3.93514526e-02 -8.26259324e-03 2.72660839e-03 -8.26259324e-03 3.37919670e-02 7.72130669e-03 2.72660839e-03 7.72130669e-03 -6.06359858e-02
3.79518629e-02 -1.61795962e-02 -6.37572055e-04 -1.61795962e-02 4.19270375e-02 1.73033521e-02 -6.37572055e-04 1.73033521e-02 -6.70106583e-02
4.41760030e-02 -2.30705738e-03 2.61334097e-03 -2.30705738e-03 5.79864429e-02 -7.50581786e-03 2.61334097e-03 -7.50581786e-03 -8.65766443e-02
4.02324349e-02 -1.70417847e-03 -3.08475253e-03 -1.70417847e-03 4.56233844e-02 -3.10824253e-04 -3.08475253e-03 -3.10824253e-04 -7.30759483e-02
3.95087064e-02 3.05329889e-03 1.22372889e-02 3.05329889e-03 4.89534051e-02 9.93706053e-03 1.22372889e-02 9.93706053e-03 -7.26584774e-02
3.92265559e-02 -1.33765078e-02 -1.58107018e-02 -1.33765078e-02 6.27279920e-02 1.52544182e-02 -1.58107018e-02 1.52544182e-02 -8.48866722e-02
5.66037679e-02 -8.43092520e-03 -7.15065355e-03 -8.43092520e-03 6.93958607e-02 -1.21260365e-02 -7.15065355e-03 -1.21260365e-02 -1.07234627e-01
4.40812912e-02 1.72655222e-02 5.88644511e-03 1.72655222e-02 5.40830791e-02 1.63683626e-02 5.88644511e-03 1.63683626e-02 -8.25033970e-02
5.16910283e-02 2.65987124e-04 -2.45912091e-02 2.65987124e-04 5.46384668e-02 2.30695857e-02 -2.45912091e-02 2.30695857e-02 -9.46875960e-02
6.55859858e-02 -6.61213431e-04 -2.09648460e-02 -6.61213431e-04 7.18753561e-02 2.49265381e-02 -2.09648460e-02 2.49265381e-02 -1.23553380e-01
6.97387072e-02 3.24684270e-02 -1.03099038e-01 3.24684270e-02 6.25964670e-02 -1.98802508e-02 -1.03099038e-01 -1.98802508e-02 -1.14373945e-01
9.90493558e-02 2.52166279e-02 -7.34463539e-02 2.52166279e-02 5.39558828e-02 -1.28605111e-02 -7.34463539e-02 -1.28605111e-02 -1.33243140e-01
-4.31342369e-06 -2.82318060e-05 -1.33600909e-05 -2.82318060e-05 8.57010923e-06 1.17328236e-05 -1.33600909e-05 1.17328236e-05 -1.02862869e-05
-8.46280579e-06 -2.17692934e-06 -4.29412648e-06 -2.17692934e-06 -1.64628705e-06 -1.25030961e-05 -4.29412648e-06 -1.25030961e-05 5.90752120e-06
1.79568005e-05 -8.27659960e-06 -5.63552885e-06 -8.27659960e-06 -1.55586889e-06 2.71181216e-05 -5.63552885e-06 2.71181216e-05 -2.13731464e-05
1.07889650e-05 -3.47829882e-05 1.01549267e-06 -3.47829882e-05 -2.27477619e-06 -2.58732343e-05 1.01549267e-06 -2.58732343e-05 -1.34479346e-05
4.70221266e-06 9.19777722e-06 1.80857951e-05 9.19777722e-06 6.03751971e-07 9.16342287e-06 1.80857951e-05 9.16342287e-06 -2.22032600e-06
-3.03400452e-06 1.43381715e-06 4.76279047e-06 1.43381715e-06 -5.41168311e-06 1.12421571e-06 4.76279047e-06 1.12421571e-06 1.07883579e-05
-2.79054075e-06 3.09398297e-06 -1.23979398e-05 3.09398297e-06 3.54991130e-06 -2.46365653e-05 -1.23979398e-05 -2.46365653e-05 1.79720166e-06
-8.32101614e-06 1.13849273e-05 -7.52270580e-06 1.13849273e-05 -3.93664732e-06 1.76479043e-05 -7.52270580e-06 1.76479043e-05 1.43662428e-05
5.36289942e-02 8.58664771e-06 9.96682933e-03 8.58664771e-06 5.63851874e-02 -2.17747700e-03 9.96682933e-03 -2.17747700e-03 -9.28325057e-02
5.52969631e-02 2.94018193e-03 6.42991613e-03 2.94018193e-03 5.46447774e-02 3.05218867e-03 6.42991613e-03 3.05218867e-03 -9.28018671e-02
5.34100230e-02 -8.99359980e-03 1.18227280e-02 -8.99359980e-03 5.55657502e-02 4.19168486e-03 1.18227280e-02 4.19168486e-03 -9.14249830e-02
5.19398889e-02 2.06690171e-03 1.04737838e-02 2.06690171e-03 5.78958001e-02 -5.70079009e-03 1.04737838e-02 -5.70079009e-03 -9.26987175e-02
6.84015304e-02 -1.62954675e-05 1.22410576e-02 -1.62954675e-05 5.28740231e-02 8.84710200e-04 1.22410576e-02 8.84710200e-04 -1.01822503e-01
6.59407647e-02 1.80040440e-03 1.83747496e-03 1.80040440e-03 5.58962421e-02 1.09687074e-02 1.83747496e-03 1.09687074e-02 -1.02897307e-01
6.74580215e-02 4.03846125e-03 1.47548275e-02 4.03846125e-03 5.63827357e-02 4.93635694e-03 1.47548275e-02 4.93635694e-03 -1.04125723e-01
6.94105588e-02 3.54251789e-03 1.52379794e-02 3.54251789e-03 5.60158817e-02 -9.56151728e-03 1.52379794e-02 -9.56151728e-03 -1.05795659e-01
5.94112957e-02 -1.16169285e-02 9.86190396e-03 -1.16169285e-02 4.89257509e-02 5.11931503e-04 9.86190396e-03 5.11931503e-04 -9.09091029e-02
5.80922547e-02 -1.18331244e-02 1.25542821e-02 -1.18331244e-02 5.41734952e-02 5.59439512e-03 1.25542821e-02 5.59439512e-03 -9.42490026e-02
6.20819163e-02 2.80659326e-03 -3.71271344e-04 2.80659326e-03 5.65536562e-02 5.28346005e-03 -3.71271344e-04 5.28346005e-03 -1.00349233e-01
6.11223555e-02 4.17762931e-03 1.34887710e-02 4.17762931e-03 6.03568610e-02 1.61037671e-02 1.34887710e-02 1.61037671e-02 -1.02762616e-01
6.31817402e-02 1.08896560e-03 4.20764706e-03 1.08896560e-03 4.61625783e-02 6.32023526e-03 4.20764706e-03 6.32023526e-03 -9.17143337e-02
6.39044219e-02 -5.84304790e-03 -5.81629627e-03 -5.84304790e-03 5.29595003e-02 -4.64372840e-03 -5.81629627e-03 -4.64372840e-03 -9.75931678e-02
6.07027039e-02 -6.54354994e-03 1.95900345e-03 -6.54354994e-03 5.12666050e-02 6.61625448e-03 1.95900345e-03 6.61625448e-03 -9.43821333e-02
5.81215136e-02 -5.75791315e-03 -4.75740712e-03 -5.75791315e-03 5.63756982e-02 5.56530917e-03 -4.75740712e-03 5.56530917e-03 -9.63227414e-02
6.64668493e-02 2.79934402e-03 -5.37965284e-03 2.79934402e-03 4.39655501e-02 -2.95936479e-05 -5.37965284e-03 -2.95936479e-05 -9.25196074e-02
6.45760871e-02 1.12758257e-03 -8.75359944e-03 1.12758257e-03 5.97632276e-02 7.50258623e-05 -8.75359944e-03 7.50258623e-05 -1.04668490e-01
5.90696139e-02 -3.02601967e-03 -7.37520924e-03 -3.02601967e-03 4.60640695e-02 5.61503781e-03 -7.37520924e-03 5.61503781e-03 -8.82778224e-02
5.85606019e-02 -1.10004539e-02 -1.20254394e-02 -1.10004539e-02 4.89630913e-02 -6.42370836e-03 -1.20254394e-02 -6.42370836e-03 -8.93136356e-02
6.43780073e-02 3.91205074e-04 2.52644788e-03 3.91205074e-04 4.54557361e-02 -3.00305660e-03 2.52644788e-03 -3.00305660e-03 -9.18972772e-02
6.47982643e-02 -8.83831410e-04 3.69370653e-04 -8.83831410e-04 5.86904106e-02 3.43356206e-03 3.69370653e-04 3.43356206e-03 -1.03532576e-01
5.29506747e-02 -9.10966715e-04 -1.29512777e-02 -9.10966715e-04 4.51637683e-02 -1.85628122e-03 -1.29512777e-02 -1.85628122e-03 -8.15595109e-02
5.61622223e-02 -3.23297061e-03 -1.10091205e-02 -3.23297061e-03 5.26725724e-02 -6.21262024e-03 -1.10091205e-02 -6.21262024e-03 -9.14174691e-02
6.20895233e-02 -5.29625511e-04 1.78166246e-03 -5.29625511e-04 4.64903209e-02 -2.54685758e-03 1.78166246e-03 -2.54685758e-03 -9.07321535e-02
6.05195230e-02 -5.47043269e-03 -3.15567938e-03 -5.47043269e-03 5.99095812e-02 -2.17005516e-03 -3.15567938e-03 -2.17005516e-03 -1.00397237e-01
4.88220081e-02 1.41006974e-02 -8.92672315e-03 1.41006974e-02 4.67036478e-02 -1.29249655e-02 -8.92672315e-03 -1.29249655e-02 -7.91326165e-02
5.50218169e-02 1.97500316e-03 -7.58884745e-03 1.97500316e-03 5.20079033e-02 -7.88769955e-03 -7.58884745e-03 -7.88769955e-03 -8.94992016e-02
4.94641489e-02 -1.55707954e-02 3.14423871e-02 -1.55707954e-02 6.07922957e-02 1.92774841e-03 3.14423871e-02 1.92774841e-03 -9.22069186e-02
4.17350456e-02 -1.38874783e-02 2.32134894e-02 -1.38874783e-02 6.47628000e-02 -3.54238600e-03 2.32134894e-02 -3.54238600e-03 -8.91779047e-02
7.20447544e-02 1.62805381e-03 4.09352123e-02 1.62805381e-03 6.05459935e-02 1.35389016e-02 4.09352123e-02 1.35389016e-02 -1.12270499e-01
6.91102743e-02 -2.56417225e-05 2.95441132e-02 -2.56417225e-05 6.14842018e-02 -1.80579047e-03 2.95441132e-02 -1.80579047e-03 -1.09932110e-01
6.19757670e-02 -4.24034844e-04 2.40817506e-02 -4.24034844e-04 5.71032081e-02 -3.49883296e-03 2.40817506e-02 -3.49883296e-03 -1.02335377e-01
6.54968582e-02 1.38149238e-02 1.19270621e-02 1.38149238e-02 6.14928436e-02 -6.38896745e-03 1.19270621e-02 -6.38896745e-03 -1.09129989e-01
7.04954207e-02 -1.70124973e-02 -6.62958281e-02 -1.70124973e-02 6.38970841e-02 -1.33808404e-03 -6.62958281e-02 -1.33808404e-03 -1.19917908e-01
5.19809558e-02 8.04912971e-03 -4.31702741e-02 8.04912971e-03 5.81160246e-02 -6.93032199e-03 -4.31702741e-02 -6.93032199e-03 -9.46351492e-02
6.99200314e-02 -2.57952302e-03 -1.94708391e-02 -2.57952302e-03 8.02284479e-02 1.23206534e-02 -1.94708391e-02 1.23206534e-02 -1.31680369e-01
5.93273006e-02 -7.75756871e-03 -6.33422105e-02 -7.75756871e-03 4.77693301e-02 7.50282174e-03 -6.33422105e-02 7.50282174e-03 -9.08495262e-02
6.87300265e-02 -5.48134447e-03 -1.56974792e-03 -5.48134447e-03 7.74274748e-02 1.15960270e-02 -1.56974792e-03 1.15960270e-02 -1.26334839e-01
6.02904512e-02 2.34360588e-03 -2.42983704e-02 2.34360588e-03 6.98130727e-02 -2.75016332e-03 -2.42983704e-02 -2.75016332e-03 -1.14039769e-01
6.16832934e-02 -4.89621586e-03 -4.38872434e-03 -4.89621586e-03 8.13730694e-02 3.71282431e-03 -4.38872434e-03 3.71282431e-03 -1.23002708e-01
5.59226219e-02 -7.40314485e-03 -2.57899631e-02 -7.40314485e-03 7.22896345e-02 -1.75337383e-02 -2.57899631e-02 -1.75337383e-02 -1.11736875e-01
4.28836630e-02 -9.45487888e-03 4.38333707e-02 -9.45487888e-03 5.95938893e-02 2.24883395e-03 4.38333707e-02 2.24883395e-03 -8.55692721e-02
3.80529910e-02 3.05028976e-03 3.42351175e-02 3.05028976e-03 5.90974241e-02 4.19014727e-03 3.42351175e-02 4.19014727e-03 -8.05135071e-02
7.61618997e-02 -4.47520976e-03 4.81725191e-02 -4.47520976e-03 6.33031343e-02 -9.17181958e-03 4.81725191e-02 -9.17181958e-03 -1.17722968e-01
6.29136385e-02 1.47222285e-03 4.76786476e-02 1.47222285e-03 6.61714813e-02 -1.06647585e-02 4.76786476e-02 -1.06647585e-02 -1.08323481e-01
5.27552844e-02 -2.94646681e-02 5.73182129e-02 -2.94646681e-02 7.18288943e-02 -6.64449797e-02 5.73182129e-02 -6.64449797e-02 -1.06577141e-01
8.20527777e-02 9.80732939e-04 2.24559175e-02 9.80732939e-04 6.31011054e-02 -5.32049302e-02 2.24559175e-02 -5.32049302e-02 -1.26008756e-01
-2.17345990e-02 -1.24302849e-01 -1.93946481e-01 -1.24302849e-01 2.13801512e-03 -1.27745360e-01 -1.93946481e-01 -1.27745360e-01 8.40485319e-02
3.69732094e-02 -1.36830673e-02 -6.04546753e-02 -1.36830673e-02 2.85991091e-02 -5.02474345e-02 -6.04546753e-02 -5.02474345e-02 -4.11848656e-02
3.71645633e-02 -3.67376185e-03 1.63422233e-02 -3.67376185e-03 4.67077371e-02 2.83842924e-02 1.63422233e-02 2.83842924e-02 -6.86006812e-02
3.68710798e-02 -8.18236289e-03 2.77905973e-02 -8.18236289e-03 4.89594033e-02 8.15711683e-03 2.77905973e-02 8.15711683e-03 -7.12454878e-02
5.30163484e-02 -1.02219614e-02 3.17775136e-02 -1.02219614e-02 6.56836635e-02 4.26273427e-02 3.17775136e-02 4.26273427e-02 -9.62144062e-02
5.84954750e-02 -7.53976125e-03 8.69292789e-03 -7.53976125e-03 6.69743856e-02 2.44267150e-02 8.69292789e-03 2.44267150e-02 -1.03507495e-01
3.86082372e-02 6.13375427e-03 -3.40925693e-03 6.13375427e-03 4.89927391e-02 4.60072642e-03 -3.40925693e-03 4.60072642e-03 -7.32940920e-02
6.09994025e-02 1.14629105e-02 -1.86246868e-02 1.14629105e-02 6.95715951e-02 3.43215122e-02 -1.86246868e-02 3.43215122e-02 -1.08512339e-01
5.46636423e-02 1.89774781e-02 1.39638744e-02 1.89774781e-02 7.74496626e-02 1.55121593e-02 1.39638744e-02 1.55121593e-02 -1.10202836e-01
3.57639524e-02 9.12691260e-03 1.91438196e-02 9.12691260e-03 5.15981363e-02 8.23734105e-02 1.91438196e-02 8.23734105e-02 -7.57589862e-02
8.56641196e-02 -1.11008603e-02 6.97231963e-02 -1.11008603e-02 7.52903651e-02 3.36294924e-02 6.97231963e-02 3.36294924e-02 -1.43218871e-01
5.20767108e-02 -2.04906158e-02 -3.83649111e-02 -2.04906158e-02 8.35667036e-02 -1.45319998e-02 -3.83649111e-02 -1.45319998e-02 -1.14876595e-01
4.04123943e-02 -4.11904370e-03 6.91247568e-03 -4.11904370e-03 5.49881775e-02 1.24454680e-02 6.91247568e-03 1.24454680e-02 -7.94527493e-02
6.66087549e-02 2.38090057e-02 -1.19748431e-02 2.38090057e-02 6.70807734e-02 2.28094175e-02 -1.19748431e-02 2.28094175e-02 -1.06195487e-01
5.62873948e-02 -1.56284380e-02 1.90256462e-02 -1.56284380e-02 8.27011876e-02 -2.11145403e-02 1.90256462e-02 -2.11145403e-02 -1.17369298e-01
6.97073750e-02 -2.58497964e-02 -5.60767595e-02 -2.58497964e-02 8.07023868e-02 5.70276426e-02 -5.60767595e-02 5.70276426e-02 -1.29790114e-01
4.04768065e-02 4.98348431e-02 -4.11109393e-03 4.98348431e-02 8.23285406e-02 -1.32897586e-01 -4.11109393e-03 -1.32897586e-01 -1.00427477e-01
8.25112251e-02 -1.17398881e-02 -1.81893607e-02 -1.17398881e-02 4.53843797e-02 -2.70986015e-02 -1.81893607e-02 -2.70986015e-02 -1.07355009e-01
8.31932314e-02 5.82198845e-06 3.98412836e-03 5.82198845e-06 5.35656754e-02 -3.10315331e-03 3.98412836e-03 -3.10315331e-03 -1.14907593e-01
7.72458464e-02 3.53362161e-03 3.57123936e-03 3.53362161e-03 5.82960937e-02 5.94380355e-03 3.57123936e-03 5.94380355e-03 -1.14372935e-01
8.01217668e-02 1.40439850e-02 8.57964391e-03 1.40439850e-02 5.94403851e-02 5.58858854e-03 8.57964391e-03 5.58858854e-03 -1.17781465e-01
8.70510675e-02 3.89849918e-03 1.01676624e-02 3.89849918e-03 5.59889972e-02 -3.54491326e-03 1.01676624e-02 -3.54491326e-03 -1.20717162e-01
6.41706977e-02 9.97621100e-03 -1.53873733e-03 9.97621100e-03 6.57783747e-02 8.94587368e-03 -1.53873733e-03 8.94587368e-03 -1.10209506e-01
6.48756535e-02 1.96003513e-02 4.83733256e-03 1.96003513e-02 6.55935383e-02 8.59702354e-03 4.83733256e-03 8.59702354e-03 -1.10752621e-01
5.48803760e-02 6.19865162e-03 -8.19987079e-04 6.19865162e-03 6.61160182e-02 2.47906055e-03 -8.19987079e-04 2.47906055e-03 -1.02910463e-01
4.97515402e-02 9.70042148e-03 5.89352276e-04 9.70042148e-03 6.80788010e-02 1.16270507e-02 5.89352276e-04 1.16270507e-02 -1.00362496e-01
4.91497824e-02 -6.54665357e-03 -5.15200518e-04 -6.54665357e-03 6.16008360e-02 1.53959403e-03 -5.15200518e-04 1.53959403e-03 -9.39872880e-02
4.37635724e-02 -5.73058490e-03 -2.95396231e-03 -5.73058490e-03 6.13492457e-02 1.35656617e-03 -2.95396231e-03 1.35656617e-03 -8.88409782e-02
4.28716801e-02 -6.57608896e-03 -4.91005066e-03 -6.57608896e-03 5.88720888e-02 -2.27434737e-03 -4.91005066e-03 -2.27434737e-03 -8.55505653e-02
4.46026418e-02 -1.07366374e-02 -9.37761273e-03 -1.07366374e-02 5.26668667e-02 -2.86531966e-03 -9.37761273e-03 -2.86531966e-03 -8.13977243e-02
3.76953669e-02 1.64339837e-03 1.23695482e-03 1.64339837e-03 6.28129449e-02 -2.61852564e-03 1.23695482e-03 -2.61852564e-03 -8.47835317e-02
4.35131444e-02 -9.19673522e-03 -3.67825991e-03 -9.19673522e-03 5.49091613e-02 -1.46525868e-02 -3.67825991e-03 -1.46525868e-02 -8.29064101e-02
9.25679775e-02 1.76756904e-02 2.51947759e-02 1.76756904e-02 5.79607342e-02 7.68359867e-03 2.51947759e-02 7.68359867e-03 -1.26507594e-01
9.53265671e-02 1.01417399e-02 3.01208855e-02 1.01417399e-02 6.35273363e-02 -8.88893963e-03 3.01208855e-02 -8.88893963e-03 -1.33815899e-01
7.17797466e-02 2.62983895e-02 3.15894601e-03 2.62983895e-02 5.79656111e-02 4.62487688e-03 3.15894601e-03 4.62487688e-03 -1.10000204e-01
4.48756763e-02 2.11357033e-02 -2.33573016e-02 2.11357033e-02 5.12221809e-02 -2.24476686e-03 -2.33573016e-02 -2.24476686e-03 -8.05567084e-02
3.07375720e-02 -9.08718311e-04 -2.75713933e-02 -9.08718311e-04 4.93677966e-02 -1.68013955e-03 -2.75713933e-02 -1.68013955e-03 -6.71532553e-02
2.83138963e-02 -1.45791825e-02 -3.34705220e-02 -1.45791825e-02 4.43003628e-02 -1.20668947e-02 -3.34705220e-02 -1.20668947e-02 -6.05101430e-02
3.24157539e-02 -2.19196820e-02 -3.89989279e-02 -2.19196820e-02 3.90144686e-02 -1.94073198e-02 -3.89989279e-02 -1.94073198e-02 -5.95048082e-02
1.03200531e-01 -2.41897519e-03 6.66328408e-02 -2.41897519e-03 5.72272651e-02 -1.52318386e-02 6.66328408e-02 -1.52318386e-02 -1.36867472e-01
1.01103149e-01 -1.76990690e-02 5.98324624e-02 -1.76990690e-02 6.41243073e-02 -1.73548758e-02 5.98324624e-02 -1.73548758e-02 -1.42108793e-01
8.46749954e-02 1.73698158e-02 1.13950594e-02 1.73698158e-02 4.25816576e-02 -3.93741870e-02 1.13950594e-02 -3.93741870e-02 -1.06787579e-01
3.82991633e-02 2.34398643e-02 -4.22892791e-02 2.34398643e-02 1.65978852e-02 -2.65588177e-02 -4.22892791e-02 -2.65588177e-02 -4.15273309e-02
1.58273056e-02 -7.61485994e-02 -9.06125978e-02 -7.61485994e-02 -3.72524112e-02 -1.00797005e-01 -9.06125978e-02 -1.00797005e-01 5.06460667e-02
2.90410244e-04 4.12824477e-03 -1.63544595e-02 4.12824477e-03 8.07312723e-03 -7.67709978e-03 -1.63544595e-02 -7.67709978e-03 -1.65416109e-03
9.92284529e-02 -2.84325099e-04 -3.39252874e-03 -2.84325099e-04 8.23910329e-02 5.39228031e-02 -3.39252874e-03 5.39228031e-02 -1.54754553e-01
1.00180616e-01 1.29430996e-02 -3.86677516e-02 1.29430996e-02 9.48135604e-02 4.91777460e-02 -3.86677516e-02 4.91777460e-02 -1.66520819e-01
1.12093292e-01 -2.38795946e-02 2.81897411e-02 -2.38795946e-02 5.79001978e-02 -5.95830726e-02 2.81897411e-02 -5.95830726e-02 -1.48866415e-01
8.78791685e-02 -6.14164444e-03 -2.67536982e-02 -6.14164444e-03 1.11095286e-01 3.63976524e-02 -2.67536982e-02 3.63976524e-02 -1.68970386e-01
8.74307826e-02 -7.81538314e-03 1.89261104e-02 -7.81538314e-03 1.11701837e-01 -6.36285680e-04 1.89261104e-02 -6.36285680e-04 -1.66829113e-01
1.00507513e-01 -5.53255156e-03 9.44243046e-03 -5.53255156e-03 8.69526006e-02 2.64694708e-02 9.44243046e-03 2.64694708e-02 -1.58373501e-01
9.77378041e-02 5.59423165e-03 1.29188057e-02 5.59423165e-03 8.47295150e-02 -1.64004257e-02 1.29188057e-02 -1.64004257e-02 -1.54211544e-01
9.42781270e-02 2.45481330e-02 -1.49264540e-02 2.45481330e-02 8.90218262e-02 -2.77201328e-02 -1.49264540e-02 -2.77201328e-02 -1.59723084e-01
1.12540482e-01 -1.49118011e-02 -3.16434833e-02 -1.49118011e-02 6.67526573e-02 5.08992947e-02 -3.16434833e-02 5.08992947e-02 -1.51796643e-01
8.47940389e-02 1.02481572e-02 1.20487750e-02 1.02481572e-02 3.24008241e-02 -3.98208811e-02 1.20487750e-02 -3.98208811e-02 -1.01906992e-01
6.43292828e-02 -2.46261517e-02 1.14286843e-02 -2.46261517e-02 4.72869431e-02 -9.37858922e-03 1.14286843e-02 -9.37858922e-03 -9.25061237e-02
-5.80463372e-02 7.95243233e-02 4.32665460e-02 7.95243233e-02 -1.85571890e-02 1.94515716e-02 4.32665460e-02 1.94515716e-02 1.47422090e-01
-1.41642913e-02 3.78749631e-02 6.56278729e-02 3.78749631e-02 -7.42486026e-03 -7.65944347e-02 6.56278729e-02 -7.65944347e-02 5.06994687e-02
1.82214139e-02 -3.89759841e-02 -1.21626106e-02 -3.89759841e-02 -2.20142610e-02 3.87847884e-02 -1.21626106e-02 3.87847884e-02 3.68016083e-03
-1.11889446e-02 -6.63117977e-02 -1.15627415e-02 -6.63117977e-02 1.96845205e-03 -1.06746154e-02 -1.15627415e-02 -1.06746154e-02 8.80205755e-03
-2.68216718e-05 -4.53981920e-05 7.38159579e-05 -4.53981920e-05 2.99398416e-05 -5.29059507e-05 7.38159579e-05 -5.29059507e-05 -9.89729688e-06
-2.07328212e-05 7.77970672e-06 4.55667941e-06 7.77970672e-06 -1.49345965e-07 3.96686737e-05 4.55667941e-06 3.96686737e-05 1.55533489e-05
2.44778876e-05 -2.88426127e-05 1.69372634e-05 -2.88426127e-05 -9.11880852e-06 -6.97538708e-05 1.69372634e-05 -6.97538708e-05 -2.05168744e-05
1.20960049e-05 -8.20536807e-05 -6.12868535e-05 -8.20536807e-05 1.49637617e-05 6.27673144e-05 -6.12868535e-05 6.27673144e-05 -3.26415829e-05
1.75605984e-04 9.29788235e-05 5.27444616e-05 9.29788235e-05 -1.26479070e-04 1.10195389e-05 5.27444616e-05 1.10195389e-05 -2.21089355e-05
4.81448042e-05 -2.05144994e-05 -1.20616848e-05 -2.05144994e-05 -1.03230412e-04 4.32631447e-05 -1.20616848e-05 4.32631447e-05 -1.44059292e-06
-7.83036994e-05 4.37606286e-05 2.20621678e-06 4.37606286e-05 2.95011896e-05 -7.28506748e-05 2.20621678e-06 -7.28506748e-05 1.99687411e-05
-1.58554172e-04 -2.66646166e-04 -5.07004067e-06 -2.66646166e-04 6.58131588e-05 -2.54464709e-05 -5.07004067e-06 -2.54464709e-05 1.13920319e-04
8.85467306e-02 -4.68749204e-06 4.87337820e-06 -4.68749204e-06 5.59392944e-02 -3.22049891e-06 4.87337820e-06 -3.22049891e-06 -1.21685185e-01
8.12336355e-02 6.67963992e-03 -1.05034596e-05 6.67963992e-03 6.07787333e-02 4.82344069e-03 -1.05034596e-05 4.82344069e-03 -1.19983301e-01
8.65775961e-02 2.05916106e-02 3.91011988e-03 2.05916106e-02 5.72450059e-02 7.87381234e-03 3.91011988e-03 7.87381234e-03 -1.21043183e-01
9.52670649e-02 6.06973819e-03 1.84318796e-03 6.06973819e-03 5.38349412e-02 -7.40948599e-06 1.84318796e-03 -7.40948599e-06 -1.25562098e-01
6.48560729e-02 6.67651463e-03 -4.57492915e-05 6.67651463e-03 7.02472143e-02 1.11005162e-02 -4.57492915e-05 1.11005162e-02 -1.14831779e-01
6.70379382e-02 2.64045736e-02 4.68366034e-03 2.64045736e-02 6.63968958e-02 7.73472420e-03 4.68366034e-03 7.73472420e-03 -1.13135993e-01
5.09363040e-02 1.09828557e-02 -3.51118852e-05 1.09828557e-02 7.40225911e-02 7.29998690e-03 -3.51118852e-05 7.29998690e-03 -1.06403910e-01
4.91878726e-02 1.70816253e-02 7.33857031e-03 1.70816253e-02 7.21894968e-02 1.19709738e-02 7.33857031e-03 1.19709738e-02 -1.04084054e-01
4.26171049e-02 6.23056694e-04 9.75397052e-06 6.23056694e-04 7.23406821e-02 2.62209470e-03 9.75397052e-06 2.62209470e-03 -9.79397744e-02
3.90364425e-02 1.69910150e-03 1.30992907e-02 1.69910150e-03 6.90170936e-02 9.85519611e-03 1.30992907e-02 9.85519611e-03 -9.27938092e-02
4.00273856e-02 -4.35042288e-03 -4.72622196e-06 -4.35042288e-03 6.83917105e-02 -5.80510823e-04 -4.72622196e-06 -5.80510823e-04 -9.22308117e-02
3.29480777e-02 -9.46756743e-03 1.40672745e-02 -9.46756743e-03 6.33768952e-02 1.75841464e-03 1.40672745e-02 1.75841464e-03 -8.18927232e-02
3.66011858e-02 -2.32083853e-02 6.08251394e-05 -2.32083853e-02 7.29158595e-02 6.36224682e-03 6.08251394e-05 6.36224682e-03 -9.41544399e-02
2.97289584e-02 -1.44744641e-02 1.79830305e-02 -1.44744641e-02 6.62385691e-02 -1.84933441e-02 1.79830305e-02 -1.84933441e-02 -8.21708366e-02
9.50087775e-02 2.69067627e-02 -9.72597464e-03 2.69067627e-02 6.75991271e-02 1.48273655e-02 -9.72597464e-03 1.48273655e-02 -1.37756560e-01
1.05179332e-01 5.25243697e-03 -4.72351373e-03 5.25243697e-03 7.09300637e-02 -9.18289879e-06 -4.72351373e-03 -9.18289879e-06 -1.49804570e-01
6.98562739e-02 4.85843178e-02 4.57294263e-04 4.85843178e-02 5.86520871e-02 2.12521967e-02 4.57294263e-04 2.12521967e-02 -1.08479895e-01
4.01518093e-02 2.91550646e-02 1.08444432e-02 2.91550646e-02 5.34436340e-02 1.41082003e-02 1.08444432e-02 1.41082003e-02 -7.89053980e-02
2.25781526e-02 -2.16372713e-03 1.46606194e-02 -2.16372713e-03 4.21797521e-02 1.13924644e-02 1.46606194e-02 1.13924644e-02 -5.33116581e-02
1.65878802e-02 -1.49320799e-02 1.68104512e-02 -1.49320799e-02 3.45669435e-02 -2.73395813e-03 1.68104512e-02 -2.73395813e-03 -4.14214144e-02
2.38072090e-02 -1.81298549e-02 1.04111135e-02 -1.81298549e-02 2.49779169e-02 -1.22806677e-02 1.04111135e-02 -1.22806677e-02 -3.95331606e-02
1.10907875e-01 -6.89288147e-03 3.81566659e-02 -6.89288147e-03 9.16058049e-02 2.00617751e-02 3.81566659e-02 2.00617751e-02 -1.82534628e-01
1.16923504e-01 -5.63541334e-03 2.55429279e-02 -5.63541334e-03 1.03447005e-01 -7.05526181e-05 2.55429279e-02 -7.05526181e-05 -1.99386492e-01
7.47258179e-02 3.05371896e-02 8.19336188e-03 3.05371896e-02 4.43014825e-02 3.14890736e-02 8.19336188e-03 3.14890736e-02 -1.01461299e-01
2.46691905e-02 1.72934179e-02 1.02941412e-02 1.72934179e-02 1.49190380e-02 1.53746600e-02 1.02941412e-02 1.53746600e-02 -2.75447033e-02
1.66469195e-04 -7.77031342e-03 8.16672939e-04 -7.77031342e-03 6.77930736e-03 7.43381985e-04 8.16672939e-04 7.43381985e-04 -2.29031002e-03
-3.59418439e-03 -7.56767942e-03 -2.08723210e-02 -7.56767942e-03 1.05043377e-02 -8.52085839e-04 -2.08723210e-02 -8.52085839e-04 -3.90968791e-03
-8.13623500e-04 -5.62196510e-03 7.19534713e-04 -5.62196510e-03 5.06972984e-03 5.47345364e-04 7.19534713e-04 5.47345364e-04 -1.16850408e-03
7.94616266e-04 -2.09403766e-02 -1.96513031e-02 -2.09403766e-02 1.57061825e-03 -3.12296572e-04 -1.96513031e-02 -3.12296572e-04 3.46426823e-04
2.37392145e-03 -1.36286462e-02 1.78273564e-03 -1.36286462e-02 -1.61941617e-03 2.11605962e-04 1.78273564e-03 2.11605962e-04 1.98681053e-03
2.62403074e-02 -2.59954017e-03 -2.63500512e-02 -2.59954017e-03 -1.68146775e-02 -6.16435930e-02 -2.63500512e-02 -6.16435930e-02 1.74917234e-03
-1.44842034e-03 -1.45000080e-03 1.22494698e-02 -1.45000080e-03 -3.81041958e-04 1.02753574e-02 1.22494698e-02 1.02753574e-02 1.28567107e-02
5.49426228e-02 3.58404517e-02 -1.03388866e-02 3.58404517e-02 6.51134104e-02 8.79224613e-02 -1.03388866e-02 8.79224613e-02 -1.07934952e-01
3.18535562e-04 -1.61309958e-04 -6.32657257e-04 -1.61309958e-04 3.48970745e-04 5.69761111e-03 -6.32657257e-04 5.69761111e-03 -7.11130754e-06
-1.72081806e-03 -4.58466571e-03 2.03810753e-04 -4.58466571e-03 1.23584274e-03 1.47585316e-04 2.03810753e-04 1.47585316e-04 1.23230020e-03
-1.84318960e-04 2.32895880e-04 2.44207187e-04 2.32895880e-04 3.78044785e-04 -1.28079555e-05 2.44207187e-04 -1.28079555e-05 -3.43014899e-05
-1.54701987e-04 -2.50098219e-04 -9.73129827e-05 -2.50098219e-04 1.91001682e-04 8.64149224e-05 -9.73129827e-05 8.64149224e-05 1.21688622e-04
2.82404701e-04 -1.09696965e-03 5.27070988e-04 -1.09696965e-03 -5.27969663e-04 1.64134303e-05 5.27070988e-04 1.64134303e-05 3.81238022e-04
4.52943459e-04 -1.25974501e-03 -1.45104772e-04 -1.25974501e-03 -1.05089805e-03 -9.02344291e-05 -1.45104772e-04 -9.02344291e-05 7.30432370e-04
1.09002873e-01 2.54040845e-02 -2.52402183e-02 2.54040845e-02 1.71946511e-01 6.17022044e-04 -2.52402183e-02 6.17022044e-04 -2.51619488e-01
1.37794137e-01 1.23802228e-02 -1.23622129e-02 1.23802228e-02 1.53544202e-01 2.53102202e-02 -1.23622129e-02 2.53102202e-02 -2.64855266e-01
1.06033713e-01 -2.71376825e-02 2.52960852e-02 -2.71376825e-02 1.15212351e-01 3.00918122e-02 2.52960852e-02 3.00918122e-02 -1.87212795e-01
1.09274272e-01 -2.09218329e-02 3.77973691e-02 -2.09218329e-02 1.23116352e-01 2.51757287e-04 3.77973691e-02 2.51757287e-04 -1.98623396e-01
7.24387628e-05 3.14219760e-05 -1.99966200e-06 3.14219760e-05 -6.30120030e-05 -5.48214530e-05 -1.99966200e-06 -5.48214530e-05 2.49849217e-05
1.27316438e-02 -1.56188130e-02 3.90800972e-05 -1.56188130e-02 -4.96995538e-03 3.64724450e-04 3.90800972e-05 3.64724450e-04 -5.85069688e-03
9.20398088e-05 7.42287666e-05 2.47924308e-05 7.42287666e-05 -1.27038220e-04 3.66056793e-05 2.47924308e-05 3.66056793e-05 -4.74633671e-05
1.21902764e-01 -2.63662506e-02 2.03990769e-02 -2.63662506e-02 7.98037797e-02 2.09913235e-02 2.03990769e-02 2.09913235e-02 -1.71815373e-01
1.26689777e-01 9.88526549e-03 1.61522273e-02 9.88526549e-03 6.74956888e-02 -1.89856743e-04 1.61522273e-02 -1.89856743e-04 -1.62021741e-01
9.97679122e-02 6.89861458e-03 6.15468202e-03 6.89861458e-03 9.12427530e-02 3.86456307e-02 6.15468202e-03 3.86456307e-02 -1.65492006e-01
1.19786952e-01 -2.82162696e-02 -3.50823475e-03 -2.82162696e-02 6.90207817e-02 4.37871907e-02 -3.50823475e-03 4.37871907e-02 -1.61212854e-01
5.61452545e-02 1.39500042e-02 -2.09075687e-02 1.39500042e-02 3.08938129e-02 1.75533285e-02 -2.09075687e-02 1.75533285e-02 -6.50913306e-02
4.15809402e-02 -1.43762794e-02 -1.48506453e-02 -1.43762794e-02 5.56683019e-02 2.09346032e-02 -1.48506453e-02 2.09346032e-02 -7.41402730e-02
-1.16844442e-02 -3.96363842e-02 -7.98858673e-04 -3.96363842e-02 8.94543823e-03 3.83750841e-04 -7.98858673e-04 3.83750841e-04 6.38095641e-03
-3.27397926e-04 -4.89002559e-05 -6.17245714e-05 -4.89002559e-05 1.30623645e-04 1.38695941e-05 -6.17245714e-05 1.38695941e-05 2.24378022e-04
-9.21895407e-05 6.18714985e-05 -2.19681806e-06 6.18714985e-05 5.63993535e-06 -3.75882951e-06 -2.19681806e-06 -3.75882951e-06 3.53556752e-05
</DataArray>
<DataArray type="Float32" Name="Plastic_strain_components" NumberOfComponents="9" format="ascii">
3.90423909e-02 -8.27664254e-03 2.76464212e-03 -8.27664254e-03 3.35317075e-02 7.76542686e-03 2.76464212e-03 7.76542686e-03 -6.09078314e-02
3.34066520e-02 -1.55761643e-02 6.40515471e-04 -1.55761643e-02 3.59299332e-02 1.68307671e-02 6.40515471e-04 1.68307671e-02 -5.59970834e-02
3.63511071e-02 5.79822663e-04 1.87643559e-03 5.79822663e-04 4.99462327e-02 -5.53442637e-03 1.87643559e-03 -5.53442637e-03 -7.01097986e-02
4.03142739e-02 -1.67210914e-03 -3.12308624e-03 -1.67210914e-03 4.57393564e-02 -3.06998962e-04 -3.12308624e-03 -3.06998962e-04 -7.24864397e-02
2.13445066e-02 5.69947384e-04 1.47718637e-02 5.69947384e-04 2.71882336e-02 6.42244268e-04 1.47718637e-02 6.42244268e-04 -3.40402224e-02
2.62744065e-02 -9.16296955e-03 -6.77454586e-03 -9.16296955e-03 4.00971237e-02 2.40930267e-02 -6.77454586e-03 2.40930267e-02 -4.99534490e-02
6.47916179e-02 -1.09945526e-02 -1.11826812e-02 -1.09945526e-02 8.22004471e-02 -1.63210209e-02 -1.11826812e-02 -1.63210209e-02 -1.26981487e-01
5.38630001e-02 1.88052959e-02 4.46393993e-03 1.88052959e-02 6.59789816e-02 2.16071052e-02 4.46393993e-03 2.16071052e-02 -1.04260543e-01
5.53115578e-02 2.61180685e-04 -2.22517170e-02 2.61180685e-04 6.03103638e-02 2.99394992e-02 -2.22517170e-02 2.99394992e-02 -9.98424869e-02
7.17940945e-02 -1.90152373e-03 -2.05906658e-02 -1.90152373e-03 7.79876895e-02 2.36624340e-02 -2.05906658e-02 2.36624340e-02 -1.27575554e-01
8.19603602e-02 3.02761182e-02 -1.11699538e-01 3.02761182e-02 8.07149758e-02 -2.64660514e-02 -1.11699538e-01 -2.64660514e-02 -1.39495589e-01
9.40229185e-02 2.63076723e-02 -7.01178294e-02 2.63076723e-02 4.67882454e-02 -1.10268381e-02 -7.01178294e-02 -1.10268381e-02 -1.15053803e-01
0.00000000e+00 0.00000000e+00 0.00000000e+00 0.00000000e+00 0.00000000e+00 0.00000000e+00 0.00000000e+00 0.00000000e+00 0.00000000e+00
0.00000000e+00 0.00000000e+00 0.00000000e+00 0.00000000e+00 0.00000000e+00 0.00000000e+00 0.00000000e+00 0.00000000e+00 0.00000000e+00
0.00000000e+00 0.00000000e+00 0.00000000e+00 0.00000000e+00 0.00000000e+00 0.00000000e+00 0.00000000e+00 0.00000000e+00 0.00000000e+00
0.00000000e+00 0.00000000e+00 0.00000000e+00 0.00000000e+00 0.00000000e+00 0.00000000e+00 0.00000000e+00 0.00000000e+00 0.00000000e+00
0.00000000e+00 0.00000000e+00 0.00000000e+00 0.00000000e+00 0.00000000e+00 0.00000000e+00 0.00000000e+00 0.00000000e+00 0.00000000e+00
0.00000000e+00 0.00000000e+00 0.00000000e+00 0.00000000e+00 0.00000000e+00 0.00000000e+00 0.00000000e+00 0.00000000e+00 0.00000000e+00
0.00000000e+00 0.00000000e+00 0.00000000e+00 0.00000000e+00 0.00000000e+00 0.00000000e+00 0.00000000e+00 0.00000000e+00 0.00000000e+00
0.00000000e+00 0.00000000e+00 0.00000000e+00 0.00000000e+00 0.00000000e+00 0.00000000e+00 0.00000000e+00 0.00000000e+00 0.00000000e+00
5.36301993e-02 8.79689424e-06 1.00092338e-02 8.79689424e-06 5.63657880e-02 -2.18665903e-03 1.00092338e-02 -2.18665903e-03 -9.26274806e-02
5.50806578e-02 2.92113557e-03 6.43526658e-03 2.92113557e-03 5.44307642e-02 3.05255334e-03 6.43526658e-03 3.05255334e-03 -9.22074839e-02
5.33014992e-02 -9.00325819e-03 1.18957951e-02 -9.00325819e-03 5.54387080e-02 4.16317572e-03 1.18957951e-02 4.16317572e-03 -9.14923809e-02
5.17183347e-02 2.07093358e-03 1.04571645e-02 2.07093358e-03 5.76087022e-02 -5.69758809e-03 1.04571645e-02 -5.69758809e-03 -9.20378845e-02
6.81593046e-02 -1.43091675e-05 1.22283166e-02 -1.43091675e-05 5.26322648e-02 8.72063334e-04 1.22283166e-02 8.72063334e-04 -1.01658672e-01
6.58286233e-02 1.78923010e-03 1.85650593e-03 1.78923010e-03 5.57881501e-02 1.09122318e-02 1.85650593e-03 1.09122318e-02 -1.02366632e-01
6.72440333e-02 4.03533445e-03 1.47708852e-02 4.03533445e-03 5.61637646e-02 4.91733427e-03 1.47708852e-02 4.91733427e-03 -1.03814461e-01
6.92606941e-02 3.52645462e-03 1.52314152e-02 3.52645462e-03 5.58795212e-02 -9.53365024e-03 1.52314152e-02 -9.53365024e-03 -1.05279608e-01
5.91747360e-02 -1.15810046e-02 9.87545168e-03 -1.15810046e-02 4.86955065e-02 4.99116722e-04 9.87545168e-03 4.99116722e-04 -9.07737277e-02
5.78606678e-02 -1.18216735e-02 1.25344669e-02 -1.18216735e-02 5.39534427e-02 5.58136601e-03 1.25344669e-02 5.58136601e-03 -9.40168304e-02
6.18413296e-02 2.80567963e-03 -3.85732870e-04 2.80567963e-03 5.63277928e-02 5.26256890e-03 -3.85732870e-04 5.26256890e-03 -9.95145962e-02
6.11177809e-02 4.18573906e-03 1.34373118e-02 4.18573906e-03 6.03165613e-02 1.60151023e-02 1.34373118e-02 1.60151023e-02 -1.02205813e-01
6.30396502e-02 1.07939128e-03 4.20636556e-03 1.07939128e-03 4.60107718e-02 6.28479110e-03 4.20636556e-03 6.28479110e-03 -9.17430688e-02
5.84947104e-02 -5.40684807e-03 -4.63981519e-03 -5.40684807e-03 4.75340255e-02 -4.60499807e-03 -4.63981519e-03 -4.60499807e-03 -8.75596160e-02
6.04663827e-02 -6.49944693e-03 1.93238875e-03 -6.49944693e-03 5.10673821e-02 6.56693388e-03 1.93238875e-03 6.56693388e-03 -9.39087346e-02
5.78799057e-02 -5.73665122e-03 -4.76512790e-03 -5.73665122e-03 5.61220543e-02 5.51797985e-03 -4.76512790e-03 5.51797985e-03 -9.59257064e-02
6.60513435e-02 2.78920331e-03 -5.35982172e-03 2.78920331e-03 4.36197314e-02 -6.97654905e-05 -5.35982172e-03 -6.97654905e-05 -9.22262073e-02
6.60396526e-02 9.50376329e-04 -9.23178754e-03 9.50376329e-04 6.12456300e-02 6.89936569e-05 -9.23178754e-03 6.89936569e-05 -1.07760828e-01
5.89280743e-02 -3.01984069e-03 -7.39239843e-03 -3.01984069e-03 4.59351046e-02 5.58733332e-03 -7.39239843e-03 5.58733332e-03 -8.82787015e-02
5.57434065e-02 -1.06440823e-02 -1.11602258e-02 -1.06440823e-02 4.61251475e-02 -6.42942786e-03 -1.11602258e-02 -6.42942786e-03 -8.48946022e-02
6.38637040e-02 3.97661308e-04 2.54778983e-03 3.97661308e-04 4.50231638e-02 -3.01261574e-03 2.54778983e-03 -3.01261574e-03 -9.16139428e-02
6.42462657e-02 -8.57302017e-04 4.53773100e-04 -8.57302017e-04 5.81682180e-02 3.42581303e-03 4.53773100e-04 3.42581303e-03 -1.03012322e-01
5.26229544e-02 -9.04587709e-04 -1.29850304e-02 -9.04587709e-04 4.48130388e-02 -1.84491069e-03 -1.29850304e-02 -1.84491069e-03 -8.20147451e-02
5.63567425e-02 -3.29234030e-03 -1.11973119e-02 -3.29234030e-03 5.28751323e-02 -6.18072691e-03 -1.11973119e-02 -6.18072691e-03 -9.21151554e-02
6.15923144e-02 -5.32105565e-04 1.81026396e-03 -5.32105565e-04 4.60392572e-02 -2.50512315e-03 1.81026396e-03 -2.50512315e-03 -9.05271471e-02
5.98703166e-02 -5.45516772e-03 -3.12825176e-03 -5.45516772e-03 5.92598980e-02 -2.19382689e-03 -3.12825176e-03 -2.19382689e-03 -1.00268755e-01
4.85075600e-02 1.41179906e-02 -8.95782933e-03 1.41179906e-02 4.63459231e-02 -1.29361670e-02 -8.95782933e-03 -1.29361670e-02 -7.97906369e-02
5.43924896e-02 1.99216465e-03 -7.53953357e-03 1.99216465e-03 5.13639692e-02 -7.76816855e-03 -7.53953357e-03 -7.76816855e-03 -8.89151953e-02
4.89620124e-02 -1.55160710e-02 3.12391176e-02 -1.55160710e-02 6.01479798e-02 1.95530339e-03 3.12391176e-02 1.95530339e-03 -9.12038172e-02
4.16677129e-02 -1.38577106e-02 2.33191219e-02 -1.38577106e-02 6.46664770e-02 -3.54478840e-03 2.33191219e-02 -3.54478840e-03 -8.92431438e-02
7.21520986e-02 1.62563652e-03 4.08653002e-02 1.62563652e-03 6.06467901e-02 1.34086837e-02 4.08653002e-02 1.34086837e-02 -1.11419326e-01
6.89749233e-02 2.78387779e-06 2.96025577e-02 2.78387779e-06 6.12879451e-02 -1.82522013e-03 2.96025577e-02 -1.82522013e-03 -1.09440142e-01
6.26787410e-02 -5.49838512e-04 2.36763869e-02 -5.49838512e-04 5.77512692e-02 -3.63533844e-03 2.36763869e-02 -3.63533844e-03 -1.02103851e-01
6.52201651e-02 1.36785872e-02 1.33312159e-02 1.36785872e-02 6.14892193e-02 -6.14667527e-03 1.33312159e-02 -6.14667527e-03 -1.06213016e-01
7.44644970e-02 -1.68235175e-02 -6.46617569e-02 -1.68235175e-02 6.81104429e-02 -8.74749664e-04 -6.46617569e-02 -8.74749664e-04 -1.18475346e-01
5.59428419e-02 8.35256867e-03 -4.88257382e-02 8.35256867e-03 6.09562631e-02 -8.58307936e-03 -4.88257382e-02 -8.58307936e-03 -9.97047829e-02
7.01987613e-02 -2.40266765e-03 -1.89222822e-02 -2.40266765e-03 8.04027338e-02 1.23158372e-02 -1.89222822e-02 1.23158372e-02 -1.26408366e-01
6.12910263e-02 -8.20330972e-03 -6.39403341e-02 -8.20330972e-03 4.94168206e-02 7.09481614e-03 -6.39403341e-02 7.09481614e-03 -9.14842770e-02
7.00251386e-02 -5.44457781e-03 -1.58124114e-03 -5.44457781e-03 7.86896404e-02 1.15978119e-02 -1.58124114e-03 1.15978119e-02 -1.25238689e-01
6.11510808e-02 2.43093685e-03 -2.39760308e-02 2.43093685e-03 7.05320798e-02 -2.62395118e-03 -2.39760308e-02 -2.62395118e-03 -1.10726049e-01
6.25565164e-02 -4.80620191e-03 -4.34500491e-03 -4.80620191e-03 8.21108334e-02 3.70289024e-03 -4.34500491e-03 3.70289024e-03 -1.21738255e-01
5.69944661e-02 -7.17950496e-03 -2.55373418e-02 -7.17950496e-03 7.30983391e-02 -1.72912413e-02 -2.55373418e-02 -1.72912413e-02 -1.09229319e-01
4.46085036e-02 -9.59583016e-03 4.53850989e-02 -9.59583016e-03 6.16624723e-02 2.98597358e-03 4.53850989e-02 2.98597358e-03 -8.93741378e-02
3.71717792e-02 3.14063602e-03 3.36699290e-02 3.14063602e-03 5.82023896e-02 3.82078293e-03 3.36699290e-02 3.82078293e-03 -7.96315894e-02
7.90170218e-02 -4.76758398e-03 5.03775813e-02 -4.76758398e-03 6.61133102e-02 -8.88586310e-03 5.03775813e-02 -8.88586310e-03 -1.22424912e-01
6.28200825e-02 1.45125049e-03 4.77649244e-02 1.45125049e-03 6.59773732e-02 -1.06609161e-02 4.77649244e-02 -1.06609161e-02 -1.07933778e-01
5.29981550e-02 -2.90929312e-02 5.95983053e-02 -2.90929312e-02 7.24544637e-02 -6.68286553e-02 5.95983053e-02 -6.68286553e-02 -1.01978861e-01
8.34179536e-02 -9.95569862e-05 1.43094271e-02 -9.95569862e-05 6.40136659e-02 -5.51223330e-02 1.43094271e-02 -5.51223330e-02 -1.24450879e-01
-2.40979772e-02 -1.28347889e-01 -2.28992328e-01 -1.28347889e-01 -5.31355385e-03 -1.38825655e-01 -2.28992328e-01 -1.38825655e-01 4.30127531e-02
2.24968493e-02 -5.89922039e-03 -2.20762293e-02 -5.89922039e-03 1.83255946e-02 -3.71735046e-02 -2.20762293e-02 -3.71735046e-02 -2.44826799e-02
3.30779644e-02 -3.47191972e-03 1.22641471e-02 -3.47191972e-03 4.20676715e-02 2.61754906e-02 1.22641471e-02 2.61754906e-02 -6.14668404e-02
3.89940441e-02 -8.51764251e-03 3.04087428e-02 -8.51764251e-03 5.12952898e-02 9.62515501e-03 3.04087428e-02 9.62515501e-03 -7.63663333e-02
2.36286807e-02 -6.14350557e-03 2.94652975e-02 -6.14350557e-03 3.10472169e-02 2.29618854e-02 2.94652975e-02 2.29618854e-02 -3.43355772e-02
3.81053324e-02 -6.33132586e-03 1.69077020e-02 -6.33132586e-03 4.70559085e-02 1.54790755e-02 1.69077020e-02 1.54790755e-02 -6.42852709e-02
4.14937101e-02 6.99379109e-03 -3.59553611e-03 6.99379109e-03 5.21637574e-02 5.85907430e-03 -3.59553611e-03 5.85907430e-03 -7.98321832e-02
7.43705380e-02 1.39872030e-02 -2.05731764e-02 1.39872030e-02 8.57238881e-02 4.41248261e-02 -2.05731764e-02 4.41248261e-02 -1.39453755e-01
4.21112962e-02 1.61095506e-02 8.81534046e-03 1.61095506e-02 6.12001852e-02 1.01897487e-02 8.81534046e-03 1.01897487e-02 -8.16554381e-02
3.87387048e-02 7.82150067e-03 1.81631590e-02 7.82150067e-03 5.48999794e-02 8.61727698e-02 1.81631590e-02 8.61727698e-02 -7.61118289e-02
1.00887313e-01 -1.24298921e-02 8.06273222e-02 -1.24298921e-02 8.99867602e-02 3.49412663e-02 8.06273222e-02 3.49412663e-02 -1.63768262e-01
5.36863945e-02 -2.16318060e-02 -4.02111121e-02 -2.16318060e-02 8.52184236e-02 -1.47872120e-02 -4.02111121e-02 -1.47872120e-02 -1.15902904e-01
3.83793153e-02 -4.56862641e-03 7.06866058e-03 -4.56862641e-03 5.28398789e-02 1.16793537e-02 7.06866058e-03 1.16793537e-02 -7.61222877e-02
2.28520773e-02 1.30494709e-02 -8.30755068e-03 1.30494709e-02 2.27230059e-02 -5.34567083e-03 -8.30755068e-03 -5.34567083e-03 -2.27917796e-02
5.23109995e-02 -1.33687202e-02 1.63100553e-02 -1.33687202e-02 7.55864717e-02 -1.74979712e-02 1.63100553e-02 -1.74979712e-02 -1.06174216e-01
7.51271481e-02 -2.27038516e-02 -5.56075992e-02 -2.27038516e-02 8.65702219e-02 6.32491778e-02 -5.56075992e-02 6.32491778e-02 -1.36523837e-01
3.59175131e-02 5.46994917e-02 -9.36748926e-04 5.46994917e-02 8.06630924e-02 -1.33559924e-01 -9.36748926e-04 -1.33559924e-01 -9.27446894e-02
8.04757985e-02 -8.18863309e-03 -1.29651402e-02 -8.18863309e-03 4.56128599e-02 -3.59768569e-02 -1.29651402e-02 -3.59768569e-02 -1.04931093e-01
8.29227977e-02 8.16345710e-06 3.97327775e-03 8.16345710e-06 5.33494838e-02 -3.11425247e-03 3.97327775e-03 -3.11425247e-03 -1.14570815e-01
7.71375950e-02 3.53570143e-03 3.59064300e-03 3.53570143e-03 5.82236322e-02 5.89950863e-03 3.59064300e-03 5.89950863e-03 -1.13891326e-01
7.98758417e-02 1.40024106e-02 8.56472575e-03 1.40024106e-02 5.92662003e-02 5.55998477e-03 8.56472575e-03 5.55998477e-03 -1.17024231e-01
8.69483054e-02 3.88990756e-03 1.01700891e-02 3.88990756e-03 5.59374131e-02 -3.51796678e-03 1.01700891e-02 -3.51796678e-03 -1.20109932e-01
6.41359705e-02 9.93444701e-03 -1.52708392e-03 9.93444701e-03 6.57113288e-02 8.89864354e-03 -1.52708392e-03 8.89864354e-03 -1.09313874e-01
6.48502032e-02 1.95157550e-02 4.79928704e-03 1.95157550e-02 6.55583683e-02 8.49903301e-03 4.79928704e-03 8.49903301e-03 -1.09679641e-01
5.48121519e-02 6.17547892e-03 -8.72016870e-04 6.17547892e-03 6.59837201e-02 2.44806352e-03 -8.72016870e-04 2.44806352e-03 -1.01716390e-01
4.97523285e-02 9.70736159e-03 6.14443037e-04 9.70736159e-03 6.77137915e-02 1.15803721e-02 6.14443037e-04 1.15803721e-02 -9.86243272e-02
4.91104126e-02 -6.47950266e-03 -5.41558868e-04 -6.47950266e-03 6.15301318e-02 1.50890247e-03 -5.41558868e-04 1.50890247e-03 -9.31514725e-02
4.43363586e-02 -5.61219410e-03 -3.24595638e-03 -5.61219410e-03 6.24915338e-02 1.18604243e-03 -3.24595638e-03 1.18604243e-03 -9.01890313e-02
4.27848548e-02 -6.56364986e-03 -4.92159522e-03 -6.56364986e-03 5.87792099e-02 -2.24202986e-03 -4.92159522e-03 -2.24202986e-03 -8.54731761e-02
4.52919672e-02 -1.14309111e-02 -9.84851399e-03 -1.14309111e-02 5.40500553e-02 -3.17850684e-03 -9.84851399e-03 -3.17850684e-03 -8.40470437e-02
3.76825891e-02 1.61337107e-03 1.19853450e-03 1.61337107e-03 6.27460442e-02 -2.54616840e-03 1.19853450e-03 -2.54616840e-03 -8.44344608e-02
4.34370479e-02 -9.23491991e-03 -3.99397919e-03 -9.23491991e-03 5.47118904e-02 -1.45611444e-02 -3.99397919e-03 -1.45611444e-02 -8.24439246e-02
8.00168607e-02 1.80192710e-02 2.06702694e-02 1.80192710e-02 5.05051631e-02 6.37886627e-03 2.06702694e-02 6.37886627e-03 -1.05869413e-01
8.70563108e-02 9.97089269e-03 2.88681092e-02 9.97089269e-03 5.53332279e-02 -8.45501479e-03 2.88681092e-02 -8.45501479e-03 -1.16899760e-01
6.20823514e-02 2.29413057e-02 2.11560197e-03 2.29413057e-02 5.30095726e-02 4.58531696e-03 2.11560197e-03 4.58531696e-03 -9.39210928e-02
4.33646189e-02 1.94912627e-02 -2.21798926e-02 1.94912627e-02 5.05376882e-02 -4.67683768e-03 -2.21798926e-02 -4.67683768e-03 -7.83130045e-02
2.83609287e-02 -1.12918861e-03 -2.91613528e-02 -1.12918861e-03 4.43830789e-02 -2.20279435e-03 -2.91613528e-02 -2.20279435e-03 -6.03735823e-02
2.33235873e-02 -1.05231494e-02 -3.09798811e-02 -1.05231494e-02 3.53134861e-02 -1.04243247e-02 -3.09798811e-02 -1.04243247e-02 -4.62451465e-02
3.17201465e-02 -2.07764897e-02 -3.72539498e-02 -2.07764897e-02 3.84531446e-02 -1.91724139e-02 -3.72539498e-02 -1.91724139e-02 -5.80540560e-02
1.10965279e-01 -1.72435058e-03 6.77050197e-02 -1.72435058e-03 6.14407348e-02 -1.50165105e-02 6.77050197e-02 -1.50165105e-02 -1.45540914e-01
1.05015568e-01 -1.75679245e-02 6.03655602e-02 -1.75679245e-02 6.81258378e-02 -1.76541507e-02 6.03655602e-02 -1.76541507e-02 -1.45649960e-01
8.20673468e-02 1.86616578e-02 6.85483318e-03 1.86616578e-02 4.04219123e-02 -4.58470878e-02 6.85483318e-03 -4.58470878e-02 -1.02103458e-01
1.03218205e-02 1.26199330e-02 -2.39869501e-02 1.26199330e-02 6.19527779e-03 -2.93656891e-03 -2.39869501e-02 -2.93656891e-03 -5.68998908e-03
7.48701766e-03 -7.06749111e-02 -8.77818465e-02 -7.06749111e-02 -3.90411317e-02 -9.45889577e-02 -8.77818465e-02 -9.45889577e-02 4.02153544e-02
-2.92398829e-03 3.34496429e-03 -1.15453944e-03 3.34496429e-03 3.51838101e-03 -8.36624682e-04 -1.15453944e-03 -8.36624682e-04 4.62610661e-03
1.19393762e-01 -3.71022546e-03 -6.29231334e-03 -3.71022546e-03 1.06700935e-01 6.47585290e-02 -6.29231334e-03 6.47585290e-02 -1.95244653e-01
1.15521488e-01 1.17899592e-02 -4.03758525e-02 1.17899592e-02 1.15138485e-01 5.29128338e-02 -4.03758525e-02 5.29128338e-02 -1.99911430e-01
1.13375258e-01 -2.46338085e-02 2.49013375e-02 -2.46338085e-02 5.48783299e-02 -6.92074336e-02 2.49013375e-02 -6.92074336e-02 -1.40558027e-01
6.64721094e-02 -2.08572729e-03 -1.70825912e-02 -2.08572729e-03 8.44112467e-02 2.60933811e-02 -1.70825912e-02 2.60933811e-02 -1.18111050e-01
6.78705066e-02 -4.92563321e-03 1.66249971e-02 -4.92563321e-03 7.84509555e-02 -2.32971602e-03 1.66249971e-02 -2.32971602e-03 -1.13968569e-01
1.09708032e-01 -2.74481298e-03 8.38888576e-03 -2.74481298e-03 9.63692479e-02 3.34321550e-02 8.38888576e-03 3.34321550e-02 -1.77464910e-01
9.80316624e-02 5.06616221e-03 1.34262536e-02 5.06616221e-03 8.58222879e-02 -1.71051659e-02 1.34262536e-02 -1.71051659e-02 -1.55236222e-01
1.02233764e-01 2.52639710e-02 -1.42380348e-02 2.52639710e-02 9.37694386e-02 -3.39038447e-02 -1.42380348e-02 -3.39038447e-02 -1.66052837e-01
1.14931813e-01 -1.73138413e-02 -2.98523759e-02 -1.73138413e-02 6.55759647e-02 4.64617917e-02 -2.98523759e-02 4.64617917e-02 -1.51588783e-01
6.80687778e-02 1.04631115e-02 7.87116948e-03 1.04631115e-02 2.77104548e-02 -1.53738528e-02 7.87116948e-03 -1.53738528e-02 -7.67709650e-02
4.34305370e-02 -2.47344804e-02 5.37316094e-03 -2.47344804e-02 4.11794549e-02 4.16307943e-03 5.37316094e-03 4.16307943e-03 -6.65988995e-02
-1.46914460e-02 3.42477784e-02 2.06046421e-02 3.42477784e-02 -9.56145022e-03 -1.13520594e-02 2.06046421e-02 -1.13520594e-02 3.42675000e-02
-2.66696978e-03 -6.67706551e-03 6.72976207e-03 -6.67706551e-03 -1.19952466e-02 2.06107069e-02 6.72976207e-03 2.06107069e-02 2.60089897e-02
1.73539848e-02 -4.45063921e-02 -1.24890348e-02 -4.45063921e-02 -2.26068097e-02 4.39703440e-02 -1.24890348e-02 4.39703440e-02 1.05787076e-02
-7.79770743e-03 -3.11441926e-02 3.76529211e-03 -3.11441926e-02 8.05740716e-03 -4.81109818e-02 3.76529211e-03 -4.81109818e-02 6.93185398e-03
0.00000000e+00 0.00000000e+00 0.00000000e+00 0.00000000e+00 0.00000000e+00 0.00000000e+00 0.00000000e+00 0.00000000e+00 0.00000000e+00
0.00000000e+00 0.00000000e+00 0.00000000e+00 0.00000000e+00 0.00000000e+00 0.00000000e+00 0.00000000e+00 0.00000000e+00 0.00000000e+00
0.00000000e+00 0.00000000e+00 0.00000000e+00 0.00000000e+00 0.00000000e+00 0.00000000e+00 0.00000000e+00 0.00000000e+00 0.00000000e+00
0.00000000e+00 0.00000000e+00 0.00000000e+00 0.00000000e+00 0.00000000e+00 0.00000000e+00 0.00000000e+00 0.00000000e+00 0.00000000e+00
1.92193972e-05 -2.94758822e-05 -2.37968714e-05 -2.94758822e-05 -4.01948465e-05 -3.65441880e-05 -2.37968714e-05 -3.65441880e-05 9.39504298e-06
0.00000000e+00 0.00000000e+00 0.00000000e+00 0.00000000e+00 0.00000000e+00 0.00000000e+00 0.00000000e+00 0.00000000e+00 0.00000000e+00
0.00000000e+00 0.00000000e+00 0.00000000e+00 0.00000000e+00 0.00000000e+00 0.00000000e+00 0.00000000e+00 0.00000000e+00 0.00000000e+00
-3.23976928e-05 -1.53801967e-04 1.33481747e-05 -1.53801967e-04 9.02504750e-06 4.46846025e-06 1.33481747e-05 4.46846025e-06 3.41861572e-05
8.83734301e-02 9.83738573e-07 2.66547431e-06 9.83738573e-07 5.58271073e-02 7.51315383e-07 2.66547431e-06 7.51315383e-07 -1.21228501e-01
8.10397752e-02 6.66641328e-03 -1.19499309e-05 6.66641328e-03 6.06571287e-02 4.81667975e-03 -1.19499309e-05 4.81667975e-03 -1.19229950e-01
8.64848290e-02 2.06009392e-02 3.91399843e-03 2.06009392e-02 5.71814990e-02 7.88032485e-03 3.91399843e-03 7.88032485e-03 -1.20699938e-01
9.51463617e-02 6.06032740e-03 1.83809490e-03 6.06032740e-03 5.37604410e-02 -3.63515937e-06 1.83809490e-03 -3.63515937e-06 -1.25055779e-01
6.48595449e-02 6.64405827e-03 -4.37835042e-05 6.64405827e-03 7.02275857e-02 1.10471607e-02 -4.37835042e-05 1.10471607e-02 -1.13712899e-01
6.70204433e-02 2.63035686e-02 4.67930466e-03 2.63035686e-02 6.63643964e-02 7.70783401e-03 4.67930466e-03 7.70783401e-03 -1.12122400e-01
5.09941336e-02 1.08994856e-02 -3.72127215e-05 1.08994856e-02 7.39412718e-02 7.26223830e-03 -3.72127215e-05 7.26223830e-03 -1.05075397e-01
4.91653224e-02 1.70082168e-02 7.06178695e-03 1.70082168e-02 7.13335946e-02 1.17040004e-02 7.06178695e-03 1.17040004e-02 -1.00966198e-01
4.26802188e-02 6.60890917e-04 9.17927537e-07 6.60890917e-04 7.21743703e-02 2.59678171e-03 9.17927537e-07 2.59678171e-03 -9.65140574e-02
4.10455419e-02 2.06124438e-03 1.37221038e-02 2.06124438e-03 7.30372854e-02 1.05181921e-02 1.37221038e-02 1.05181921e-02 -9.67874341e-02
4.00952250e-02 -4.33526095e-03 -1.11179615e-05 -4.33526095e-03 6.82599954e-02 -5.44779148e-04 -1.11179615e-05 -5.44779148e-04 -9.10662599e-02
3.51921585e-02 -1.24319148e-02 1.56625749e-02 -1.24319148e-02 6.97322376e-02 1.56717174e-03 1.56625749e-02 1.56717174e-03 -8.96085650e-02
3.68852988e-02 -2.29442287e-02 2.61855312e-05 -2.29442287e-02 7.27031901e-02 6.35511009e-03 2.61855312e-05 6.35511009e-03 -9.18965414e-02
3.28988023e-02 -1.62405884e-02 1.86479837e-02 -1.62405884e-02 7.23595358e-02 -1.99338514e-02 1.86479837e-02 -1.99338514e-02 -8.96128006e-02
9.07428144e-02 2.89536961e-02 -7.92504189e-03 2.89536961e-02 6.17082641e-02 1.46965422e-02 -7.92504189e-03 1.46965422e-02 -1.26677684e-01
1.17719267e-01 5.21483039e-03 -3.76718130e-03 5.21483039e-03 8.17894693e-02 8.31245838e-04 -3.76718130e-03 8.31245838e-04 -1.71801351e-01
5.28442068e-02 4.24133786e-02 -1.96132896e-06 4.24133786e-02 4.99275634e-02 1.63879230e-02 -1.96132896e-06 1.63879230e-02 -8.13894541e-02
3.88145288e-02 2.66732047e-02 1.22105586e-02 2.66732047e-02 5.52819949e-02 1.51192867e-02 1.22105586e-02 1.51192867e-02 -7.92850414e-02
1.66942596e-02 -3.88701841e-03 1.13116596e-02 -3.88701841e-03 3.01222132e-02 8.97838359e-03 1.13116596e-02 8.97838359e-03 -3.67068900e-02
8.48169625e-03 -5.36184138e-03 9.66873876e-03 -5.36184138e-03 1.29786328e-02 -2.15228827e-03 9.66873876e-03 -2.15228827e-03 -1.27055461e-02
1.43340355e-02 -1.41222086e-02 7.00069545e-03 -1.41222086e-02 3.49112903e-03 -6.58770220e-03 7.00069545e-03 -6.58770220e-03 -9.24862176e-03
1.12424869e-01 -8.48463003e-03 3.63938306e-02 -8.48463003e-03 9.61777829e-02 1.99874621e-02 3.63938306e-02 1.99874621e-02 -1.75705552e-01
1.12967014e-01 -5.57459099e-03 2.46649105e-02 -5.57459099e-03 1.00756638e-01 -4.54514375e-04 2.46649105e-02 -4.54514375e-04 -1.77855596e-01
9.76243143e-02 4.21450629e-02 1.05749567e-02 4.21450629e-02 5.38554353e-02 3.62693953e-02 1.05749567e-02 3.62693953e-02 -1.33505600e-01
-3.61992384e-03 -7.29231277e-03 5.78691133e-03 -7.29231277e-03 1.94500672e-03 5.95500896e-03 5.78691133e-03 5.95500896e-03 1.11838981e-02
-1.75249252e-03 -4.68701740e-03 2.92516578e-03 -4.68701740e-03 -2.58440488e-03 -2.89617557e-04 2.92516578e-03 -2.89617557e-04 7.53729286e-03
-3.91045899e-03 -8.94975153e-03 -2.09017142e-02 -8.94975153e-03 1.17634022e-02 -7.95046674e-04 -2.09017142e-02 -7.95046674e-04 -5.79149399e-03
-6.39576318e-04 8.03825926e-04 3.70578440e-03 8.03825926e-04 -2.93922427e-03 1.00706160e-03 3.70578440e-03 1.00706160e-03 5.70177389e-03
1.06970765e-03 -2.33201613e-02 -2.02251573e-02 -2.33201613e-02 1.91140041e-03 -3.93622729e-04 -2.02251573e-02 -3.93622729e-04 -5.22882561e-04
4.26136830e-04 -3.66017150e-03 3.83769063e-03 -3.66017150e-03 -2.77880079e-03 6.81231271e-04 3.83769063e-03 6.81231271e-04 4.08551423e-03
1.31758375e-02 2.83821905e-03 -2.36013094e-02 2.83821905e-03 -1.13124620e-02 -3.08182715e-02 -2.36013094e-02 -3.08182715e-02 5.96456949e-03
-1.82853541e-02 -5.26347943e-03 7.74517725e-03 -5.26347943e-03 -3.47936496e-03 6.89354388e-03 7.74517725e-03 6.89354388e-03 2.96068098e-02
6.66597635e-02 3.81718427e-02 -7.77845550e-03 3.81718427e-02 6.86952472e-02 8.99221748e-02 -7.77845550e-03 8.99221748e-02 -1.19415864e-01
8.39752223e-05 -2.86117252e-04 -4.65347881e-04 -2.86117252e-04 -1.66387739e-05 5.78513731e-03 -4.65347881e-04 5.78513731e-03 -3.61172315e-05
-1.89067193e-03 -4.92124716e-03 7.30802767e-05 -4.92124716e-03 1.17779814e-03 5.86743749e-05 7.30802767e-05 5.86743749e-05 1.13743760e-03
-1.37019550e-04 1.29387872e-05 1.35893818e-05 1.29387872e-05 1.86826531e-04 2.94885538e-05 1.35893818e-05 2.94885538e-05 -6.28935720e-05
-9.18028270e-05 -3.93939262e-05 -7.30526311e-05 -3.93939262e-05 8.69526002e-05 -1.25251851e-05 -7.30526311e-05 -1.25251851e-05 -4.09689887e-05
2.13408319e-04 -1.01602776e-03 5.51902805e-04 -1.01602776e-03 -3.65604559e-04 1.06270527e-05 5.51902805e-04 1.06270527e-05 2.65598850e-04
4.85037541e-04 -1.23764225e-03 -7.98690453e-05 -1.23764225e-03 -9.24542081e-04 -3.32609925e-05 -7.98690453e-05 -3.32609925e-05 6.40370243e-04
1.02418326e-01 2.58255843e-02 -2.55904086e-02 2.58255843e-02 1.58728987e-01 -1.25402678e-03 -2.55904086e-02 -1.25402678e-03 -2.15774685e-01
1.43575832e-01 1.27470670e-02 -7.63670122e-03 1.27470670e-02 1.60033941e-01 2.41618510e-02 -7.63670122e-03 2.41618510e-02 -2.55558223e-01
1.06883474e-01 -2.79568844e-02 1.96956427e-02 -2.79568844e-02 1.15222047e-01 3.16511256e-02 1.96956427e-02 3.16511256e-02 -1.87203964e-01
1.24793597e-01 -2.25116424e-02 3.95092946e-02 -2.25116424e-02 1.46986090e-01 2.66217660e-03 3.95092946e-02 2.66217660e-03 -2.35455148e-01
4.32008771e-05 -6.72723329e-05 5.71739690e-07 -6.72723329e-05 -2.86235723e-05 -1.31665892e-05 5.71739690e-07 -1.31665892e-05 -2.74639686e-05
-1.77690690e-03 -2.25898233e-03 6.71498846e-04 -2.25898233e-03 -1.00345583e-03 3.20262890e-03 6.71498846e-04 3.20262890e-03 5.29102240e-03
0.00000000e+00 0.00000000e+00 0.00000000e+00 0.00000000e+00 0.00000000e+00 0.00000000e+00 0.00000000e+00 0.00000000e+00 0.00000000e+00
1.19852059e-01 -2.56752949e-02 1.99792432e-02 -2.56752949e-02 7.85597228e-02 2.05951938e-02 1.99792432e-02 2.05951938e-02 -1.66585892e-01
1.26132041e-01 9.86944139e-03 1.62717886e-02 9.86944139e-03 6.70679733e-02 -1.35572511e-04 1.62717886e-02 -1.35572511e-04 -1.62211701e-01
1.11922607e-01 4.76737693e-03 4.10956331e-03 4.76737693e-03 1.00342307e-01 4.15130630e-02 4.10956331e-03 4.15130630e-02 -1.82684362e-01
1.31358638e-01 -3.39856206e-02 -4.79300041e-03 -3.39856206e-02 7.46080689e-02 4.65767831e-02 -4.79300041e-03 4.65767831e-02 -1.75964601e-01
2.74620201e-02 1.63752872e-02 -1.31135862e-02 1.63752872e-02 4.52307099e-03 6.66661619e-03 -1.31135862e-02 6.66661619e-03 -1.41746607e-02
-6.38537947e-03 -2.92151282e-03 -1.02018227e-02 -2.92151282e-03 3.78956952e-02 7.67398672e-03 -1.02018227e-02 7.67398672e-03 -1.43773090e-02
-2.77406388e-03 -5.09107113e-03 -5.55236358e-04 -5.09107113e-03 -2.50581588e-03 6.76594720e-03 -5.55236358e-04 6.76594720e-03 9.26943663e-03
-1.88692342e-04 -1.15464885e-04 -5.62823288e-06 -1.15464885e-04 8.87348797e-05 -1.44017649e-05 -5.62823288e-06 -1.44017649e-05 1.31784953e-04
0.00000000e+00 0.00000000e+00 0.00000000e+00 0.00000000e+00 0.00000000e+00 0.00000000e+00 0.00000000e+00 0.00000000e+00 0.00000000e+00
</DataArray>
<DataArray type="Float32" Name="Spatial_displacement" NumberOfComponents="3" format="ascii">
4.49074581e-02 2.47018144e-01 -1.21189028e-01
7.47846961e-02 2.34638184e-01 -9.89665687e-02
7.64230266e-02 2.96906352e-01 -1.43090233e-01
3.95786390e-02 2.90477991e-01 -1.51989132e-01
3.64873633e-02 2.84797847e-01 -1.85703754e-01
8.00786763e-02 2.80285537e-01 -1.75062969e-01
6.73479140e-02 3.60001028e-01 -2.29338378e-01
3.99126410e-02 3.27664465e-01 -2.22516045e-01
1.26778468e-01 2.16987818e-01 -7.65142739e-02
1.37594879e-01 2.83705294e-01 -1.39870360e-01
1.21639162e-01 2.71473676e-01 -1.97594553e-01
1.75762519e-01 3.33872318e-01 -2.80501306e-01
1.33908093e-01 2.03810453e-01 3.39150429e-05
1.33908644e-01 2.05272511e-01 3.19778919e-05
1.32444710e-01 2.05280498e-01 -1.73151493e-05
1.32417426e-01 2.03824431e-01 -3.44514847e-05
1.33897334e-01 2.03874335e-01 2.07424164e-05
1.33890688e-01 2.05344826e-01 4.04417515e-05
1.32421508e-01 2.05335826e-01 -2.70307064e-05
1.32436678e-01 2.03863546e-01 -2.55703926e-05
0.00000000e+00 0.00000000e+00 -2.73821622e-01
5.20818606e-02 0.00000000e+00 -2.75808394e-01
5.52038774e-02 5.71952462e-02 -2.69921720e-01
0.00000000e+00 5.50129563e-02 -2.64708340e-01
0.00000000e+00 0.00000000e+00 -3.67108166e-01
7.00337961e-02 0.00000000e+00 -3.66308630e-01
7.19730109e-02 5.72485477e-02 -3.64638001e-01
0.00000000e+00 5.35657555e-02 -3.56018841e-01
1.15623385e-01 0.00000000e+00 -2.90050417e-01
1.03310317e-01 4.91298810e-02 -2.81026244e-01
1.35640234e-01 0.00000000e+00 -3.76569957e-01
1.38639167e-01 6.04788736e-02 -3.76911163e-01
1.72031268e-01 0.00000000e+00 -3.05722684e-01
1.73192054e-01 4.44482341e-02 -3.01873773e-01
2.02329963e-01 0.00000000e+00 -3.93452078e-01
1.95402160e-01 5.30260950e-02 -3.91684532e-01
2.39944428e-01 0.00000000e+00 -3.19294006e-01
2.42927551e-01 4.61588204e-02 -3.24200273e-01
2.61091769e-01 0.00000000e+00 -4.05729234e-01
2.57850468e-01 4.43821251e-02 -4.12492961e-01
3.11616600e-01 0.00000000e+00 -3.35911632e-01
3.12026560e-01 4.90360633e-02 -3.33583385e-01
3.18165898e-01 0.00000000e+00 -4.14718211e-01
3.17210644e-01 4.34897542e-02 -4.26656991e-01
3.77947956e-01 0.00000000e+00 -3.41224521e-01
3.77409816e-01 4.99178171e-02 -3.39578688e-01
3.64362031e-01 0.00000000e+00 -4.18196142e-01
3.79215479e-01 4.40652817e-02 -4.26516712e-01
3.91168073e-02 1.08193442e-01 -2.48653024e-01
0.00000000e+00 1.23013534e-01 -2.45240256e-01
7.17443004e-02 1.15486786e-01 -3.41249168e-01
0.00000000e+00 1.15480542e-01 -3.39618057e-01
1.03200242e-01 1.10289007e-01 -2.70377398e-01
1.48372516e-01 1.22695044e-01 -3.68674874e-01
1.62634268e-01 1.16812475e-01 -3.13254207e-01
2.05514014e-01 1.16141789e-01 -4.25032854e-01
2.38012865e-01 1.29031673e-01 -3.24339688e-01
2.47292012e-01 1.01716638e-01 -4.43444669e-01
3.06185305e-01 1.21656343e-01 -3.21967810e-01
3.11752111e-01 1.13997385e-01 -4.42576945e-01
3.64731729e-01 1.29489258e-01 -3.27470213e-01
3.67761016e-01 1.17825247e-01 -4.43584919e-01
3.50321457e-02 1.85166806e-01 -2.04294398e-01
0.00000000e+00 1.81885391e-01 -2.08193749e-01
6.82253167e-02 1.82526916e-01 -3.05373162e-01
0.00000000e+00 1.81277722e-01 -2.95708477e-01
9.27542150e-02 1.62639186e-01 -2.35488445e-01
1.66260809e-01 1.87229723e-01 -3.78936678e-01
7.26767853e-02 1.38046369e-01 -5.44202805e-01
2.34301031e-01 1.66796148e-01 -4.99042749e-01
3.55291888e-02 2.29356259e-01 -1.71678111e-01
0.00000000e+00 2.37831756e-01 -1.79210097e-01
5.51378205e-02 2.51990557e-01 -2.41161168e-01
0.00000000e+00 2.59916753e-01 -2.63305843e-01
0.00000000e+00 2.78390110e-01 -1.90009594e-01
4.91015688e-02 3.30052435e-01 -2.62570620e-01
0.00000000e+00 3.09443265e-01 -2.76573718e-01
8.31435099e-02 2.29936212e-01 -1.36790067e-01
1.23253539e-01 2.65585095e-01 -2.65816480e-01
1.18264280e-01 3.08034360e-01 -2.57738769e-01
0.00000000e+00 3.31976593e-01 -2.33972922e-01
6.91257268e-02 3.87647927e-01 -3.34387869e-01
0.00000000e+00 4.04702127e-01 -3.15239489e-01
1.17897451e-01 4.10273135e-01 -3.31492841e-01
1.55994385e-01 2.85588145e-01 -3.86763096e-01
2.45996341e-01 3.24764103e-01 -3.83682817e-01
0.00000000e+00 0.00000000e+00 -4.69036698e-01
8.68144631e-02 0.00000000e+00 -4.71822560e-01
9.06483755e-02 5.92058599e-02 -4.68617320e-01
0.00000000e+00 5.50879240e-02 -4.65476543e-01
1.58857420e-01 0.00000000e+00 -4.76609856e-01
1.69495672e-01 6.85987473e-02 -4.77957845e-01
2.20219105e-01 0.00000000e+00 -4.85235989e-01
2.26790726e-01 7.08608925e-02 -4.85985398e-01
2.76525021e-01 0.00000000e+00 -4.93972600e-01
2.69652277e-01 6.40861467e-02 -4.94447738e-01
3.21947694e-01 0.00000000e+00 -4.98168796e-01
3.15082073e-01 5.79657778e-02 -5.02670109e-01
3.58734369e-01 0.00000000e+00 -5.00981808e-01
3.60391766e-01 6.31546974e-02 -4.99816597e-01
1.03441082e-01 1.25344336e-01 -4.61549819e-01
0.00000000e+00 1.14595816e-01 -4.53836918e-01
1.88810289e-01 1.38153002e-01 -4.78769332e-01
2.44461715e-01 1.39470562e-01 -5.05955935e-01
2.76864439e-01 1.25328854e-01 -5.28602839e-01
3.00419629e-01 1.07697949e-01 -5.41289747e-01
3.29853654e-01 1.15013227e-01 -5.41225314e-01
1.05266422e-01 1.74215943e-01 -4.23100471e-01
0.00000000e+00 1.93606734e-01 -4.07493114e-01
2.11111858e-01 1.81293666e-01 -4.85700637e-01
2.82725692e-01 1.73868299e-01 -5.60278177e-01
2.66684979e-01 7.54291266e-02 -6.29714429e-01
3.00139666e-01 1.56071648e-01 -5.83009779e-01
1.11135945e-01 2.46796489e-01 -3.44854146e-01
0.00000000e+00 2.33059272e-01 -3.86956751e-01
2.22991943e-01 2.27846354e-01 -4.44837511e-01
9.17145386e-02 3.63225818e-01 -4.14582968e-01
0.00000000e+00 3.71746600e-01 -4.14054930e-01
1.11356758e-01 4.74017024e-01 -4.48938638e-01
0.00000000e+00 4.67888951e-01 -4.34771657e-01
1.69284165e-01 3.34726304e-01 -4.07844663e-01
2.55367786e-01 4.13660824e-01 -4.38693643e-01
2.59766459e-01 2.42981210e-01 -5.30870080e-01
3.66400987e-01 2.73548633e-01 -4.99941856e-01
6.31544590e-02 2.15150535e-01 -7.06297517e-01
2.21386328e-01 2.07033783e-01 -6.16032362e-01
3.35109442e-01 1.56058088e-01 -5.84294796e-01
3.54059577e-01 1.57356590e-01 -5.83956301e-01
3.35422993e-01 1.38636515e-01 -5.84142089e-01
3.35251510e-01 1.21000327e-01 -5.84163666e-01
3.52895141e-01 1.20849259e-01 -5.84120452e-01
3.53012562e-01 1.38520837e-01 -5.84047735e-01
3.35390568e-01 1.38615564e-01 -5.84141970e-01
3.35312128e-01 1.20961174e-01 -5.84143221e-01
3.52897227e-01 1.20821074e-01 -5.84127069e-01
3.53146166e-01 1.38364092e-01 -5.84055185e-01
0.00000000e+00 0.00000000e+00 -5.84112287e-01
9.20823589e-02 0.00000000e+00 -5.84112287e-01
9.93304998e-02 6.34483546e-02 -5.84112287e-01
0.00000000e+00 5.70313558e-02 -5.84112287e-01
1.70766219e-01 0.00000000e+00 -5.84112287e-01
1.77889273e-01 7.37379268e-02 -5.84112287e-01
2.27932796e-01 0.00000000e+00 -5.84112287e-01
2.39497215e-01 7.89108798e-02 -5.84112287e-01
2.79284805e-01 0.00000000e+00 -5.84112287e-01
2.79951185e-01 7.81822279e-02 -5.84112287e-01
3.21347892e-01 0.00000000e+00 -5.84112287e-01
3.16814244e-01 7.29613379e-02 -5.84112287e-01
3.65289390e-01 0.00000000e+00 -5.84112287e-01
3.41143787e-01 8.25134367e-02 -5.84112287e-01
1.19799659e-01 1.14990830e-01 -5.84112287e-01
0.00000000e+00 1.09321073e-01 -5.84112287e-01
2.11738780e-01 1.39277637e-01 -5.84112287e-01
2.59339869e-01 1.51187673e-01 -5.84112287e-01
2.88433492e-01 1.40573502e-01 -5.84112287e-01
2.97499448e-01 1.25059292e-01 -5.84112287e-01
3.17262739e-01 1.25743672e-01 -5.84112287e-01
1.28125489e-01 2.15942919e-01 -5.84112287e-01
0.00000000e+00 2.22100258e-01 -5.84112287e-01
2.45326370e-01 1.90207303e-01 -5.84112287e-01
2.98542559e-01 1.84378833e-01 -5.84112287e-01
3.00808370e-01 1.56812131e-01 -5.84112287e-01
3.00507128e-01 1.37992471e-01 -5.84821701e-01
3.01059246e-01 1.38682127e-01 -5.84112287e-01
3.02569091e-01 1.23178720e-01 -5.85491061e-01
3.02814662e-01 1.24948874e-01 -5.84112287e-01
3.17963272e-01 1.75179720e-01 -6.01056814e-01
3.27667475e-01 1.87486708e-01 -5.84112287e-01
3.14710855e-01 2.18323350e-01 -5.84112287e-01
3.18082213e-01 1.55807927e-01 -5.83853722e-01
3.18234622e-01 1.56014830e-01 -5.84112287e-01
3.17854464e-01 1.38825834e-01 -5.84160030e-01
3.17940712e-01 1.38728350e-01 -5.84112287e-01
3.17573011e-01 1.21371545e-01 -5.84064186e-01
3.17482471e-01 1.21227048e-01 -5.84112287e-01
0.00000000e+00 2.02580452e-01 -5.84112287e-01
1.40543237e-01 2.32904196e-01 -5.84112287e-01
1.25412613e-01 3.91712010e-01 -5.84112287e-01
0.00000000e+00 4.15355742e-01 -5.84112287e-01
3.35335553e-01 1.38613597e-01 -5.84112287e-01
3.35505009e-01 1.56137750e-01 -5.84112287e-01
3.35349083e-01 1.20986402e-01 -5.84112287e-01
1.35200590e-01 4.95899975e-01 -5.84112287e-01
0.00000000e+00 4.85239446e-01 -5.84112287e-01
2.12405741e-01 3.41247767e-01 -5.84112287e-01
3.05371761e-01 4.08908248e-01 -5.84112287e-01
2.78169751e-01 2.21304029e-01 -5.84112287e-01
3.88333887e-01 2.57640630e-01 -5.84112287e-01
3.54429185e-01 1.56582460e-01 -5.84112287e-01
3.53160083e-01 1.38302699e-01 -5.84112287e-01
3.52893353e-01 1.20818645e-01 -5.84112287e-01
</DataArray>
<DataArray type="Float32" Name="Spatial_acceleration" NumberOfComponents="3" format="ascii">
-3.40620687e-07 -1.56231715e-06 8.27312476e-07
-5.45303010e-07 -1.44958494e-06 7.10169445e-07
-5.80986352e-07 -1.85545287e-06 9.80377195e-07
-3.31560756e-07 -1.82827307e-06 9.77834020e-07
-2.77876865e-07 -1.78444384e-06 1.28821534e-06
-5.83103713e-07 -1.71888439e-06 1.19163872e-06
-4.81446591e-07 -2.24796918e-06 1.48264564e-06
-3.17414589e-07 -2.08874530e-06 1.51888526e-06
-8.86599196e-07 -1.34857498e-06 5.23249298e-07
-9.65833692e-07 -1.73036256e-06 9.58760552e-07
-7.63575258e-07 -1.68609620e-06 1.30377873e-06
-1.11659369e-06 -1.92521020e-06 1.58818557e-06
-1.02772071e-06 -1.13130704e-06 -1.80030867e-07
-1.03760760e-06 -1.09319888e-06 8.92827927e-08
-9.77719765e-07 -1.06875473e-06 -9.22630221e-08
-1.01713340e-06 -1.17307900e-06 1.02251768e-07
-9.91650836e-07 -1.02537172e-06 1.98793288e-07
-9.31061777e-07 -1.14176612e-06 -2.73508334e-07
-1.13543365e-06 -1.08916561e-06 1.57834336e-07
-1.11918393e-06 -1.09563575e-06 -2.06151981e-07
0.00000000e+00 0.00000000e+00 1.54368081e-06
-2.97586126e-07 0.00000000e+00 1.53668725e-06
-3.42498225e-07 -3.42498225e-07 1.54431655e-06
0.00000000e+00 -3.33388641e-07 1.52460734e-06
0.00000000e+00 0.00000000e+00 2.07010908e-06
-3.92208506e-07 0.00000000e+00 2.04213461e-06
-4.05470530e-07 -3.50912416e-07 2.08791084e-06
0.00000000e+00 -3.31560756e-07 2.03641252e-06
-6.78022673e-07 0.00000000e+00 1.58945716e-06
-6.20851893e-07 -3.20283078e-07 1.56847636e-06
-7.67131667e-07 0.00000000e+00 2.10952749e-06
-7.83046062e-07 -3.75906609e-07 2.11524957e-06
-1.01466480e-06 0.00000000e+00 1.63904826e-06
-1.02138517e-06 -3.24487672e-07 1.61361697e-06
-1.14568570e-06 0.00000000e+00 2.16801959e-06
-1.09112761e-06 -3.32415112e-07 2.14576721e-06
-1.41564999e-06 0.00000000e+00 1.67020164e-06
-1.41572946e-06 -3.15109872e-07 1.67242683e-06
-1.48852666e-06 0.00000000e+00 2.19662979e-06
-1.46484376e-06 -3.05215508e-07 2.20584866e-06
-1.83916586e-06 0.00000000e+00 1.69595080e-06
-1.83244549e-06 -3.18328546e-07 1.69245402e-06
-1.86159207e-06 0.00000000e+00 2.22110748e-06
-1.84202190e-06 -3.10917699e-07 2.24049882e-06
-2.27904320e-06 0.00000000e+00 1.66765847e-06
-2.24328028e-06 -3.52482004e-07 1.71375268e-06
-2.17024490e-06 0.00000000e+00 2.26593011e-06
-2.24542623e-06 -3.45940379e-07 2.24367773e-06
-2.58604672e-07 -6.58273677e-07 1.48646041e-06
0.00000000e+00 -7.49111166e-07 1.48487095e-06
-4.04516840e-07 -7.02420891e-07 2.03355148e-06
0.00000000e+00 -6.78797562e-07 2.05421452e-06
-6.73657382e-07 -6.94184052e-07 1.51189170e-06
-8.27630345e-07 -7.65601783e-07 2.06406912e-06
-9.77834020e-07 -7.19324760e-07 1.63726804e-06
-1.16202943e-06 -7.47680645e-07 2.21688401e-06
-1.37150289e-06 -7.93457048e-07 1.68546035e-06
-1.38549808e-06 -6.69606550e-07 2.30865476e-06
-1.74017748e-06 -7.62065270e-07 1.67655946e-06
-1.77073480e-06 -7.22408288e-07 2.31742865e-06
-2.05299261e-06 -8.60373177e-07 1.69372561e-06
-2.06148002e-06 -7.91390733e-07 2.30534874e-06
-2.84263052e-07 -1.11212046e-06 1.34604318e-06
0.00000000e+00 -1.11349425e-06 1.34181971e-06
-4.14575851e-07 -1.11162092e-06 1.87319802e-06
0.00000000e+00 -1.11436839e-06 1.92133575e-06
-6.17027297e-07 -9.80695063e-07 1.41461692e-06
-9.16671752e-07 -1.10855103e-06 2.07875564e-06
-4.18980903e-07 -8.03510318e-07 2.80888867e-06
-1.22504764e-06 -1.04395554e-06 2.69826251e-06
-2.82696305e-07 -1.41280032e-06 1.15312844e-06
0.00000000e+00 -1.46752598e-06 1.24041242e-06
-3.81443243e-07 -1.53213080e-06 1.61001424e-06
0.00000000e+00 -1.59732497e-06 1.81134544e-06
0.00000000e+00 -1.78416565e-06 1.32910407e-06
-3.04653526e-07 -2.05139895e-06 1.79526921e-06
0.00000000e+00 -1.91408390e-06 1.89654031e-06
-5.92549611e-07 -1.41356384e-06 1.00580849e-06
-7.65482582e-07 -1.61918001e-06 1.65303550e-06
-7.02730802e-07 -1.84332532e-06 1.66880295e-06
0.00000000e+00 -2.12955479e-06 1.55258181e-06
-4.26352017e-07 -2.32227649e-06 2.12383270e-06
0.00000000e+00 -2.43091586e-06 2.00525915e-06
-6.74486159e-07 -2.45916840e-06 1.99953706e-06
-8.17616808e-07 -1.77171501e-06 2.10316989e-06
-1.34913125e-06 -1.94761492e-06 2.13368730e-06
0.00000000e+00 0.00000000e+00 2.60670981e-06
-4.77969650e-07 0.00000000e+00 2.63023367e-06
-4.83512849e-07 -3.61651189e-07 2.63659149e-06
0.00000000e+00 -3.42567745e-07 2.62069693e-06
-8.75214710e-07 0.00000000e+00 2.64358528e-06
-9.10957624e-07 -4.08808376e-07 2.66615552e-06
-1.20989478e-06 0.00000000e+00 2.69444786e-06
-1.25495592e-06 -4.09324969e-07 2.67346695e-06
-1.57099964e-06 0.00000000e+00 2.73195906e-06
-1.50341293e-06 -3.78211325e-07 2.69826251e-06
-1.85934698e-06 0.00000000e+00 2.73259479e-06
-1.82420013e-06 -3.53018436e-07 2.71670024e-06
-2.11342171e-06 0.00000000e+00 2.75548291e-06
-2.09379186e-06 -4.05947361e-07 2.70620990e-06
-5.07672610e-07 -7.37984976e-07 2.63341258e-06
0.00000000e+00 -7.15335204e-07 2.61052446e-06
-1.00413956e-06 -8.13672955e-07 2.64231358e-06
-1.31181878e-06 -8.54174289e-07 2.70207715e-06
-1.52531402e-06 -7.88189084e-07 2.81996950e-06
-1.69033478e-06 -6.77214757e-07 2.84491648e-06
-1.91434219e-06 -7.51283437e-07 2.85424130e-06
-5.04758646e-07 -1.08358597e-06 2.52617724e-06
0.00000000e+00 -1.11283202e-06 2.51600477e-06
-1.07582412e-06 -1.11367967e-06 2.61773016e-06
-1.52296491e-06 -1.09820894e-06 3.08057997e-06
-1.47616856e-06 -3.96509961e-07 3.50666051e-06
-1.63078312e-06 -1.04688013e-06 3.24656162e-06
-5.40733311e-07 -1.53120357e-06 2.23159782e-06
0.00000000e+00 -1.48603658e-06 2.44649254e-06
-1.04427340e-06 -1.34531660e-06 2.31424974e-06
-4.53948985e-07 -2.14346255e-06 2.50752760e-06
0.00000000e+00 -2.21300115e-06 2.52024324e-06
-5.81741347e-07 -2.70676605e-06 2.64294931e-06
0.00000000e+00 -2.64334676e-06 2.57428474e-06
-8.66095206e-07 -2.01785565e-06 2.31552121e-06
-1.32354103e-06 -2.38951043e-06 2.48463948e-06
-1.37694678e-06 -1.53192877e-06 2.89344780e-06
-1.90496439e-06 -1.67648000e-06 2.76311243e-06
-5.53925830e-08 -1.45981710e-06 3.82041935e-06
-1.10057988e-06 -1.22431913e-06 3.31624346e-06
-1.77399318e-06 -9.99450663e-07 3.21753805e-06
-1.84260477e-06 -1.01153057e-06 3.23867812e-06
-1.77822460e-06 -9.84392159e-07 3.12012912e-06
-1.73251078e-06 -8.66101402e-07 3.23909899e-06
-1.84979035e-06 -9.39423842e-07 3.27377256e-06
-1.81265921e-06 -8.63241667e-07 3.22456503e-06
-1.77583695e-06 -9.68583436e-07 3.19961305e-06
-1.76067158e-06 -8.58121439e-07 3.19187689e-06
-1.81539360e-06 -9.03884541e-07 3.20102527e-06
-1.83796885e-06 -9.79317520e-07 3.18656703e-06
0.00000000e+00 0.00000000e+00 3.21159450e-06
-4.93049640e-07 0.00000000e+00 3.21159450e-06
-5.15202657e-07 -3.75628474e-07 3.21159450e-06
0.00000000e+00 -3.45945352e-07 3.21159450e-06
-9.20454625e-07 0.00000000e+00 3.21159450e-06
-9.28759562e-07 -4.37577569e-07 3.21159450e-06
-1.25948588e-06 0.00000000e+00 3.21159450e-06
-1.31988520e-06 -4.51962137e-07 3.21159450e-06
-1.60078207e-06 0.00000000e+00 3.21159450e-06
-1.56458213e-06 -4.58637857e-07 3.21159450e-06
-1.84598935e-06 0.00000000e+00 3.21159450e-06
-1.81825953e-06 -4.31696577e-07 3.21159450e-06
-2.13008116e-06 0.00000000e+00 3.21159450e-06
-1.93619735e-06 -4.82718121e-07 3.21159450e-06
-5.87463376e-07 -6.77982939e-07 3.21159450e-06
0.00000000e+00 -7.01586373e-07 3.21159450e-06
-1.11023587e-06 -8.10377287e-07 3.21159450e-06
-1.39578185e-06 -9.57330030e-07 3.21159450e-06
-1.58953662e-06 -8.99473832e-07 3.21159450e-06
-1.65357187e-06 -8.21232788e-07 3.21159450e-06
-1.83057784e-06 -8.38756534e-07 3.21159450e-06
-5.48203786e-07 -1.23786924e-06 3.21159450e-06
0.00000000e+00 -1.15756188e-06 3.21159450e-06
-1.26345958e-06 -1.11680561e-06 3.21159450e-06
-1.61123273e-06 -1.20083484e-06 3.21159450e-06
-1.61441164e-06 -1.02543834e-06 3.21159450e-06
-1.62903461e-06 -9.56098233e-07 3.22357801e-06
-1.63714094e-06 -9.49223818e-07 3.21159450e-06
-1.57928469e-06 -8.72015960e-07 3.21261086e-06
-1.60312652e-06 -9.01858016e-07 3.21159450e-06
-1.70548753e-06 -1.11357372e-06 3.38363634e-06
-1.78100663e-06 -1.18811920e-06 3.21159450e-06
-1.61488845e-06 -1.33448839e-06 3.21159450e-06
-1.67889073e-06 -1.03590230e-06 3.27059956e-06
-1.70368617e-06 -1.04565095e-06 3.21159450e-06
-1.69642760e-06 -9.44773319e-07 3.21379298e-06
-1.65557856e-06 -9.14320367e-07 3.21159450e-06
-1.72106422e-06 -8.64346816e-07 3.25981773e-06
-1.67687733e-06 -8.91526554e-07 3.21159450e-06
0.00000000e+00 -1.35584673e-06 3.21159450e-06
-5.48799846e-07 -1.55909856e-06 3.21159450e-06
-5.78933282e-07 -2.23824713e-06 3.21159450e-06
0.00000000e+00 -2.45579076e-06 3.21159450e-06
-1.75706543e-06 -9.68098675e-07 3.21159450e-06
-1.76525123e-06 -9.60455964e-07 3.21159450e-06
-1.71734882e-06 -8.25405095e-07 3.21159450e-06
-6.65898142e-07 -2.78743096e-06 3.21159450e-06
0.00000000e+00 -2.60133538e-06 3.21159450e-06
-1.11707050e-06 -2.04435992e-06 3.21159450e-06
-1.52476628e-06 -2.33793253e-06 3.21159450e-06
-1.45324066e-06 -1.42087538e-06 3.21159450e-06
-2.02457113e-06 -1.59390765e-06 3.21159450e-06
-1.87047317e-06 -9.96430686e-07 3.21159450e-06
-1.85473755e-06 -9.24905123e-07 3.21159450e-06
-1.87886258e-06 -8.47587955e-07 3.21159450e-06
</DataArray>
<DataArray type="Float32" Name="Spatial_velocity" NumberOfComponents="3" format="ascii">
3.21466287e-05 1.43252473e-04 -7.67527672e-05
5.16896180e-05 1.33005626e-04 -6.68699504e-05
5.41961817e-05 1.71385007e-04 -9.20248276e-05
3.06767906e-05 1.70188054e-04 -9.15683122e-05
2.58939162e-05 1.64149766e-04 -1.18837605e-04
5.28941819e-05 1.57856950e-04 -1.07692518e-04
4.49970248e-05 2.05653967e-04 -1.36721297e-04
2.83498030e-05 1.91647021e-04 -1.40038406e-04
8.26562464e-05 1.22342899e-04 -4.77604226e-05
8.96812344e-05 1.58947863e-04 -8.76354970e-05
7.02831821e-05 1.55015121e-04 -1.18334858e-04
1.02853846e-04 1.78974224e-04 -1.45899437e-04
9.34582131e-05 1.02015416e-04 -5.37780842e-09
9.34682757e-05 9.87775202e-05 8.90559093e-09
9.66864536e-05 9.87918902e-05 1.31744562e-08
9.66926527e-05 1.02019199e-04 -5.67668756e-09
9.34613272e-05 1.01998121e-04 -1.09578657e-09
9.34715135e-05 9.87950189e-05 6.79197498e-09
9.66793741e-05 9.87752792e-05 2.32476172e-09
9.66654261e-05 1.02014485e-04 3.21528404e-09
0.00000000e+00 0.00000000e+00 -1.41456971e-04
2.79149444e-05 0.00000000e+00 -1.41430675e-04
3.09746065e-05 3.16800360e-05 -1.41619093e-04
0.00000000e+00 3.00418833e-05 -1.40561315e-04
0.00000000e+00 0.00000000e+00 -1.88888516e-04
3.58415091e-05 0.00000000e+00 -1.87394588e-04
3.72535178e-05 3.27454072e-05 -1.88967533e-04
0.00000000e+00 3.05188260e-05 -1.85304496e-04
6.28276903e-05 0.00000000e+00 -1.45430386e-04
5.71254714e-05 2.97489714e-05 -1.43995698e-04
6.92537360e-05 0.00000000e+00 -1.91370375e-04
7.06743449e-05 3.53693031e-05 -1.91324405e-04
9.31446048e-05 0.00000000e+00 -1.49371001e-04
9.39142556e-05 2.97418355e-05 -1.47523751e-04
1.04442806e-04 0.00000000e+00 -1.96521287e-04
9.95367518e-05 3.08913186e-05 -1.94189692e-04
1.29678461e-04 0.00000000e+00 -1.50777734e-04
1.30640081e-04 2.97388488e-05 -1.52458568e-04
1.37110241e-04 0.00000000e+00 -1.98665570e-04
1.34559974e-04 2.73557380e-05 -1.99406364e-04
1.70350730e-04 0.00000000e+00 -1.52359906e-04
1.68718441e-04 3.02963927e-05 -1.53170622e-04
1.70962827e-04 0.00000000e+00 -2.00580223e-04
1.69232837e-04 2.91851993e-05 -2.02389812e-04
2.08998797e-04 0.00000000e+00 -1.50277177e-04
2.07212361e-04 3.34244687e-05 -1.53096014e-04
1.99533213e-04 0.00000000e+00 -2.01656658e-04
2.07298857e-04 3.27049274e-05 -2.01308882e-04
2.42226270e-05 6.12365475e-05 -1.37496376e-04
0.00000000e+00 6.81406527e-05 -1.36448376e-04
3.74195806e-05 6.43767999e-05 -1.85337500e-04
0.00000000e+00 6.39868958e-05 -1.85868586e-04
6.14639503e-05 6.47005945e-05 -1.39137192e-04
7.59130635e-05 6.98012518e-05 -1.87869562e-04
8.98453145e-05 6.55152180e-05 -1.50310399e-04
1.05922692e-04 6.81901365e-05 -2.00454277e-04
1.25437742e-04 7.08533844e-05 -1.54606169e-04
1.27059393e-04 6.09288509e-05 -2.07402947e-04
1.59076444e-04 6.99808297e-05 -1.50948079e-04
1.61990683e-04 6.77538847e-05 -2.08972953e-04
1.87602564e-04 8.10115525e-05 -1.52586683e-04
1.88138656e-04 7.60266121e-05 -2.09349339e-04
2.57802967e-05 1.02139777e-04 -1.23390389e-04
0.00000000e+00 1.01520513e-04 -1.23481179e-04
3.84057130e-05 1.01404119e-04 -1.72023720e-04
0.00000000e+00 1.02398335e-04 -1.75343783e-04
5.61704510e-05 9.06702480e-05 -1.29151871e-04
8.42920854e-05 1.01301433e-04 -1.87923142e-04
3.86887114e-05 7.17964285e-05 -2.57377367e-04
1.14330884e-04 9.33023184e-05 -2.48593307e-04
2.73422775e-05 1.29409163e-04 -1.07152016e-04
0.00000000e+00 1.34126618e-04 -1.14562179e-04
3.49218499e-05 1.40158867e-04 -1.49361571e-04
0.00000000e+00 1.46833903e-04 -1.65344667e-04
0.00000000e+00 1.61675052e-04 -1.21804340e-04
2.76619994e-05 1.88599137e-04 -1.65689198e-04
0.00000000e+00 1.76484638e-04 -1.72430213e-04
5.55443876e-05 1.29032953e-04 -9.29193557e-05
6.82714526e-05 1.47457496e-04 -1.48528881e-04
6.28292037e-05 1.71639273e-04 -1.52102453e-04
0.00000000e+00 1.96005145e-04 -1.42990059e-04
3.77956676e-05 2.13405088e-04 -1.93036132e-04
0.00000000e+00 2.23346477e-04 -1.83770244e-04
6.08944247e-05 2.26181641e-04 -1.82825024e-04
7.51212647e-05 1.62685727e-04 -1.91173851e-04
1.24728424e-04 1.76286776e-04 -1.96237321e-04
0.00000000e+00 0.00000000e+00 -2.38640408e-04
4.27504965e-05 0.00000000e+00 -2.38611552e-04
4.38611569e-05 3.39355320e-05 -2.39152971e-04
0.00000000e+00 3.17397389e-05 -2.37546905e-04
7.81404597e-05 0.00000000e+00 -2.40157955e-04
8.30679201e-05 3.82840335e-05 -2.41231828e-04
1.10720604e-04 0.00000000e+00 -2.44162657e-04
1.13323847e-04 3.81145837e-05 -2.41431684e-04
1.43926212e-04 0.00000000e+00 -2.45714647e-04
1.37786963e-04 3.49158581e-05 -2.44102819e-04
1.70581741e-04 0.00000000e+00 -2.47175223e-04
1.66543075e-04 3.39144826e-05 -2.47236865e-04
1.92627238e-04 0.00000000e+00 -2.50458630e-04
1.93447006e-04 3.84813284e-05 -2.45327683e-04
4.72943830e-05 6.79260702e-05 -2.37643311e-04
0.00000000e+00 6.41162333e-05 -2.37946093e-04
9.04461413e-05 7.47934100e-05 -2.39445784e-04
1.20494471e-04 7.95356827e-05 -2.46694544e-04
1.39516647e-04 7.34712958e-05 -2.54779094e-04
1.54542126e-04 6.41431179e-05 -2.58735556e-04
1.74284636e-04 7.29477251e-05 -2.58799875e-04
4.67448626e-05 9.71854606e-05 -2.29801328e-04
0.00000000e+00 1.04023617e-04 -2.30212288e-04
9.88840475e-05 1.01607700e-04 -2.39359317e-04
1.39422933e-04 1.01239391e-04 -2.79375992e-04
1.37770985e-04 3.78838995e-05 -3.12512508e-04
1.47957602e-04 9.44323256e-05 -2.92243174e-04
4.93315347e-05 1.40232907e-04 -2.05537202e-04
0.00000000e+00 1.36518313e-04 -2.23282754e-04
9.68469685e-05 1.22635087e-04 -2.13493389e-04
4.01321122e-05 1.95894288e-04 -2.30257239e-04
0.00000000e+00 2.02574694e-04 -2.29486497e-04
5.12327351e-05 2.46797688e-04 -2.40772410e-04
0.00000000e+00 2.41564412e-04 -2.34561099e-04
7.83267460e-05 1.86115532e-04 -2.14585933e-04
1.19000135e-04 2.17792185e-04 -2.28330246e-04
1.23016987e-04 1.38192176e-04 -2.63198686e-04
1.73255859e-04 1.52518463e-04 -2.50835088e-04
4.68909138e-06 1.32549481e-04 -3.44813539e-04
1.01045640e-04 1.13259237e-04 -2.98930710e-04
1.59812829e-04 9.39264428e-05 -2.92137353e-04
1.65778009e-04 9.37732548e-05 -2.92191195e-04
1.59680712e-04 8.79835279e-05 -2.92071694e-04
1.59550225e-04 8.19953857e-05 -2.92089040e-04
1.65534861e-04 8.18979752e-05 -2.92080455e-04
1.65632140e-04 8.78507199e-05 -2.92064215e-04
1.59683317e-04 8.79628642e-05 -2.92062323e-04
1.59588497e-04 8.19910128e-05 -2.92091776e-04
1.65531601e-04 8.19077904e-05 -2.92082259e-04
1.65646648e-04 8.78569044e-05 -2.92061508e-04
0.00000000e+00 0.00000000e+00 -2.92077922e-04
4.44941033e-05 0.00000000e+00 -2.92077922e-04
4.66511192e-05 3.47891873e-05 -2.92077922e-04
0.00000000e+00 3.21075895e-05 -2.92077922e-04
8.31259749e-05 0.00000000e+00 -2.92077922e-04
8.61197914e-05 3.95326606e-05 -2.92077922e-04
1.13236514e-04 0.00000000e+00 -2.92077922e-04
1.19947341e-04 4.15688337e-05 -2.92077922e-04
1.45519240e-04 0.00000000e+00 -2.92077922e-04
1.42725112e-04 4.13315247e-05 -2.92077922e-04
1.68743820e-04 0.00000000e+00 -2.92077922e-04
1.67200225e-04 4.02489350e-05 -2.92077922e-04
1.94128472e-04 0.00000000e+00 -2.92077922e-04
1.79893075e-04 4.51114392e-05 -2.92077922e-04
5.38915738e-05 6.40669095e-05 -2.92077922e-04
0.00000000e+00 6.21308718e-05 -2.92077922e-04
1.00413912e-04 7.57478629e-05 -2.92077922e-04
1.26612955e-04 8.63501627e-05 -2.92077922e-04
1.43672165e-04 8.16582324e-05 -2.92077922e-04
1.51581844e-04 7.50678737e-05 -2.92077922e-04
1.68447456e-04 8.00317284e-05 -2.92077922e-04
5.09460879e-05 1.08598695e-04 -2.92077922e-04
0.00000000e+00 1.08805652e-04 -2.92077922e-04
1.12636641e-04 9.92763089e-05 -2.92077922e-04
1.46017352e-04 1.08296845e-04 -2.92077922e-04
1.47838407e-04 9.40389291e-05 -2.92077922e-04
1.47641127e-04 8.82123713e-05 -2.92160461e-04
1.47754341e-04 8.81579253e-05 -2.92077922e-04
1.48068735e-04 8.25543102e-05 -2.92533165e-04
1.48177758e-04 8.27143595e-05 -2.92077922e-04
1.52812223e-04 1.00629302e-04 -3.02946311e-04
1.61501142e-04 1.09669505e-04 -2.92077922e-04
1.51807268e-04 1.17864780e-04 -2.92077922e-04
1.53826288e-04 9.40608370e-05 -2.92064156e-04
1.53765432e-04 9.40618702e-05 -2.92077922e-04
1.53727713e-04 8.81034284e-05 -2.92037468e-04
1.53716857e-04 8.80827283e-05 -2.92077922e-04
1.53560119e-04 8.20357527e-05 -2.92010052e-04
1.53585686e-04 8.20859786e-05 -2.92077922e-04
0.00000000e+00 1.24337268e-04 -2.92077922e-04
4.87952857e-05 1.42670397e-04 -2.92077922e-04
5.23094750e-05 2.03676667e-04 -2.92077922e-04
0.00000000e+00 2.24462550e-04 -2.92077922e-04
1.59675750e-04 8.79820800e-05 -2.92077922e-04
1.59772011e-04 9.39620295e-05 -2.92077922e-04
1.59598785e-04 8.20108326e-05 -2.92077922e-04
5.94169105e-05 2.55901134e-04 -2.92077922e-04
0.00000000e+00 2.41270332e-04 -2.92077922e-04
9.77155214e-05 1.87677200e-04 -2.92077922e-04
1.35678929e-04 2.14305212e-04 -2.92077922e-04
1.28329601e-04 1.28529238e-04 -2.92077922e-04
1.84813020e-04 1.45402286e-04 -2.92077922e-04
1.65726684e-04 9.38493467e-05 -2.92077922e-04
1.65639212e-04 8.78625506e-05 -2.92077922e-04
1.65532110e-04 8.19080524e-05 -2.92077922e-04
</DataArray>
<DataArray type="Float32" Name="Reaction_force" NumberOfComponents="3" format="ascii">
0.00000000e+00 0.00000000e+00 0.00000000e+00
0.00000000e+00 0.00000000e+00 0.00000000e+00
0.00000000e+00 0.00000000e+00 0.00000000e+00
0.00000000e+00 0.00000000e+00 0.00000000e+00
0.00000000e+00 0.00000000e+00 0.00000000e+00
0.00000000e+00 0.00000000e+00 0.00000000e+00
0.00000000e+00 0.00000000e+00 0.00000000e+00
0.00000000e+00 0.00000000e+00 0.00000000e+00
0.00000000e+00 0.00000000e+00 0.00000000e+00
0.00000000e+00 0.00000000e+00 0.00000000e+00
0.00000000e+00 0.00000000e+00 0.00000000e+00
0.00000000e+00 0.00000000e+00 0.00000000e+00
0.00000000e+00 0.00000000e+00 0.00000000e+00
0.00000000e+00 0.00000000e+00 0.00000000e+00
0.00000000e+00 0.00000000e+00 0.00000000e+00
0.00000000e+00 0.00000000e+00 0.00000000e+00
0.00000000e+00 0.00000000e+00 0.00000000e+00
0.00000000e+00 0.00000000e+00 0.00000000e+00
0.00000000e+00 0.00000000e+00 0.00000000e+00
0.00000000e+00 0.00000000e+00 0.00000000e+00
9.42545980e-02 -1.30508155e-01 0.00000000e+00
0.00000000e+00 9.80071306e-01 0.00000000e+00
0.00000000e+00 0.00000000e+00 0.00000000e+00
1.82553923e+00 0.00000000e+00 0.00000000e+00
4.16849732e-01 9.48275685e-01 0.00000000e+00
0.00000000e+00 1.35699809e+00 0.00000000e+00
0.00000000e+00 0.00000000e+00 0.00000000e+00
1.21885169e+00 0.00000000e+00 0.00000000e+00
0.00000000e+00 1.57256186e+00 0.00000000e+00
0.00000000e+00 0.00000000e+00 0.00000000e+00
0.00000000e+00 1.19497740e+00 0.00000000e+00
0.00000000e+00 0.00000000e+00 0.00000000e+00
0.00000000e+00 1.99893188e+00 0.00000000e+00
0.00000000e+00 0.00000000e+00 0.00000000e+00
0.00000000e+00 1.61909842e+00 0.00000000e+00
0.00000000e+00 0.00000000e+00 0.00000000e+00
0.00000000e+00 2.73517776e+00 0.00000000e+00
0.00000000e+00 0.00000000e+00 0.00000000e+00
0.00000000e+00 1.51026905e+00 0.00000000e+00
0.00000000e+00 0.00000000e+00 0.00000000e+00
0.00000000e+00 1.04905617e+00 0.00000000e+00
0.00000000e+00 0.00000000e+00 0.00000000e+00
0.00000000e+00 -2.51045287e-01 0.00000000e+00
0.00000000e+00 0.00000000e+00 0.00000000e+00
0.00000000e+00 4.32351008e-02 0.00000000e+00
0.00000000e+00 0.00000000e+00 0.00000000e+00
0.00000000e+00 -5.48179984e-01 0.00000000e+00
0.00000000e+00 0.00000000e+00 0.00000000e+00
0.00000000e+00 0.00000000e+00 0.00000000e+00
1.48692703e+00 0.00000000e+00 0.00000000e+00
0.00000000e+00 0.00000000e+00 0.00000000e+00
1.05927658e+00 0.00000000e+00 0.00000000e+00
0.00000000e+00 0.00000000e+00 0.00000000e+00
0.00000000e+00 0.00000000e+00 0.00000000e+00
0.00000000e+00 0.00000000e+00 0.00000000e+00
0.00000000e+00 0.00000000e+00 0.00000000e+00
0.00000000e+00 0.00000000e+00 0.00000000e+00
0.00000000e+00 0.00000000e+00 0.00000000e+00
0.00000000e+00 0.00000000e+00 0.00000000e+00
0.00000000e+00 0.00000000e+00 0.00000000e+00
0.00000000e+00 0.00000000e+00 0.00000000e+00
0.00000000e+00 0.00000000e+00 0.00000000e+00
0.00000000e+00 0.00000000e+00 0.00000000e+00
2.13522613e-02 0.00000000e+00 0.00000000e+00
0.00000000e+00 0.00000000e+00 0.00000000e+00
1.40629613e+00 0.00000000e+00 0.00000000e+00
0.00000000e+00 0.00000000e+00 0.00000000e+00
0.00000000e+00 0.00000000e+00 0.00000000e+00
0.00000000e+00 0.00000000e+00 0.00000000e+00
0.00000000e+00 0.00000000e+00 0.00000000e+00
0.00000000e+00 0.00000000e+00 0.00000000e+00
8.91748667e-01 0.00000000e+00 0.00000000e+00
0.00000000e+00 0.00000000e+00 0.00000000e+00
7.92765021e-01 0.00000000e+00 0.00000000e+00
4.50868905e-01 0.00000000e+00 0.00000000e+00
0.00000000e+00 0.00000000e+00 0.00000000e+00
2.38143802e-02 0.00000000e+00 0.00000000e+00
0.00000000e+00 0.00000000e+00 0.00000000e+00
0.00000000e+00 0.00000000e+00 0.00000000e+00
0.00000000e+00 0.00000000e+00 0.00000000e+00
-6.80909216e-01 0.00000000e+00 0.00000000e+00
0.00000000e+00 0.00000000e+00 0.00000000e+00
3.67876887e-01 0.00000000e+00 0.00000000e+00
0.00000000e+00 0.00000000e+00 0.00000000e+00
0.00000000e+00 0.00000000e+00 0.00000000e+00
0.00000000e+00 0.00000000e+00 0.00000000e+00
4.35010821e-01 1.41201663e+00 0.00000000e+00
0.00000000e+00 1.68012249e+00 0.00000000e+00
0.00000000e+00 0.00000000e+00 0.00000000e+00
7.05323935e-01 0.00000000e+00 0.00000000e+00
0.00000000e+00 2.02007622e-01 0.00000000e+00
0.00000000e+00 0.00000000e+00 0.00000000e+00
0.00000000e+00 2.96831071e-01 0.00000000e+00
0.00000000e+00 0.00000000e+00 0.00000000e+00
0.00000000e+00 -2.75380850e-01 0.00000000e+00
0.00000000e+00 0.00000000e+00 0.00000000e+00
0.00000000e+00 -1.95473766e+00 0.00000000e+00
0.00000000e+00 0.00000000e+00 0.00000000e+00
0.00000000e+00 -2.09484744e+00 0.00000000e+00
0.00000000e+00 0.00000000e+00 0.00000000e+00
0.00000000e+00 0.00000000e+00 0.00000000e+00
1.22126436e+00 0.00000000e+00 0.00000000e+00
0.00000000e+00 0.00000000e+00 0.00000000e+00
0.00000000e+00 0.00000000e+00 0.00000000e+00
0.00000000e+00 0.00000000e+00 0.00000000e+00
0.00000000e+00 0.00000000e+00 0.00000000e+00
0.00000000e+00 0.00000000e+00 0.00000000e+00
0.00000000e+00 0.00000000e+00 0.00000000e+00
-1.72902301e-01 0.00000000e+00 0.00000000e+00
0.00000000e+00 0.00000000e+00 0.00000000e+00
0.00000000e+00 0.00000000e+00 0.00000000e+00
0.00000000e+00 0.00000000e+00 0.00000000e+00
0.00000000e+00 0.00000000e+00 0.00000000e+00
0.00000000e+00 0.00000000e+00 0.00000000e+00
1.06559050e+00 0.00000000e+00 0.00000000e+00
0.00000000e+00 0.00000000e+00 0.00000000e+00
0.00000000e+00 0.00000000e+00 0.00000000e+00
9.82818604e-02 0.00000000e+00 0.00000000e+00
0.00000000e+00 0.00000000e+00 0.00000000e+00
9.67054367e-01 0.00000000e+00 0.00000000e+00
0.00000000e+00 0.00000000e+00 0.00000000e+00
0.00000000e+00 0.00000000e+00 0.00000000e+00
0.00000000e+00 0.00000000e+00 0.00000000e+00
0.00000000e+00 0.00000000e+00 0.00000000e+00
0.00000000e+00 0.00000000e+00 0.00000000e+00
0.00000000e+00 0.00000000e+00 0.00000000e+00
0.00000000e+00 0.00000000e+00 0.00000000e+00
0.00000000e+00 0.00000000e+00 0.00000000e+00
0.00000000e+00 0.00000000e+00 0.00000000e+00
0.00000000e+00 0.00000000e+00 0.00000000e+00
0.00000000e+00 0.00000000e+00 0.00000000e+00
0.00000000e+00 0.00000000e+00 0.00000000e+00
0.00000000e+00 0.00000000e+00 0.00000000e+00
0.00000000e+00 0.00000000e+00 0.00000000e+00
0.00000000e+00 0.00000000e+00 0.00000000e+00
0.00000000e+00 0.00000000e+00 0.00000000e+00
1.42352849e-01 6.80036247e-01 -9.48639679e+00
0.00000000e+00 9.38537478e-01 -1.90198421e+01
0.00000000e+00 0.00000000e+00 -3.74707947e+01
2.23949283e-01 0.00000000e+00 -1.92587795e+01
0.00000000e+00 1.55252218e-02 -1.91517277e+01
0.00000000e+00 0.00000000e+00 -3.80456924e+01
0.00000000e+00 -3.10275912e-01 -1.93606472e+01
0.00000000e+00 0.00000000e+00 -3.54240570e+01
0.00000000e+00 -7.99784958e-01 -1.76057377e+01
0.00000000e+00 0.00000000e+00 -3.19381790e+01
0.00000000e+00 -1.51188636e+00 -1.44288120e+01
0.00000000e+00 0.00000000e+00 -2.79953079e+01
0.00000000e+00 -1.80893457e+00 -8.03791046e+00
0.00000000e+00 0.00000000e+00 -1.57343292e+01
0.00000000e+00 0.00000000e+00 -4.25980263e+01
1.87934232e+00 0.00000000e+00 -2.32549458e+01
0.00000000e+00 0.00000000e+00 -3.16072750e+01
0.00000000e+00 0.00000000e+00 -2.36809425e+01
0.00000000e+00 0.00000000e+00 -1.98060951e+01
0.00000000e+00 0.00000000e+00 -2.01668320e+01
0.00000000e+00 0.00000000e+00 -1.25462704e+01
0.00000000e+00 0.00000000e+00 -3.14648075e+01
-8.78537178e-01 0.00000000e+00 -1.86629486e+01
0.00000000e+00 0.00000000e+00 -2.32676601e+01
0.00000000e+00 0.00000000e+00 -1.20565910e+01
0.00000000e+00 0.00000000e+00 -6.85910606e+00
0.00000000e+00 0.00000000e+00 0.00000000e+00
0.00000000e+00 0.00000000e+00 -8.42097950e+00
0.00000000e+00 0.00000000e+00 0.00000000e+00
0.00000000e+00 0.00000000e+00 -5.16276979e+00
0.00000000e+00 0.00000000e+00 0.00000000e+00
0.00000000e+00 0.00000000e+00 -3.27187705e+00
0.00000000e+00 0.00000000e+00 -1.21865034e+01
0.00000000e+00 0.00000000e+00 0.00000000e+00
0.00000000e+00 0.00000000e+00 2.38597059e+00
0.00000000e+00 0.00000000e+00 0.00000000e+00
0.00000000e+00 0.00000000e+00 5.34799528e+00
0.00000000e+00 0.00000000e+00 0.00000000e+00
0.00000000e+00 0.00000000e+00 3.26626301e+00
6.12521887e-01 0.00000000e+00 -1.79152603e+01
0.00000000e+00 0.00000000e+00 -2.08292942e+01
0.00000000e+00 0.00000000e+00 -3.32333412e+01
2.21566963e+00 0.00000000e+00 -2.19500103e+01
0.00000000e+00 0.00000000e+00 1.49467075e+00
0.00000000e+00 0.00000000e+00 -5.82949018e+00
0.00000000e+00 0.00000000e+00 -1.06586206e+00
0.00000000e+00 0.00000000e+00 -1.58672409e+01
7.96446353e-02 0.00000000e+00 -5.91513157e+00
0.00000000e+00 0.00000000e+00 -1.89568768e+01
0.00000000e+00 0.00000000e+00 -1.82031612e+01
0.00000000e+00 0.00000000e+00 -1.17760420e+01
0.00000000e+00 0.00000000e+00 -1.08585835e+01
0.00000000e+00 0.00000000e+00 -5.73251104e+00
0.00000000e+00 0.00000000e+00 5.93312502e-01
0.00000000e+00 0.00000000e+00 -8.48534927e-02
</DataArray>
<DataArray type="Float32" Name="Equivalent_plastic_strain" format="ascii">
6.22786717e-02
6.22614605e-02
7.42720691e-02
7.24187437e-02
4.54651152e-02
5.82834625e-02
1.25124205e-01
1.00269642e-01
9.62375626e-02
1.24910444e-01
1.43104225e-01
1.26194477e-01
0.00000000e+00
0.00000000e+00
0.00000000e+00
0.00000000e+00
0.00000000e+00
0.00000000e+00
0.00000000e+00
0.00000000e+00
9.27213542e-02
9.23811495e-02
9.20626884e-02
9.22930650e-02
1.02127492e-01
1.02756694e-01
1.04567926e-01
1.06048319e-01
9.12679899e-02
9.50099975e-02
9.95710362e-02
1.02648438e-01
9.24287997e-02
9.09514739e-02
9.40830652e-02
9.64878779e-02
9.31093246e-02
1.07209999e-01
8.85417685e-02
8.70422069e-02
9.21971053e-02
1.03309792e-01
8.23451485e-02
9.23154503e-02
9.13051404e-02
1.00694751e-01
8.03882331e-02
8.99004377e-02
9.51674115e-02
9.12262257e-02
1.14123452e-01
1.11137180e-01
9.84464533e-02
1.07284411e-01
1.29395799e-01
1.00426859e-01
1.27535695e-01
1.03195207e-01
1.25430722e-01
1.11342719e-01
1.22387286e-01
1.11367472e-01
9.36722319e-02
8.29228982e-02
1.25796501e-01
1.11669557e-01
1.21627934e-01
1.29208668e-01
1.19675130e-01
3.77475893e-02
6.67013321e-02
7.84645658e-02
5.80170993e-02
7.75291107e-02
7.88469277e-02
1.35374715e-01
9.15080952e-02
9.66532659e-02
1.62993979e-01
1.24482022e-01
7.78542794e-02
4.78314948e-02
1.09252129e-01
1.44789474e-01
1.32123614e-01
1.17604350e-01
1.15838427e-01
1.14624025e-01
1.18060482e-01
1.21557200e-01
1.09609425e-01
1.10670719e-01
1.01840140e-01
9.99712460e-02
9.33602508e-02
9.04626390e-02
8.59042630e-02
8.40537595e-02
8.53917934e-02
8.39665066e-02
1.14811111e-01
1.24302737e-01
9.96552994e-02
8.20708142e-02
6.36354892e-02
5.36784368e-02
6.36654335e-02
1.51854719e-01
1.50946791e-01
1.07929008e-01
2.28686764e-02
6.37752563e-02
3.89301326e-03
1.99778922e-01
1.93487739e-01
1.45200528e-01
1.33714620e-01
1.29383891e-01
1.72223128e-01
1.54866710e-01
1.68283779e-01
1.57536231e-01
6.92651705e-02
7.79912695e-02
-1.90514866e-02
1.31134531e-02
4.34444650e-02
1.06526092e-02
0.00000000e+00
0.00000000e+00
0.00000000e+00
0.00000000e+00
-6.18176799e-05
0.00000000e+00
0.00000000e+00
5.77369841e-05
1.22660562e-01
1.19923636e-01
1.22623695e-01
1.27279013e-01
1.14083715e-01
1.13447048e-01
1.06041923e-01
1.02980757e-01
9.78477374e-02
9.68207028e-02
9.22414698e-02
8.92340690e-02
9.44220051e-02
9.09248367e-02
1.31397933e-01
1.66614741e-01
9.27468371e-02
8.12007869e-02
4.22179225e-02
2.24078047e-02
2.02099592e-02
1.75638527e-01
1.81431264e-01
1.26920616e-01
3.86104546e-03
-2.35906729e-03
1.39242085e-02
-2.19848820e-03
1.51408503e-02
1.71488069e-03
3.34449317e-02
-8.35611578e-03
1.11916468e-01
-1.88524779e-05
2.56333977e-03
-6.98474364e-05
-2.44581783e-04
6.05261885e-04
1.07225147e-03
2.24192932e-01
2.55513608e-01
1.87566464e-01
2.27209970e-01
-6.87814913e-05
-1.30944621e-03
0.00000000e+00
1.69916108e-01
1.65343642e-01
1.75367571e-01
1.76345550e-01
3.58134659e-02
3.69505053e-02
-3.34611832e-04
1.69879335e-04
0.00000000e+00
</DataArray>
<DataArray type="Float32" Name="Stress_Mises" format="ascii">
1.89087396e+01
2.93056311e+01
6.33518171e+01
3.45800261e+01
2.41111585e+01
3.91060125e+01
4.19590359e+01
2.83371068e+01
6.09464970e+01
1.32929585e+02
1.19937613e+02
1.07668736e+02
1.71405774e+00
1.26558852e+00
2.09717667e+00
2.95710182e+00
8.27094018e-01
6.22959852e-01
1.05758643e+00
1.21701503e+00
2.79751196e+01
2.75783432e+01
2.30020674e+01
2.69988866e+01
2.27397456e+01
2.98139744e+01
2.81969357e+01
2.93428600e+01
2.21595390e+01
2.45214763e+01
2.98129442e+01
3.23995436e+01
2.29281273e+01
2.45579252e+01
2.65867851e+01
2.81724743e+01
2.08577490e+01
2.71260887e+01
2.25738730e+01
2.37076108e+01
1.65206307e+01
3.09999552e+01
1.57881380e+01
2.52343100e+01
1.54413786e+01
2.52501906e+01
1.72335515e+01
2.46149368e+01
2.58365240e+01
2.51076891e+01
3.73846550e+01
2.90812731e+01
4.46923700e+01
3.88103508e+01
1.20125851e+02
4.28379077e+01
8.87621136e+01
7.45339218e+01
6.84301128e+01
8.20874825e+01
5.95358601e+01
7.82409744e+01
2.47938410e+01
2.90671562e+01
4.24966745e+01
2.45800091e+01
1.47032129e+02
6.45719780e+01
9.43599701e+01
2.89188646e+01
2.67840993e+01
1.77810500e+01
2.79031373e+01
2.88168979e+01
2.24542427e+01
2.88646153e+01
3.73437028e+01
9.23517895e+01
1.51799965e+02
5.90010838e+01
3.93213973e+01
4.48180280e+01
4.38800097e+01
6.71482430e+01
1.27740643e+02
4.23251133e+01
2.52976341e+01
3.04662266e+01
3.00087872e+01
3.22628676e+01
3.55561004e+01
3.65435760e+01
3.69176731e+01
4.21876572e+01
3.40812147e+01
3.04773590e+01
2.28570604e+01
2.41794252e+01
2.65854373e+01
4.12135973e+01
4.90728309e+01
5.45377979e+01
4.29334484e+01
3.99138847e+01
4.18103515e+01
5.06509794e+01
5.63669891e+01
6.34990314e+01
6.59298503e+01
4.78576643e+01
3.68964556e+01
6.30246010e+01
2.12519478e+01
5.90754191e+01
4.46458117e+01
1.83844391e+02
7.63481569e+01
4.45104087e+01
2.04283576e+01
2.07576704e+01
7.32841854e+01
4.94449840e+01
6.55883875e+01
3.53465724e+01
4.69826012e+01
1.97170982e+01
2.67663255e+01
2.26633377e+01
4.20259190e+00
1.94390249e+00
3.26065516e+00
4.73673487e+00
1.33940639e+01
7.19684807e+00
5.35039139e+00
1.76105220e+01
2.92540455e+01
3.16434698e+01
2.93759081e+01
3.09580917e+01
3.87644558e+01
3.69085991e+01
4.11973343e+01
5.11035004e+01
4.05681171e+01
4.73625789e+01
3.73163614e+01
3.13640299e+01
5.23244362e+01
4.65368252e+01
4.87384386e+01
4.24181094e+01
4.59544928e+01
4.31201377e+01
2.47638307e+01
2.26997423e+01
3.04257011e+01
1.47937759e+02
1.56330109e+02
3.45705547e+01
2.19781053e+01
1.46246102e+01
2.31642041e+01
1.86125759e+01
2.49275866e+01
2.43016176e+01
6.55202560e+01
1.77671223e+01
4.97755356e+01
2.46131131e+01
1.92623480e+01
2.26170208e+01
1.83630939e+01
1.87176609e+01
2.00517769e+01
1.27340919e+02
1.90716660e+02
6.24495684e+01
3.83650618e+01
1.32231622e+01
2.27379201e+01
1.01649971e+01
2.49775633e+01
9.61798859e+00
3.38692598e+01
4.29314823e+01
3.56424212e+01
2.06177335e+01
1.62795401e+01
1.59347811e+01
5.32490301e+00
</DataArray>
<DataArray type="Float32" Name="Stress_Max_Principal" format="ascii">
2.12800429e+01
1.21201121e+01
6.32933807e+00
-1.86332226e+00
2.41311092e+01
4.33494622e+01
2.98924303e+00
1.72798850e+01
-1.64589543e+01
-8.19136314e+01
-6.09521732e+01
-5.26654093e+01
9.59222883e-01
6.83332384e-01
1.08370176e+00
1.75994223e+00
5.86047351e-01
4.97056901e-01
6.85351968e-01
8.19064558e-01
2.15796852e+00
2.85283384e+00
8.08978392e+00
3.48909706e+00
6.79138088e+00
5.17269194e-01
6.40336713e+00
1.39245114e+00
7.72999787e+00
7.98669177e+00
4.13225651e-01
1.20659485e+00
6.70146340e+00
1.48608050e+01
3.89653988e+00
5.90040475e+00
9.28344691e+00
7.24176389e+00
7.31855762e+00
2.08558837e+01
1.23887868e+01
1.54004412e+01
1.98561669e+01
1.06812037e+01
1.29540939e+01
2.44577802e+01
2.45820477e+01
1.67195036e+01
5.66329756e+00
8.00853193e+00
-3.96583235e+00
1.38116050e+00
3.20026349e+01
-4.12785265e+00
-7.23452110e+01
3.08478950e+01
-4.74434266e+01
-3.45106030e+01
-2.96629343e+01
-4.14936867e+01
-2.01451745e+01
-3.43819332e+01
6.77270330e+00
2.15608404e+01
-9.13849735e+00
5.72074699e+00
-9.03823566e+01
-1.77801435e+01
2.14720413e+02
1.72871583e+01
3.73481763e+01
1.68258054e+01
3.60395683e+01
1.25036149e+01
1.98685783e+01
3.54436627e+01
1.13786983e+01
-4.82177061e+01
-9.73097878e+01
1.54770460e+01
1.40112715e+01
9.76670265e+00
1.70900211e+01
-4.20071411e+00
-3.34302394e+01
6.48295250e+00
5.23972461e+00
2.78319359e-01
1.15474471e+00
-3.57894480e-01
-3.58503783e+00
-3.94596238e+00
-4.96384728e+00
-7.27199353e+00
-1.76821753e+00
1.86883770e+00
7.41772532e+00
1.39995285e+01
5.28938389e+00
5.74446684e+00
-9.93167374e-01
7.86741161e+00
-4.34044015e+00
2.09134490e+01
3.23946288e+01
4.61278900e+00
8.35354392e+00
-2.41523479e+01
-2.82027133e+01
3.12744188e+01
5.96479166e+01
1.44942307e+02
2.96222626e+01
-2.03853672e+01
1.10524845e+01
-1.01654438e+02
-2.34544256e+01
-9.49679255e+00
2.77364595e+01
1.14276834e+01
-2.94250336e+01
-8.83469415e+00
2.16806693e+01
3.39407578e+01
1.13200615e+02
5.79035912e+01
2.69321022e+01
2.07774976e+01
2.59672618e+00
9.47868526e-01
1.92561734e+00
2.95157290e+00
9.34652998e+00
1.91343337e+00
1.39500549e+00
8.19401010e+00
2.14646840e+00
-5.39761543e-01
1.95936608e+00
9.69639778e-01
-6.21928883e+00
-3.81550921e+00
-7.21599746e+00
-1.33645968e+01
-5.92687738e+00
-1.01475677e+01
-3.09485853e+00
3.55170333e+00
-1.27386951e+01
-6.84679818e+00
1.20133516e+01
4.03647804e+00
-1.31245287e+00
2.57827139e+01
4.10667386e+01
2.61760030e+01
2.45561147e+01
-9.22117596e+01
-1.05750938e+02
4.89972809e+01
4.41024532e+01
3.71400950e+01
3.64345412e+01
3.12758934e+01
1.65963278e+01
3.52018614e+01
7.13254175e+01
4.14807720e+01
2.08947849e+01
3.66307176e+01
2.14678599e+01
1.81527779e+01
1.45248144e+01
8.88567817e+00
7.41764212e+00
-6.77546158e+01
-1.28146561e+02
2.48575602e+01
1.49348660e+01
7.86350161e+00
3.29249614e+01
3.88136053e+00
9.69287729e+00
2.04637222e+01
1.14255428e+00
-4.79471964e+00
1.85078831e+01
3.20594702e+01
3.10242825e+01
6.85246181e+00
8.75678718e-01
</DataArray>
<DataArray type="Float32" Name="Stress_Mid_Principal" format="ascii">
1.50549432e+01
2.01624393e+00
-1.27020578e+01
-4.31263316e+00
1.63579382e+01
2.32026245e+01
-1.22222390e+01
1.19388992e+01
-2.33281884e+01
-9.25057755e+01
-7.97750158e+01
-7.74344454e+01
-3.68519623e-01
-3.64766909e-01
-1.31046448e-01
-6.31424338e-01
4.48068269e-02
-5.23789339e-02
1.14533290e-01
2.79762838e-02
1.38252950e+00
1.37341467e+00
6.10846116e+00
1.76817596e+00
5.76972246e+00
-1.52752101e-01
3.76111850e+00
-2.03371078e-01
5.83614171e+00
4.96216320e+00
2.94653773e-02
-1.49151695e+00
5.50009871e+00
9.90534076e+00
2.06564124e+00
2.53563708e+00
7.23233789e+00
3.90388215e+00
5.52191544e+00
1.39317904e+01
1.07681956e+01
7.94649494e+00
1.69275486e+01
6.92908490e+00
1.21626089e+01
1.68866118e+01
1.88461142e+01
1.01590360e+01
1.71841687e+00
3.44738388e+00
-6.51834339e+00
5.17917395e-01
1.53026317e+01
-8.17408574e+00
-8.53690262e+01
1.42277301e+01
-5.32299166e+01
-4.01849607e+01
-3.62156582e+01
-4.75042467e+01
-3.08058519e+01
-4.87425785e+01
2.85377857e+00
1.28514922e+01
-1.10387037e+01
4.02847475e+00
-1.12289325e+02
-2.92047367e+01
1.28540421e+02
7.36268075e+00
2.43368352e+01
1.37523572e+01
2.18308756e+01
6.28573823e+00
1.47127872e+01
2.09571785e+01
8.88141394e-01
-5.82790919e+01
-1.09777073e+02
-6.96257057e+00
4.09341431e+00
-1.38565207e+00
2.32409286e+00
-2.80076904e+01
-6.46105372e+01
-1.11024866e+01
2.80748391e+00
-1.07004058e+00
-1.15491757e+00
-3.57636146e+00
-5.93765771e+00
-7.29273540e+00
-6.77417034e+00
-1.37063982e+01
-5.15021491e+00
-2.41724437e+00
4.89196914e+00
8.66778517e+00
6.40009880e-01
-4.45297502e+00
-1.08064321e+01
-6.06454229e+00
-1.19954053e+01
5.87365425e+00
1.31555752e+01
-1.18052451e+01
-1.22697741e+01
-3.32468671e+01
-3.31441089e+01
9.09905036e+00
3.36933848e+01
8.34676895e+01
1.60389235e+01
-2.63401909e+01
7.31992086e-01
-1.60854534e+02
-3.41030759e+01
-1.37885222e+01
1.91196168e+01
9.04328632e+00
-4.28212048e+01
-2.20499548e+01
-9.45907879e+00
1.43902035e+01
7.06733475e+01
4.17694855e+01
5.34429219e+00
8.94278304e+00
-1.08780789e+00
-1.23688504e-01
-6.60265982e-01
-1.23218834e+00
-8.45043367e-01
-8.37384603e-01
6.62104756e-01
3.62765603e+00
-9.36179042e-01
-2.28768140e+00
-8.78362656e-01
-2.68057966e+00
-8.84952235e+00
-8.08091643e+00
-1.20303044e+01
-2.32268665e+01
-1.23399215e+01
-1.98296115e+01
-9.63451409e+00
-5.89045024e+00
-2.59593029e+01
-2.16952362e+01
-4.73743820e+00
-7.05931091e+00
-1.49507592e+01
8.48279667e+00
2.87268722e+01
1.96819663e+01
6.20767975e+00
-1.10321493e+02
-1.10910530e+02
2.47655354e+01
3.34434123e+01
2.71622379e+01
1.95088845e+01
1.92479825e+01
6.89037633e+00
2.87224113e+01
2.42915211e+01
2.80949268e+01
5.67599297e+00
1.74225092e+01
9.74668233e+00
3.27127293e+00
8.00935709e+00
4.27332968e+00
1.54818892e+00
-1.00329430e+02
-1.46720596e+02
4.92186483e+00
6.64823532e-01
2.91157107e+00
2.14734721e+01
-3.12675321e+00
2.98987389e+00
1.62235088e+01
-5.18361974e+00
-1.76490974e+01
3.52200603e+00
1.67010587e+01
2.05258744e+01
3.49824518e+00
-1.45325158e-03
</DataArray>
<DataArray type="Float32" Name="Stress_Min_Principal" format="ascii">
8.62302482e-01
-2.01184167e+01
-6.12914782e+01
-3.74999132e+01
-1.22921556e+00
1.14726584e+00
-4.40998731e+01
-1.18701262e+01
-8.04942946e+01
-2.19814865e+02
-1.88732352e+02
-1.70155571e+02
-9.75797027e-01
-7.03512609e-01
-1.33767283e+00
-1.51364613e+00
-3.66026193e-01
-1.79742053e-01
-5.34997702e-01
-5.82342446e-01
-2.61961679e+01
-2.54342415e+01
-1.57056158e+01
-2.43200723e+01
-1.64415336e+01
-2.96255994e+01
-2.24497631e+01
-2.87137141e+01
-1.53116541e+01
-1.76020895e+01
-2.95893243e+01
-3.21640447e+01
-1.67969947e+01
-1.04366344e+01
-2.35527567e+01
-2.34334586e+01
-1.24664997e+01
-2.09979000e+01
-1.60991511e+01
-3.88160157e+00
-4.88044596e+00
-1.68502636e+01
3.62401962e+00
-1.54953140e+01
-2.86230803e+00
-1.80124140e+00
6.56448936e+00
-9.53516626e+00
-2.18619128e+01
-1.88654163e+01
-4.24173663e+01
-2.80877452e+01
-1.49620609e+01
-4.44869299e+01
-1.98015099e+02
-1.47771820e+01
-1.38950420e+02
-1.11590392e+02
-1.01131241e+02
-1.26387409e+02
-8.42910728e+01
-1.18808228e+02
-1.96472729e+01
-8.54203701e+00
-5.24707426e+01
-1.96268723e+01
-2.47097244e+02
-8.66913461e+01
1.13893417e+02
-1.41113954e+01
9.78290170e+00
-1.58954954e+00
6.54056088e+00
-1.76336761e+01
-3.39371443e+00
4.31852797e+00
-2.87340181e+01
-1.45002557e+02
-2.54923729e+02
-4.82013420e+01
-2.67863274e+01
-3.74490547e+01
-2.93681011e+01
-7.83892593e+01
-1.70700225e+02
-4.09336341e+01
-2.11861706e+01
-3.08274117e+01
-2.99405124e+01
-3.41078410e+01
-4.02580650e+01
-4.20469927e+01
-4.27531760e+01
-5.22842330e+01
-3.74121632e+01
-3.04851183e+01
-1.65914769e+01
-1.15896197e+01
-2.33106991e+01
-3.84603324e+01
-5.29478774e+01
-4.89969273e+01
-5.02362810e+01
-2.22157944e+01
-1.23592256e+01
-5.07169450e+01
-5.38209381e+01
-9.16100703e+01
-9.64489028e+01
-2.11081388e+01
1.88735631e+01
8.04743881e+01
6.61192026e+00
-8.17269330e+01
-3.57903760e+01
-3.07447594e+02
-1.02760713e+02
-5.59087553e+01
5.99018145e+00
-1.01228991e+01
-1.08433430e+02
-6.33696718e+01
-5.24956771e+01
-5.59831220e+00
6.27661209e+01
3.59249649e+01
-2.62564135e+00
-3.50942008e+00
-1.98048759e+00
-1.29600275e+00
-1.73729849e+00
-2.19133425e+00
-5.11404319e+00
-5.88518842e+00
-4.27252591e+00
-1.11758048e+01
-2.85268307e+01
-3.30146933e+01
-2.87274647e+01
-3.16506233e+01
-4.62164173e+01
-4.26458979e+01
-5.06066265e+01
-6.86425323e+01
-4.92893581e+01
-6.15963604e+01
-4.32485695e+01
-3.14060733e+01
-7.04054184e+01
-5.89879570e+01
-4.04426193e+01
-4.15724468e+01
-5.20154924e+01
-2.12780352e+01
1.39602656e+01
2.07246518e+00
-1.03094482e+01
-2.48269867e+02
-2.64596954e+02
1.09756746e+01
2.03862419e+01
2.04489686e+01
1.02780620e+01
1.05883021e+01
-1.14107518e+01
8.60576820e+00
-3.45471191e+00
2.13554497e+01
-3.47135162e+01
9.26098490e+00
-6.82906151e-01
-7.68734421e+00
-6.06961937e+00
-1.16845727e+01
-1.47821279e+01
-2.08218796e+02
-3.27470673e+02
-3.94494692e+01
-2.79668102e+01
-6.55451620e+00
7.32607174e+00
-7.73107839e+00
-1.78694744e+01
9.45423222e+00
-3.54312301e+01
-5.26838951e+01
-2.11066723e+01
8.65197134e+00
1.36234169e+01
-1.04462762e+01
-4.83333015e+00
</DataArray>
<DataArray type="Float32" Name="Stress_Pressure" format="ascii">
-1.23990963e+01
1.99402022e+00
2.25547323e+01
1.45586224e+01
-1.30866107e+01
-2.25664498e+01
1.77776217e+01
-5.78288555e+00
4.00938113e+01
1.31411427e+02
1.09819848e+02
1.00085139e+02
1.28364589e-01
1.28315717e-01
1.28339175e-01
1.28376089e-01
-8.82759839e-02
-8.83119702e-02
-8.82958472e-02
-8.82327929e-02
7.55189002e+00
7.06933093e+00
5.02456635e-01
6.35426635e+00
1.29347610e+00
9.75369377e+00
4.09509286e+00
9.17487860e+00
5.81838369e-01
1.55107787e+00
9.71554470e+00
1.08163220e+01
1.53181100e+00
-4.77650389e+00
5.86352515e+00
4.99913904e+00
-1.34976172e+00
3.28408492e+00
1.08622581e+00
-1.03020244e+01
-6.09217894e+00
-2.16555715e+00
-1.34692452e+01
-7.04991296e-01
-7.41813174e+00
-1.31810504e+01
-1.66642164e+01
-5.78112440e+00
4.82673234e+00
2.46983379e+00
1.76338470e+01
8.72955579e+00
-1.07810700e+01
1.89296226e+01
1.18576442e+02
-1.00994810e+01
7.98745871e+01
6.20953169e+01
5.56699448e+01
7.17951136e+01
4.50806999e+01
6.73109150e+01
3.34026371e+00
-8.62343109e+00
2.42159812e+01
3.29255056e+00
1.49922974e+02
4.45587421e+01
-1.52384750e+02
-3.51281389e+00
-2.38226370e+01
-9.66287136e+00
-2.14703360e+01
-3.85225296e-01
-1.03958837e+01
-2.02397896e+01
5.48905969e+00
8.38331189e+01
1.54003525e+02
1.32289545e+01
2.89388084e+00
9.68933582e+00
3.31799698e+00
3.68658876e+01
8.95803363e+01
1.51843898e+01
4.37965417e+00
1.05397112e+01
9.98022858e+00
1.26806989e+01
1.65935866e+01
1.77618966e+01
1.81637312e+01
2.44208748e+01
1.47768655e+01
1.03445084e+01
1.42726064e+00
-3.69256508e+00
5.79376841e+00
1.23896132e+01
2.15824932e+01
1.57313538e+01
2.21907088e+01
-1.52376986e+00
-1.10636583e+01
1.93031330e+01
1.92457212e+01
4.96697606e+01
5.25985753e+01
-6.42177677e+00
-3.74049549e+01
-1.02961464e+02
-1.74243689e+01
4.28174959e+01
8.00196711e+00
1.89985519e+02
5.34394042e+01
2.63980241e+01
-1.76154188e+01
-3.44935703e+00
6.02265565e+01
3.14181073e+01
1.34246958e+01
-1.42442164e+01
-8.22133636e+01
-4.51993484e+01
-9.88358474e+00
-8.73695332e+00
1.57189772e-01
1.57274231e-01
1.57315686e-01
1.57316580e-01
-1.12914781e+00
1.60304648e+00
7.38471925e-01
-2.15287089e-01
9.10551453e+00
1.19473784e+01
9.21548718e+00
1.11205211e+01
2.04284091e+01
1.81807747e+01
2.32843087e+01
3.50779991e+01
2.25187187e+01
3.05245129e+01
1.86593142e+01
1.12482742e+01
3.63678055e+01
2.91766634e+01
1.10555696e+01
1.48650913e+01
2.27595682e+01
-4.32915878e+00
-2.79179587e+01
-1.59768109e+01
-6.81811428e+00
1.50267708e+02
1.60419479e+02
-2.82461635e+01
-3.26440368e+01
-2.82504340e+01
-2.20738293e+01
-2.03707253e+01
-4.02531734e+00
-2.41766798e+01
-3.07207422e+01
-3.03103819e+01
2.71424651e+00
-2.11047376e+01
-1.01772121e+01
-4.57890207e+00
-5.48818386e+00
-4.91478205e-01
1.93876562e+00
1.25434280e+02
2.00779282e+02
3.22334925e+00
4.12237358e+00
-1.40685216e+00
-2.05748355e+01
2.32549042e+00
1.72890854e+00
-1.53804884e+01
1.31574318e+01
2.50425701e+01
-3.07739258e-01
-1.91375001e+01
-2.17245240e+01
3.18564177e-02
1.31970167e+00
</DataArray>
<DataArray type="Float32" Name="Stress_Tresca" format="ascii">
2.04177401e+01
3.22385281e+01
6.76208181e+01
3.56365910e+01
2.53603249e+01
4.22021964e+01
4.70891151e+01
2.91500111e+01
6.40353403e+01
1.37901237e+02
1.27780177e+02
1.17490162e+02
1.93501997e+00
1.38684499e+00
2.42137456e+00
3.27358818e+00
9.52073574e-01
6.76798940e-01
1.22034967e+00
1.40140700e+00
2.83541365e+01
2.82870748e+01
2.37953992e+01
2.78091693e+01
2.32329154e+01
3.01428690e+01
2.88531301e+01
3.01061645e+01
2.30416527e+01
2.55887816e+01
3.00025499e+01
3.33706391e+01
2.34984579e+01
2.52974393e+01
2.74492970e+01
2.93338634e+01
2.17499471e+01
2.82396643e+01
2.34177086e+01
2.47374852e+01
1.72692330e+01
3.22507043e+01
1.62321472e+01
2.61765176e+01
1.58164024e+01
2.62590213e+01
1.80175581e+01
2.62546697e+01
2.75252106e+01
2.68739486e+01
3.84515343e+01
2.94689054e+01
4.69646966e+01
4.03590782e+01
1.25669888e+02
4.56250766e+01
9.15069942e+01
7.70797920e+01
7.14683046e+01
8.48937225e+01
6.41459007e+01
8.44262924e+01
2.64199758e+01
3.01028771e+01
4.33322446e+01
2.53476198e+01
1.56714890e+02
6.89112041e+01
1.00826996e+02
3.13985532e+01
2.75652749e+01
1.84153547e+01
2.94990074e+01
3.01372910e+01
2.32622929e+01
3.11251346e+01
4.01127172e+01
9.67848501e+01
1.57613937e+02
6.36783897e+01
4.07975979e+01
4.72157583e+01
4.64581223e+01
7.41885471e+01
1.37269985e+02
4.74165878e+01
2.64258957e+01
3.11057301e+01
3.10952575e+01
3.37499471e+01
3.66730275e+01
3.81010296e+01
3.77893295e+01
4.50122395e+01
3.56439452e+01
3.23539562e+01
2.40092022e+01
2.55891478e+01
2.86000829e+01
4.42047982e+01
5.19547093e+01
5.68643389e+01
4.58958402e+01
4.31292436e+01
4.47538552e+01
5.53297342e+01
6.21744817e+01
6.74577236e+01
6.82461891e+01
5.23825572e+01
4.07743530e+01
6.44679184e+01
2.30103424e+01
6.13415656e+01
4.68428599e+01
2.05793152e+02
7.93062852e+01
4.64119630e+01
2.17462783e+01
2.15505829e+01
7.90083942e+01
5.45349779e+01
7.41763473e+01
3.95390704e+01
5.04344940e+01
2.19786263e+01
2.95577435e+01
2.42869186e+01
4.57721376e+00
2.24387121e+00
3.66291571e+00
5.14290714e+00
1.44605733e+01
7.79862181e+00
5.66753125e+00
1.93698146e+01
3.06732998e+01
3.24749317e+01
3.06868305e+01
3.26202621e+01
3.99971294e+01
3.88303895e+01
4.33906279e+01
5.52779360e+01
4.33624811e+01
5.14487934e+01
4.01537113e+01
3.49577770e+01
5.76667252e+01
5.21411591e+01
5.24559708e+01
4.56089268e+01
5.07030411e+01
4.70607510e+01
2.71064734e+01
2.41035378e+01
3.48655624e+01
1.56058105e+02
1.58846008e+02
3.80216058e+01
2.37162118e+01
1.66911263e+01
2.61564794e+01
2.06875916e+01
2.80070801e+01
2.65960932e+01
7.47801285e+01
2.01253223e+01
5.56082993e+01
2.73697325e+01
2.21507657e+01
2.58401215e+01
2.05944333e+01
2.05702505e+01
2.21997700e+01
1.40464172e+02
1.99324112e+02
6.43070285e+01
4.29016762e+01
1.44180182e+01
2.55988897e+01
1.16124392e+01
2.75623522e+01
1.10094900e+01
3.65737848e+01
4.78891754e+01
3.96145535e+01
2.34074993e+01
1.74008656e+01
1.72987375e+01
5.70900869e+00
</DataArray>
<DataArray type="Float32" Name="Stress_Third_Invariant" format="ascii">
-1.06872349e+01
-2.05030416e+01
-3.94024897e+01
-3.35268226e+01
-1.08217316e+01
-2.22867821e+00
-2.63922136e+01
-1.87709138e+01
-5.98924580e+01
-1.31951912e+02
-1.14797945e+02
-9.91683941e+01
1.44033939e+00
1.09276366e+00
-1.09847844e-01
2.52808261e+00
5.10070086e-01
5.92595279e-01
-5.08925617e-01
7.35982537e-01
-2.79489927e+01
-2.74852042e+01
-2.19700455e+01
-2.68476944e+01
-2.26866903e+01
-2.97956157e+01
-2.50573333e+01
-2.92387908e+01
-2.19637914e+01
-2.27118995e+01
-2.98061194e+01
-3.06208996e+01
-2.28367841e+01
-1.75555391e+01
-2.64269979e+01
-2.56136764e+01
-2.02538994e+01
-2.42329104e+01
-2.24097142e+01
-1.28885740e+01
-1.63342360e+01
-1.98025739e+01
-1.04066296e+01
-2.09679280e+01
-1.53788972e+01
-1.07626855e+01
-7.59598494e+00
-1.64595053e+01
-2.49221143e+01
-2.29825202e+01
-3.63289039e+01
-2.89268573e+01
-1.45336823e+01
-3.69434054e+01
-1.17118398e+02
-1.49723586e+01
-8.83155460e+01
-7.36398693e+01
-6.77112341e+01
-8.14863968e+01
-5.73288441e+01
-7.51888046e+01
-2.37123101e+01
-1.43185738e+01
-4.19680125e+01
-2.43238775e+01
-1.43154942e+02
-5.49544464e+01
9.17500076e+01
-1.79973043e+01
-1.78743907e+00
-1.34959468e+01
-1.57271065e+00
-2.09888544e+01
-1.30338960e+01
-4.48231305e+00
-2.53949935e+01
-9.05115061e+01
-1.50533318e+02
-3.09329014e+01
-2.38903551e+01
-2.95647256e+01
-2.39170475e+01
-4.69019055e+01
-1.02777676e+02
-2.47455190e+01
-2.50325069e+01
-3.03618240e+01
-2.98028474e+01
-3.18939705e+01
-3.53774242e+01
-3.61938492e+01
-3.68169994e+01
-4.09870313e+01
-3.36938064e+01
-2.94651690e+01
-2.25215743e+01
-1.82902589e+01
-2.56352220e+01
-3.11119866e+01
-3.90985393e+01
-3.43587179e+01
-3.92485076e+01
-1.90268959e+01
-1.17971750e+01
-3.49370966e+01
-3.52233232e+01
-6.16911354e+01
-6.54635264e+01
-1.48845731e+01
8.71605555e+00
6.28643646e+01
5.11591225e+00
-5.49488208e+01
-2.88067671e+01
-1.58451309e+02
-6.60232725e+01
-4.37294172e+01
-7.28963995e+00
-1.84488456e+01
-7.02714443e+01
-4.40064449e+01
-3.60108101e+01
-7.95607400e+00
4.54492950e+01
1.76041470e+01
2.17041669e+01
-4.17034785e+00
3.98080754e+00
-8.29422295e-01
2.81662369e+00
4.51041794e+00
5.53732948e+00
-3.75623886e+00
-5.19816494e+00
-1.59243608e+01
-2.88852482e+01
-3.15155258e+01
-2.90496980e+01
-3.04647741e+01
-3.85157471e+01
-3.62668498e+01
-4.05497952e+01
-4.87623987e+01
-3.93042698e+01
-4.50309863e+01
-3.59924393e+01
-2.77102947e+01
-4.83477440e+01
-4.06323395e+01
-2.91652889e+01
-3.25610285e+01
-3.73008413e+01
-1.66751232e+01
-3.67958248e+00
-1.08390985e+01
-5.14570236e+00
-1.45094467e+02
-1.56138351e+02
1.39697431e+01
-1.75430673e+00
8.72144556e+00
1.37497013e+01
4.85357845e+00
-1.66318564e+01
-2.08225412e+01
4.90219822e+01
1.42786264e+01
-4.40665207e+01
1.91469118e+01
5.82356819e+00
6.68975580e+00
-1.44069147e+01
-1.72792034e+01
-1.73169918e+01
-1.17405296e+02
-1.88665665e+02
-2.46890945e+01
-2.31357360e+01
-6.35898709e+00
2.80365181e+00
6.71355367e+00
-2.11112658e+01
-6.99892044e+00
-3.24559374e+01
-3.82235355e+01
-1.95970421e+01
1.63494501e+01
2.11245155e+00
-1.49373951e+01
-5.15860415e+00
</DataArray>
<DataArray type="Float32" Name="Logarithmic_strain_Max_Principal" format="ascii">
4.56815101e-02
5.31888395e-02
6.07720027e-02
4.61436901e-02
5.05636297e-02
6.57785593e-02
8.84013474e-02
6.01147981e-02
6.18960205e-02
7.26314560e-02
9.80369498e-02
1.03464328e-01
2.39289511e-05
1.83119782e-05
2.74066924e-05
4.40447820e-05
1.32513806e-05
1.11617655e-05
1.49986927e-05
1.75405858e-05
5.65518029e-02
5.81539553e-02
6.11337065e-02
5.87083474e-02
6.84026852e-02
6.62594996e-02
6.79244418e-02
6.97393343e-02
6.21249769e-02
6.48303465e-02
6.24801656e-02
6.52909107e-02
6.33319682e-02
6.75132098e-02
6.19407762e-02
6.25145049e-02
6.65754322e-02
7.10966885e-02
5.93326483e-02
6.21076589e-02
6.44683782e-02
6.77368334e-02
5.30291274e-02
6.14573685e-02
6.25278316e-02
6.82524731e-02
5.53650297e-02
6.32401882e-02
6.93209125e-02
6.77464288e-02
7.28930365e-02
6.91175181e-02
6.40169797e-02
7.20908530e-02
8.61346915e-02
6.62368424e-02
8.25021639e-02
6.87569939e-02
7.98618663e-02
7.13089798e-02
8.17781426e-02
7.37926997e-02
6.79017082e-02
6.13275273e-02
8.01162517e-02
6.94734231e-02
9.56549197e-02
9.14950803e-02
1.50960162e-01
5.98098648e-02
4.98013736e-02
5.26094707e-02
7.18863606e-02
7.25861574e-02
5.07344203e-02
7.97365824e-02
8.37149201e-02
6.76344149e-02
9.59171690e-02
9.45600554e-02
5.56856077e-02
8.06783345e-02
8.56207311e-02
1.11950012e-01
1.08531661e-01
1.04653421e-01
8.32053982e-02
7.75231943e-02
8.29218328e-02
8.71835873e-02
7.06649218e-02
7.65422136e-02
6.69429433e-02
7.03436546e-02
6.25263816e-02
6.28471170e-02
5.95901711e-02
5.66177214e-02
6.28421064e-02
6.04884643e-02
9.55905141e-02
9.62038226e-02
8.18925910e-02
6.44946354e-02
5.31351556e-02
5.01883598e-02
5.19628959e-02
1.04911458e-01
1.04664527e-01
8.85426775e-02
5.44744916e-02
8.88411254e-02
2.41643180e-02
1.13755034e-01
1.19849180e-01
1.21221114e-01
1.14749932e-01
1.13289844e-01
1.12260735e-01
9.85072181e-02
1.12741893e-01
1.25850864e-01
9.12876334e-02
8.87664817e-02
1.51271597e-01
7.49329999e-02
5.48261771e-02
4.26396734e-02
6.41387742e-05
2.48280430e-05
4.83463555e-05
7.28132145e-05
1.99940069e-04
6.61125814e-05
4.14290698e-05
2.60084026e-04
8.85467306e-02
8.18410888e-02
9.03038532e-02
9.54887941e-02
7.38598965e-02
8.09220690e-02
7.52789974e-02
7.59691224e-02
7.23440237e-02
6.95241950e-02
6.85576908e-02
6.57024989e-02
7.63115883e-02
6.87711779e-02
1.03387550e-01
1.05692938e-01
9.14943814e-02
6.71523102e-02
4.58792299e-02
3.99106629e-02
3.91794033e-02
1.12915710e-01
1.17510110e-01
8.64102691e-02
3.69951932e-02
9.64581786e-03
1.76093809e-02
7.16899619e-03
1.71756994e-02
8.87361309e-03
6.42194273e-02
1.70554435e-02
8.19115788e-02
3.50622189e-03
2.69032125e-03
5.41100768e-04
2.86313785e-04
7.83265474e-04
9.18013720e-04
1.74769759e-01
1.55692905e-01
1.28554657e-01
1.50062256e-01
1.49451360e-04
1.62555328e-02
1.21524045e-04
1.32327724e-01
1.27100781e-01
1.13010898e-01
1.32794075e-01
6.33680634e-02
8.10602605e-02
2.14560038e-02
2.82602792e-04
3.54913282e-05
</DataArray>
<DataArray type="Float32" Name="Logarithmic_strain_Min_Principal" format="ascii">
-6.17673923e-02
-6.88371789e-02
-8.68977532e-02
-7.33333845e-02
-7.36783277e-02
-8.71469666e-02
-1.09673621e-01
-8.36101715e-02
-9.76202935e-02
-1.25106215e-01
-1.36994024e-01
-1.41827926e-01
-2.22797707e-05
-1.55667690e-05
-3.01612308e-05
-3.59405067e-05
-9.98014730e-06
-5.89428100e-06
-1.35140690e-05
-1.52395651e-05
-9.30068493e-02
-9.30069387e-02
-9.18675493e-02
-9.30040628e-02
-1.02065589e-01
-1.03133941e-01
-1.04724085e-01
-1.06298862e-01
-9.10914429e-02
-9.49290330e-02
-1.00415260e-01
-1.03469854e-01
-9.18739289e-02
-9.79553061e-02
-9.45293941e-02
-9.70982760e-02
-9.25938822e-02
-1.04921462e-01
-8.84492192e-02
-9.01519367e-02
-9.19973943e-02
-1.03676835e-01
-8.19153059e-02
-9.19640567e-02
-9.11714323e-02
-1.00531204e-01
-7.96234347e-02
-9.01655108e-02
-9.47950073e-02
-9.02245957e-02
-1.15251182e-01
-1.11519990e-01
-1.04221235e-01
-1.09921802e-01
-1.37745798e-01
-9.91761865e-02
-1.32514488e-01
-1.06843838e-01
-1.26677034e-01
-1.14946309e-01
-1.23171646e-01
-1.13725867e-01
-8.99606698e-02
-8.26388784e-02
-1.22788088e-01
-1.11784283e-01
-1.35636324e-01
-1.33987004e-01
-1.31862715e-01
-6.94570492e-02
-7.28235213e-02
-7.37585127e-02
-1.04906147e-01
-1.06207212e-01
-7.40410797e-02
-1.12221666e-01
-1.11350786e-01
-1.02528304e-01
-1.50736149e-01
-1.26704815e-01
-8.02224986e-02
-1.07748844e-01
-1.18483569e-01
-1.41563050e-01
-1.44492281e-01
-1.21457358e-01
-1.14943337e-01
-1.14476217e-01
-1.17969704e-01
-1.20906828e-01
-1.10376831e-01
-1.11048962e-01
-1.02959191e-01
-1.00921373e-01
-9.40671749e-02
-8.94326251e-02
-8.56126882e-02
-8.23153509e-02
-8.48695152e-02
-8.44096784e-02
-1.28075947e-01
-1.35486964e-01
-1.10229352e-01
-8.27172445e-02
-6.95354337e-02
-6.39563942e-02
-6.50337661e-02
-1.43849355e-01
-1.46666969e-01
-1.10246281e-01
-5.14265209e-02
-8.73335004e-02
-1.56498350e-02
-1.69581544e-01
-1.70604179e-01
-1.54434763e-01
-1.71211963e-01
-1.67275928e-01
-1.60300314e-01
-1.55167617e-01
-1.66350696e-01
-1.58321459e-01
-1.08717149e-01
-9.74371321e-02
-8.27401429e-02
-5.42601645e-02
-3.33772901e-02
-4.39841944e-02
-4.64068253e-05
-2.97084407e-05
-3.95335010e-05
-5.09311431e-05
-1.51209836e-04
-1.21594939e-04
-9.39943020e-05
-3.56942163e-04
-1.21685185e-01
-1.20012254e-01
-1.21135425e-01
-1.25566840e-01
-1.15003921e-01
-1.13242991e-01
-1.06488686e-01
-1.04382053e-01
-9.79520194e-02
-9.32398438e-02
-9.22314487e-02
-8.22461136e-02
-9.42323729e-02
-8.34097452e-02
-1.38134927e-01
-1.49830706e-01
-1.09131588e-01
-7.94872735e-02
-5.43484697e-02
-4.24191756e-02
-4.04669344e-02
-1.84213102e-01
-1.99924171e-01
-1.02956514e-01
-2.94148037e-02
-3.35597187e-03
-1.08936054e-02
-2.98603598e-03
-1.51776636e-02
-8.15986388e-03
-4.37626820e-02
-8.77138367e-03
-1.19525127e-01
-2.96171672e-03
-3.21506903e-03
-3.22004358e-04
-2.23814497e-04
-1.00364852e-03
-1.48724520e-03
-2.51996487e-01
-2.65349567e-01
-1.88580861e-01
-1.99816480e-01
-1.37676318e-04
-8.52826114e-03
-1.56935799e-04
-1.72646903e-01
-1.62305817e-01
-1.66936979e-01
-1.62977584e-01
-6.70059510e-02
-7.58643579e-02
-2.41596353e-02
-4.50993910e-04
-1.01167629e-04
</DataArray>
<DataArray type="Float32" Name="Plastic_strain_Max_Principal" format="ascii">
4.53865919e-02
5.39019355e-02
5.15299984e-02
4.62527750e-02
5.82842510e-02
6.40173640e-02
9.82466973e-02
7.20279273e-02
6.74659014e-02
7.89598152e-02
1.15344224e-01
9.84929167e-02
0.00000000e+00
0.00000000e+00
0.00000000e+00
0.00000000e+00
0.00000000e+00
0.00000000e+00
0.00000000e+00
0.00000000e+00
5.65340817e-02
5.79214506e-02
6.10093996e-02
5.84223978e-02
6.81604296e-02
6.61450559e-02
6.77092643e-02
6.95872828e-02
6.18763920e-02
6.45833849e-02
6.22400884e-02
6.52548275e-02
6.31884346e-02
6.18727037e-02
6.16940707e-02
6.22394732e-02
6.61593229e-02
7.25827282e-02
5.91901615e-02
5.90966968e-02
6.39543636e-02
6.71792086e-02
5.26999468e-02
6.16608765e-02
6.20279163e-02
6.75797062e-02
5.50412927e-02
6.25370331e-02
6.86632930e-02
6.76527098e-02
7.29947016e-02
6.89815525e-02
6.47110077e-02
7.19327675e-02
8.99647534e-02
7.05276494e-02
8.26767348e-02
7.07025804e-02
8.11146479e-02
7.20591787e-02
8.25082697e-02
7.45656043e-02
6.99467664e-02
6.03991384e-02
8.28445394e-02
6.93011535e-02
9.73122083e-02
9.30002615e-02
1.37332216e-01
9.12888994e-02
4.52053684e-02
5.51740266e-02
7.62287776e-02
6.30999971e-02
5.40333632e-02
9.54571233e-02
6.85731838e-02
7.03580165e-02
1.11857586e-01
9.65621367e-02
5.36354743e-02
6.96492512e-02
7.80313164e-02
1.17089208e-01
1.08736448e-01
1.04127146e-01
8.29350874e-02
7.74148759e-02
8.26690597e-02
8.70803595e-02
7.05897324e-02
7.64587130e-02
6.68088328e-02
6.99925432e-02
6.24399539e-02
6.40040077e-02
5.94956242e-02
5.80976047e-02
6.27741590e-02
6.03277599e-02
9.46554113e-02
8.79032258e-02
7.51745214e-02
6.33552650e-02
5.03909616e-02
4.10059245e-02
5.07817368e-02
1.12612989e-01
1.08535424e-01
8.75145886e-02
2.73775690e-02
7.65713155e-02
2.51458708e-02
1.38064098e-01
1.39846315e-01
1.23931803e-01
1.01844609e-01
9.79219275e-02
1.21118529e-01
9.87478383e-02
1.21725621e-01
1.27731021e-01
7.80189130e-02
7.05299270e-02
3.66414301e-02
2.94442568e-02
6.38288686e-02
3.66941341e-02
0.00000000e+00
0.00000000e+00
0.00000000e+00
0.00000000e+00
3.45070977e-05
0.00000000e+00
0.00000000e+00
6.84109643e-05
8.83734301e-02
8.16468447e-02
9.02165938e-02
9.53676626e-02
7.38197938e-02
8.08433499e-02
7.51865953e-02
7.51551650e-02
7.21781440e-02
7.35371765e-02
6.84260130e-02
7.24977870e-02
7.60671422e-02
7.51027502e-02
9.89241507e-02
1.18080277e-01
7.39490567e-02
6.76214378e-02
3.85096488e-02
2.42894534e-02
2.53942255e-02
1.15725894e-01
1.13601968e-01
1.11199975e-01
2.30904496e-02
9.37338380e-03
1.81804934e-02
6.59111756e-03
1.80451257e-02
4.81883704e-03
4.13905112e-02
3.11583169e-02
9.11495388e-02
2.98601386e-03
2.61192385e-03
1.98118125e-04
1.56797153e-04
5.76675578e-04
7.18182768e-04
1.61971509e-01
1.62213713e-01
1.29051037e-01
1.73945174e-01
5.85494702e-05
5.79214623e-03
0.00000000e+00
1.30036891e-01
1.26542762e-01
1.25105340e-01
1.44758232e-01
5.60866557e-02
5.37201967e-02
1.04917348e-02
1.32016678e-04
0.00000000e+00
</DataArray>
<DataArray type="Float32" Name="Plastic_strain_Min_Principal" format="ascii">
-6.20416137e-02
-6.47483318e-02
-7.04835821e-02
-7.27454014e-02
-6.47545529e-02
-7.50932901e-02
-1.29470075e-01
-1.05454231e-01
-1.03381924e-01
-1.28881827e-01
-1.63321103e-01
-1.23940565e-01
0.00000000e+00
0.00000000e+00
0.00000000e+00
0.00000000e+00
0.00000000e+00
0.00000000e+00
0.00000000e+00
0.00000000e+00
-9.28035714e-02
-9.24129523e-02
-9.19379741e-02
-9.23439432e-02
-1.01901878e-01
-1.02602066e-01
-1.04414696e-01
-1.05783939e-01
-9.09569599e-02
-9.46958289e-02
-9.95806754e-02
-1.02908956e-01
-9.19017270e-02
-8.79802110e-02
-9.40549467e-02
-9.67008667e-02
-9.23000798e-02
-1.08020324e-01
-8.84503406e-02
-8.57407614e-02
-9.17145424e-02
-1.03158026e-01
-8.23719762e-02
-9.26667582e-02
-9.09638256e-02
-1.00402212e-01
-8.02817643e-02
-8.95772409e-02
-9.37950592e-02
-9.02983602e-02
-1.14399395e-01
-1.11037619e-01
-1.03922737e-01
-1.07028743e-01
-1.35965417e-01
-1.05229074e-01
-1.27230156e-01
-1.07708558e-01
-1.25581482e-01
-1.11620162e-01
-1.21908039e-01
-1.11197926e-01
-9.39002814e-02
-8.17147158e-02
-1.27494342e-01
-1.11414559e-01
-1.32209014e-01
-1.32675345e-01
-1.61955059e-01
-9.01101480e-02
-6.58070339e-02
-7.91574009e-02
-8.19560165e-02
-7.90592146e-02
-8.05865601e-02
-1.43441544e-01
-8.34585647e-02
-1.02543125e-01
-1.71842381e-01
-1.26794115e-01
-7.69142509e-02
-6.61056853e-02
-1.07087519e-01
-1.48074357e-01
-1.44175393e-01
-1.23794302e-01
-1.14606634e-01
-1.13994159e-01
-1.17212567e-01
-1.20300259e-01
-1.09480580e-01
-1.09973333e-01
-1.01765040e-01
-9.91787855e-02
-9.32311453e-02
-9.07862345e-02
-8.55353288e-02
-8.49747863e-02
-8.45188200e-02
-8.39702040e-02
-1.19170331e-01
-1.18867133e-01
-9.79915551e-02
-8.06199405e-02
-6.52235374e-02
-5.14361700e-02
-6.33090424e-02
-1.52347518e-01
-1.50135808e-01
-1.06695880e-01
-2.15346203e-02
-8.80490243e-02
-1.33110573e-02
-2.10573904e-01
-2.03829661e-01
-1.47555396e-01
-1.34818847e-01
-1.32270096e-01
-1.79579362e-01
-1.56237833e-01
-1.73612852e-01
-1.57838862e-01
-8.83321471e-02
-7.39271921e-02
-3.13078389e-02
-1.42487213e-02
-3.74299459e-02
-3.48041447e-02
0.00000000e+00
0.00000000e+00
0.00000000e+00
0.00000000e+00
-5.26663138e-05
0.00000000e+00
0.00000000e+00
-9.15982237e-05
-1.21228501e-01
-1.19258959e-01
-1.20792523e-01
-1.25060502e-01
-1.13884434e-01
-1.12229398e-01
-1.05159987e-01
-1.01254843e-01
-9.65261832e-02
-9.72611830e-02
-9.10668261e-02
-9.00055096e-02
-9.19754282e-02
-9.08803679e-02
-1.27043858e-01
-1.71821147e-01
-8.23608591e-02
-8.00062455e-02
-4.31912590e-02
-2.27667092e-02
-2.12699804e-02
-1.77304789e-01
-1.78400457e-01
-1.35071265e-01
-1.59661409e-02
-4.95233078e-03
-1.19969274e-02
-3.71063626e-03
-1.60404615e-02
-4.82341961e-03
-2.93475650e-02
-1.94738898e-02
-1.30038857e-01
-2.92846589e-03
-3.28946844e-03
-1.49213921e-04
-1.58386813e-04
-7.20716198e-04
-1.15869753e-03
-2.16211438e-01
-2.55962193e-01
-1.88509479e-01
-2.36618720e-01
-4.43834745e-05
-3.18319413e-03
0.00000000e+00
-1.67405598e-01
-1.62500247e-01
-1.84153810e-01
-1.77761100e-01
-4.50278213e-02
-3.59966452e-02
-6.08910155e-03
-2.00401322e-04
0.00000000e+00
</DataArray>
</PointData>
<Cells>
<DataArray type="Int32" Name="connectivity" format="ascii">
0 1 2 3 4 5 6 7
1 8 9 2 5 10 11 6
12 13 14 15 16 17 18 19
20 21 22 23 24 25 26 27
21 28 29 22 25 30 31 26
28 32 33 29 30 34 35 31
32 36 37 33 34 38 39 35
36 40 41 37 38 42 43 39
40 44 45 41 42 46 47 43
23 22 48 49 27 26 50 51
22 29 52 48 26 31 53 50
29 33 54 52 31 35 55 53
33 37 56 54 35 39 57 55
37 41 58 56 39 43 59 57
41 45 60 58 43 47 61 59
49 48 62 63 51 50 64 65
48 52 66 62 50 53 67 64
52 54 68 66 53 55 69 67
63 62 70 71 65 64 72 73
71 70 4 74 73 72 75 76
70 77 5 4 72 78 79 75
74 4 7 80 76 75 81 82
4 5 6 7 75 79 83 81
5 10 11 6 79 84 85 83
24 25 26 27 86 87 88 89
25 30 31 26 87 90 91 88
30 34 35 31 90 92 93 91
34 38 39 35 92 94 95 93
38 42 43 39 94 96 97 95
42 46 47 43 96 98 99 97
27 26 50 51 89 88 100 101
26 31 53 50 88 91 102 100
31 35 55 53 91 93 103 102
35 39 57 55 93 95 104 103
39 43 59 57 95 97 105 104
43 47 61 59 97 99 106 105
51 50 64 65 101 100 107 108
50 53 67 64 100 102 109 107
53 55 69 67 102 103 110 109
55 57 111 69 103 104 112 110
65 64 72 73 108 107 113 114
64 67 78 72 107 109 115 113
73 72 75 76 114 113 116 117
76 75 81 82 117 116 118 119
75 79 83 81 116 120 121 118
79 84 85 83 120 122 123 121
84 124 125 85 122 126 127 123
128 129 130 131 132 133 134 135
86 87 88 89 136 137 138 139
87 90 91 88 137 140 141 138
90 92 93 91 140 142 143 141
92 94 95 93 142 144 145 143
94 96 97 95 144 146 147 145
96 98 99 97 146 148 149 147
89 88 100 101 139 138 150 151
88 91 102 100 138 141 152 150
91 93 103 102 141 143 153 152
93 95 104 103 143 145 154 153
95 97 105 104 145 147 155 154
97 99 106 105 147 149 156 155
101 100 107 108 151 150 157 158
100 102 109 107 150 152 159 157
102 103 110 109 152 153 160 159
103 104 112 110 153 154 161 160
104 105 162 112 154 155 163 161
105 106 164 162 155 156 165 163
109 110 166 115 159 160 167 168
110 112 169 166 160 161 170 167
112 162 171 169 161 163 172 170
162 164 173 171 163 165 174 172
114 113 116 117 175 176 177 178
169 171 132 126 170 172 179 180
171 173 133 132 172 174 181 179
117 116 118 119 178 177 182 183
116 120 121 118 177 184 185 182
120 122 123 121 184 186 187 185
122 126 127 123 186 180 188 187
126 132 135 127 180 179 189 188
132 133 134 135 179 181 190 189
</DataArray>
<DataArray type="Int32" Name="offsets" format="ascii">
8
16
24
32
40
48
56
64
72
80
88
96
104
112
120
128
136
144
152
160
168
176
184
192
200
208
216
224
232
240
248
256
264
272
280
288
296
304
312
320
328
336
344
352
360
368
376
384
392
400
408
416
424
432
440
448
456
464
472
480
488
496
504
512
520
528
536
544
552
560
568
576
584
592
600
608
616
624
632
</DataArray>
<DataArray type="UInt8" Name="types" format="ascii">
12
12
12
12
12
12
12
12
12
12
12
12
12
12
12
12
12
12
12
12
12
12
12
12
12
12
12
12
12
12
12
12
12
12
12
12
12
12
12
12
12
12
12
12
12
12
12
12
12
12
12
12
12
12
12
12
12
12
12
12
12
12
12
12
12
12
12
12
12
12
12
12
12
12
12
12
12
12
12
</DataArray>
</Cells>
</Piece>
</UnstructuredGrid>
</VTKFile>
