<VTKFile type="UnstructuredGrid" version="0.1" byte_order="LittleEndian">
<UnstructuredGrid>
<Piece NumberOfPoints="191" NumberOfCells="79">
<Points>
<DataArray type="Float64" NumberOfComponents="3" format="ascii">
 1.04659331e+00  5.25451231e+00  1.87479019e+00
 2.07749510e+00  5.24158859e+00  1.89753032e+00
 2.07926583e+00  6.30586958e+00  1.85209262e+00
 1.04118764e+00  6.29937887e+00  1.84322202e+00
 1.03784394e+00  5.29337883e+00  2.80807543e+00
 2.08284855e+00  5.28853559e+00  2.81929922e+00
 2.06970263e+00  6.37075281e+00  2.76351237e+00
 1.04139614e+00  6.33768463e+00  2.77016091e+00
 3.13110828e+00  5.22338009e+00  1.92099512e+00
 3.14229536e+00  6.29200935e+00  1.85554719e+00
 3.12531352e+00  5.27957392e+00  2.79622316e+00
 3.18114853e+00  6.34322071e+00  2.71188116e+00
 5.13880968e+00  5.20913124e+00  2.00003386e+00
 6.13881063e+00  5.21042156e+00  2.00003195e+00
 6.13751841e+00  6.21042967e+00  1.99998271e+00
 5.13749075e+00  6.20914555e+00  1.99996555e+00
 5.13879728e+00  5.20919418e+00  3.00002050e+00
 6.13879108e+00  5.21049261e+00  3.00004053e+00
 6.13749361e+00  6.21048355e+00  2.99997330e+00
 5.13750887e+00  6.20918322e+00  2.99997449e+00
 0.00000000e+00  0.00000000e+00  2.71879816e+00
 1.05354130e+00  0.00000000e+00  2.71681404e+00
 1.05682349e+00  1.05885196e+00  2.72268867e+00
 0.00000000e+00  1.05658436e+00  2.72795630e+00
 0.00000000e+00  0.00000000e+00  3.62303829e+00
 1.07190537e+00  0.00000000e+00  3.62391520e+00
 1.07391858e+00  1.05896068e+00  3.62550259e+00
 0.00000000e+00  1.05516267e+00  3.63431001e+00
 2.11890793e+00  0.00000000e+00  2.70236468e+00
 2.10629749e+00  1.05068696e+00  2.71146321e+00
 2.13925648e+00  0.00000000e+00  3.61344886e+00
 2.14232922e+00  1.06232917e+00  3.61310863e+00
 3.17690086e+00  0.00000000e+00  2.68649006e+00
 3.17810154e+00  1.04600620e+00  2.69043779e+00
 3.20778465e+00  0.00000000e+00  3.59630132e+00
 3.20059991e+00  1.05464184e+00  3.59818864e+00
 4.24672365e+00  0.00000000e+00  2.67285252e+00
 4.24975443e+00  1.04771543e+00  2.66785669e+00
 4.26825523e+00  0.00000000e+00  3.58391500e+00
 4.26488018e+00  1.04581594e+00  3.57711530e+00
 5.32051945e+00  0.00000000e+00  2.65615773e+00
 5.32084322e+00  1.05062079e+00  2.65844131e+00
 5.32710028e+00  0.00000000e+00  3.57483268e+00
 5.32605267e+00  1.04502034e+00  3.56280041e+00
 6.38886738e+00  0.00000000e+00  2.65095711e+00
 6.38823843e+00  1.05166793e+00  2.65245271e+00
 6.37478971e+00  0.00000000e+00  3.57130027e+00
 6.39004803e+00  1.04578137e+00  3.56300020e+00
 1.04038584e+00  2.11139679e+00  2.74416614e+00
 0.00000000e+00  2.12657619e+00  2.74763322e+00
 1.07369781e+00  2.11885381e+00  3.64907503e+00
 0.00000000e+00  2.11882734e+00  3.65067697e+00
 2.10641670e+00  2.11367249e+00  2.72236466e+00
 2.15233779e+00  2.12634563e+00  3.62152386e+00
 3.16733027e+00  2.12023735e+00  2.67890692e+00
 3.21104622e+00  2.11971450e+00  3.56452131e+00
 4.24456692e+00  2.13273549e+00  2.66760468e+00
 4.25392675e+00  2.10490417e+00  3.54574776e+00
 5.31449556e+00  2.12531543e+00  2.67016673e+00
 5.32021141e+00  2.11754370e+00  3.54653692e+00
 6.37452793e+00  2.13372469e+00  2.66458178e+00
 6.37758493e+00  2.12180686e+00  3.54550958e+00
 1.03638422e+00  3.19050503e+00  2.78925490e+00
 0.00000000e+00  3.18719435e+00  2.78534698e+00
 1.07023084e+00  3.18782854e+00  3.68563676e+00
 0.00000000e+00  3.18663120e+00  3.69512963e+00
 2.09569669e+00  3.16738248e+00  2.75776505e+00
 2.17065620e+00  3.19252706e+00  3.61126399e+00
 3.07470012e+00  3.14176893e+00  2.44238949e+00
 3.24028206e+00  3.17169905e+00  3.48799896e+00
 1.03696311e+00  4.23612165e+00  2.82271338e+00
 0.00000000e+00  4.24484491e+00  2.81479168e+00
 1.05696166e+00  4.25931644e+00  3.75102663e+00
 0.00000000e+00  4.26759005e+00  3.72804809e+00
 0.00000000e+00  5.28684139e+00  2.80361533e+00
 1.05054557e+00  5.33990669e+00  3.72876215e+00
 0.00000000e+00  5.31866503e+00  3.71441317e+00
 2.08604956e+00  4.23667908e+00  2.85834646e+00
 2.12681890e+00  4.27329016e+00  3.72642541e+00
 2.12154460e+00  5.31700420e+00  3.73430777e+00
 0.00000000e+00  6.34222460e+00  2.75855231e+00
 1.07109845e+00  6.39879560e+00  3.65552521e+00
 0.00000000e+00  6.41636658e+00  3.67515993e+00
 2.12107754e+00  6.42208910e+00  3.65895367e+00
 3.15991664e+00  5.29408884e+00  3.60325980e+00
 3.25251269e+00  6.33397388e+00  3.60607195e+00
 0.00000000e+00  0.00000000e+00  4.51851368e+00
 1.08904433e+00  0.00000000e+00  4.51573181e+00
 1.09293604e+00  1.06098127e+00  4.51890659e+00
 0.00000000e+00  1.05674839e+00  4.52213097e+00
 2.16293454e+00  0.00000000e+00  4.51086378e+00
 2.17382932e+00  1.07060051e+00  4.50946045e+00
 3.22599816e+00  0.00000000e+00  4.50203037e+00
 3.23270535e+00  1.07285357e+00  4.50142384e+00
 4.28404140e+00  0.00000000e+00  4.49321604e+00
 4.27684593e+00  1.06591296e+00  4.49282312e+00
 5.33085966e+00  0.00000000e+00  4.48894596e+00
 5.32378244e+00  1.05974257e+00  4.48444414e+00
 6.36880255e+00  0.00000000e+00  4.48596144e+00
 6.37050200e+00  1.06517315e+00  4.48739815e+00
 1.10590565e+00  2.12889433e+00  4.52604961e+00
 0.00000000e+00  2.11794853e+00  4.53374577e+00
 2.19352865e+00  2.14206314e+00  4.50873947e+00
 3.25074816e+00  2.14363122e+00  4.48118067e+00
 4.28414631e+00  2.12917495e+00  4.45812035e+00
 5.30848789e+00  2.11106086e+00  4.44522572e+00
 6.33895588e+00  2.11883998e+00  4.44528866e+00
 1.10770047e+00  3.17929769e+00  4.56490517e+00
 0.00000000e+00  3.19904065e+00  4.58048630e+00
 2.21626687e+00  3.18660688e+00  4.50181580e+00
 3.28999496e+00  3.17916250e+00  4.42514992e+00
 4.27389956e+00  3.07739210e+00  3.35400915e+00
 4.30785608e+00  3.16101766e+00  4.40174961e+00
 1.11370361e+00  4.25412464e+00  4.64440823e+00
 0.00000000e+00  4.24019241e+00  4.60138416e+00
 2.22803640e+00  4.23425579e+00  4.54403257e+00
 1.09380555e+00  5.37345600e+00  4.57339239e+00
 0.00000000e+00  5.38232946e+00  4.57396412e+00
 1.11402667e+00  6.48690414e+00  4.53849316e+00
 0.00000000e+00  6.48049927e+00  4.55298519e+00
 2.17336679e+00  5.34445000e+00  4.58094883e+00
 2.26157093e+00  6.42503071e+00  4.54938602e+00
 3.26617742e+00  5.25020361e+00  4.45540285e+00
 3.37542391e+00  6.28151560e+00  4.48696995e+00
 4.06339025e+00  5.22209120e+00  3.27573824e+00
 4.22665548e+00  6.21294451e+00  3.36839557e+00
 4.34343338e+00  5.16097689e+00  4.40046930e+00
 4.36268997e+00  6.16226768e+00  4.40080500e+00
 5.34373903e+00  5.14324951e+00  3.40062594e+00
 6.34356213e+00  5.12530756e+00  3.40060306e+00
 6.36151218e+00  6.12515116e+00  3.40064645e+00
 5.36163473e+00  6.14312840e+00  3.40072060e+00
 5.34370756e+00  5.14322853e+00  4.40062618e+00
 6.34362411e+00  5.12526751e+00  4.40062332e+00
 6.36151457e+00  6.12512255e+00  4.40064049e+00
 5.36176968e+00  6.14297152e+00  4.40071297e+00
 0.00000000e+00  0.00000000e+00  5.40065479e+00
 1.09440315e+00  0.00000000e+00  5.40065479e+00
 1.10176253e+00  1.06526756e+00  5.40065479e+00
 0.00000000e+00  1.05871058e+00  5.40065479e+00
 2.17510152e+00  0.00000000e+00  5.40065479e+00
 2.18238187e+00  1.07580554e+00  5.40065479e+00
 3.23384142e+00  0.00000000e+00  5.40065479e+00
 3.24575663e+00  1.08108354e+00  5.40065479e+00
 4.28688335e+00  0.00000000e+00  5.40065479e+00
 4.28740072e+00  1.08034444e+00  5.40065479e+00
 5.33016253e+00  0.00000000e+00  5.40065479e+00
 5.32554722e+00  1.07506955e+00  5.40065479e+00
 6.37543583e+00  0.00000000e+00  5.40065479e+00
 6.35054350e+00  1.08487666e+00  5.40065479e+00
 1.12260747e+00  2.11834073e+00  5.40065479e+00
 0.00000000e+00  2.11256981e+00  5.40065479e+00
 2.21697474e+00  2.14323401e+00  5.40065479e+00
 3.26594305e+00  2.15570784e+00  5.40065479e+00
 4.29592848e+00  2.14484644e+00  5.40065479e+00
 5.30541325e+00  2.12899590e+00  5.40065479e+00
 6.32605886e+00  2.12994599e+00  5.40065479e+00
 1.13077688e+00  3.22161388e+00  5.40065479e+00
 0.00000000e+00  3.22778273e+00  5.40065479e+00
 2.25118971e+00  3.19539452e+00  5.40065479e+00
 3.30615687e+00  3.19004297e+00  5.40065479e+00
 4.30851698e+00  3.16173697e+00  5.40065479e+00
 5.30820560e+00  3.14261889e+00  4.39994097e+00
 5.30876398e+00  3.14330506e+00  5.40065479e+00
 6.31028986e+00  3.12751460e+00  4.39925146e+00
 6.31054211e+00  3.12929320e+00  5.40065479e+00
 3.32592511e+00  4.18044329e+00  4.38314199e+00
 3.33608699e+00  4.19322348e+00  5.40065479e+00
 2.32262921e+00  4.22448158e+00  5.40065479e+00
 4.32609844e+00  4.16073370e+00  4.40091419e+00
 4.32624722e+00  4.16094065e+00  5.40065479e+00
 5.32586622e+00  4.14344597e+00  4.40060949e+00
 5.32595158e+00  4.14334774e+00  5.40065479e+00
 6.32557583e+00  4.12568092e+00  4.40070581e+00
 6.32548618e+00  4.12553787e+00  5.40065479e+00
 0.00000000e+00  4.20907259e+00  5.40065479e+00
 1.14308274e+00  4.24036694e+00  5.40065479e+00
 1.12813425e+00  5.40234327e+00  5.40065479e+00
 0.00000000e+00  5.42708397e+00  5.40065479e+00
 5.34365177e+00  5.14322710e+00  5.40065479e+00
 4.34382677e+00  5.16105795e+00  5.40065479e+00
 6.34366179e+00  5.12529325e+00  5.40065479e+00
 1.13829994e+00  6.50926113e+00  5.40065479e+00
 0.00000000e+00  6.49782896e+00  5.40065479e+00
 2.21749330e+00  5.35105371e+00  5.40065479e+00
 2.31243682e+00  6.42009211e+00  5.40065479e+00
 3.28485537e+00  5.22802305e+00  5.40065479e+00
 3.39795852e+00  6.26523876e+00  5.40065479e+00
 4.36305666e+00  6.16149759e+00  5.40065479e+00
 5.36178303e+00  6.14291000e+00  5.40065479e+00
 6.36151123e+00  6.12512016e+00  5.40065479e+00
</DataArray>
</Points>
<PointData Tensors="Stress_Components,Plastic_strain_components" Vevtors="Spatial_displacement,Reaction_force" Scalars="Equivalent_plastic_strain,Stress_Mises,Stress_Max_Principal,Stress_Mid_Principal,Stress_Min_Principal,Stress_Pressure,Stress_Tresca,Stress_Third_Invariant,Plastic_strain_Max_Principal,Plastic_strain_Min_Principal">
<DataArray type="Float32" Name="Stress_Components" NumberOfComponents="9" format="ascii">
1.77790792e+01 8.01717266e-02 1.73259988e-01 8.01717266e-02 1.48904373e+01 2.89659556e-02 1.73259988e-01 2.89659556e-02 5.50977993e+00
6.00144893e+00 -2.82625605e+00 8.99172164e-01 -2.82625605e+00 5.13324755e+00 2.49924669e+00 8.99172164e-01 2.49924669e+00 -1.54771858e+01
-1.31640768e+01 -4.41410832e-01 1.44178477e+00 -4.41410832e-01 -6.50489616e+00 -2.90479736e+00 1.44178477e+00 -2.90479736e+00 -5.06208153e+01
-3.14765263e+00 -9.19317216e-01 4.39401045e-02 -9.19317216e-01 -3.84944820e+00 -8.28320440e-02 4.39401045e-02 -8.28320440e-02 -3.76446109e+01
1.63651540e+01 5.82461683e-02 8.53929414e-01 5.82461683e-02 1.69639957e+01 -3.24797109e-01 8.53929414e-01 -3.24797109e-01 5.99264210e+00
2.35958693e+01 -2.47533322e+00 3.26841776e+00 -2.47533322e+00 2.61630086e+01 8.33527531e-02 3.26841776e+00 8.33527531e-02 1.92530283e+01
-1.24548268e+01 -1.99389324e-01 7.23612636e-01 -1.99389324e-01 1.02084672e+00 -6.74068034e-02 7.23612636e-01 -6.74068034e-02 -4.04020082e+01
1.23393211e+01 -2.95082279e-01 3.63934107e-01 -2.95082279e-01 1.09559644e+01 4.32325792e-01 3.63934107e-01 4.32325792e-01 -5.22888088e+00
-2.24062395e+01 -2.05276687e+00 -1.11753931e-01 -2.05276687e+00 -2.03580904e+01 6.36514997e+00 -1.11753931e-01 6.36514997e+00 -7.86609905e+01
-9.13388176e+01 -4.36698174e+00 -6.71996975e+00 -4.36698174e+00 -8.58208008e+01 4.89539909e+00 -6.71996975e+00 4.89539909e+00 -2.21557411e+02
-7.54862423e+01 9.13868284e+00 -2.81989412e+01 9.13868284e+00 -8.00840379e+01 -1.73116811e+00 -2.81989412e+01 -1.73116811e+00 -1.76504346e+02
-5.36106014e+01 -8.36052895e-02 -5.00834751e+00 -8.36052895e-02 -7.84093542e+01 -1.08317590e+00 -5.00834751e+00 -1.08317590e+00 -1.70819042e+02
-2.31152322e-01 -5.96091241e-01 -2.75117557e-01 -5.96091241e-01 3.32801146e-01 2.70647936e-01 -2.75117557e-01 2.70647936e-01 -4.89160553e-01
-4.32659566e-01 -3.94139644e-02 -9.16490108e-02 -3.94139644e-02 -1.22536570e-01 -2.25696500e-01 -9.16490108e-02 -2.25696500e-01 1.67832017e-01
6.92205518e-01 -1.66271858e-01 -1.29836336e-01 -1.66271858e-01 -1.11150112e-01 5.72664782e-01 -1.29836336e-01 5.72664782e-01 -9.68491882e-01
3.66003893e-01 -7.23168761e-01 4.20294106e-02 -7.23168761e-01 -1.83485338e-01 -5.16426951e-01 4.20294106e-02 -5.16426951e-01 -5.70068024e-01
2.33643606e-01 2.02635050e-01 3.79982144e-01 2.02635050e-01 5.65526299e-02 1.59522772e-01 3.79982144e-01 1.59522772e-01 -2.37859264e-02
-5.54982238e-02 2.52285544e-02 1.14222057e-01 2.52285544e-02 -1.53323919e-01 7.99741596e-03 1.14222057e-01 7.99741596e-03 4.75350559e-01
-5.42513132e-02 6.48143739e-02 -2.42577285e-01 6.48143739e-02 2.02747807e-01 -5.39596260e-01 -2.42577285e-01 -5.39596260e-01 1.17980897e-01
-3.10269922e-01 2.42241770e-01 -1.44222975e-01 2.42241770e-01 -1.32601187e-01 3.45871925e-01 -1.44222975e-01 3.45871925e-01 7.09148645e-01
1.48857069e+00 4.04424109e-02 1.39954016e-01 4.04424109e-02 2.26306820e+00 -1.24358945e-03 1.39954016e-01 -1.24358945e-03 -2.59647942e+01
2.24043281e+00 4.68490943e-01 1.52262081e-02 4.68490943e-01 2.21872768e+00 2.67500155e-01 1.52262081e-02 2.67500155e-01 -2.51433824e+01
6.70769677e+00 -1.80348155e-01 1.08970180e-02 -1.80348155e-01 7.29612973e+00 4.49519249e-01 1.08970180e-02 4.49519249e-01 -1.48181800e+01
2.03366071e+00 1.83560060e-01 1.20282072e-01 1.83560060e-01 3.43461442e+00 -1.93722308e-01 1.20282072e-01 -1.93722308e-01 -2.40637143e+01
6.85730886e+00 -3.01886424e-02 5.40216528e-01 -3.01886424e-02 5.89757204e+00 2.08466243e-01 5.40216528e-01 2.08466243e-01 -1.61973810e+01
3.37933183e-01 2.28868272e-01 -2.32117178e-01 2.28868272e-01 -3.34432721e-02 1.09568815e+00 -2.32117178e-01 1.09568815e+00 -2.95846629e+01
4.61616787e+00 3.57145323e-01 2.17720289e-01 3.57145323e-01 4.13584277e+00 3.94475911e-01 2.17720289e-01 3.94475911e-01 -2.05260774e+01
1.33028236e+00 3.38181783e-01 5.65870993e-01 3.38181783e-01 -4.66150045e-02 -6.19917430e-01 5.65870993e-01 -6.19917430e-01 -2.85539954e+01
7.27894449e+00 -7.92242445e-01 1.62056301e-01 -7.92242445e-01 6.58135164e+00 -7.12098563e-02 1.62056301e-01 -7.12098563e-02 -1.49891571e+01
6.03081042e+00 -4.81950457e-01 8.27822561e-01 -4.81950457e-01 6.03438827e+00 8.88135434e-01 8.27822561e-01 8.88135434e-01 -1.67326163e+01
1.06576025e-01 9.78836101e-02 -1.02699809e-02 9.78836101e-02 2.46226966e-01 3.15953546e-01 -1.02699809e-02 3.15953546e-01 -2.96737849e+01
-1.40810651e+00 5.92076178e-02 1.03817631e+00 5.92076178e-02 1.22237146e-01 1.80328000e+00 1.03817631e+00 1.80328000e+00 -3.11108498e+01
6.47070771e+00 1.25741487e-01 2.89311163e-01 1.25741487e-01 5.54823816e+00 6.41066421e-01 2.89311163e-01 6.41066421e-01 -1.69091406e+01
1.14310412e+01 -3.88450115e-02 5.32938088e-02 -3.88450115e-02 1.00378076e+01 -6.89306087e-02 5.32938088e-02 -6.89306087e-02 -6.78316179e+00
3.45353618e+00 -7.64617547e-01 3.26728370e-01 -7.64617547e-01 2.48652630e+00 8.53890274e-01 3.26728370e-01 8.53890274e-01 -2.34924891e+01
3.62476611e+00 -6.27195431e-01 5.42591660e-01 -6.27195431e-01 3.65788883e+00 7.52059212e-01 5.42591660e-01 7.52059212e-01 -2.19877177e+01
9.05666211e+00 8.36954601e-02 -1.88536179e-01 8.36954601e-02 7.17144793e+00 4.98226503e-01 -1.88536179e-01 4.98226503e-01 -1.23259822e+01
6.07027942e+00 -6.45167381e-03 -4.68394265e-01 -6.45167381e-03 4.00117469e+00 1.33968315e-01 -4.68394265e-01 1.33968315e-01 -1.90158410e+01
7.33864331e+00 -2.99280930e-01 -1.18007598e-01 -2.99280930e-01 5.71469975e+00 5.84140241e-01 -1.18007598e-01 5.84140241e-01 -1.58374471e+01
1.53287617e+01 -3.70077133e-01 3.36591186e-01 -3.70077133e-01 1.41786554e+01 -2.14022463e-01 3.36591186e-01 -2.14022463e-01 1.86436415e+00
1.23357384e+01 -1.97825085e-01 -4.70284778e-02 -1.97825085e-01 1.08149438e+01 4.56783678e-02 -4.70284778e-02 4.56783678e-02 -4.88071162e+00
1.01953242e+01 6.48573958e-02 -3.08342066e-01 6.48573958e-02 7.63833654e+00 1.06292468e-01 -3.08342066e-01 1.06292468e-01 -1.06137059e+01
1.70988656e+01 -1.58299025e-01 -1.34060974e-01 -1.58299025e-01 1.72565215e+01 -2.82409489e-01 -1.34060974e-01 -2.82409489e-01 7.13465357e+00
8.50773776e+00 -2.28165786e-01 -1.13467262e-01 -2.28165786e-01 7.21543334e+00 -2.91856582e-01 -1.13467262e-01 -2.91856582e-01 -1.29588768e+01
1.25191188e+01 -8.83180033e-02 -1.37614368e-01 -8.83180033e-02 1.18672731e+01 -2.49317765e-01 -1.37614368e-01 -2.49317765e-01 -3.50017691e+00
1.77575947e+01 3.62630882e-01 -4.28055355e-01 3.62630882e-01 1.57800937e+01 8.06308538e-02 -4.28055355e-01 8.06308538e-02 6.24164867e+00
1.86767216e+01 4.44905370e-01 3.05925198e-02 4.44905370e-01 1.95208778e+01 -6.77115012e-01 3.05925198e-02 -6.77115012e-01 1.13836718e+01
1.18308508e+01 5.44571131e-01 3.95860201e-01 5.44571131e-01 1.06928270e+01 -9.13943962e-01 3.95860201e-01 -9.13943962e-01 -5.46339273e+00
2.41025245e+00 -7.41540091e-01 1.32051083e+00 -7.41540091e-01 4.66504347e+00 1.12553351e-02 1.32051083e+00 1.12553351e-02 -2.18550355e+01
3.81424451e+00 -1.05808911e+00 8.43388695e-01 -1.05808911e+00 7.06098360e+00 -2.50415447e-01 8.43388695e-01 -2.50415447e-01 -1.79164190e+01
-5.05033827e+00 4.59987768e-01 2.20944268e+00 4.59987768e-01 -6.18903840e+00 2.08092750e+00 2.20944268e+00 2.08092750e+00 -4.16542265e+01
7.33796120e-01 -1.08877700e-01 3.27405673e-01 -1.08877700e-01 1.06331444e+00 -4.72542681e-02 3.27405673e-01 -4.72542681e-02 -2.81162591e+01
1.78401083e+01 3.02867809e+00 4.35417622e+00 3.02867809e+00 1.63252473e+01 3.62411074e+00 4.35417622e+00 3.62411074e+00 -1.17281437e-01
-7.02948430e+00 8.85216386e-01 -1.83850057e-01 8.85216386e-01 -6.75360972e+00 3.25450391e-01 -1.83850057e-01 3.25450391e-01 -4.34403906e+01
-8.37033783e+01 -7.31463774e+00 -1.84235343e+01 -7.31463774e+00 -8.47151398e+01 -2.14785991e+00 -1.84235343e+01 -2.14785991e+00 -1.90868636e+02
1.36811476e+01 1.44912161e+00 6.80064585e-01 1.44912161e+00 1.79252728e+01 1.26415384e+00 6.80064585e-01 1.26415384e+00 -7.32236726e-01
-5.34047413e+01 -1.38709235e+00 -3.99867243e+00 -1.38709235e+00 -4.86383414e+01 1.05997710e+00 -3.99867243e+00 1.05997710e+00 -1.39912663e+02
-3.81443280e+01 -2.03652523e+00 -1.79436217e+01 -2.03652523e+00 -4.87394707e+01 -1.43218731e+00 -1.79436217e+01 -1.43218731e+00 -1.00974347e+02
-3.56478677e+01 -1.75998579e+00 -1.61065742e-01 -1.75998579e+00 -3.10297360e+01 1.59703086e+00 -1.61065742e-01 1.59703086e+00 -1.01871672e+02
-4.81314945e+01 -4.65175238e-01 -4.25086308e+00 -4.65175238e-01 -4.23965292e+01 -1.74404384e+00 -4.25086308e+00 -1.74404384e+00 -1.27396368e+02
-3.08036623e+01 -2.87993312e+00 -7.71001145e-01 -2.87993312e+00 -2.15327148e+01 3.56571451e-01 -7.71001145e-01 3.56571451e-01 -8.57011070e+01
-4.83601894e+01 -4.60983980e+00 -4.87021089e+00 -4.60983980e+00 -3.65859165e+01 -3.77002970e+00 -4.87021089e+00 -3.77002970e+00 -1.19387352e+02
3.63215147e+00 1.35887431e-01 2.63804443e+00 1.35887431e-01 6.15909168e+00 5.73780347e-01 2.63804443e+00 5.73780347e-01 -1.87198363e+01
1.29411242e+01 5.15324147e-02 1.08982651e+00 5.15324147e-02 1.39039037e+01 -2.30261233e-01 1.08982651e+00 -2.30261233e-01 -8.21576715e-01
-1.05848786e+01 -4.10015507e-01 3.74103982e+00 -4.10015507e-01 -1.09000177e+01 1.69928611e+00 3.74103982e+00 1.69928611e+00 -5.22316768e+01
3.81408644e+00 4.00384814e-02 1.53495901e+00 4.00384814e-02 5.33211461e+00 1.08349572e-01 1.53495901e+00 1.08349572e-01 -2.00617223e+01
-1.13513675e+02 -1.24726965e+01 8.93857539e+00 -1.24726965e+01 -1.03695410e+02 -1.58879789e+01 8.93857539e+00 -1.58879789e+01 -2.36971481e+02
-2.09884314e+01 2.57642353e+00 2.61620488e+00 2.57642353e+00 -2.85344608e+01 -2.86203467e+00 2.61620488e+00 -2.86203467e+00 -8.44885240e+01
1.33112289e+02 1.51254559e+01 2.39183292e+01 1.51254559e+01 1.28770294e+02 2.34601536e+01 2.39183292e+01 2.34601536e+01 2.02859253e+02
8.33926773e+00 -5.58855405e+00 -8.17293525e+00 -5.58855405e+00 6.12320900e+00 -5.21021541e+00 -8.17293525e+00 -5.21021541e+00 -2.03297615e-01
2.48274343e+01 -6.08691531e-02 -2.45427367e+00 -6.08691531e-02 2.48649190e+01 2.05473091e-01 -2.45427367e+00 2.05473091e-01 2.29588148e+01
1.40935742e+01 -3.79437201e-01 1.19007886e+00 -3.79437201e-01 1.42942356e+01 6.59192167e-01 1.19007886e+00 6.59192167e-01 1.06128168e+00
2.15906586e+01 -5.89379951e-01 -2.80871719e-01 -5.89379951e-01 2.34828266e+01 1.02525425e+00 -2.80871719e-01 1.02525425e+00 1.95281219e+01
6.70186687e+00 -9.36748582e-01 2.47021405e+00 -9.36748582e-01 7.31500912e+00 1.81315356e+00 2.47021405e+00 1.81315356e+00 -1.41330638e+01
1.47807649e+01 -6.40136544e-02 7.11601488e-02 -6.40136544e-02 1.46653861e+01 2.55507521e-01 7.11601488e-02 2.55507521e-01 1.89017820e+00
2.18075211e+01 3.32455769e-01 1.07988260e+00 3.32455769e-01 2.25752340e+01 6.11946923e-02 1.07988260e+00 6.11946923e-02 1.81516427e+01
1.63863754e+00 1.94761690e+00 1.34910867e-01 1.94761690e+00 4.28243160e+00 1.18244893e+00 1.34910867e-01 1.18244893e+00 -2.33425909e+01
-6.15760944e+01 2.09768846e+00 6.05159566e+00 2.09768846e+00 -5.76606304e+01 1.99044881e+01 6.05159566e+00 1.99044881e+01 -1.37265137e+02
-1.07005138e+02 -3.84777904e+00 1.27502227e+01 -3.84777904e+00 -1.04083015e+02 1.22609725e+01 1.27502227e+01 1.22609725e+01 -2.54741676e+02
-5.94546914e+00 -3.04615912e+00 -3.06541810e+00 -3.04615912e+00 1.72716677e-01 5.14654579e+00 -3.06541810e+00 5.14654579e+00 -3.46446911e+01
4.43717289e+00 -4.32972699e-01 -3.07743132e-01 -4.32972699e-01 6.44482899e+00 7.62583196e-01 -3.07743132e-01 7.62583196e-01 -1.82365475e+01
8.17972183e-01 1.26163942e+00 -1.37466468e+00 1.26163942e+00 -1.02946281e+00 8.48122239e-01 -1.37466468e+00 8.48122239e-01 -3.01832705e+01
2.67980576e+00 -1.82657705e+00 2.25003070e+00 -1.82657705e+00 6.43899727e+00 -1.37077743e+00 2.25003070e+00 -1.37077743e+00 -1.98757801e+01
-2.30995870e+01 -3.59342424e+00 -4.41261739e+00 -3.59342424e+00 -1.80005474e+01 3.84927320e+00 -4.41261739e+00 3.84927320e+00 -7.01877346e+01
-8.99073842e+01 1.23475983e+01 7.19529589e-01 1.23475983e+01 -5.26086845e+01 -3.92224488e+01 7.19529589e-01 -3.92224488e+01 -1.26345940e+02
-1.61403726e+00 -4.16343824e+00 -6.97366267e-01 -4.16343824e+00 -7.34042454e+00 -3.27064315e+00 -6.97366267e-01 -3.27064315e+00 -3.57111212e+01
5.31102610e+00 -3.89089035e-02 1.94368437e-01 -3.89089035e-02 2.95031142e+00 -1.04010571e-03 1.94368437e-01 -1.04010571e-03 -2.09574237e+01
1.50871634e-01 1.24172115e-01 -8.27478897e-02 1.24172115e-01 -1.06132078e+00 7.27107756e-01 -8.27478897e-02 7.27107756e-01 -3.09104218e+01
8.85770448e-01 6.73445548e-01 2.23611866e-01 6.73445548e-01 -7.82746583e-01 3.70750853e-01 2.23611866e-01 3.70750853e-01 -2.98054920e+01
-5.27032197e-01 2.96912242e-01 3.81945070e-01 2.96912242e-01 -3.63963607e+00 -2.95284443e-01 3.81945070e-01 -2.95284443e-01 -3.43483930e+01
-5.72104180e+00 8.13429072e-01 -1.73073433e-01 8.13429072e-01 -3.98804712e+00 7.70227615e-01 -1.73073433e-01 7.70227615e-01 -4.04077182e+01
-6.55672413e+00 1.23805606e+00 4.79621793e-01 1.23805606e+00 -4.86572489e+00 1.52098430e+00 4.79621793e-01 1.52098430e+00 -4.20446452e+01
-6.79183596e+00 2.91314412e-01 5.82785912e-01 2.91314412e-01 -5.09371638e+00 3.91878184e-01 5.82785912e-01 3.91878184e-01 -4.28717113e+01
-1.39079475e+01 5.30227376e-01 7.99540363e-01 5.30227376e-01 -7.64229387e+00 1.81563732e+00 7.99540363e-01 1.81563732e+00 -5.25719378e+01
-4.46788633e+00 -1.28691413e+00 3.71174328e-01 -1.28691413e+00 -2.51350167e+00 5.83746547e-01 3.71174328e-01 5.83746547e-01 -3.74314334e+01
-2.10524261e+00 -7.03705909e-01 -9.98313017e-02 -7.03705909e-01 1.53819740e+00 -9.54009881e-02 -9.98313017e-02 -9.54009881e-02 -3.03659203e+01
5.24774905e+00 -5.24417706e-01 7.57897086e-03 -5.24417706e-01 7.49516112e+00 -5.94645306e-01 7.57897086e-03 -5.94645306e-01 -1.60877652e+01
9.78956366e+00 -1.02585987e+00 -1.63444787e-01 -1.02585987e+00 1.06732116e+01 -5.45062032e-03 -1.63444787e-01 -5.45062032e-03 -7.83451259e+00
6.63510323e-01 4.00003135e-01 8.64503890e-01 4.00003135e-01 5.26578712e+00 -1.34132860e+00 8.64503890e-01 -1.34132860e+00 -2.30690455e+01
-3.87449429e+00 -1.12451333e+00 1.96803421e-01 -1.12451333e+00 -1.04878008e-01 -2.08428061e+00 1.96803421e-01 -2.08428061e+00 -3.35921273e+01
-6.55841388e+00 1.33088850e+00 8.38399455e-01 1.33088850e+00 -1.02129588e+01 1.76177378e+00 8.38399455e-01 1.76177378e+00 -4.77349861e+01
-2.56386948e+00 7.63576329e-01 1.65858209e-01 7.63576329e-01 -6.15404797e+00 -9.04729394e-02 1.65858209e-01 -9.04729394e-02 -3.92522793e+01
-9.00048351e+00 2.86699735e+00 3.22083607e-01 2.86699735e+00 -9.17044640e+00 1.04254572e+00 3.22083607e-01 1.04254572e+00 -4.91963015e+01
6.32596374e+00 1.73557513e+00 -5.62877654e+00 1.73557513e+00 8.34810150e+00 -6.30712641e-01 -5.62877654e+00 -6.30712641e-01 -1.09846843e+01
1.29031932e+01 -2.52274428e-01 -2.43635020e+00 -2.52274428e-01 1.86995125e+01 -7.98704316e-02 -2.43635020e+00 -7.98704316e-02 2.91105110e+00
-1.17127573e+01 -2.88749780e+00 -7.61208378e+00 -2.88749780e+00 -4.58972232e+00 -1.90610617e+00 -7.61208378e+00 -1.90610617e+00 -4.39400431e+01
-6.95955531e+00 -6.18456976e+00 -9.37527251e+00 -6.18456976e+00 -1.02444258e+01 -2.28848688e+00 -9.37527251e+00 -2.28848688e+00 -4.28922780e+01
-2.49300746e+01 2.62166550e-01 4.42469289e+00 2.62166550e-01 -3.37501477e+01 4.88869324e-02 4.42469289e+00 4.88869324e-02 -9.20584621e+01
-2.86787539e+01 -1.39729007e+00 3.80246125e+00 -1.39729007e+00 -3.27918056e+01 -1.59476717e-01 3.80246125e+00 -1.59476717e-01 -9.60757682e+01
1.40179227e+01 2.38688954e+00 -6.68356145e-01 2.38688954e+00 9.78259706e+00 -4.36940094e+00 -6.68356145e-01 -4.36940094e+00 -2.86593775e+00
3.74475892e+01 1.58418554e+00 -2.11917681e+00 1.58418554e+00 3.25451272e+01 2.31304367e-02 -2.11917681e+00 2.31304367e-02 4.37333469e+01
8.16661987e+01 4.27274370e+00 2.65853615e+01 4.27274370e+00 9.97079773e+01 7.05921698e+00 2.65853615e+01 7.05921698e+00 1.28659470e+02
2.16105242e+01 -2.56817307e+00 -5.32379770e-01 -2.56817307e+00 1.52540689e+01 -3.09403975e+00 -5.32379770e-01 -3.09403975e+00 1.76801235e+01
-2.60686105e+01 -4.20740679e-01 6.61252141e-02 -4.20740679e-01 -2.33119357e+01 5.86181195e+00 6.61252141e-02 5.86181195e+00 -8.09902287e+01
2.83973376e+00 9.21493818e-02 -1.72278726e+00 9.21493818e-02 1.03819784e+00 2.90384481e+00 -1.72278726e+00 2.90384481e+00 -2.56702932e+01
-1.08978153e+02 -1.23218412e+01 1.19510407e+01 -1.23218412e+01 -1.60496647e+02 -1.33664362e+01 1.19510407e+01 -1.33664362e+01 -3.07857201e+02
-3.45935350e+01 3.21403286e-01 -1.87101735e+00 3.21403286e-01 -2.96856944e+01 4.89152608e+00 -1.87101735e+00 4.89152608e+00 -9.85458132e+01
-1.34918389e+01 -6.11419078e-01 4.01026662e+00 -6.11419078e-01 -1.04940056e+01 -2.78268381e-01 4.01026662e+00 -2.78268381e-01 -5.57057037e+01
2.17230611e+01 -2.55468860e-01 2.21598858e+00 -2.55468860e-01 2.02540192e+01 1.06703810e-01 2.21598858e+00 1.06703810e-01 1.52789888e+01
1.07172856e+01 4.97035101e-01 3.97217035e-01 4.97035101e-01 9.62731266e+00 -7.09918817e-01 3.97217035e-01 -7.09918817e-01 -7.87677670e+00
-3.29801521e+01 7.76338935e-01 -5.27285144e-01 7.76338935e-01 -4.15617890e+01 -3.70821047e+00 -5.27285144e-01 -3.70821047e+00 -1.08579238e+02
-1.16112523e+01 -1.43649575e+00 -3.28559986e+00 -1.43649575e+00 -2.14366653e+01 6.75830382e+00 -3.28559986e+00 6.75830382e+00 -6.10812062e+01
8.72899318e+00 -1.49556201e+00 -6.29526243e-01 -1.49556201e+00 -9.99165070e+00 6.24988931e+00 -6.29526243e-01 6.24988931e+00 -4.20043068e+01
1.29772592e+01 -1.87060934e+00 2.16134895e+00 -1.87060934e+00 2.13587060e+01 -3.98013592e+00 2.16134895e+00 -3.98013592e+00 9.03505099e+00
9.30904694e+01 -4.38405943e+00 6.81081235e-01 -4.38405943e+00 6.54647064e+01 2.21793041e+01 6.81081235e-01 2.21793041e+01 8.97618637e+01
4.16239967e+01 2.88772154e+00 -4.02678043e-01 2.88772154e+00 3.75627403e+01 5.78024435e+00 -4.02678043e-01 5.78024435e+00 5.51689034e+01
8.95164824e+00 -2.41326515e+00 -2.24926881e+00 -2.41326515e+00 1.01174417e+01 1.16275018e+00 -2.24926881e+00 1.16275018e+00 1.11549824e+01
4.79544012e+00 -4.67889320e+00 -1.85043433e+00 -4.67889320e+00 1.45944447e+01 -3.51873447e+00 -1.85043433e+00 -3.51873447e+00 7.63912567e+00
-1.17518520e+00 -9.46467340e-01 1.53747284e+00 -9.46467340e-01 1.17914641e+00 -1.09815669e+00 1.53747284e+00 -1.09815669e+00 -4.78088558e-01
-9.37959552e-01 1.70509428e-01 9.69073474e-02 1.70509428e-01 -1.10278003e-01 8.13619137e-01 9.69073474e-02 8.13619137e-01 5.73853672e-01
9.36218381e-01 -5.92590034e-01 3.60664427e-01 -5.92590034e-01 -4.70715612e-01 -1.46656132e+00 3.60664427e-01 -1.46656132e+00 -9.40026879e-01
4.20215994e-01 -1.71018934e+00 -1.28135252e+00 -1.71018934e+00 5.40079653e-01 1.32142007e+00 -1.28135252e+00 1.32142007e+00 -1.43480098e+00
7.10409389e+00 2.54293857e+00 1.59832998e+00 2.54293857e+00 -3.01221895e+00 9.83962917e-01 1.59832998e+00 9.83962917e-01 -7.11240685e-01
1.14527115e+00 -4.33721423e-01 -2.53522933e-01 -4.33721423e-01 -5.10403279e+00 8.86996031e-01 -2.53522933e-01 8.86996031e-01 -8.83535999e-01
-3.64227259e+00 9.11913335e-01 6.79637343e-02 9.11913335e-01 9.26822305e-01 -1.52787393e+00 6.79637343e-02 -1.52787393e+00 5.03074236e-01
-5.18876251e+00 -2.32729737e+00 -3.72253239e-01 -2.32729737e+00 2.45663146e+00 -5.87032715e-01 -3.72253239e-01 -5.87032715e-01 3.40833828e+00
2.18516421e+00 -3.56963128e-02 4.34730761e-03 -3.56963128e-02 -8.23662996e-01 3.59714730e-03 4.34730761e-03 3.59714730e-03 -2.83705578e+01
-6.80000544e-01 2.43359953e-01 -1.40813803e-02 2.43359953e-01 -2.27098411e+00 2.70507596e-01 -1.40813803e-02 2.70507596e-01 -3.31475163e+01
1.64245248e+00 8.75242412e-01 2.06690975e-01 8.75242412e-01 -3.18534851e-01 3.32574096e-01 2.06690975e-01 3.32574096e-01 -2.84524230e+01
8.31137180e-01 3.71329181e-01 1.27885491e-01 3.71329181e-01 -2.66796112e+00 -7.14778155e-03 1.27885491e-01 -7.14778155e-03 -3.17925484e+01
-8.81989408e+00 5.92660531e-01 -8.39127693e-03 5.92660531e-01 -6.55681229e+00 1.03670409e+00 -8.39127693e-03 1.03670409e+00 -4.64876099e+01
-6.54986729e+00 1.94527668e+00 2.50357363e-01 1.94527668e+00 -5.39515774e+00 6.39530817e-01 2.50357363e-01 6.39530817e-01 -4.26783059e+01
-1.16741499e+01 1.28278878e+00 2.91335122e-02 1.28278878e+00 -7.63322043e+00 5.46461821e-01 2.91335122e-02 5.46461821e-01 -5.06610813e+01
-2.34867284e+01 1.68551731e+00 1.19066016e+00 1.68551731e+00 -1.42410149e+01 1.97251710e+00 1.19066016e+00 1.97251710e+00 -6.96266532e+01
-1.23223345e+01 -7.94632018e-01 6.37395922e-02 -7.94632018e-01 -6.15888244e+00 3.51913810e-01 6.37395922e-02 3.51913810e-01 -4.95153885e+01
-1.99388227e+01 -8.70335586e-01 2.08087581e+00 -8.70335586e-01 -1.04682852e+01 1.31400925e+00 2.08087581e+00 1.31400925e+00 -6.17968216e+01
-9.66273856e+00 -2.68686317e-01 1.25096686e-01 -2.68686317e-01 -3.16015875e+00 -5.49228311e-01 1.25096686e-01 -5.49228311e-01 -4.33343277e+01
-4.66175318e+00 -2.10769159e+00 1.67567250e+00 -2.10769159e+00 2.69356179e+00 5.53490780e-02 1.67567250e+00 5.53490780e-02 -3.08336676e+01
-2.50505352e+01 -3.51631260e+00 2.29604289e-01 -3.51631260e+00 -1.38960800e+01 1.50217488e-01 2.29604289e-01 1.50217488e-01 -7.06853561e+01
-2.20577612e+01 -1.74640858e+00 2.35069591e+00 -1.74640858e+00 -7.33284307e+00 -3.89246166e+00 2.35069591e+00 -3.89246166e+00 -5.88400497e+01
1.26500690e+00 2.85948431e+00 -1.16594881e+00 2.85948431e+00 -3.26267588e+00 1.20709181e+00 -1.16594881e+00 1.20709181e+00 -3.14770098e+01
4.23128128e-01 4.31762576e-01 -6.12800121e-01 4.31762576e-01 -6.78647423e+00 1.17992405e-01 -6.12800121e-01 1.17992405e-01 -3.62167263e+01
-9.76289970e+00 5.14188612e+00 5.27750760e-01 5.14188612e+00 -9.89557624e+00 2.26382165e+00 5.27750760e-01 2.26382165e+00 -4.95390844e+01
8.69214058e+00 1.08275522e+00 1.99647857e+00 1.08275522e+00 1.21591792e+01 9.16744791e-01 1.99647857e+00 9.16744791e-01 -7.75234079e+00
2.89454405e+01 -1.13471622e+00 2.14998503e+00 -1.13471622e+00 2.74051131e+01 2.30895393e-01 2.14998503e+00 2.30895393e-01 2.92260990e+01
2.01272807e+01 4.33220714e-02 2.79091658e+00 4.33220714e-02 1.85009885e+01 -4.38801158e-01 2.79091658e+00 -4.38801158e-01 1.03753161e+01
1.59764333e+01 -5.34856966e+00 2.19010079e+00 -5.34856966e+00 7.72981834e+00 -7.75520444e-01 2.19010079e+00 -7.75520444e-01 -2.44593620e+00
-9.39480324e+01 -3.03436726e+00 5.22603750e+00 -3.03436726e+00 -1.11195398e+02 3.41644478e+00 5.22603750e+00 3.41644478e+00 -2.50519165e+02
-1.06726357e+02 -7.12619945e-02 2.66885519e+00 -7.12619945e-02 -1.11788445e+02 1.49328843e-01 2.66885519e+00 1.49328843e-01 -2.66508240e+02
2.85424670e+01 3.99240943e+00 -9.59800805e-01 3.99240943e+00 2.78999075e+01 1.34954512e+00 -9.59800805e-01 1.34954512e+00 3.19998771e+01
3.08765702e+01 -2.12839282e+00 2.83214798e+00 -2.12839282e+00 3.15917516e+01 2.00994456e+00 2.83214798e+00 2.00994456e+00 3.50925021e+01
2.72645059e+01 -1.34242642e+00 -3.08413975e-01 -1.34242642e+00 2.65856391e+01 1.69293148e+00 -3.08413975e-01 1.69293148e+00 2.91399736e+01
2.15609892e+01 9.38510060e-01 3.95519856e+00 9.38510060e-01 1.90603829e+01 -2.92082537e+00 3.95519856e+00 -2.92082537e+00 2.73009018e+01
2.10734391e+01 1.01877539e+00 2.54429092e+00 1.01877539e+00 1.53515512e+01 1.39717969e+00 2.54429092e+00 1.39717969e+00 2.41885172e+01
6.12290859e+00 -5.79811734e+00 5.44120073e-01 -5.79811734e+00 -4.36635017e-01 -9.45153832e-01 5.44120073e-01 -9.45153832e-01 9.62366045e+00
2.65236568e+01 3.40792452e+00 2.83004618e+00 3.40792452e+00 1.26013851e+01 6.56173721e-01 2.83004618e+00 6.56173721e-01 3.25335104e+01
1.04333858e+01 5.56914353e+00 -1.01120055e+01 5.56914353e+00 2.12403164e+01 2.06242905e+01 -1.01120055e+01 2.06242905e+01 6.14366512e+01
2.43549581e+01 -2.77609694e+00 3.51620641e+00 -2.77609694e+00 2.85591021e+01 -3.95535541e+00 3.51620641e+00 -3.95535541e+00 3.72370186e+01
-5.94642758e-01 1.13989372e+01 -2.92033577e+00 1.13989372e+01 1.26148481e+01 2.14127445e+01 -2.92033577e+00 2.14127445e+01 -1.77815056e+01
2.10687192e+01 4.76206140e+00 -2.77077929e+00 4.76206140e+00 2.78599463e+01 -4.86141205e+00 -2.77077929e+00 -4.86141205e+00 1.39531058e+01
1.66309197e+01 8.30077082e-01 3.04523786e+00 8.30077082e-01 8.94412422e+00 2.42043644e+00 3.04523786e+00 2.42043644e+00 6.18340667e+00
3.04809391e-01 4.60500688e+00 4.78329509e+00 4.60500688e+00 1.00651357e+01 -8.89052421e-01 4.78329509e+00 -8.89052421e-01 3.42988507e+00
9.86651182e-02 -4.38978344e+00 -5.13417169e-01 -4.38978344e+00 7.07658812e+00 2.03792486e+00 -5.13417169e-01 2.03792486e+00 9.35759071e+00
2.96880710e+00 -1.64762187e+00 -4.43960547e-01 -1.64762187e+00 -6.45944977e+00 1.35351516e-01 -4.43960547e-01 1.35351516e-01 4.94398874e+00
-2.31679726e+00 -5.29939175e-01 -1.32462192e+00 -5.29939175e-01 -6.24495882e+00 -1.16831581e+00 -1.32462192e+00 -1.16831581e+00 2.73484984e+00
-1.01645790e+02 2.87907100e+00 -3.52329040e+00 2.87907100e+00 -6.89039764e+01 1.23637891e+00 -3.52329040e+00 1.23637891e+00 -2.10545685e+02
-1.45200836e+02 6.33360100e+00 1.49905491e+00 6.33360100e+00 -1.31437317e+02 1.27009857e+00 1.49905491e+00 1.27009857e+00 -3.29368744e+02
5.23732217e+00 -1.48387112e+00 1.23922479e+00 -1.48387112e+00 3.95621888e+00 2.01911495e+00 1.23922479e+00 2.01911495e+00 -2.01462466e+01
1.06971674e+01 -2.65007025e+00 4.02105421e+00 -2.65007025e+00 -7.73344040e-01 -1.91182360e-01 4.02105421e+00 -1.91182360e-01 -1.78937111e+01
2.01025499e+00 2.04464871e+00 -3.83313298e-02 2.04464871e+00 -7.15278149e-01 -8.97927011e-01 -3.83313298e-02 -8.97927011e-01 2.91775748e+00
1.20541644e+01 1.28893594e+00 4.59433516e-01 1.28893594e+00 2.57615786e+01 5.00459584e+00 4.59433516e-01 5.00459584e+00 2.37249055e+01
2.66004109e+00 1.54707390e+00 5.35404086e-01 1.54707390e+00 -6.50774646e+00 7.84942567e-01 5.35404086e-01 7.84942567e-01 -3.17719483e+00
7.76751709e+00 -1.31190753e+00 7.43505202e-01 -1.31190753e+00 4.51879406e+00 7.33059898e-01 7.43505202e-01 7.33059898e-01 -1.60612354e+01
2.02140598e+01 1.73287416e+00 -1.22348261e+00 1.73287416e+00 1.76749325e+01 3.91384354e-03 -1.22348261e+00 3.91384354e-03 1.11241102e+01
-1.42901802e+00 -9.37042713e-01 4.44678217e-01 -9.37042713e-01 -3.46890640e+00 3.98756093e+00 4.44678217e-01 3.98756093e+00 -3.52924943e+01
-6.04332805e+00 -2.31344543e+00 -3.36867671e-01 -2.31344543e+00 -1.67644763e+01 3.18924642e+00 -3.36867671e-01 3.18924642e+00 -5.25946560e+01
1.12696476e+01 3.02144736e+00 -2.45157328e+00 3.02144736e+00 3.47813892e+00 1.05031013e+00 -2.45157328e+00 1.05031013e+00 -1.43961201e+01
1.42064431e+01 -5.73430896e-01 -1.20156337e+00 -5.73430896e-01 2.77168245e+01 2.68490183e+00 -1.20156337e+00 2.68490183e+00 1.74099369e+01
1.95306604e+01 2.67261190e+00 -2.02481788e+00 2.67261190e+00 2.32466187e+01 1.06125367e+00 -2.02481788e+00 1.06125367e+00 2.15889275e+01
-5.70231336e+00 1.38119006e+00 -1.16304898e+00 1.38119006e+00 1.77193379e+00 5.75661451e-01 -1.16304898e+00 5.75661451e-01 3.88155255e+00
-4.45266819e+00 1.27918160e+00 -4.85209674e-02 1.27918160e+00 -3.62352312e-01 -7.45483264e-02 -4.85209674e-02 -7.45483264e-02 8.64567995e-01
</DataArray>
<DataArray type="Float32" Name="Logarithmic_strain_components" NumberOfComponents="9" format="ascii">
4.07643602e-02 -8.50883399e-03 2.77922701e-03 -8.50883399e-03 3.49519958e-02 7.89318637e-03 2.77922701e-03 7.89318637e-03 -6.27605892e-02
3.91221493e-02 -1.67652837e-02 -7.89053505e-04 -1.67652837e-02 4.32998559e-02 1.79166202e-02 -7.89053505e-04 1.79166202e-02 -6.91431998e-02
4.55175526e-02 -2.50464561e-03 2.44583935e-03 -2.50464561e-03 5.98191684e-02 -7.89898026e-03 2.44583935e-03 -7.89898026e-03 -8.92472807e-02
4.16983049e-02 -1.81103004e-03 -3.14040075e-03 -1.81103004e-03 4.70899539e-02 -3.44741391e-04 -3.14040075e-03 -3.44741391e-04 -7.55795874e-02
4.08621705e-02 2.97435627e-03 1.23042048e-02 2.97435627e-03 5.05670821e-02 1.02290587e-02 1.23042048e-02 1.02290587e-02 -7.51023423e-02
4.02959793e-02 -1.38398070e-02 -1.63256868e-02 -1.38398070e-02 6.46180739e-02 1.56003593e-02 -1.63256868e-02 1.56003593e-02 -8.73718773e-02
5.80490641e-02 -9.11148125e-03 -7.76559065e-03 -9.11148125e-03 7.14303777e-02 -1.22253341e-02 -7.76559065e-03 -1.22253341e-02 -1.10212730e-01
4.54553477e-02 1.76238471e-02 5.56861318e-03 1.76238471e-02 5.57474690e-02 1.66925798e-02 5.56861318e-03 1.66925798e-02 -8.50514807e-02
5.32517051e-02 2.13439809e-04 -2.55202779e-02 2.13439809e-04 5.63341454e-02 2.38337074e-02 -2.55202779e-02 2.38337074e-02 -9.76533797e-02
6.73789084e-02 -8.58090210e-04 -2.23685065e-02 -8.58090210e-04 7.37636760e-02 2.54153074e-02 -2.23685065e-02 2.54153074e-02 -1.26842026e-01
7.16205922e-02 3.34204460e-02 -1.05900555e-01 3.34204460e-02 6.38645490e-02 -2.09716645e-02 -1.05900555e-01 -2.09716645e-02 -1.16959559e-01
1.01755951e-01 2.53775986e-02 -7.48787411e-02 2.53775986e-02 5.50090596e-02 -1.30979895e-02 -7.48787411e-02 -1.30979895e-02 -1.36513874e-01
-3.92776928e-06 -2.84204361e-05 -1.49377875e-05 -2.84204361e-05 9.13639167e-06 1.03171687e-05 -1.49377875e-05 1.03171687e-05 -9.77917421e-06
-9.35711250e-06 -1.71105887e-06 -4.68888811e-06 -1.71105887e-06 -1.56675787e-06 -1.39031092e-05 -4.68888811e-06 -1.39031092e-05 5.02296598e-06
1.81252108e-05 -8.21182493e-06 -7.15599822e-06 -8.21182493e-06 -1.46682683e-06 2.56605538e-05 -7.15599822e-06 2.56605538e-05 -2.10126209e-05
1.05493882e-05 -3.44705804e-05 8.11936843e-07 -3.44705804e-05 -2.57361444e-06 -2.69328975e-05 8.11936843e-07 -2.69328975e-05 -1.35977334e-05
4.93613334e-06 9.74755676e-06 1.72586570e-05 9.74755676e-06 6.97265364e-07 8.32272872e-06 1.72586570e-05 8.32272872e-06 -3.00062902e-06
-2.98631153e-06 8.33105901e-07 4.17100273e-06 8.33105901e-07 -5.49113793e-06 4.95947006e-07 4.17100273e-06 4.95947006e-07 1.14374116e-05
-2.71055978e-06 2.49476489e-06 -1.27921130e-05 2.49476489e-06 3.64871789e-06 -2.56815947e-05 -1.27921130e-05 -2.56815947e-05 1.87335945e-06
-8.17434011e-06 1.14633522e-05 -8.50445758e-06 1.14633522e-05 -4.01379839e-06 1.65739420e-05 -8.50445758e-06 1.65739420e-05 1.44808146e-05
5.51033784e-02 8.64024469e-06 1.00395340e-02 8.64024469e-06 5.79608511e-02 -2.18069204e-03 1.00395340e-02 -2.18069204e-03 -9.53843668e-02
5.68306725e-02 3.08639649e-03 6.43175968e-03 3.08639649e-03 5.61907748e-02 3.13028414e-03 6.43175968e-03 3.13028414e-03 -9.53825433e-02
5.49064544e-02 -9.07882361e-03 1.19174152e-02 -9.07882361e-03 5.71561167e-02 4.30511995e-03 1.19174152e-02 4.30511995e-03 -9.39959157e-02
5.34160361e-02 2.14343210e-03 1.05542703e-02 2.14343210e-03 5.95155759e-02 -5.77346550e-03 1.05542703e-02 -5.77346550e-03 -9.52971708e-02
7.01772235e-02 -1.76939648e-05 1.24746310e-02 -1.76939648e-05 5.44168092e-02 9.72583715e-04 1.24746310e-02 9.72583715e-04 -1.04596131e-01
6.76452592e-02 1.86642681e-03 1.74942723e-03 1.86642681e-03 5.75229321e-02 1.12114216e-02 1.74942723e-03 1.12114216e-02 -1.05700014e-01
6.92028608e-02 4.18993848e-03 1.48978800e-02 4.18993848e-03 5.79890907e-02 5.01230985e-03 1.48978800e-02 5.01230985e-03 -1.06928153e-01
7.12108444e-02 3.64784128e-03 1.54010796e-02 3.64784128e-03 5.75837996e-02 -9.79591021e-03 1.54010796e-02 -9.79591021e-03 -1.08623901e-01
6.10357858e-02 -1.18785282e-02 9.96694341e-03 -1.18785282e-02 5.04195532e-02 4.74747430e-04 9.96694341e-03 4.74747430e-04 -9.35110822e-02
5.96718881e-02 -1.18894032e-02 1.28377853e-02 -1.18894032e-02 5.57931289e-02 5.76452164e-03 1.28377853e-02 5.76452164e-03 -9.69331665e-02
6.37108991e-02 2.87056138e-03 -3.71122267e-04 2.87056138e-03 5.82410367e-02 5.31749127e-03 -3.71122267e-04 5.31749127e-03 -1.03150597e-01
6.26932839e-02 4.29714692e-03 1.37890309e-02 4.29714692e-03 6.20999681e-02 1.64923760e-02 1.37890309e-02 1.64923760e-02 -1.05549329e-01
6.48805611e-02 1.12463281e-03 4.32668999e-03 1.12463281e-03 4.77024587e-02 6.45351077e-03 4.32668999e-03 6.45351077e-03 -9.44320131e-02
6.56343536e-02 -5.91630285e-03 -5.90640242e-03 -5.91630285e-03 5.45076169e-02 -4.72411551e-03 -5.90640242e-03 -4.72411551e-03 -1.00323543e-01
6.23874813e-02 -6.77556242e-03 2.09712103e-03 -6.77556242e-03 5.28072743e-02 6.75251463e-03 2.09712103e-03 6.75251463e-03 -9.70917828e-02
5.96900140e-02 -5.89624347e-03 -4.72380454e-03 -5.89624347e-03 5.80468434e-02 5.71193040e-03 -4.72380454e-03 5.71193040e-03 -9.90381818e-02
6.83313776e-02 2.83951231e-03 -5.49252960e-03 2.83951231e-03 4.54283506e-02 7.31659820e-05 -5.49252960e-03 7.31659820e-05 -9.53146946e-02
6.63495893e-02 1.02875309e-03 -8.98267553e-03 1.02875309e-03 6.14428828e-02 9.72325506e-05 -8.98267553e-03 9.72325506e-05 -1.07567015e-01
6.07823813e-02 -3.14544013e-03 -7.43248244e-03 -3.14544013e-03 4.75016274e-02 5.78946245e-03 -7.43248244e-03 5.78946245e-03 -9.09077637e-02
6.02561706e-02 -1.12711146e-02 -1.22090747e-02 -1.12711146e-02 5.04557327e-02 -6.54426849e-03 -1.22090747e-02 -6.54426849e-03 -9.19507602e-02
6.62932936e-02 3.09956820e-04 2.48351489e-03 3.09956820e-04 4.69438136e-02 -2.89377019e-03 2.48351489e-03 -2.89377019e-03 -9.47548114e-02
6.66340780e-02 -1.07097563e-03 3.65302782e-04 -1.07097563e-03 6.03716155e-02 3.56403175e-03 3.65302782e-04 3.56403175e-03 -1.06469883e-01
5.45673631e-02 -9.97376890e-04 -1.30854552e-02 -9.97376890e-04 4.66961879e-02 -1.95707039e-03 -1.30854552e-02 -1.95707039e-03 -8.41690991e-02
5.78782842e-02 -3.32002708e-03 -1.12067356e-02 -3.32002708e-03 5.42724878e-02 -6.33639883e-03 -1.12067356e-02 -6.33639883e-03 -9.42012826e-02
6.39669076e-02 -6.15046913e-04 1.62273407e-03 -6.15046913e-04 4.81387433e-02 -2.37359107e-03 1.62273407e-03 -2.37359107e-03 -9.37169082e-02
6.22676956e-02 -5.83751516e-03 -3.32830544e-03 -5.83751516e-03 6.17514439e-02 -2.04765168e-03 -3.32830544e-03 -2.04765168e-03 -1.03406055e-01
5.03469370e-02 1.44620962e-02 -8.92274221e-03 1.44620962e-02 4.84397709e-02 -1.33818821e-02 -8.92274221e-03 -1.33818821e-02 -8.18581134e-02
5.67210708e-02 1.85212260e-03 -7.73226543e-03 1.85212260e-03 5.37021784e-02 -8.14034752e-03 -7.73226543e-03 -8.14034752e-03 -9.23565980e-02
5.09790257e-02 -1.57567973e-02 3.19683547e-02 -1.57567973e-02 6.24947473e-02 2.06515915e-03 3.19683547e-02 2.06515915e-03 -9.49079003e-02
4.30219388e-02 -1.41990914e-02 2.36105178e-02 -1.41990914e-02 6.65821107e-02 -3.60362150e-03 2.36105178e-02 -3.60362150e-03 -9.17664468e-02
7.38826441e-02 1.79333733e-03 4.16502249e-02 1.79333733e-03 6.22037249e-02 1.39282074e-02 4.16502249e-02 1.39282074e-02 -1.15216825e-01
7.09084570e-02 -8.34555431e-06 2.98280765e-02 -8.34555431e-06 6.32202541e-02 -1.77826401e-03 2.98280765e-02 -1.77826401e-03 -1.12906149e-01
6.36323674e-02 -2.95728611e-04 2.45975649e-02 -2.95728611e-04 5.86427679e-02 -3.46345401e-03 2.45975649e-02 -3.46345401e-03 -1.05119878e-01
6.72007077e-02 1.42371682e-02 1.22409625e-02 1.42371682e-02 6.31168019e-02 -6.31258887e-03 1.22409625e-02 -6.31258887e-03 -1.12037191e-01
7.21651435e-02 -1.75395895e-02 -6.77764660e-02 -1.75395895e-02 6.53418448e-02 -1.35822361e-03 -6.77764660e-02 -1.35822361e-03 -1.22711954e-01
5.33467089e-02 8.21720173e-03 -4.43369718e-02 8.21720173e-03 5.97409398e-02 -6.99939925e-03 -4.43369718e-02 -6.99939925e-03 -9.72558686e-02
7.16198720e-02 -2.72710086e-03 -1.98788454e-02 -2.72710086e-03 8.22251774e-02 1.24460394e-02 -1.98788454e-02 1.24460394e-02 -1.34908907e-01
6.09220259e-02 -8.02108243e-03 -6.48012865e-02 -8.02108243e-03 4.90486844e-02 7.50600873e-03 -6.48012865e-02 7.50600873e-03 -9.32386875e-02
7.03972708e-02 -5.70461879e-03 -1.54555123e-03 -5.70461879e-03 7.95013104e-02 1.18175191e-02 -1.54555123e-03 1.18175191e-02 -1.29545737e-01
6.18639579e-02 2.34574586e-03 -2.48571485e-02 2.34574586e-03 7.17584677e-02 -2.90691049e-03 -2.48571485e-02 -2.90691049e-03 -1.17109181e-01
6.31614309e-02 -5.33874962e-03 -4.44937660e-03 -5.33874962e-03 8.37368444e-02 3.73838586e-03 -4.44937660e-03 3.73838586e-03 -1.26316857e-01
5.72812818e-02 -7.94888241e-03 -2.64929002e-02 -7.94888241e-03 7.44432956e-02 -1.78472907e-02 -2.64929002e-02 -1.78472907e-02 -1.14779849e-01
4.42665062e-02 -9.58973898e-03 4.48492664e-02 -9.58973898e-03 6.12846054e-02 2.38105202e-03 4.48492664e-02 2.38105202e-03 -8.81311542e-02
3.94408796e-02 3.07273702e-03 3.49485241e-02 3.07273702e-03 6.07962701e-02 4.20811668e-03 3.49485241e-02 4.20811668e-03 -8.30813311e-02
7.81253119e-02 -4.54259383e-03 4.92157010e-02 -4.54259383e-03 6.50788482e-02 -9.16793916e-03 4.92157010e-02 -9.16793916e-03 -1.20893299e-01
6.47240542e-02 1.42393462e-03 4.84348275e-02 1.42393462e-03 6.81061475e-02 -1.05015635e-02 4.84348275e-02 -1.05015635e-02 -1.11506879e-01
5.38735143e-02 -3.02164569e-02 5.83667704e-02 -3.02164569e-02 7.35832918e-02 -6.78812633e-02 5.83667704e-02 -6.78812633e-02 -1.08936455e-01
8.39369640e-02 1.02612437e-03 2.31891811e-02 1.02612437e-03 6.47277243e-02 -5.46694648e-02 2.31891811e-02 -5.46694648e-02 -1.29063782e-01
-2.19932683e-02 -1.28254041e-01 -1.97715670e-01 -1.28254041e-01 2.21025059e-03 -1.29396185e-01 -1.97715670e-01 -1.29396185e-01 8.69277194e-02
3.80573204e-02 -1.43942577e-02 -6.24159103e-02 -1.43942577e-02 2.94339890e-02 -5.19851012e-02 -6.24159103e-02 -5.19851012e-02 -4.21963126e-02
3.84708832e-02 -3.82057043e-03 1.65703330e-02 -3.82057043e-03 4.81931333e-02 2.92445164e-02 1.65703330e-02 2.92445164e-02 -7.08852911e-02
3.83022940e-02 -8.41288199e-03 2.83723744e-02 -8.41288199e-03 5.05041583e-02 8.59924918e-03 2.83723744e-02 8.59924918e-03 -7.37359524e-02
5.46015656e-02 -1.05840226e-02 3.22710230e-02 -1.05840226e-02 6.76764064e-02 4.37452752e-02 3.22710230e-02 4.37452752e-02 -9.91692071e-02
6.02810718e-02 -7.85718556e-03 8.87687982e-03 -7.85718556e-03 6.88569341e-02 2.54191491e-02 8.87687982e-03 2.54191491e-02 -1.06543958e-01
3.99729088e-02 6.24901790e-03 -3.63626517e-03 6.24901790e-03 5.06039290e-02 4.77763230e-03 -3.63626517e-03 4.77763230e-03 -7.57977664e-02
6.26650719e-02 1.15897368e-02 -1.93393202e-02 1.15897368e-02 7.14460367e-02 3.51436527e-02 -1.93393202e-02 3.51436527e-02 -1.11435747e-01
5.61757144e-02 1.95201249e-02 1.42311957e-02 1.95201249e-02 7.94836665e-02 1.59367220e-02 1.42311957e-02 1.59367220e-02 -1.13135079e-01
3.67718488e-02 9.60867704e-03 1.97358390e-02 9.60867704e-03 5.31140938e-02 8.47152034e-02 1.97358390e-02 8.47152034e-02 -7.79953385e-02
8.75369795e-02 -1.13146198e-02 7.08973520e-02 -1.13146198e-02 7.71827083e-02 3.43628437e-02 7.08973520e-02 3.43628437e-02 -1.46497406e-01
5.32617234e-02 -2.11754840e-02 -3.93747002e-02 -2.11754840e-02 8.58108908e-02 -1.46178156e-02 -3.93747002e-02 -1.46178156e-02 -1.17818150e-01
4.17439230e-02 -4.32800245e-03 6.75858418e-03 -4.32800245e-03 5.66637143e-02 1.26408874e-02 6.75858418e-03 1.26408874e-02 -8.19252841e-02
6.83637401e-02 2.44225949e-02 -1.25464380e-02 2.44225949e-02 6.86250953e-02 2.32310565e-02 -1.25464380e-02 2.32310565e-02 -1.08666753e-01
5.78379277e-02 -1.60685377e-02 1.91853517e-02 -1.60685377e-02 8.47135745e-02 -2.17060633e-02 1.91853517e-02 -2.17060633e-02 -1.20392397e-01
7.13471323e-02 -2.66412748e-02 -5.77848386e-02 -2.66412748e-02 8.28054305e-02 5.83478394e-02 -5.77848386e-02 5.83478394e-02 -1.33118017e-01
4.10238877e-02 5.15360106e-02 -4.29632297e-03 5.15360106e-02 8.42150276e-02 -1.35936849e-01 -4.29632297e-03 -1.35936849e-01 -1.02205365e-01
8.45235030e-02 -1.22162930e-02 -1.85640102e-02 -1.22162930e-02 4.64449351e-02 -2.81067979e-02 -1.85640102e-02 -2.81067979e-02 -1.09936520e-01
8.52392428e-02 5.82653593e-06 4.05950728e-03 5.82653593e-06 5.51346261e-02 -3.10675881e-03 4.05950728e-03 -3.10675881e-03 -1.17933393e-01
7.91553594e-02 3.58008256e-03 3.54661996e-03 3.58008256e-03 5.99923469e-02 6.07348724e-03 3.54661996e-03 6.07348724e-03 -1.17409844e-01
8.21005180e-02 1.42872459e-02 8.66287138e-03 1.42872459e-02 6.10897848e-02 5.65715661e-03 8.66287138e-03 5.65715661e-03 -1.20832574e-01
8.91574416e-02 4.00141382e-03 1.02458084e-02 4.00141382e-03 5.75853260e-02 -3.64985393e-03 1.02458084e-02 -3.64985393e-03 -1.23844430e-01
6.58194441e-02 1.02000078e-02 -1.60585617e-03 1.02000078e-02 6.76295720e-02 9.06910223e-03 -1.60585617e-03 9.06910223e-03 -1.13169136e-01
6.65639630e-02 1.99719402e-02 4.93594544e-03 1.99719402e-02 6.74043791e-02 8.84341288e-03 4.93594544e-03 8.84341288e-03 -1.13712112e-01
5.64407930e-02 6.31565566e-03 -6.63508603e-04 6.31565566e-03 6.79117106e-02 2.48793571e-03 -6.63508603e-04 2.48793571e-03 -1.05756296e-01
5.11266831e-02 9.85899470e-03 7.18363619e-04 9.85899470e-03 7.00260531e-02 1.19845988e-02 7.18363619e-04 1.19845988e-02 -1.03184741e-01
5.06335292e-02 -6.84382836e-03 -4.25519735e-04 -6.84382836e-03 6.33073710e-02 1.62942859e-03 -4.25519735e-04 1.62942859e-03 -9.66791008e-02
4.50945529e-02 -5.92685890e-03 -2.94345897e-03 -5.92685890e-03 6.31558434e-02 1.35482035e-03 -2.94345897e-03 1.35482035e-03 -9.14831776e-02
4.41642134e-02 -6.77026866e-03 -4.92344250e-03 -6.77026866e-03 6.06147833e-02 -2.47567736e-03 -4.92344250e-03 -2.47567736e-03 -8.80785864e-02
4.60152230e-02 -1.10339853e-02 -9.50912060e-03 -1.10339853e-02 5.42768398e-02 -2.94069847e-03 -9.50912060e-03 -2.94069847e-03 -8.39141915e-02
3.88256628e-02 1.68468838e-03 1.53333950e-03 1.68468838e-03 6.47265278e-02 -2.94820522e-03 1.53333950e-03 -2.94820522e-03 -8.73382017e-02
4.48436150e-02 -9.43490025e-03 -3.69677041e-03 -9.43490025e-03 5.66804213e-02 -1.51705998e-02 -3.69677041e-03 -1.51705998e-02 -8.55215862e-02
9.47419535e-02 1.79688883e-02 2.55247342e-02 1.79688883e-02 5.95363304e-02 7.93036976e-03 2.55247342e-02 7.93036976e-03 -1.29635978e-01
9.74962339e-02 1.03090347e-02 3.03909411e-02 1.03090347e-02 6.52207099e-02 -8.89868219e-03 3.03909411e-02 -8.89868219e-03 -1.37058400e-01
7.36368094e-02 2.69295776e-02 3.31304686e-03 2.69295776e-02 5.95883173e-02 4.82526785e-03 3.31304686e-03 4.82526785e-03 -1.12958197e-01
4.61846385e-02 2.17477539e-02 -2.40977223e-02 2.17477539e-02 5.28344945e-02 -2.31167488e-03 -2.40977223e-02 -2.31167488e-03 -8.30370924e-02
3.17081511e-02 -1.02257070e-03 -2.84214706e-02 -1.02257070e-03 5.09953749e-02 -1.73898148e-03 -2.84214706e-02 -1.73898148e-03 -6.93358257e-02
2.92868090e-02 -1.51098530e-02 -3.42929702e-02 -1.51098530e-02 4.57942747e-02 -1.23938580e-02 -3.42929702e-02 -1.23938580e-02 -6.25423435e-02
3.35247889e-02 -2.25658286e-02 -4.00212929e-02 -2.25658286e-02 4.03864716e-02 -1.97555171e-02 -4.00212929e-02 -1.97555171e-02 -6.15483448e-02
1.05553587e-01 -2.44149100e-03 6.76325268e-02 -2.44149100e-03 5.89035749e-02 -1.53851487e-02 6.76325268e-02 -1.53851487e-02 -1.40335021e-01
1.03303529e-01 -1.79905264e-02 6.04969499e-02 -1.79905264e-02 6.59444071e-02 -1.73643821e-02 6.04969499e-02 -1.73643821e-02 -1.45548113e-01
8.69003410e-02 1.76766948e-02 1.18611880e-02 1.76766948e-02 4.38243207e-02 -4.04064385e-02 1.18611880e-02 -4.04064385e-02 -1.09720984e-01
3.93672365e-02 2.40769411e-02 -4.35853874e-02 2.40769411e-02 1.71062937e-02 -2.75327728e-02 -4.35853874e-02 -2.75327728e-02 -4.26433412e-02
1.66256968e-02 -7.87663460e-02 -9.21661705e-02 -7.87663460e-02 -3.84420939e-02 -1.03785589e-01 -9.21661705e-02 -1.03785589e-01 5.24752066e-02
2.54319701e-04 4.22273518e-03 -1.69682757e-02 4.22273518e-03 8.43421202e-03 -8.01558497e-03 -1.69682757e-02 -8.01558497e-03 -1.70894867e-03
1.01470394e-01 -4.93029656e-04 -3.38539667e-03 -4.93029656e-04 8.46462566e-02 5.50769521e-02 -3.38539667e-03 5.50769521e-02 -1.58667773e-01
1.02347128e-01 1.31066274e-02 -3.92674352e-02 1.31066274e-02 9.72595153e-02 5.04252364e-02 -3.92674352e-02 5.04252364e-02 -1.70471877e-01
1.14879336e-01 -2.49555889e-02 2.93705836e-02 -2.49555889e-02 5.92632852e-02 -6.11576783e-02 2.93705836e-02 -6.11576783e-02 -1.52367264e-01
8.98316180e-02 -6.22959536e-03 -2.76086854e-02 -6.22959536e-03 1.13603325e-01 3.71609249e-02 -2.76086854e-02 3.71609249e-02 -1.72755614e-01
8.93569011e-02 -8.11818196e-03 1.94599157e-02 -8.11818196e-03 1.14200465e-01 -6.89812310e-04 1.94599157e-02 -6.89812310e-04 -1.70478873e-01
1.02810552e-01 -5.51644107e-03 9.55641177e-03 -5.51644107e-03 8.89623333e-02 2.70324504e-02 9.55641177e-03 2.70324504e-02 -1.62016213e-01
1.00033775e-01 5.83247375e-03 1.28926174e-02 5.83247375e-03 8.64918828e-02 -1.68261556e-02 1.28926174e-02 -1.68261556e-02 -1.57651864e-01
9.66268592e-02 2.50807600e-02 -1.52738784e-02 2.50807600e-02 9.09142327e-02 -2.83622388e-02 -1.52738784e-02 -2.83622388e-02 -1.63457394e-01
1.15362117e-01 -1.53264408e-02 -3.26886480e-02 -1.53264408e-02 6.82369657e-02 5.18139787e-02 -3.26886480e-02 5.18139787e-02 -1.55434608e-01
8.70002359e-02 1.01164111e-02 1.24677928e-02 1.01164111e-02 3.32796867e-02 -4.11141906e-02 1.24677928e-02 -4.11141906e-02 -1.04703879e-01
6.59440900e-02 -2.53594940e-02 1.19423989e-02 -2.53594940e-02 4.85562882e-02 -9.86422179e-03 1.19423989e-02 -9.86422179e-03 -9.49228527e-02
-5.84938452e-02 8.23194608e-02 4.40184548e-02 8.23194608e-02 -1.92215256e-02 2.31858063e-02 4.40184548e-02 2.31858063e-02 1.52080923e-01
-1.42027447e-02 3.95257138e-02 6.82696328e-02 3.95257138e-02 -7.90760200e-03 -7.72869214e-02 6.82696328e-02 -7.72869214e-02 5.23834340e-02
1.87823383e-02 -4.02712076e-02 -1.25088217e-02 -4.02712076e-02 -2.26026466e-02 3.98563054e-02 -1.25088217e-02 3.98563054e-02 3.58230474e-03
-1.15669562e-02 -6.81985555e-02 -1.16163171e-02 -6.81985555e-02 2.04312103e-03 -1.09458840e-02 -1.16163171e-02 -1.09458840e-02 8.88412436e-03
-2.64381742e-05 -4.55775807e-05 7.31443215e-05 -4.55775807e-05 3.01755463e-05 -5.28832097e-05 7.31443215e-05 -5.28832097e-05 -9.60917623e-06
-2.16756489e-05 8.12747021e-06 4.62947537e-06 8.12747021e-06 -1.00687600e-06 4.05900646e-05 4.62947537e-06 4.05900646e-05 1.53777728e-05
2.52541686e-05 -2.83578665e-05 1.64222365e-05 -2.83578665e-05 -9.20953062e-06 -7.07365034e-05 1.64222365e-05 -7.07365034e-05 -1.96729488e-05
1.19374581e-05 -8.21311187e-05 -6.09635754e-05 -8.21311187e-05 1.49508123e-05 6.29396309e-05 -6.09635754e-05 6.29396309e-05 -3.32523523e-05
1.75885319e-04 9.28365247e-05 5.25345764e-05 9.28365247e-05 -1.26994570e-04 1.13461931e-05 5.25345764e-05 1.13461931e-05 -2.22204119e-05
4.84725212e-05 -2.06244683e-05 -1.25019681e-05 -2.06244683e-05 -1.02758801e-04 4.25071036e-05 -1.25019681e-05 4.25071036e-05 -2.00350344e-06
-7.95311316e-05 4.30619893e-05 3.43221518e-06 4.30619893e-05 2.96820572e-05 -7.23152261e-05 3.43221518e-06 -7.23152261e-05 1.99943161e-05
-1.58569409e-04 -2.65102542e-04 -5.63113523e-06 -2.65102542e-04 6.62298189e-05 -2.30302867e-05 -5.63113523e-06 -2.30302867e-05 1.13782359e-04
9.06814411e-02 -5.27731027e-06 4.79392475e-06 -5.27731027e-06 5.75393699e-02 -2.47932621e-06 4.79392475e-06 -2.47932621e-06 -1.24816701e-01
8.32367800e-02 6.76890789e-03 -1.06406405e-05 6.76890789e-03 6.24958351e-02 4.89481236e-03 -1.06406405e-05 4.89481236e-03 -1.23123150e-01
8.86602513e-02 2.09583137e-02 3.94151057e-03 2.09583137e-02 5.88489939e-02 7.98448944e-03 3.94151057e-03 7.98448944e-03 -1.24127679e-01
9.74985957e-02 6.19204808e-03 1.85812882e-03 6.19204808e-03 5.53984307e-02 -7.68107202e-06 1.85812882e-03 -7.68107202e-06 -1.28757775e-01
6.65313751e-02 6.81256666e-03 -4.75720426e-05 6.81256666e-03 7.21670054e-02 1.13188713e-02 -4.75720426e-05 1.13188713e-02 -1.17881019e-01
6.87957322e-02 2.69432596e-02 4.73104790e-03 2.69432596e-02 6.82059042e-02 7.86385662e-03 4.73104790e-03 7.86385662e-03 -1.16148662e-01
5.24047259e-02 1.12989750e-02 -3.65837041e-05 1.12989750e-02 7.59558417e-02 7.40997377e-03 -3.65837041e-05 7.40997377e-03 -1.09284781e-01
5.05678896e-02 1.74336715e-02 7.48199283e-03 1.74336715e-02 7.42599200e-02 1.22747638e-02 7.48199283e-03 1.22747638e-02 -1.07057143e-01
4.39318605e-02 4.78773305e-04 1.01960341e-05 4.78773305e-04 7.42766187e-02 2.69626814e-03 1.01960341e-05 2.69626814e-03 -1.00701693e-01
4.02323604e-02 1.62313319e-03 1.33810684e-02 1.62313319e-03 7.10176472e-02 1.00870491e-02 1.33810684e-02 1.00870491e-02 -9.55408569e-02
4.12070584e-02 -4.42297524e-03 -5.28686724e-06 -4.42297524e-03 7.03154169e-02 -6.72909198e-04 -5.28686724e-06 -6.72909198e-04 -9.48583558e-02
3.39634884e-02 -9.79956111e-03 1.43486552e-02 -9.79956111e-03 6.52906429e-02 1.79285213e-03 1.43486552e-02 1.79285213e-03 -8.43673144e-02
3.76840420e-02 -2.38984674e-02 6.28649868e-05 -2.38984674e-02 7.49072284e-02 6.43144501e-03 6.28649868e-05 6.43144501e-03 -9.67818350e-02
3.05433767e-02 -1.48974615e-02 1.82556482e-02 -1.48974615e-02 6.83507752e-02 -1.91566180e-02 1.82556482e-02 -1.91566180e-02 -8.46702494e-02
9.72903762e-02 2.72770443e-02 -9.89567861e-03 2.72770443e-02 6.92967651e-02 1.50983874e-02 -9.89567861e-03 1.50983874e-02 -1.41132154e-01
1.07552342e-01 5.33763971e-03 -4.80580400e-03 5.33763971e-03 7.26326834e-02 -8.90542287e-06 -4.80580400e-03 -8.90542287e-06 -1.53274283e-01
7.17404382e-02 4.96894717e-02 4.72741493e-04 4.96894717e-02 6.02273736e-02 2.16849823e-02 4.72741493e-04 2.16849823e-02 -1.11396683e-01
4.13315259e-02 2.99286519e-02 1.11517084e-02 2.99286519e-02 5.51726790e-02 1.43837724e-02 1.11517084e-02 1.43837724e-02 -8.13784041e-02
2.33830507e-02 -2.29850947e-03 1.50499484e-02 -2.29850947e-03 4.36654394e-02 1.15961751e-02 1.50499484e-02 1.15961751e-02 -5.52050145e-02
1.73420033e-02 -1.54574609e-02 1.73425809e-02 -1.54574609e-02 3.58912749e-02 -2.87479709e-03 1.73425809e-02 -2.87479709e-03 -4.31290986e-02
2.47965595e-02 -1.86723117e-02 1.07614836e-02 -1.86723117e-02 2.60527744e-02 -1.25651699e-02 1.07614836e-02 -1.25651699e-02 -4.12313119e-02
1.13385454e-01 -7.24194234e-03 3.86108179e-02 -7.24194234e-03 9.35875140e-02 2.01892732e-02 3.86108179e-02 2.01892732e-02 -1.86627783e-01
1.19215690e-01 -5.63439215e-03 2.56979503e-02 -5.63439215e-03 1.05579361e-01 -7.37546652e-05 2.56979503e-02 -7.37546652e-05 -2.03402340e-01
7.69252380e-02 3.16340908e-02 8.03930468e-03 3.16340908e-02 4.54727523e-02 3.20636500e-02 8.03930468e-03 3.20636500e-02 -1.04400463e-01
2.54554947e-02 1.80571098e-02 1.06456117e-02 1.80571098e-02 1.53848300e-02 1.56916354e-02 1.06456117e-02 1.56916354e-02 -2.83683417e-02
1.47709346e-04 -8.02030361e-03 8.00767637e-04 -8.02030361e-03 7.04958478e-03 7.39976793e-04 8.00767637e-04 7.39976793e-04 -2.34906387e-03
-3.75605637e-03 -7.89247613e-03 -2.17594439e-02 -7.89247613e-03 1.09446144e-02 -8.60494531e-04 -2.17594439e-02 -8.60494531e-04 -4.05008848e-03
-8.73648011e-04 -5.85727484e-03 7.18381591e-04 -5.85727484e-03 5.34343641e-03 5.52840036e-04 7.18381591e-04 5.52840036e-04 -1.23487422e-03
7.72311585e-04 -2.17787701e-02 -2.05157808e-02 -2.17787701e-02 1.73224846e-03 -3.10696865e-04 -2.05157808e-02 -3.10696865e-04 3.43478459e-04
2.40956491e-03 -1.43004983e-02 1.79218245e-03 -1.43004983e-02 -1.55606825e-03 2.16030552e-04 1.79218245e-03 2.16030552e-04 2.02399347e-03
2.70058126e-02 -2.73656379e-03 -2.70011518e-02 -2.73656379e-03 -1.73771814e-02 -6.33214703e-02 -2.70011518e-02 -6.33214703e-02 1.97558105e-03
-1.46201998e-03 -1.22645710e-03 1.27167841e-02 -1.22645710e-03 -3.94010771e-04 1.07611651e-02 1.27167841e-02 1.07611651e-02 1.33127533e-02
5.67351878e-02 3.72659825e-02 -1.06529929e-02 3.72659825e-02 6.70637488e-02 9.05315578e-02 -1.06529929e-02 9.05315578e-02 -1.11396253e-01
3.40341673e-04 -1.77437802e-04 -6.35630272e-04 -1.77437802e-04 3.40537837e-04 5.88628252e-03 -6.35630272e-04 5.88628252e-03 -7.57912979e-06
-1.80656995e-03 -4.74954555e-03 2.03783896e-04 -4.74954555e-03 1.29199652e-03 1.43818271e-04 2.03783896e-04 1.43818271e-04 1.27878133e-03
-1.83361701e-04 2.33986000e-04 2.46630481e-04 2.33986000e-04 3.78640951e-04 -1.21406374e-05 2.46630481e-04 -1.21406374e-05 -3.42525445e-05
-1.53811897e-04 -2.51494426e-04 -9.76340216e-05 -2.51494426e-04 1.91967345e-04 8.58684252e-05 -9.76340216e-05 8.58684252e-05 1.19816979e-04
2.83724234e-04 -1.11224368e-03 5.40684945e-04 -1.11224368e-03 -5.31942758e-04 1.84453600e-05 5.40684945e-04 1.84453600e-05 3.84177414e-04
4.57550865e-04 -1.27680419e-03 -1.43337362e-04 -1.27680419e-03 -1.05695342e-03 -8.95346420e-05 -1.43337362e-04 -8.95346420e-05 7.34508223e-04
1.10785693e-01 2.61156019e-02 -2.56436169e-02 2.61156019e-02 1.75890729e-01 6.42560772e-04 -2.56436169e-02 6.42560772e-04 -2.56939828e-01
1.40395284e-01 1.33156404e-02 -1.22382613e-02 1.33156404e-02 1.56654745e-01 2.52059754e-02 -1.22382613e-02 2.52059754e-02 -2.70148337e-01
1.08297827e-01 -2.76591874e-02 2.55777712e-02 -2.76591874e-02 1.17716702e-01 3.05661081e-02 2.55777712e-02 3.05661081e-02 -1.91208025e-01
1.11577146e-01 -2.18375297e-02 3.86648830e-02 -2.18375297e-02 1.25656907e-01 2.69684460e-04 3.86648830e-02 2.69684460e-04 -2.02789843e-01
7.35166859e-05 3.08912277e-05 -1.04152046e-06 3.08912277e-05 -6.36086661e-05 -5.56450768e-05 -1.04152046e-06 -5.56450768e-05 2.40511907e-05
1.30772999e-02 -1.61459988e-02 3.82716389e-05 -1.61459988e-02 -5.11570097e-03 3.60713466e-04 3.82716389e-05 3.60713466e-04 -6.02576444e-03
9.23057960e-05 7.45082434e-05 2.52817608e-05 7.45082434e-05 -1.27636995e-04 3.69937770e-05 2.52817608e-05 3.69937770e-05 -4.84065222e-05
1.24450989e-01 -2.66256602e-02 2.07927832e-02 -2.66256602e-02 8.18033293e-02 2.13044565e-02 2.07927832e-02 2.13044565e-02 -1.75738432e-01
1.29629314e-01 1.05861491e-02 1.61177274e-02 1.05861491e-02 6.85269386e-02 -2.02994328e-04 1.61177274e-02 -2.02994328e-04 -1.65258527e-01
1.02304474e-01 6.86783344e-03 6.22723531e-03 6.86783344e-03 9.32428315e-02 3.94272339e-02 6.22723531e-03 3.94272339e-02 -1.69509158e-01
1.22780152e-01 -2.92116940e-02 -3.62886523e-03 -2.92116940e-02 7.05756545e-02 4.43771444e-02 -3.62886523e-03 4.43771444e-02 -1.65157542e-01
5.77752180e-02 1.42516908e-02 -2.13704128e-02 1.42516908e-02 3.17948125e-02 1.77889708e-02 -2.13704128e-02 1.77889708e-02 -6.69108480e-02
4.28609239e-02 -1.45091154e-02 -1.51665271e-02 -1.45091154e-02 5.71462307e-02 2.14775773e-02 -1.51665271e-02 2.14775773e-02 -7.61491414e-02
-1.20531726e-02 -4.07638120e-02 -7.96138629e-04 -4.07638120e-02 9.21540547e-03 3.81882783e-04 -7.96138629e-04 3.81882783e-04 6.56117184e-03
-3.25798753e-04 -4.89953964e-05 -6.19848106e-05 -4.89953964e-05 1.30512653e-04 1.35653718e-05 -6.19848106e-05 1.35653718e-05 2.24391613e-04
-9.23724510e-05 6.12634030e-05 -1.78985874e-06 6.12634030e-05 5.99174973e-06 -2.98093255e-06 -1.78985874e-06 -2.98093255e-06 3.49170914e-05
</DataArray>
<DataArray type="Float32" Name="Plastic_strain_components" NumberOfComponents="9" format="ascii">
4.02892707e-02 -8.46362284e-03 2.78764236e-03 -8.46362284e-03 3.44519941e-02 7.90969165e-03 2.78764236e-03 7.90969165e-03 -6.26612068e-02
3.45416524e-02 -1.61945907e-02 5.99705469e-04 -1.61945907e-02 3.72564344e-02 1.74237419e-02 5.99705469e-04 1.74237419e-02 -5.80373085e-02
3.68669005e-02 7.07777712e-04 1.70810183e-03 7.07777712e-04 5.08778007e-02 -5.82336733e-03 1.70810183e-03 -5.82336733e-03 -7.10290428e-02
4.18845462e-02 -1.81140272e-03 -3.16605857e-03 -1.81140272e-03 4.73524453e-02 -3.22782202e-04 -3.16605857e-03 -3.22782202e-04 -7.52031785e-02
2.20886292e-02 4.32863584e-04 1.49798559e-02 4.32863584e-04 2.81032857e-02 6.49356924e-04 1.49798559e-02 6.49356924e-04 -3.52207669e-02
2.68213849e-02 -9.43953168e-03 -6.90027227e-03 -9.43953168e-03 4.10309283e-02 2.47353615e-02 -6.90027227e-03 2.47353615e-02 -5.09397366e-02
6.66846698e-02 -1.18299616e-02 -1.19682607e-02 -1.18299616e-02 8.49128440e-02 -1.65576413e-02 -1.19682607e-02 -1.65576413e-02 -1.31051138e-01
5.55496318e-02 1.92162846e-02 4.05120198e-03 1.92162846e-02 6.80070510e-02 2.20782696e-02 4.05120198e-03 2.20782696e-02 -1.07492639e-01
5.71107510e-02 1.70043088e-04 -2.30574135e-02 1.70043088e-04 6.23513488e-02 3.10860942e-02 -2.30574135e-02 3.10860942e-02 -1.03205726e-01
7.39836544e-02 -2.22364219e-03 -2.19887989e-02 -2.22364219e-03 8.03110339e-02 2.40152031e-02 -2.19887989e-02 2.40152031e-02 -1.31489579e-01
8.43292549e-02 3.11472571e-02 -1.14997597e-01 3.11472571e-02 8.27053369e-02 -2.78094939e-02 -1.14997597e-01 -2.78094939e-02 -1.43275283e-01
9.64711905e-02 2.65427250e-02 -7.14152511e-02 2.65427250e-02 4.74661179e-02 -1.11957379e-02 -7.14152511e-02 -1.11957379e-02 -1.17544331e-01
0.00000000e+00 0.00000000e+00 0.00000000e+00 0.00000000e+00 0.00000000e+00 0.00000000e+00 0.00000000e+00 0.00000000e+00 0.00000000e+00
0.00000000e+00 0.00000000e+00 0.00000000e+00 0.00000000e+00 0.00000000e+00 0.00000000e+00 0.00000000e+00 0.00000000e+00 0.00000000e+00
0.00000000e+00 0.00000000e+00 0.00000000e+00 0.00000000e+00 0.00000000e+00 0.00000000e+00 0.00000000e+00 0.00000000e+00 0.00000000e+00
0.00000000e+00 0.00000000e+00 0.00000000e+00 0.00000000e+00 0.00000000e+00 0.00000000e+00 0.00000000e+00 0.00000000e+00 0.00000000e+00
0.00000000e+00 0.00000000e+00 0.00000000e+00 0.00000000e+00 0.00000000e+00 0.00000000e+00 0.00000000e+00 0.00000000e+00 0.00000000e+00
0.00000000e+00 0.00000000e+00 0.00000000e+00 0.00000000e+00 0.00000000e+00 0.00000000e+00 0.00000000e+00 0.00000000e+00 0.00000000e+00
0.00000000e+00 0.00000000e+00 0.00000000e+00 0.00000000e+00 0.00000000e+00 0.00000000e+00 0.00000000e+00 0.00000000e+00 0.00000000e+00
0.00000000e+00 0.00000000e+00 0.00000000e+00 0.00000000e+00 0.00000000e+00 0.00000000e+00 0.00000000e+00 0.00000000e+00 0.00000000e+00
5.51094543e-02 8.91254695e-06 1.00856945e-02 8.91254695e-06 5.79469707e-02 -2.19019991e-03 1.00856945e-02 -2.19019991e-03 -9.52050537e-02
5.66078322e-02 3.06760787e-03 6.43882377e-03 3.06760787e-03 5.59704397e-02 3.13155644e-03 6.43882377e-03 3.13155644e-03 -9.47898272e-02
5.47994808e-02 -9.09000565e-03 1.19958647e-02 -9.09000565e-03 5.70299868e-02 4.27644026e-03 1.19958647e-02 4.27644026e-03 -9.40934066e-02
5.31864902e-02 2.14815064e-03 1.05387129e-02 2.14815064e-03 5.92192532e-02 -5.77170483e-03 1.05387129e-02 -5.77170483e-03 -9.46307313e-02
6.99330196e-02 -1.54582667e-05 1.24645364e-02 -1.54582667e-05 5.41715492e-02 9.59861005e-04 1.24645364e-02 9.59861005e-04 -1.04448710e-01
6.75339028e-02 1.85516750e-03 1.77003987e-03 1.85516750e-03 5.74151659e-02 1.11549068e-02 1.77003987e-03 1.11549068e-02 -1.05172554e-01
6.89851353e-02 4.18732280e-03 1.49171677e-02 4.18732280e-03 5.77651029e-02 4.99311904e-03 1.49171677e-02 4.99311904e-03 -1.06629461e-01
7.10606351e-02 3.63221642e-03 1.53981317e-02 3.63221642e-03 5.74445669e-02 -9.76929534e-03 1.53981317e-02 -9.76929534e-03 -1.08113149e-01
6.07949132e-02 -1.18427514e-02 9.98229743e-03 -1.18427514e-02 5.01847761e-02 4.61552670e-04 9.98229743e-03 4.61552670e-04 -9.33925193e-02
5.94388191e-02 -1.18791485e-02 1.28188959e-02 -1.18791485e-02 5.55718951e-02 5.75195874e-03 1.28188959e-02 5.75195874e-03 -9.67069194e-02
6.34655384e-02 2.87009083e-03 -3.85513515e-04 2.87009083e-03 5.80090825e-02 5.29710629e-03 -3.85513515e-04 5.29710629e-03 -1.02299199e-01
6.26920974e-02 4.30596716e-03 1.37389762e-02 4.30596716e-03 6.20618938e-02 1.64038463e-02 1.37389762e-02 1.64038463e-02 -1.04998624e-01
6.47429945e-02 1.11491021e-03 4.32528439e-03 1.11491021e-03 4.75535374e-02 6.41688539e-03 4.32528439e-03 6.41688539e-03 -9.44763999e-02
5.98503791e-02 -5.44472324e-03 -4.65579092e-03 -5.44472324e-03 4.87055464e-02 -4.67879209e-03 -4.65579092e-03 -4.67879209e-03 -8.95665879e-02
6.21479359e-02 -6.73077663e-03 2.07017740e-03 -6.73077663e-03 5.26062679e-02 6.70340846e-03 2.07017740e-03 6.70340846e-03 -9.66198910e-02
5.94445723e-02 -5.87583845e-03 -4.73190506e-03 -5.87583845e-03 5.77875134e-02 5.66374321e-03 -4.73190506e-03 5.66374321e-03 -9.86436475e-02
6.79091811e-02 2.82983482e-03 -5.47194213e-03 2.82983482e-03 4.50769514e-02 3.11356271e-05 -5.47194213e-03 3.11356271e-05 -9.50164385e-02
6.80253464e-02 8.24847084e-04 -9.52645994e-03 8.24847084e-04 6.31388458e-02 8.97710561e-05 -9.52645994e-03 8.97710561e-05 -1.11102473e-01
6.06426336e-02 -3.13979620e-03 -7.45211390e-03 -3.13979620e-03 4.73732753e-02 5.76137868e-03 -7.45211390e-03 5.76137868e-03 -9.09330249e-02
5.69443032e-02 -1.08423595e-02 -1.11665168e-02 -1.08423595e-02 4.71127816e-02 -6.55470359e-03 -1.11665168e-02 -6.55470359e-03 -8.65738131e-02
6.57703588e-02 3.16692167e-04 2.50655354e-03 3.16692167e-04 4.65028910e-02 -2.90674424e-03 2.50655354e-03 -2.90674424e-03 -9.44645014e-02
6.60369750e-02 -1.03942692e-03 4.62199037e-04 -1.03942692e-03 5.98032000e-02 3.55490224e-03 4.62199037e-04 3.55490224e-03 -1.05885443e-01
5.42357843e-02 -9.90619941e-04 -1.31219998e-02 -9.90619941e-04 4.63400614e-02 -1.94642208e-03 -1.31219998e-02 -1.94642208e-03 -8.46597273e-02
5.81906419e-02 -3.39769802e-03 -1.14417277e-02 -3.39769802e-03 5.45931766e-02 -6.30417267e-03 -1.14417277e-02 -6.30417267e-03 -9.51494612e-02
6.34681191e-02 -6.18413032e-04 1.65300473e-03 -6.18413032e-04 4.76856604e-02 -2.33353721e-03 1.65300473e-03 -2.33353721e-03 -9.34914537e-02
6.15989463e-02 -5.82029836e-03 -3.30047990e-03 -5.82029836e-03 6.10801009e-02 -2.07319221e-03 -3.30047990e-03 -2.07319221e-03 -1.03254607e-01
5.00361267e-02 1.44825308e-02 -8.95658229e-03 1.44825308e-02 4.80851606e-02 -1.33959940e-02 -8.95658229e-03 -1.33959940e-02 -8.25410224e-02
5.60726607e-02 1.87289692e-03 -7.67898528e-03 1.87289692e-03 5.30366618e-02 -8.01640894e-03 -7.67898528e-03 -8.01640894e-03 -9.17345341e-02
5.04446970e-02 -1.57007130e-02 3.17530872e-02 -1.57007130e-02 6.18125242e-02 2.09194998e-03 3.17530872e-02 2.09194998e-03 -9.38379737e-02
4.29563392e-02 -1.41705950e-02 2.37262414e-02 -1.41705950e-02 6.64900476e-02 -3.60713259e-03 2.37262414e-02 -3.60713259e-03 -9.18588135e-02
7.39938738e-02 1.79164867e-03 4.15863916e-02 1.79164867e-03 6.23066169e-02 1.37961588e-02 4.15863916e-02 1.37961588e-02 -1.14362061e-01
7.07718693e-02 2.08880538e-05 2.98924847e-02 2.08880538e-05 6.30204128e-02 -1.79926030e-03 2.98924847e-02 -1.79926030e-03 -1.12410992e-01
6.43513996e-02 -3.91630323e-04 2.42970226e-02 -3.91630323e-04 5.93053975e-02 -3.56161288e-03 2.42970226e-02 -3.56161288e-03 -1.04835685e-01
6.70223525e-02 1.40779036e-02 1.35268969e-02 1.40779036e-02 6.32037609e-02 -6.07595744e-03 1.35268969e-02 -6.07595744e-03 -1.09188919e-01
7.65307233e-02 -1.75287718e-02 -6.66970722e-02 -1.75287718e-02 6.99452996e-02 -1.08707119e-03 -6.66970722e-02 -1.08707119e-03 -1.21801949e-01
5.70694128e-02 8.64287855e-03 -4.94094105e-02 8.64287855e-03 6.23998839e-02 -8.61544907e-03 -4.94094105e-02 -8.61544907e-03 -1.01783857e-01
7.18199089e-02 -2.53335480e-03 -1.92933804e-02 -2.53335480e-03 8.23169127e-02 1.24459089e-02 -1.92933804e-02 1.24459089e-02 -1.29342493e-01
6.32150404e-02 -8.65602959e-03 -6.57990444e-02 -8.65602959e-03 5.08681918e-02 6.85629311e-03 -6.57990444e-02 6.85629311e-03 -9.43375342e-02
7.17564952e-02 -5.67072484e-03 -1.56117009e-03 -5.67072484e-03 8.08315519e-02 1.18218083e-02 -1.56117009e-03 1.18218083e-02 -1.28502119e-01
6.27000742e-02 2.44546792e-03 -2.45140325e-02 2.44546792e-03 7.24509936e-02 -2.77785340e-03 -2.45140325e-02 -2.77785340e-03 -1.13621626e-01
6.40746560e-02 -5.24656358e-03 -4.40490071e-03 -5.24656358e-03 8.45145732e-02 3.72777961e-03 -4.40490071e-03 3.72777961e-03 -1.25034757e-01
5.83917554e-02 -7.72224856e-03 -2.62431279e-02 -7.72224856e-03 7.52871111e-02 -1.76031212e-02 -2.62431279e-02 -1.76031212e-02 -1.12238586e-01
4.61948458e-02 -9.75020702e-03 4.65723271e-02 -9.75020702e-03 6.35952965e-02 3.18573113e-03 4.65723271e-02 3.18573113e-03 -9.24041974e-02
3.85000054e-02 3.17240960e-03 3.43324910e-02 3.17240960e-03 5.98427085e-02 3.80423467e-03 3.43324910e-02 3.80423467e-03 -8.21046233e-02
8.11168796e-02 -4.84716174e-03 5.15245588e-02 -4.84716174e-03 6.80275543e-02 -8.87046036e-03 5.15245588e-02 -8.87046036e-03 -1.25835959e-01
6.46471577e-02 1.40153963e-03 4.85402951e-02 1.40153963e-03 6.79266043e-02 -1.04941488e-02 4.85402951e-02 -1.04941488e-02 -1.11115610e-01
5.41080344e-02 -3.00465263e-02 6.03222377e-02 -3.00465263e-02 7.42440866e-02 -6.85752751e-02 6.03222377e-02 -6.85752751e-02 -1.04320066e-01
8.52640435e-02 -6.34002499e-05 1.49275837e-02 -6.34002499e-05 6.55851968e-02 -5.66008769e-02 1.49275837e-02 -5.66008769e-02 -1.27303532e-01
-2.52262522e-02 -1.29514039e-01 -2.27873296e-01 -1.29514039e-01 -6.59413915e-03 -1.37202144e-01 -2.27873296e-01 -1.37202144e-01 4.58235219e-02
2.36820504e-02 -6.72360758e-03 -2.44516556e-02 -6.72360758e-03 1.91607326e-02 -3.92659679e-02 -2.44516556e-02 -3.92659679e-02 -2.60802209e-02
3.40233008e-02 -3.59710321e-03 1.21060247e-02 -3.59710321e-03 4.31590921e-02 2.68391701e-02 1.21060247e-02 2.68391701e-02 -6.30462287e-02
4.06530416e-02 -8.78189015e-03 3.12268751e-02 -8.78189015e-03 5.30797374e-02 1.01997338e-02 3.12268751e-02 1.01997338e-02 -7.93381818e-02
2.40784238e-02 -6.33090540e-03 2.98381968e-02 -6.33090540e-03 3.16838572e-02 2.35373542e-02 2.98381968e-02 2.35373542e-02 -3.48303889e-02
3.93028592e-02 -6.57497637e-03 1.73165392e-02 -6.57497637e-03 4.83924223e-02 1.61361361e-02 1.73165392e-02 1.61361361e-02 -6.62068063e-02
4.23080949e-02 7.06413912e-03 -3.78206326e-03 7.06413912e-03 5.29970508e-02 5.95579797e-03 -3.78206326e-03 5.95579797e-03 -8.10075626e-02
7.63103547e-02 1.42430690e-02 -2.13306212e-02 1.42430690e-02 8.79526846e-02 4.51019537e-02 -2.13306212e-02 4.51019537e-02 -1.43063073e-01
4.32024864e-02 1.65264588e-02 8.93513742e-03 1.65264588e-02 6.26714963e-02 1.03348769e-02 8.93513742e-03 1.03348769e-02 -8.36208512e-02
3.98519933e-02 8.25414885e-03 1.87062172e-02 8.25414885e-03 5.65601364e-02 8.87490958e-02 1.87062172e-02 8.87490958e-02 -7.83696445e-02
1.03448354e-01 -1.27112237e-02 8.23529195e-02 -1.27112237e-02 9.25719552e-02 3.57805179e-02 8.23529195e-02 3.57805179e-02 -1.68282598e-01
5.46180926e-02 -2.22614996e-02 -4.10443462e-02 -2.22614996e-02 8.68132100e-02 -1.43100843e-02 -4.10443462e-02 -1.43100843e-02 -1.17824160e-01
3.99874821e-02 -4.75393585e-03 6.89365738e-03 -4.75393585e-03 5.49168047e-02 1.19156027e-02 6.89365738e-03 1.19156027e-02 -7.93393590e-02
2.29434061e-02 1.31264113e-02 -8.53996351e-03 1.31264113e-02 2.26893353e-02 -5.92109415e-03 -8.53996351e-03 -5.92109415e-03 -2.22484497e-02
5.23300637e-02 -1.36682028e-02 1.60715457e-02 -1.36682028e-02 7.57257119e-02 -1.78067517e-02 1.60715457e-02 -1.78067517e-02 -1.05755553e-01
7.70901823e-02 -2.33889227e-02 -5.74025330e-02 -2.33889227e-02 8.91476497e-02 6.46435129e-02 -5.74025330e-02 6.46435129e-02 -1.40441315e-01
3.64794967e-02 5.66346322e-02 -1.12195228e-03 5.66346322e-02 8.28069945e-02 -1.36784411e-01 -1.12195228e-03 -1.36784411e-01 -9.49161009e-02
8.23861663e-02 -8.52970383e-03 -1.30456363e-02 -8.52970383e-03 4.65679926e-02 -3.71702914e-02 -1.30456363e-02 -3.71702914e-02 -1.07273464e-01
8.49646926e-02 8.28921475e-06 4.04888950e-03 8.28921475e-06 5.49122784e-02 -3.11970850e-03 4.04888950e-03 -3.11970850e-03 -1.17605053e-01
7.90504105e-02 3.58236919e-03 3.56784923e-03 3.58236919e-03 5.99224633e-02 6.02879871e-03 3.56784923e-03 6.02879871e-03 -1.16932433e-01
8.18508090e-02 1.42462059e-02 8.64929194e-03 1.42462059e-02 6.09104955e-02 5.62872240e-03 8.64929194e-03 5.62872240e-03 -1.20071039e-01
8.90608616e-02 3.99248989e-03 1.02506352e-02 3.99248989e-03 5.75368907e-02 -3.62293661e-03 1.02506352e-02 -3.62293661e-03 -1.23234224e-01
6.57854164e-02 1.01581987e-02 -1.59427311e-03 1.01581987e-02 6.75646588e-02 9.02189623e-03 -1.59427311e-03 9.02189623e-03 -1.12263121e-01
6.65399549e-02 1.98871298e-02 4.89808008e-03 1.98871298e-02 6.73712716e-02 8.74391760e-03 4.89808008e-03 8.74391760e-03 -1.12626640e-01
5.63708683e-02 6.29258016e-03 -7.17869960e-04 6.29258016e-03 6.77767731e-02 2.45650846e-03 -7.17869960e-04 2.45650846e-03 -1.04539601e-01
5.11243208e-02 9.86790364e-03 7.44384830e-04 9.86790364e-03 6.96418369e-02 1.19394903e-02 7.44384830e-04 1.19394903e-02 -1.01392161e-01
5.05944770e-02 -6.77602750e-03 -4.52342909e-04 -6.77602750e-03 6.32383609e-02 1.59845373e-03 -4.52342909e-04 1.59845373e-03 -9.58382003e-02
4.56937989e-02 -5.79319902e-03 -3.25369823e-03 -5.79319902e-03 6.43418827e-02 1.17421216e-03 -3.25369823e-03 1.17421216e-03 -9.28994585e-02
4.40756511e-02 -6.75881712e-03 -4.93682886e-03 -6.75881712e-03 6.05247067e-02 -2.44347514e-03 -4.93682886e-03 -2.44347514e-03 -8.80291592e-02
4.67863777e-02 -1.17908994e-02 -9.99993191e-03 -1.17908994e-02 5.58132497e-02 -3.27383068e-03 -9.99993191e-03 -3.27383068e-03 -8.68338672e-02
3.88151277e-02 1.65433408e-03 1.49399613e-03 1.65433408e-03 6.46652542e-02 -2.87615589e-03 1.49399613e-03 -2.87615589e-03 -8.69971290e-02
4.48412411e-02 -9.52423015e-03 -4.05121408e-03 -9.52423015e-03 5.66127300e-02 -1.51091549e-02 -4.05121408e-03 -1.51091549e-02 -8.52553286e-02
8.19685510e-02 1.83381168e-02 2.09162370e-02 1.83381168e-02 5.19448060e-02 6.59593401e-03 2.09162370e-02 6.59593401e-03 -1.08656268e-01
8.81951693e-02 1.01105629e-02 2.89582799e-02 1.01105629e-02 5.61514124e-02 -8.47718946e-03 2.89582799e-02 -8.47718946e-03 -1.18230518e-01
6.37900328e-02 2.35785035e-02 2.13311863e-03 2.35785035e-02 5.45655949e-02 4.74616204e-03 2.13311863e-03 4.74616204e-03 -9.66168712e-02
4.41770150e-02 1.96976031e-02 -2.25681702e-02 1.96976031e-02 5.18364060e-02 -4.79993914e-03 -2.25681702e-02 -4.79993914e-03 -7.99381544e-02
2.92289941e-02 -1.26175260e-03 -2.99972393e-02 -1.26175260e-03 4.58741874e-02 -2.25776978e-03 -2.99972393e-02 -2.25776978e-03 -6.23260453e-02
2.38431928e-02 -1.07823123e-02 -3.18579303e-02 -1.07823123e-02 3.60742148e-02 -1.06641539e-02 -3.18579303e-02 -1.06641539e-02 -4.70904425e-02
3.24572989e-02 -2.11087515e-02 -3.80936731e-02 -2.11087515e-02 3.91510303e-02 -1.93633946e-02 -3.80936731e-02 -1.93633946e-02 -5.90563156e-02
1.13557742e-01 -1.71163383e-03 6.87152954e-02 -1.71163383e-03 6.32341448e-02 -1.51824863e-02 6.87152954e-02 -1.51824863e-02 -1.49268580e-01
1.07608308e-01 -1.78493907e-02 6.11150339e-02 -1.78493907e-02 7.02770539e-02 -1.76714951e-02 6.11150339e-02 -1.76714951e-02 -1.49753538e-01
8.40961809e-02 1.89807367e-02 7.11050486e-03 1.89807367e-02 4.15008223e-02 -4.71967068e-02 7.11050486e-03 -4.71967068e-02 -1.04661813e-01
1.00059363e-02 1.28341528e-02 -2.41775644e-02 1.28341528e-02 6.20532315e-03 -2.57194595e-03 -2.41775644e-02 -2.57194595e-03 -5.01582973e-03
6.22709515e-03 -7.04446658e-02 -8.42073560e-02 -7.04446658e-02 -3.94214317e-02 -9.31640640e-02 -8.42073560e-02 -9.31640640e-02 4.22472134e-02
-2.99715431e-03 3.15415992e-03 -1.51140195e-03 3.15415992e-03 3.63499869e-03 -9.31924640e-04 -1.51140195e-03 -9.31924640e-04 4.76439793e-03
1.22336788e-01 -4.03350161e-03 -6.35110587e-03 -4.03350161e-03 1.09785767e-01 6.62232395e-02 -6.35110587e-03 6.62232395e-02 -2.00530512e-01
1.18183893e-01 1.18794755e-02 -4.10145977e-02 1.18794755e-02 1.18284633e-01 5.42919015e-02 -4.10145977e-02 5.42919015e-02 -2.05002174e-01
1.16370723e-01 -2.58181742e-02 2.59472178e-02 -2.58181742e-02 5.59686664e-02 -7.15826247e-02 2.59472178e-02 -7.15826247e-02 -1.43963136e-01
6.79161930e-02 -2.08847132e-03 -1.75499576e-02 -2.08847132e-03 8.62989426e-02 2.66165106e-02 -1.75499576e-02 2.66165106e-02 -1.20692503e-01
6.91002636e-02 -5.04560248e-03 1.70315483e-02 -5.04560248e-03 7.96887898e-02 -2.39871896e-03 1.70315483e-02 -2.39871896e-03 -1.15705312e-01
1.12383632e-01 -2.59206211e-03 8.40794435e-03 -2.59206211e-03 9.87329502e-02 3.42660134e-02 8.40794435e-03 3.42660134e-02 -1.81873877e-01
1.00694120e-01 5.26584708e-03 1.35096586e-02 5.26584708e-03 8.80304351e-02 -1.76028879e-02 1.35096586e-02 -1.76028879e-02 -1.59479626e-01
1.04894726e-01 2.58002011e-02 -1.45665101e-02 2.58002011e-02 9.58562698e-02 -3.47550390e-02 -1.45665101e-02 -3.47550390e-02 -1.70082558e-01
1.17842197e-01 -1.78489462e-02 -3.08105778e-02 -1.78489462e-02 6.70239488e-02 4.72155372e-02 -3.08105778e-02 4.72155372e-02 -1.55258421e-01
6.97308297e-02 1.04299350e-02 8.08058289e-03 1.04299350e-02 2.84575273e-02 -1.58880223e-02 8.08058289e-03 -1.58880223e-02 -7.86535311e-02
4.42943289e-02 -2.53406671e-02 5.70942648e-03 -2.53406671e-02 4.21926462e-02 4.15858952e-03 5.70942648e-03 4.15858952e-03 -6.79930863e-02
-1.41932340e-02 3.46788205e-02 2.06032265e-02 3.46788205e-02 -9.54928901e-03 -1.10257529e-02 2.06032265e-02 -1.10257529e-02 3.40838805e-02
-2.50287913e-03 -6.68207090e-03 6.54125959e-03 -6.68207090e-03 -1.23996465e-02 2.23684236e-02 6.54125959e-03 2.23684236e-02 2.66113169e-02
1.79723613e-02 -4.59390010e-02 -1.27907297e-02 -4.59390010e-02 -2.32144232e-02 4.53256329e-02 -1.27907297e-02 4.53256329e-02 1.07178643e-02
-8.16486561e-03 -3.19558071e-02 3.98105690e-03 -3.19558071e-02 8.35734183e-03 -4.96299609e-02 3.98105690e-03 -4.96299609e-02 7.19843825e-03
0.00000000e+00 0.00000000e+00 0.00000000e+00 0.00000000e+00 0.00000000e+00 0.00000000e+00 0.00000000e+00 0.00000000e+00 0.00000000e+00
0.00000000e+00 0.00000000e+00 0.00000000e+00 0.00000000e+00 0.00000000e+00 0.00000000e+00 0.00000000e+00 0.00000000e+00 0.00000000e+00
0.00000000e+00 0.00000000e+00 0.00000000e+00 0.00000000e+00 0.00000000e+00 0.00000000e+00 0.00000000e+00 0.00000000e+00 0.00000000e+00
0.00000000e+00 0.00000000e+00 0.00000000e+00 0.00000000e+00 0.00000000e+00 0.00000000e+00 0.00000000e+00 0.00000000e+00 0.00000000e+00
1.92103546e-05 -2.95122849e-05 -2.37856713e-05 -2.95122849e-05 -4.01859192e-05 -3.65513104e-05 -2.37856713e-05 -3.65513104e-05 9.39507136e-06
0.00000000e+00 0.00000000e+00 0.00000000e+00 0.00000000e+00 0.00000000e+00 0.00000000e+00 0.00000000e+00 0.00000000e+00 0.00000000e+00
0.00000000e+00 0.00000000e+00 0.00000000e+00 0.00000000e+00 0.00000000e+00 0.00000000e+00 0.00000000e+00 0.00000000e+00 0.00000000e+00
-3.24445282e-05 -1.53776627e-04 1.33469415e-05 -1.53776627e-04 9.07231394e-06 4.47171897e-06 1.33469415e-05 4.47171897e-06 3.41859874e-05
9.05080214e-02 1.06112566e-06 2.73840851e-06 1.06112566e-06 5.74246421e-02 7.62214768e-07 2.73840851e-06 7.62214768e-07 -1.24369510e-01
8.30440037e-02 6.75571198e-03 -1.22899182e-05 6.75571198e-03 6.23749234e-02 4.88893432e-03 -1.22899182e-05 4.88893432e-03 -1.22363936e-01
8.85668863e-02 2.09698624e-02 3.94600444e-03 2.09698624e-02 5.87834641e-02 7.99324061e-03 3.94600444e-03 7.99324061e-03 -1.23800641e-01
9.73844044e-02 6.18309877e-03 1.85293937e-03 6.18309877e-03 5.53255007e-02 -3.73684088e-06 1.85293937e-03 -3.73684088e-06 -1.28255107e-01
6.65387344e-02 6.77956152e-03 -4.56968355e-05 6.77956152e-03 7.21516199e-02 1.12661957e-02 -4.56968355e-05 1.12661957e-02 -1.16745483e-01
6.87774587e-02 2.68420996e-02 4.72686160e-03 2.68420996e-02 6.81735240e-02 7.83759693e-03 4.72686160e-03 7.83759693e-03 -1.15122253e-01
5.24602439e-02 1.12142274e-02 -3.87433538e-05 1.12142274e-02 7.58717172e-02 7.37286080e-03 -3.87433538e-05 7.37286080e-03 -1.07932661e-01
5.05427485e-02 1.73621601e-02 7.19253416e-03 1.73621601e-02 7.33611006e-02 1.19993184e-02 7.19253416e-03 1.19993184e-02 -1.03811707e-01
4.39952668e-02 5.18339133e-04 1.35038772e-06 5.18339133e-04 7.41076134e-02 2.67084595e-03 1.35038772e-06 2.67084595e-03 -9.92468037e-02
4.24215393e-02 1.94025009e-03 1.40842344e-02 1.94025009e-03 7.55307097e-02 1.08002364e-02 1.40842344e-02 1.08002364e-02 -1.00149697e-01
4.12757676e-02 -4.40788036e-03 -1.16480769e-05 -4.40788036e-03 7.01849349e-02 -6.35794684e-04 -1.16480769e-05 -6.35794684e-04 -9.36762169e-02
3.63095263e-02 -1.29048930e-02 1.60337090e-02 -1.29048930e-02 7.19284918e-02 1.58416919e-03 1.60337090e-02 1.58416919e-03 -9.24579632e-02
3.79685499e-02 -2.36274116e-02 2.66659554e-05 -2.36274116e-02 7.46810585e-02 6.42670598e-03 2.66659554e-05 6.42670598e-03 -9.44651142e-02
3.38566899e-02 -1.67279863e-02 1.89835541e-02 -1.67279863e-02 7.47938678e-02 -2.06685932e-02 1.89835541e-02 -2.06685932e-02 -9.25213434e-02
9.21466080e-02 2.94329817e-02 -8.09280621e-03 2.94329817e-02 6.26328457e-02 1.48909548e-02 -8.09280621e-03 1.48909548e-02 -1.28370233e-01
1.21270776e-01 5.30006178e-03 -3.72882094e-03 5.30006178e-03 8.44596531e-02 9.08248243e-04 -3.72882094e-03 9.08248243e-04 -1.77401081e-01
5.41727375e-02 4.33432553e-02 4.80027411e-05 4.33432553e-02 5.12237260e-02 1.67144440e-02 4.80027411e-05 1.67144440e-02 -8.34334580e-02
3.96526633e-02 2.70330459e-02 1.24499637e-02 2.70330459e-02 5.69780776e-02 1.53281586e-02 1.24499637e-02 1.53281586e-02 -8.13521557e-02
1.68912209e-02 -3.90473657e-03 1.13601486e-02 -3.90473657e-03 2.99571680e-02 9.01192735e-03 1.13601486e-02 9.01192735e-03 -3.63725936e-02
8.87903880e-03 -5.47122239e-03 9.86584416e-03 -5.47122239e-03 1.34110579e-02 -2.23276805e-03 9.86584416e-03 -2.23276805e-03 -1.31910417e-02
1.49386837e-02 -1.47708878e-02 7.05131749e-03 -1.47708878e-02 3.53498745e-03 -6.63670116e-03 7.05131749e-03 -6.63670116e-03 -9.55575239e-03
1.16005726e-01 -8.85207765e-03 3.68425660e-02 -8.85207765e-03 9.89017487e-02 2.02994077e-02 3.68425660e-02 2.02994077e-02 -1.81284793e-01
1.14698090e-01 -5.57335094e-03 2.47569345e-02 -5.57335094e-03 1.02440111e-01 -4.97783709e-04 2.47569345e-02 -4.97783709e-04 -1.80534184e-01
9.90272438e-02 4.36166922e-02 1.04760245e-02 4.36166922e-02 5.46562287e-02 3.66473645e-02 1.04760245e-02 3.66473645e-02 -1.35195665e-01
-3.84163851e-03 -7.73546880e-03 6.04448387e-03 -7.73546880e-03 1.70539814e-03 5.96438145e-03 6.04448387e-03 5.96438145e-03 1.20017649e-02
-1.81731547e-03 -4.56662379e-03 3.05803645e-03 -4.56662379e-03 -2.77341087e-03 -3.27420908e-04 3.05803645e-03 -3.27420908e-04 7.97215175e-03
-3.99349409e-03 -9.06635492e-03 -2.10239084e-02 -9.06635492e-03 1.18314889e-02 -7.67435067e-04 -2.10239084e-02 -7.67435067e-04 -5.66929852e-03
-6.91519770e-04 9.17686077e-04 3.72827411e-03 9.17686077e-04 -3.09834551e-03 1.03276147e-03 3.72827411e-03 1.03276147e-03 6.04644937e-03
1.08008680e-03 -2.44916974e-02 -2.11753510e-02 -2.44916974e-02 2.10742617e-03 -4.05043917e-04 -2.11753510e-02 -4.05043917e-04 -6.44409185e-04
2.90459488e-04 -3.13123543e-03 4.12643183e-03 -3.13123543e-03 -2.89434369e-03 7.38615017e-04 4.12643183e-03 7.38615017e-04 4.47088963e-03
1.26318531e-02 3.11024860e-03 -2.41858540e-02 3.11024860e-03 -1.14520618e-02 -2.97852978e-02 -2.41858540e-02 -2.97852978e-02 6.93288143e-03
-1.86671219e-02 -5.43061260e-03 8.00220016e-03 -5.43061260e-03 -3.64096695e-03 6.74701156e-03 8.00220016e-03 6.74701156e-03 3.04557914e-02
6.88298047e-02 3.98633555e-02 -7.96275400e-03 3.98633555e-02 7.08695799e-02 9.29042399e-02 -7.96275400e-03 9.29042399e-02 -1.23260498e-01
9.14038907e-05 -2.41732715e-04 -3.76611066e-04 -2.41732715e-04 1.71836764e-05 5.70326930e-03 -3.76611066e-04 5.70326930e-03 -5.17092910e-05
-1.96520698e-03 -5.16421668e-03 5.32294631e-05 -5.16421668e-03 1.22507610e-03 1.30302518e-04 5.32294631e-05 1.30302518e-04 1.17039113e-03
-1.38498752e-04 1.34285260e-05 1.68474289e-05 1.34285260e-05 1.89100359e-04 3.04723985e-05 1.68474289e-05 3.04723985e-05 -6.37858536e-05
-9.23704622e-05 -4.08962465e-05 -7.31136565e-05 -4.08962465e-05 8.64743151e-05 -1.20677019e-05 -7.31136565e-05 -1.20677019e-05 -4.00824790e-05
2.17660127e-04 -1.03391649e-03 5.62382804e-04 -1.03391649e-03 -3.72532668e-04 1.16862757e-05 5.62382804e-04 1.16862757e-05 2.70488672e-04
4.90073464e-04 -1.25271652e-03 -7.96427048e-05 -1.25271652e-03 -9.33030737e-04 -3.36055673e-05 -7.96427048e-05 -3.36055673e-05 6.45920343e-04
1.03685506e-01 2.66239643e-02 -2.60364749e-02 2.66239643e-02 1.61784977e-01 -1.35182426e-03 -2.60364749e-02 -1.35182426e-03 -2.19152391e-01
1.47478834e-01 1.34630157e-02 -7.25849345e-03 1.34630157e-02 1.64876610e-01 2.42924392e-02 -7.25849345e-03 2.42924392e-02 -2.63363719e-01
1.07812800e-01 -2.82121273e-02 1.96488993e-02 -2.82121273e-02 1.15883383e-01 3.18619311e-02 1.96488993e-02 3.18619311e-02 -1.88002874e-01
1.28163666e-01 -2.36291820e-02 4.04993333e-02 -2.36291820e-02 1.51107654e-01 2.86667471e-03 4.04993333e-02 2.86667471e-03 -2.42213704e-01
4.31803502e-05 -6.73163411e-05 5.75623801e-07 -6.73163411e-05 -2.86029431e-05 -1.31663692e-05 5.75623801e-07 -1.31663692e-05 -2.74639832e-05
-2.11085116e-03 -2.09788728e-03 6.99174704e-04 -2.09788728e-03 -9.56707503e-04 3.36530574e-03 6.99174704e-04 3.36530574e-03 5.67395996e-03
0.00000000e+00 0.00000000e+00 0.00000000e+00 0.00000000e+00 0.00000000e+00 0.00000000e+00 0.00000000e+00 0.00000000e+00 0.00000000e+00
1.22303840e-01 -2.59134779e-02 2.03581927e-02 -2.59134779e-02 8.04926455e-02 2.08932450e-02 2.03581927e-02 2.08932450e-02 -1.70270525e-01
1.29075319e-01 1.05769103e-02 1.62483715e-02 1.05769103e-02 6.80917501e-02 -1.46236911e-04 1.62483715e-02 -1.46236911e-04 -1.65529922e-01
1.14928082e-01 4.65288013e-03 4.12742200e-03 4.65288013e-03 1.02695245e-01 4.23815139e-02 4.12742200e-03 4.23815139e-02 -1.87311210e-01
1.34774614e-01 -3.51757302e-02 -4.95854486e-03 -3.51757302e-02 7.63628203e-02 4.72651348e-02 -4.95854486e-03 4.72651348e-02 -1.80412434e-01
2.82492074e-02 1.66785002e-02 -1.33729025e-02 1.66785002e-02 4.57136286e-03 6.57584518e-03 -1.33729025e-02 6.57584518e-03 -1.45180468e-02
-6.81982609e-03 -2.82415992e-03 -1.03518977e-02 -2.82415992e-03 3.88585868e-02 7.77067267e-03 -1.03518977e-02 7.77067267e-03 -1.44431256e-02
-2.63697500e-03 -4.51219289e-03 -5.63023845e-04 -4.51219289e-03 -2.83281520e-03 7.07607264e-03 -5.63023845e-04 7.07607264e-03 9.60926480e-03
-1.88728503e-04 -1.15294504e-04 -5.62381183e-06 -1.15294504e-04 8.87703354e-05 -1.44042806e-05 -5.62381183e-06 -1.44042806e-05 1.31785026e-04
0.00000000e+00 0.00000000e+00 0.00000000e+00 0.00000000e+00 0.00000000e+00 0.00000000e+00 0.00000000e+00 0.00000000e+00 0.00000000e+00
</DataArray>
<DataArray type="Float32" Name="Spatial_displacement" NumberOfComponents="3" format="ascii">
4.65932786e-02 2.54512250e-01 -1.25209793e-01
7.74951652e-02 2.41588831e-01 -1.02469638e-01
7.92658702e-02 3.05869758e-01 -1.47907361e-01
4.11876813e-02 2.99378991e-01 -1.56777948e-01
3.78438979e-02 2.93378621e-01 -1.91924557e-01
8.28484595e-02 2.88535535e-01 -1.80700719e-01
6.97026774e-02 3.70752871e-01 -2.36487523e-01
4.13961336e-02 3.37684661e-01 -2.29839131e-01
1.31108269e-01 2.23380059e-01 -7.90048391e-02
1.42295390e-01 2.92009592e-01 -1.44452870e-01
1.25313520e-01 2.79573709e-01 -2.03776941e-01
1.81148425e-01 3.43220472e-01 -2.88118720e-01
1.38809770e-01 2.09131122e-01 3.39150429e-05
1.38810605e-01 2.10421368e-01 3.19778919e-05
1.37518510e-01 2.10429698e-01 -1.73151493e-05
1.37490913e-01 2.09145516e-01 -3.44514847e-05
1.38797477e-01 2.09194034e-01 2.03847885e-05
1.38791025e-01 2.10492641e-01 4.04417515e-05
1.37493730e-01 2.10483775e-01 -2.67326832e-05
1.37508690e-01 2.09183335e-01 -2.55703926e-05
0.00000000e+00 0.00000000e+00 -2.81201959e-01
5.35413101e-02 0.00000000e+00 -2.83186078e-01
5.68234921e-02 5.88519275e-02 -2.77311355e-01
0.00000000e+00 5.65843135e-02 -2.72043616e-01
0.00000000e+00 0.00000000e+00 -3.76961768e-01
7.19053820e-02 0.00000000e+00 -3.76084805e-01
7.39186406e-02 5.89607358e-02 -3.74497533e-01
0.00000000e+00 5.51626459e-02 -3.65689903e-01
1.18907943e-01 0.00000000e+00 -2.97635376e-01
1.06297478e-01 5.06869778e-02 -2.88536817e-01
1.39256552e-01 0.00000000e+00 -3.86551082e-01
1.42329141e-01 6.23291954e-02 -3.86891305e-01
1.76900774e-01 0.00000000e+00 -3.13509822e-01
1.78101569e-01 4.60062549e-02 -3.09562206e-01
2.07784683e-01 0.00000000e+00 -4.03698742e-01
2.00599819e-01 5.46418726e-02 -4.01811272e-01
2.46723443e-01 0.00000000e+00 -3.27147454e-01
2.49754414e-01 4.77154478e-02 -3.32143366e-01
2.68255115e-01 0.00000000e+00 -4.16085035e-01
2.64880002e-01 4.58159819e-02 -4.22884792e-01
3.20519507e-01 0.00000000e+00 -3.43842179e-01
3.20843041e-01 5.06207421e-02 -3.41558725e-01
3.27100277e-01 0.00000000e+00 -4.25167263e-01
3.26052606e-01 4.50203121e-02 -4.37199593e-01
3.88867378e-01 0.00000000e+00 -3.49042952e-01
3.88238609e-01 5.16679808e-02 -3.47547323e-01
3.74789655e-01 0.00000000e+00 -4.28699672e-01
3.90048027e-01 4.57813367e-02 -4.36999798e-01
4.03858721e-02 1.11396804e-01 -2.55833924e-01
0.00000000e+00 1.26576200e-01 -2.52366841e-01
7.36977980e-02 1.18853748e-01 -3.50925058e-01
0.00000000e+00 1.18827224e-01 -3.49323064e-01
1.06416591e-01 1.13672584e-01 -2.77635306e-01
1.52337879e-01 1.26345515e-01 -3.78476024e-01
1.67330235e-01 1.20237365e-01 -3.21093202e-01
2.11046219e-01 1.19714439e-01 -4.35478806e-01
2.44567066e-01 1.32735550e-01 -3.32395345e-01
2.53926665e-01 1.04904175e-01 -4.54252183e-01
3.14495444e-01 1.25315443e-01 -3.29833269e-01
3.20211619e-01 1.17543578e-01 -4.53463078e-01
3.74527752e-01 1.33724615e-01 -3.35418224e-01
3.77584845e-01 1.21806800e-01 -4.54490423e-01
3.63842100e-02 1.90504923e-01 -2.10745037e-01
0.00000000e+00 1.87194258e-01 -2.14652956e-01
7.02308938e-02 1.87828600e-01 -3.14363271e-01
0.00000000e+00 1.86631322e-01 -3.04870367e-01
9.56967399e-02 1.67382509e-01 -2.42234945e-01
1.70656160e-01 1.92527115e-01 -3.88735980e-01
7.47001097e-02 1.41768858e-01 -5.57610393e-01
2.40281969e-01 1.71699047e-01 -5.12000918e-01
3.69631499e-02 2.36121610e-01 -1.77286565e-01
0.00000000e+00 2.44844705e-01 -1.85208291e-01
5.69616705e-02 2.59316266e-01 -2.48973414e-01
0.00000000e+00 2.67589986e-01 -2.71951944e-01
0.00000000e+00 2.86841601e-01 -1.96384698e-01
5.05455434e-02 3.39906931e-01 -2.71237761e-01
0.00000000e+00 3.18665236e-01 -2.85586715e-01
8.60495716e-02 2.36679271e-01 -1.41653493e-01
1.26818895e-01 2.73290008e-01 -2.73574591e-01
1.21544525e-01 3.17004323e-01 -2.65692264e-01
0.00000000e+00 3.42224449e-01 -2.41447598e-01
7.10984096e-02 3.98795485e-01 -3.44474763e-01
0.00000000e+00 4.16366398e-01 -3.24840128e-01
1.21077538e-01 4.22089159e-01 -3.41046244e-01
1.59916595e-01 2.94088900e-01 -3.96740288e-01
2.52512664e-01 3.33973885e-01 -3.93928081e-01
0.00000000e+00 0.00000000e+00 -4.81486201e-01
8.90443772e-02 0.00000000e+00 -4.84268129e-01
9.29360837e-02 6.09812289e-02 -4.81093615e-01
0.00000000e+00 5.67483976e-02 -4.77868915e-01
1.62934646e-01 0.00000000e+00 -4.89136100e-01
1.73829213e-01 7.06005394e-02 -4.90539312e-01
2.25998133e-01 0.00000000e+00 -4.97969747e-01
2.32705399e-01 7.28535950e-02 -4.98576134e-01
2.84041166e-01 0.00000000e+00 -5.06784081e-01
2.76845723e-01 6.59129769e-02 -5.07176936e-01
3.30859482e-01 0.00000000e+00 -5.11054218e-01
3.23782325e-01 5.97425997e-02 -5.15556037e-01
3.68802637e-01 0.00000000e+00 -5.14038503e-01
3.70502174e-01 6.51732013e-02 -5.12602091e-01
1.05905704e-01 1.28894299e-01 -4.73950148e-01
0.00000000e+00 1.17948577e-01 -4.66254234e-01
1.93528756e-01 1.42063171e-01 -4.91260648e-01
2.50748247e-01 1.43631160e-01 -5.18819451e-01
2.84146458e-01 1.29174888e-01 -5.41879475e-01
3.08488041e-01 1.11060873e-01 -5.54774284e-01
3.38955939e-01 1.18839890e-01 -5.54711103e-01
1.07700489e-01 1.79297626e-01 -4.35094714e-01
0.00000000e+00 1.99040666e-01 -4.19513702e-01
2.16266811e-01 1.86606795e-01 -4.98184264e-01
2.89994985e-01 1.79162547e-01 -5.74850321e-01
2.73899496e-01 7.73920268e-02 -6.45990789e-01
3.07856023e-01 1.61017552e-01 -5.98250568e-01
1.13703571e-01 2.54124463e-01 -3.55591744e-01
0.00000000e+00 2.40192562e-01 -3.98615837e-01
2.28036523e-01 2.34255850e-01 -4.55967367e-01
9.38055888e-02 3.73455793e-01 -4.26607788e-01
0.00000000e+00 3.82329464e-01 -4.26035881e-01
1.14026695e-01 4.86904055e-01 -4.61507022e-01
0.00000000e+00 4.80499119e-01 -4.47014868e-01
1.73366800e-01 3.44449997e-01 -4.19050992e-01
2.61571050e-01 4.25030828e-01 -4.50614154e-01
2.66177416e-01 2.50203788e-01 -5.44597268e-01
3.75423878e-01 2.81515539e-01 -5.13030171e-01
6.33904189e-02 2.22091407e-01 -7.24261820e-01
2.26655409e-01 2.12944299e-01 -6.31604433e-01
3.43433231e-01 1.60976917e-01 -5.99530578e-01
3.62689823e-01 1.62267908e-01 -5.99195182e-01
3.43739092e-01 1.43249616e-01 -5.99374115e-01
3.43562126e-01 1.25307590e-01 -5.99397004e-01
3.61511946e-01 1.25150934e-01 -5.99353552e-01
3.61634731e-01 1.43128574e-01 -5.99279404e-01
3.43707561e-01 1.43228590e-01 -5.99373758e-01
3.43624294e-01 1.25267580e-01 -5.99376440e-01
3.61514568e-01 1.25122592e-01 -5.99359512e-01
3.61769736e-01 1.42971307e-01 -5.99287033e-01
0.00000000e+00 0.00000000e+00 -5.99344969e-01
9.44031030e-02 0.00000000e+00 -5.99344969e-01
1.01762556e-01 6.52675405e-02 -5.99344969e-01
0.00000000e+00 5.87105751e-02 -5.99344969e-01
1.75101489e-01 0.00000000e+00 -5.99344969e-01
1.82381868e-01 7.58055001e-02 -5.99344969e-01
2.33841524e-01 0.00000000e+00 -5.99344969e-01
2.45756745e-01 8.10835883e-02 -5.99344969e-01
2.86883444e-01 0.00000000e+00 -5.99344969e-01
2.87400782e-01 8.03444982e-02 -5.99344969e-01
3.30162555e-01 0.00000000e+00 -5.99344969e-01
3.25547278e-01 7.50695765e-02 -5.99344969e-01
3.75435889e-01 0.00000000e+00 -5.99344969e-01
3.50543678e-01 8.48766938e-02 -5.99344969e-01
1.22607484e-01 1.18340820e-01 -5.99344969e-01
0.00000000e+00 1.12569734e-01 -5.99344969e-01
2.16974661e-01 1.43233910e-01 -5.99344969e-01
2.65943110e-01 1.55707762e-01 -5.99344969e-01
2.95928538e-01 1.44846424e-01 -5.99344969e-01
3.05413216e-01 1.28995791e-01 -5.99344969e-01
3.26058805e-01 1.29945993e-01 -5.99344969e-01
1.30776823e-01 2.21613884e-01 -5.99344969e-01
0.00000000e+00 2.27782786e-01 -5.99344969e-01
2.51189649e-01 1.95394561e-01 -5.99344969e-01
3.06156933e-01 1.90042883e-01 -5.99344969e-01
3.08517098e-01 1.61737040e-01 -5.99344969e-01
3.08205783e-01 1.42618909e-01 -6.00058854e-01
3.08764100e-01 1.43305078e-01 -5.99344969e-01
3.10289860e-01 1.27514511e-01 -6.00748658e-01
3.10542196e-01 1.29293248e-01 -5.99344969e-01
3.25925171e-01 1.80443317e-01 -6.16857886e-01
3.36086929e-01 1.93223596e-01 -5.99344969e-01
3.22629243e-01 2.24481508e-01 -5.99344969e-01
3.26098621e-01 1.60733595e-01 -5.99085987e-01
3.26247454e-01 1.60940543e-01 -5.99344969e-01
3.25866014e-01 1.43445745e-01 -5.99390626e-01
3.25951755e-01 1.43347889e-01 -5.99344969e-01
3.25575769e-01 1.25680745e-01 -5.99294066e-01
3.25486302e-01 1.25537798e-01 -5.99344969e-01
0.00000000e+00 2.09072769e-01 -5.99344969e-01
1.43082783e-01 2.40366817e-01 -5.99344969e-01
1.28134191e-01 4.02343184e-01 -5.99344969e-01
0.00000000e+00 4.27084088e-01 -5.99344969e-01
3.43651950e-01 1.43227279e-01 -5.99344969e-01
3.43826622e-01 1.61058143e-01 -5.99344969e-01
3.43661785e-01 1.25293225e-01 -5.99344969e-01
1.38299942e-01 5.09261191e-01 -5.99344969e-01
0.00000000e+00 4.97828841e-01 -5.99344969e-01
2.17493296e-01 3.51053655e-01 -5.99344969e-01
3.12436849e-01 4.20092136e-01 -5.99344969e-01
2.84855247e-01 2.28022963e-01 -5.99344969e-01
3.97958457e-01 2.65238822e-01 -5.99344969e-01
3.63056600e-01 1.61497563e-01 -5.99344969e-01
3.61783177e-01 1.42909870e-01 -5.99344969e-01
3.61511081e-01 1.25120208e-01 -5.99344969e-01
</DataArray>
<DataArray type="Float32" Name="Spatial_acceleration" NumberOfComponents="3" format="ascii">
-1.81396800e-07 -7.65959442e-07 4.17868279e-07
-2.81453140e-07 -7.02619559e-07 3.57151038e-07
-2.94903913e-07 -9.13302074e-07 4.97182214e-07
-1.80562338e-07 -8.92877551e-07 4.99725331e-07
-1.35421757e-07 -8.67644928e-07 6.39478344e-07
-2.84467433e-07 -8.21976414e-07 5.79107393e-07
-2.54789995e-07 -1.08830136e-06 7.47044851e-07
-1.36454901e-07 -9.96033350e-07 7.49111166e-07
-4.51485306e-07 -6.36339166e-07 2.74022426e-07
-4.59631281e-07 -8.34147102e-07 4.73022453e-07
-3.73310513e-07 -8.03629575e-07 6.39173720e-07
-5.40097574e-07 -9.57389716e-07 7.83284520e-07
-4.84215718e-07 -5.24150835e-07 6.63250646e-08
-4.61677701e-07 -5.25703001e-07 -5.28842214e-08
-5.24029133e-07 -5.25380187e-07 3.12477333e-08
-5.23249298e-07 -5.32170134e-07 -4.22447926e-08
-4.77955382e-07 -5.47663774e-07 -1.01778035e-07
-5.04000752e-07 -4.55986083e-07 7.88209320e-08
-4.86622241e-07 -5.25407472e-07 -8.96304826e-08
-5.13609507e-07 -4.97417545e-07 1.06902171e-07
0.00000000e+00 0.00000000e+00 7.24792471e-07
-1.59263607e-07 0.00000000e+00 7.65482582e-07
-1.58727161e-07 -1.71621636e-07 7.47680645e-07
0.00000000e+00 -1.44143897e-07 7.47680645e-07
0.00000000e+00 0.00000000e+00 1.00072225e-06
-1.79737810e-07 0.00000000e+00 9.87370754e-07
-1.87218191e-07 -1.76697966e-07 9.81807716e-07
0.00000000e+00 -1.75476075e-07 9.47952287e-07
-3.35256260e-07 0.00000000e+00 7.89006549e-07
-2.99334516e-07 -1.53216220e-07 7.64687854e-07
-3.92417121e-07 0.00000000e+00 1.00135799e-06
-3.49084530e-07 -1.82867055e-07 9.69886742e-07
-4.74577149e-07 0.00000000e+00 8.06172693e-07
-5.03937372e-07 -1.63356461e-07 7.84238182e-07
-5.59369710e-07 0.00000000e+00 1.01979572e-06
-5.07960692e-07 -1.74860162e-07 1.00104012e-06
-6.81166853e-07 0.00000000e+00 7.90278136e-07
-6.88950195e-07 -1.53124333e-07 7.93457048e-07
-7.34329205e-07 0.00000000e+00 1.02806086e-06
-7.23719609e-07 -1.55250234e-07 1.02424622e-06
-9.14235898e-07 0.00000000e+00 8.13484178e-07
-8.91089428e-07 -1.61315000e-07 8.19842001e-07
-8.84612405e-07 0.00000000e+00 1.03569027e-06
-9.06308458e-07 -1.64826716e-07 1.06938683e-06
-1.11387169e-06 0.00000000e+00 7.73111992e-07
-1.11969314e-06 -1.77939725e-07 8.05536899e-07
-1.03600814e-06 0.00000000e+00 9.94364427e-07
-1.09998382e-06 -1.66649613e-07 1.01407363e-06
-1.44561128e-07 -3.35772825e-07 7.14619944e-07
0.00000000e+00 -3.63032029e-07 7.20659898e-07
-1.89542774e-07 -3.25282400e-07 9.73860438e-07
0.00000000e+00 -3.63985691e-07 9.77198283e-07
-3.42232823e-07 -3.52814084e-07 7.47680645e-07
-3.96847724e-07 -3.69389852e-07 9.87370754e-07
-5.01632712e-07 -3.71805839e-07 7.97017435e-07
-5.34557159e-07 -3.48953961e-07 1.05067659e-06
-6.60181058e-07 -3.70502477e-07 8.19524132e-07
-6.80033395e-07 -3.25520830e-07 1.07065841e-06
-8.52147707e-07 -3.63230697e-07 8.11258928e-07
-8.77936657e-07 -3.67482500e-07 1.09291079e-06
-1.01692979e-06 -4.16874883e-07 8.01086401e-07
-9.97224220e-07 -4.23987700e-07 1.07701624e-06
-1.31425395e-07 -5.41073916e-07 6.51768289e-07
0.00000000e+00 -5.23716210e-07 6.58035276e-07
-2.15484974e-07 -5.22204800e-07 9.05354796e-07
0.00000000e+00 -5.48521655e-07 9.24428321e-07
-2.79267624e-07 -4.80492929e-07 6.65028892e-07
-4.45874548e-07 -5.56945793e-07 9.79614242e-07
-1.93595881e-07 -3.33865472e-07 1.37201948e-06
-5.86085832e-07 -4.95486802e-07 1.30865305e-06
-1.33605226e-07 -6.78652782e-07 5.76200932e-07
0.00000000e+00 -7.08093239e-07 6.00496946e-07
-1.68694399e-07 -7.16050465e-07 7.70568874e-07
0.00000000e+00 -7.66972676e-07 8.62121567e-07
0.00000000e+00 -8.36173683e-07 6.44683837e-07
-1.51815868e-07 -9.93229037e-07 8.85373083e-07
0.00000000e+00 -9.19759259e-07 9.03447472e-07
-2.98817952e-07 -6.78181664e-07 4.98453744e-07
-3.60965714e-07 -7.71204611e-07 7.45137527e-07
-3.46946706e-07 -9.31231170e-07 7.91422508e-07
0.00000000e+00 -1.04244543e-06 7.68025700e-07
-2.08536775e-07 -1.15005173e-06 9.97225470e-07
0.00000000e+00 -1.19860965e-06 9.47316494e-07
-3.20831930e-07 -1.20210643e-06 9.56217491e-07
-4.23007549e-07 -8.43683893e-07 9.85039605e-07
-6.49982042e-07 -8.89248327e-07 1.01216631e-06
0.00000000e+00 0.00000000e+00 1.24613439e-06
-2.16583402e-07 0.00000000e+00 1.24041242e-06
-2.26686396e-07 -1.75476075e-07 1.24708811e-06
0.00000000e+00 -1.63197512e-07 1.22642518e-06
-3.96033130e-07 0.00000000e+00 1.24804183e-06
-4.34637059e-07 -1.96695325e-07 1.25153861e-06
-6.12397969e-07 0.00000000e+00 1.30589797e-06
-5.86032854e-07 -2.02814732e-07 1.26139321e-06
-7.57316741e-07 0.00000000e+00 1.25821430e-06
-7.36226639e-07 -1.85171757e-07 1.27347312e-06
-9.04719002e-07 0.00000000e+00 1.27633416e-06
-8.76267734e-07 -1.76429751e-07 1.30653382e-06
-1.01514661e-06 0.00000000e+00 1.26202895e-06
-1.01915998e-06 -2.09490452e-07 1.28173826e-06
-2.48988471e-07 -3.60647846e-07 1.22769677e-06
0.00000000e+00 -3.33944939e-07 1.22451786e-06
-4.72386660e-07 -3.98854411e-07 1.25058489e-06
-6.42180453e-07 -4.52359501e-07 1.27347312e-06
-7.27142606e-07 -4.05266178e-07 1.32388163e-06
-8.13166309e-07 -3.27852035e-07 1.33683943e-06
-9.11500706e-07 -4.07324904e-07 1.33429637e-06
-2.36882101e-07 -5.03540036e-07 1.20713980e-06
0.00000000e+00 -5.66482527e-07 1.22409404e-06
-5.15407976e-07 -5.38402162e-07 1.23765733e-06
-7.51362904e-07 -5.47620971e-07 1.44449871e-06
-7.27017721e-07 -2.04920767e-07 1.62092840e-06
-7.68280017e-07 -5.19053174e-07 1.48824063e-06
-2.45730092e-07 -7.24395136e-07 1.09227494e-06
0.00000000e+00 -7.28819089e-07 1.17662216e-06
-5.14348358e-07 -6.66141489e-07 1.13677982e-06
-2.00695467e-07 -1.04575690e-06 1.18933781e-06
0.00000000e+00 -1.07590358e-06 1.19654339e-06
-2.53677371e-07 -1.27267833e-06 1.22515360e-06
0.00000000e+00 -1.26338000e-06 1.17937725e-06
-4.22000880e-07 -9.93510071e-07 1.14568070e-06
-6.38484948e-07 -1.10721589e-06 1.21561686e-06
-6.12576798e-07 -7.24395136e-07 1.39617919e-06
-9.06626383e-07 -7.82807660e-07 1.32369996e-06
-2.12987263e-08 -7.22904986e-07 1.82565054e-06
-5.06520280e-07 -5.80728056e-07 1.54717759e-06
-8.53399399e-07 -4.98453744e-07 1.51054064e-06
-8.63605067e-07 -5.04069874e-07 1.49642096e-06
-8.69839823e-07 -4.45461239e-07 1.54257759e-06
-7.99869497e-07 -4.51125203e-07 1.51236975e-06
-8.04215688e-07 -4.57435846e-07 1.52625637e-06
-9.38594326e-07 -4.72870965e-07 1.48990159e-06
-8.11147686e-07 -4.49514403e-07 1.47516334e-06
-8.35152150e-07 -4.35776172e-07 1.52469011e-06
-8.49530068e-07 -4.33693316e-07 1.52957443e-06
-8.74943225e-07 -4.44518207e-07 1.49847403e-06
0.00000000e+00 0.00000000e+00 1.53451356e-06
-2.12689244e-07 0.00000000e+00 1.53451356e-06
-2.59041769e-07 -1.98632478e-07 1.53451356e-06
0.00000000e+00 -1.98523196e-07 1.53451356e-06
-4.15841725e-07 0.00000000e+00 1.53451356e-06
-4.96824555e-07 -1.91291164e-07 1.53451356e-06
-5.71171427e-07 0.00000000e+00 1.53451356e-06
-6.45875900e-07 -2.14099884e-07 1.53451356e-06
-7.45693853e-07 0.00000000e+00 1.53451356e-06
-7.64965989e-07 -2.27212908e-07 1.53451356e-06
-9.08264269e-07 0.00000000e+00 1.53451356e-06
-8.85367399e-07 -1.85489654e-07 1.53451356e-06
-9.40312930e-07 0.00000000e+00 1.53451356e-06
-9.45409113e-07 -2.25067140e-07 1.53451356e-06
-2.86579137e-07 -3.36011254e-07 1.53451356e-06
0.00000000e+00 -2.80698146e-07 1.53451356e-06
-5.36203402e-07 -4.11376362e-07 1.53451356e-06
-6.83705025e-07 -4.63803616e-07 1.53451356e-06
-7.37190248e-07 -4.46319575e-07 1.53451356e-06
-7.78824074e-07 -3.81986297e-07 1.53451356e-06
-8.43127566e-07 -4.11987287e-07 1.53451356e-06
-2.77201337e-07 -5.73476143e-07 1.53451356e-06
0.00000000e+00 -5.82814209e-07 1.53451356e-06
-5.81847303e-07 -5.08096491e-07 1.53451356e-06
-7.96476968e-07 -5.43117494e-07 1.53451356e-06
-7.30315833e-07 -4.67856722e-07 1.53451356e-06
-8.02834847e-07 -4.94162236e-07 1.49488449e-06
-7.63575201e-07 -4.69605112e-07 1.53451356e-06
-8.11576854e-07 -4.73539018e-07 1.54209135e-06
-7.64210995e-07 -4.37736503e-07 1.53451356e-06
-7.94728578e-07 -5.30242914e-07 1.57674151e-06
-8.64505751e-07 -5.91913874e-07 1.53451356e-06
-8.80082439e-07 -6.14225883e-07 1.53451356e-06
-8.12636472e-07 -5.05871242e-07 1.47918865e-06
-8.62369916e-07 -4.83830775e-07 1.53451356e-06
-7.94649111e-07 -4.91619119e-07 1.48240724e-06
-8.21908316e-07 -5.02601267e-07 1.53451356e-06
-7.80264543e-07 -3.97046392e-07 1.46540003e-06
-7.95046503e-07 -4.09603103e-07 1.53451356e-06
0.00000000e+00 -6.81320842e-07 1.53451356e-06
-2.69293793e-07 -7.80502944e-07 1.53451356e-06
-2.72644883e-07 -1.07757251e-06 1.53451356e-06
0.00000000e+00 -1.18350977e-06 1.53451356e-06
-8.23100379e-07 -3.99192174e-07 1.53451356e-06
-9.01963972e-07 -5.56098087e-07 1.53451356e-06
-8.51144364e-07 -4.50929008e-07 1.53451356e-06
-3.22252504e-07 -1.29683815e-06 1.53451356e-06
0.00000000e+00 -1.29250441e-06 1.53451356e-06
-4.70081972e-07 -1.01812680e-06 1.53451356e-06
-7.30355566e-07 -1.14838281e-06 1.53451356e-06
-6.70433053e-07 -7.04785180e-07 1.53451356e-06
-1.00676220e-06 -7.63575201e-07 1.53451356e-06
-8.48452260e-07 -5.21024049e-07 1.53451356e-06
-8.81592428e-07 -4.65234109e-07 1.53451356e-06
-8.96389281e-07 -4.88171963e-07 1.53451356e-06
</DataArray>
<DataArray type="Float32" Name="Spatial_velocity" NumberOfComponents="3" format="ascii">
4.48741230e-06 1.98903235e-05 -1.07000305e-05
7.21085962e-06 1.84296787e-05 -9.31972045e-06
7.56802774e-06 2.37875247e-05 -1.28023157e-05
4.28245494e-06 2.36190444e-05 -1.27097883e-05
3.60353238e-06 2.27587079e-05 -1.65345537e-05
7.36271386e-06 2.18790701e-05 -1.49911066e-05
6.26005885e-06 2.85254046e-05 -1.89798084e-05
3.94222798e-06 2.65826857e-05 -1.94389995e-05
1.15124094e-05 1.69381092e-05 -6.59538000e-06
1.25117449e-05 2.20099282e-05 -1.21738885e-05
9.75392049e-06 2.14755910e-05 -1.64036319e-05
1.43295583e-05 2.47839216e-05 -2.01923176e-05
1.30317612e-05 1.40580723e-05 -1.20598109e-08
1.30347571e-05 1.35910441e-05 -1.24252875e-09
1.34962156e-05 1.35866130e-05 2.37157618e-08
1.34941365e-05 1.40631691e-05 3.48360452e-09
1.30150502e-05 1.40368047e-05 -2.17669296e-08
1.30134104e-05 1.35685532e-05 -2.14591944e-09
1.34823094e-05 1.35630835e-05 1.09779998e-08
1.34855463e-05 1.40481252e-05 2.60054200e-08
0.00000000e+00 0.00000000e+00 -1.95562116e-05
3.87195087e-06 0.00000000e+00 -1.95397151e-05
4.30107184e-06 4.39667156e-06 -1.95788616e-05
0.00000000e+00 4.17279489e-06 -1.94396744e-05
0.00000000e+00 0.00000000e+00 -2.60967481e-05
4.95567156e-06 0.00000000e+00 -2.58978034e-05
5.15608008e-06 4.54374776e-06 -2.61213008e-05
0.00000000e+00 4.24124028e-06 -2.56273779e-05
8.71107295e-06 0.00000000e+00 -2.00810500e-05
7.92802348e-06 4.13466978e-06 -1.98917332e-05
9.58229430e-06 0.00000000e+00 -2.64282589e-05
9.77677064e-06 4.91269020e-06 -2.64262944e-05
1.29188356e-05 0.00000000e+00 -2.06087570e-05
1.30232138e-05 4.14439410e-06 -2.03398286e-05
1.44593678e-05 0.00000000e+00 -2.71229383e-05
1.37734742e-05 4.29205920e-06 -2.68113508e-05
1.79865929e-05 0.00000000e+00 -2.07661360e-05
1.81042487e-05 4.13676753e-06 -2.10065318e-05
1.89959719e-05 0.00000000e+00 -2.74027534e-05
1.86375219e-05 3.81643122e-06 -2.74958657e-05
2.36172818e-05 0.00000000e+00 -2.09552563e-05
2.33817609e-05 4.21104642e-06 -2.10782073e-05
2.36981577e-05 0.00000000e+00 -2.76350565e-05
2.34503332e-05 4.07663128e-06 -2.78817006e-05
2.89613654e-05 0.00000000e+00 -2.06545246e-05
2.87216917e-05 4.65030143e-06 -2.10518538e-05
2.76621413e-05 0.00000000e+00 -2.77676154e-05
2.87326020e-05 4.57358738e-06 -2.77166528e-05
3.37361553e-06 8.50445849e-06 -1.90425690e-05
0.00000000e+00 9.45138709e-06 -1.88998583e-05
5.17281615e-06 8.93757897e-06 -2.56463791e-05
0.00000000e+00 8.88478007e-06 -2.57295633e-05
8.53720667e-06 8.98078633e-06 -1.92192711e-05
1.05098607e-05 9.69228040e-06 -2.59613025e-05
1.24522103e-05 9.09280880e-06 -2.07490066e-05
1.46573766e-05 9.50865069e-06 -2.76437950e-05
1.73807803e-05 9.83803875e-06 -2.13044641e-05
1.75787482e-05 8.47414049e-06 -2.85970054e-05
2.20382135e-05 9.71537429e-06 -2.08074835e-05
2.24214054e-05 9.43288887e-06 -2.87929379e-05
2.59634526e-05 1.12401976e-05 -2.10164180e-05
2.60426514e-05 1.05908284e-05 -2.88393639e-05
3.59885598e-06 1.41568062e-05 -1.71234133e-05
0.00000000e+00 1.40868215e-05 -1.71580868e-05
5.31347087e-06 1.40702086e-05 -2.38564680e-05
0.00000000e+00 1.42014287e-05 -2.43015820e-05
7.82253028e-06 1.25923361e-05 -1.78940754e-05
1.16243909e-05 1.40596330e-05 -2.59520257e-05
5.35071649e-06 9.79088145e-06 -3.54454824e-05
1.58675757e-05 1.30848521e-05 -3.42960229e-05
3.81086602e-06 1.79456201e-05 -1.49002353e-05
0.00000000e+00 1.86062080e-05 -1.59418305e-05
4.83226586e-06 1.94301083e-05 -2.07458306e-05
0.00000000e+00 2.03461241e-05 -2.29471480e-05
0.00000000e+00 2.24164760e-05 -1.69378782e-05
3.82823191e-06 2.61300484e-05 -2.30087608e-05
0.00000000e+00 2.44473285e-05 -2.39104957e-05
7.71421310e-06 1.78810969e-05 -1.29226701e-05
9.45546162e-06 2.04349853e-05 -2.05787965e-05
8.69071300e-06 2.37825043e-05 -2.11163569e-05
0.00000000e+00 2.71853369e-05 -1.98289890e-05
5.22611663e-06 2.95534282e-05 -2.67642499e-05
0.00000000e+00 3.09244751e-05 -2.54646002e-05
8.42956615e-06 3.13208111e-05 -2.53515955e-05
1.03986968e-05 2.25370477e-05 -2.64534010e-05
1.72859909e-05 2.44173134e-05 -2.71605350e-05
0.00000000e+00 0.00000000e+00 -3.29820541e-05
5.90348009e-06 0.00000000e+00 -3.29662798e-05
6.05173227e-06 4.71297471e-06 -3.30523872e-05
0.00000000e+00 4.40841040e-06 -3.28244678e-05
1.07953074e-05 0.00000000e+00 -3.31782066e-05
1.14703598e-05 5.31414480e-06 -3.33216922e-05
1.53074598e-05 0.00000000e+00 -3.37283345e-05
1.56684146e-05 5.29178078e-06 -3.33424396e-05
1.99204133e-05 0.00000000e+00 -3.39195358e-05
1.90582414e-05 4.85536020e-06 -3.37051642e-05
2.36290671e-05 0.00000000e+00 -3.41096602e-05
2.30675778e-05 4.72898500e-06 -3.41041050e-05
2.67147880e-05 0.00000000e+00 -3.45594162e-05
2.68221847e-05 5.37786991e-06 -3.38329228e-05
6.51596156e-06 9.41711005e-06 -3.28600654e-05
0.00000000e+00 8.89658349e-06 -3.29007235e-05
1.24909629e-05 1.03789425e-05 -3.30897128e-05
1.66407481e-05 1.10525243e-05 -3.40614424e-05
1.92900770e-05 1.02234217e-05 -3.51351919e-05
2.13763105e-05 8.94894038e-06 -3.56889723e-05
2.41282396e-05 1.01953456e-05 -3.56805540e-05
6.43543990e-06 1.34899237e-05 -3.17842496e-05
0.00000000e+00 1.44025189e-05 -3.18602870e-05
1.36421404e-05 1.41021537e-05 -3.30571056e-05
1.92271909e-05 1.40560305e-05 -3.86017709e-05
1.91638792e-05 5.17688795e-06 -4.30534201e-05
2.04256630e-05 1.31538663e-05 -4.03676313e-05
6.78360038e-06 1.94282184e-05 -2.84731923e-05
0.00000000e+00 1.89121474e-05 -3.09000316e-05
1.33314561e-05 1.69985742e-05 -2.94684742e-05
5.52866777e-06 2.71136196e-05 -3.18895109e-05
0.00000000e+00 2.80669883e-05 -3.17644044e-05
7.06756009e-06 3.41499035e-05 -3.33135904e-05
0.00000000e+00 3.34267897e-05 -3.24553439e-05
1.07955957e-05 2.57775318e-05 -2.97209117e-05
1.64231296e-05 3.01148903e-05 -3.16055230e-05
1.69588184e-05 1.91419294e-05 -3.63589425e-05
2.38390421e-05 2.11097740e-05 -3.46808956e-05
6.30318368e-07 1.84239470e-05 -4.75100751e-05
1.39364683e-05 1.56500755e-05 -4.11847323e-05
2.19936701e-05 1.30705430e-05 -4.03514678e-05
2.27911878e-05 1.30500175e-05 -4.03517588e-05
2.19773265e-05 1.22525662e-05 -4.03398408e-05
2.19646827e-05 1.15004159e-05 -4.03583872e-05
2.27380806e-05 1.14602990e-05 -4.03547238e-05
2.27579603e-05 1.22715282e-05 -4.03449521e-05
2.19798185e-05 1.22776455e-05 -4.03472550e-05
2.19665872e-05 1.14870682e-05 -4.03538688e-05
2.27559212e-05 1.14720133e-05 -4.03401937e-05
2.27752116e-05 1.22601959e-05 -4.03491977e-05
0.00000000e+00 0.00000000e+00 -4.03477425e-05
6.13601787e-06 0.00000000e+00 -4.03477425e-05
6.43778912e-06 4.82681025e-06 -4.03477425e-05
0.00000000e+00 4.46045442e-06 -4.03477425e-05
1.14753875e-05 0.00000000e+00 -4.03477425e-05
1.18929293e-05 5.48959997e-06 -4.03477425e-05
1.56459009e-05 0.00000000e+00 -4.03477425e-05
1.65758884e-05 5.76244020e-06 -4.03477425e-05
2.01402327e-05 0.00000000e+00 -4.03477425e-05
1.97337504e-05 5.74377236e-06 -4.03477425e-05
2.33708943e-05 0.00000000e+00 -4.03477425e-05
2.31556496e-05 5.61134857e-06 -4.03477425e-05
2.69234697e-05 0.00000000e+00 -4.03477425e-05
2.49283694e-05 6.29386113e-06 -4.03477425e-05
7.42686143e-06 8.89155490e-06 -4.03477425e-05
0.00000000e+00 8.62000070e-06 -4.03477425e-05
1.38562282e-05 1.04925666e-05 -4.03477425e-05
1.74732722e-05 1.20073710e-05 -4.03477425e-05
1.98438629e-05 1.13516817e-05 -4.03477425e-05
2.09620630e-05 1.04812325e-05 -4.03477425e-05
2.33163082e-05 1.12064818e-05 -4.03477425e-05
7.00726969e-06 1.50389078e-05 -4.03477425e-05
0.00000000e+00 1.50646465e-05 -4.03477425e-05
1.54867557e-05 1.37624338e-05 -4.03477425e-05
2.01493513e-05 1.50433261e-05 -4.03477425e-05
2.04007993e-05 1.30929229e-05 -4.03477425e-05
2.03714008e-05 1.23204700e-05 -4.03582453e-05
2.03888612e-05 1.23030131e-05 -4.03477425e-05
2.04358003e-05 1.15622452e-05 -4.04107668e-05
2.04463740e-05 1.15749563e-05 -4.03477425e-05
2.10523212e-05 1.39887643e-05 -4.18588315e-05
2.22788876e-05 1.52312641e-05 -4.03477425e-05
2.09567988e-05 1.63479308e-05 -4.03477425e-05
2.11966835e-05 1.30862236e-05 -4.03437953e-05
2.11836723e-05 1.30919288e-05 -4.03477425e-05
2.11849383e-05 1.22978881e-05 -4.03422273e-05
2.11846109e-05 1.22904175e-05 -4.03477425e-05
2.11553943e-05 1.14945606e-05 -4.03392769e-05
2.11634233e-05 1.14928735e-05 -4.03477425e-05
0.00000000e+00 1.71943429e-05 -4.03477425e-05
6.72502529e-06 1.98094240e-05 -4.03477425e-05
7.19492118e-06 2.81616813e-05 -4.03477425e-05
0.00000000e+00 3.11062613e-05 -4.03477425e-05
2.19736066e-05 1.22764877e-05 -4.03477425e-05
2.19917838e-05 1.30722528e-05 -4.03477425e-05
2.19625872e-05 1.14727309e-05 -4.03477425e-05
8.21031972e-06 3.54224103e-05 -4.03477425e-05
0.00000000e+00 3.33450043e-05 -4.03477425e-05
1.34446664e-05 2.59903118e-05 -4.03477425e-05
1.86846664e-05 2.96077633e-05 -4.03477425e-05
1.76765589e-05 1.78035498e-05 -4.03477425e-05
2.54301685e-05 2.01451530e-05 -4.03477425e-05
2.27882774e-05 1.30586432e-05 -4.03477425e-05
2.27630680e-05 1.22569354e-05 -4.03477425e-05
2.27525470e-05 1.14703644e-05 -4.03477425e-05
</DataArray>
<DataArray type="Float32" Name="Reaction_force" NumberOfComponents="3" format="ascii">
0.00000000e+00 0.00000000e+00 0.00000000e+00
0.00000000e+00 0.00000000e+00 0.00000000e+00
0.00000000e+00 0.00000000e+00 0.00000000e+00
0.00000000e+00 0.00000000e+00 0.00000000e+00
0.00000000e+00 0.00000000e+00 0.00000000e+00
0.00000000e+00 0.00000000e+00 0.00000000e+00
0.00000000e+00 0.00000000e+00 0.00000000e+00
0.00000000e+00 0.00000000e+00 0.00000000e+00
0.00000000e+00 0.00000000e+00 0.00000000e+00
0.00000000e+00 0.00000000e+00 0.00000000e+00
0.00000000e+00 0.00000000e+00 0.00000000e+00
0.00000000e+00 0.00000000e+00 0.00000000e+00
0.00000000e+00 0.00000000e+00 0.00000000e+00
0.00000000e+00 0.00000000e+00 0.00000000e+00
0.00000000e+00 0.00000000e+00 0.00000000e+00
0.00000000e+00 0.00000000e+00 0.00000000e+00
0.00000000e+00 0.00000000e+00 0.00000000e+00
0.00000000e+00 0.00000000e+00 0.00000000e+00
0.00000000e+00 0.00000000e+00 0.00000000e+00
0.00000000e+00 0.00000000e+00 0.00000000e+00
1.15038022e-01 -1.09885901e-01 0.00000000e+00
0.00000000e+00 1.01140380e+00 0.00000000e+00
0.00000000e+00 0.00000000e+00 0.00000000e+00
1.85194635e+00 0.00000000e+00 0.00000000e+00
4.36419189e-01 9.46527183e-01 0.00000000e+00
0.00000000e+00 1.34343100e+00 0.00000000e+00
0.00000000e+00 0.00000000e+00 0.00000000e+00
1.25926411e+00 0.00000000e+00 0.00000000e+00
0.00000000e+00 1.59320426e+00 0.00000000e+00
0.00000000e+00 0.00000000e+00 0.00000000e+00
0.00000000e+00 1.18232632e+00 0.00000000e+00
0.00000000e+00 0.00000000e+00 0.00000000e+00
0.00000000e+00 2.00335717e+00 0.00000000e+00
0.00000000e+00 0.00000000e+00 0.00000000e+00
0.00000000e+00 1.62989151e+00 0.00000000e+00
0.00000000e+00 0.00000000e+00 0.00000000e+00
0.00000000e+00 2.70618773e+00 0.00000000e+00
0.00000000e+00 0.00000000e+00 0.00000000e+00
0.00000000e+00 1.52734005e+00 0.00000000e+00
0.00000000e+00 0.00000000e+00 0.00000000e+00
0.00000000e+00 9.95736122e-01 0.00000000e+00
0.00000000e+00 0.00000000e+00 0.00000000e+00
0.00000000e+00 -2.71013379e-01 0.00000000e+00
0.00000000e+00 0.00000000e+00 0.00000000e+00
0.00000000e+00 7.17361271e-03 0.00000000e+00
0.00000000e+00 0.00000000e+00 0.00000000e+00
0.00000000e+00 -5.85113406e-01 0.00000000e+00
0.00000000e+00 0.00000000e+00 0.00000000e+00
0.00000000e+00 0.00000000e+00 0.00000000e+00
1.49884033e+00 0.00000000e+00 0.00000000e+00
0.00000000e+00 0.00000000e+00 0.00000000e+00
1.07933462e+00 0.00000000e+00 0.00000000e+00
0.00000000e+00 0.00000000e+00 0.00000000e+00
0.00000000e+00 0.00000000e+00 0.00000000e+00
0.00000000e+00 0.00000000e+00 0.00000000e+00
0.00000000e+00 0.00000000e+00 0.00000000e+00
0.00000000e+00 0.00000000e+00 0.00000000e+00
0.00000000e+00 0.00000000e+00 0.00000000e+00
0.00000000e+00 0.00000000e+00 0.00000000e+00
0.00000000e+00 0.00000000e+00 0.00000000e+00
0.00000000e+00 0.00000000e+00 0.00000000e+00
0.00000000e+00 0.00000000e+00 0.00000000e+00
0.00000000e+00 0.00000000e+00 0.00000000e+00
3.16581503e-02 0.00000000e+00 0.00000000e+00
0.00000000e+00 0.00000000e+00 0.00000000e+00
1.39134800e+00 0.00000000e+00 0.00000000e+00
0.00000000e+00 0.00000000e+00 0.00000000e+00
0.00000000e+00 0.00000000e+00 0.00000000e+00
0.00000000e+00 0.00000000e+00 0.00000000e+00
0.00000000e+00 0.00000000e+00 0.00000000e+00
0.00000000e+00 0.00000000e+00 0.00000000e+00
9.05992329e-01 0.00000000e+00 0.00000000e+00
0.00000000e+00 0.00000000e+00 0.00000000e+00
7.75852323e-01 0.00000000e+00 0.00000000e+00
4.49295878e-01 0.00000000e+00 0.00000000e+00
0.00000000e+00 0.00000000e+00 0.00000000e+00
8.17209482e-04 0.00000000e+00 0.00000000e+00
0.00000000e+00 0.00000000e+00 0.00000000e+00
0.00000000e+00 0.00000000e+00 0.00000000e+00
0.00000000e+00 0.00000000e+00 0.00000000e+00
-6.86418712e-01 0.00000000e+00 0.00000000e+00
0.00000000e+00 0.00000000e+00 0.00000000e+00
3.48924398e-01 0.00000000e+00 0.00000000e+00
0.00000000e+00 0.00000000e+00 0.00000000e+00
0.00000000e+00 0.00000000e+00 0.00000000e+00
0.00000000e+00 0.00000000e+00 0.00000000e+00
4.52333868e-01 1.38990724e+00 0.00000000e+00
0.00000000e+00 1.64424241e+00 0.00000000e+00
0.00000000e+00 0.00000000e+00 0.00000000e+00
7.38332391e-01 0.00000000e+00 0.00000000e+00
0.00000000e+00 1.75955594e-01 0.00000000e+00
0.00000000e+00 0.00000000e+00 0.00000000e+00
0.00000000e+00 3.03132564e-01 0.00000000e+00
0.00000000e+00 0.00000000e+00 0.00000000e+00
0.00000000e+00 -2.46625990e-01 0.00000000e+00
0.00000000e+00 0.00000000e+00 0.00000000e+00
0.00000000e+00 -1.91975927e+00 0.00000000e+00
0.00000000e+00 0.00000000e+00 0.00000000e+00
0.00000000e+00 -2.09871054e+00 0.00000000e+00
0.00000000e+00 0.00000000e+00 0.00000000e+00
0.00000000e+00 0.00000000e+00 0.00000000e+00
1.23478699e+00 0.00000000e+00 0.00000000e+00
0.00000000e+00 0.00000000e+00 0.00000000e+00
0.00000000e+00 0.00000000e+00 0.00000000e+00
0.00000000e+00 0.00000000e+00 0.00000000e+00
0.00000000e+00 0.00000000e+00 0.00000000e+00
0.00000000e+00 0.00000000e+00 0.00000000e+00
0.00000000e+00 0.00000000e+00 0.00000000e+00
-1.55580848e-01 0.00000000e+00 0.00000000e+00
0.00000000e+00 0.00000000e+00 0.00000000e+00
0.00000000e+00 0.00000000e+00 0.00000000e+00
0.00000000e+00 0.00000000e+00 0.00000000e+00
0.00000000e+00 0.00000000e+00 0.00000000e+00
0.00000000e+00 0.00000000e+00 0.00000000e+00
1.07346606e+00 0.00000000e+00 0.00000000e+00
0.00000000e+00 0.00000000e+00 0.00000000e+00
0.00000000e+00 0.00000000e+00 0.00000000e+00
6.80415630e-02 0.00000000e+00 0.00000000e+00
0.00000000e+00 0.00000000e+00 0.00000000e+00
9.73954678e-01 0.00000000e+00 0.00000000e+00
0.00000000e+00 0.00000000e+00 0.00000000e+00
0.00000000e+00 0.00000000e+00 0.00000000e+00
0.00000000e+00 0.00000000e+00 0.00000000e+00
0.00000000e+00 0.00000000e+00 0.00000000e+00
0.00000000e+00 0.00000000e+00 0.00000000e+00
0.00000000e+00 0.00000000e+00 0.00000000e+00
0.00000000e+00 0.00000000e+00 0.00000000e+00
0.00000000e+00 0.00000000e+00 0.00000000e+00
0.00000000e+00 0.00000000e+00 0.00000000e+00
0.00000000e+00 0.00000000e+00 0.00000000e+00
0.00000000e+00 0.00000000e+00 0.00000000e+00
0.00000000e+00 0.00000000e+00 0.00000000e+00
0.00000000e+00 0.00000000e+00 0.00000000e+00
0.00000000e+00 0.00000000e+00 0.00000000e+00
0.00000000e+00 0.00000000e+00 0.00000000e+00
0.00000000e+00 0.00000000e+00 0.00000000e+00
1.50523722e-01 6.65686786e-01 -9.51395702e+00
0.00000000e+00 9.14251804e-01 -1.90870152e+01
0.00000000e+00 0.00000000e+00 -3.75706825e+01
2.42474645e-01 0.00000000e+00 -1.93310375e+01
0.00000000e+00 4.49079275e-03 -1.92378407e+01
0.00000000e+00 0.00000000e+00 -3.82007790e+01
0.00000000e+00 -3.07318062e-01 -1.94568233e+01
0.00000000e+00 0.00000000e+00 -3.56291313e+01
0.00000000e+00 -7.93240428e-01 -1.76833553e+01
0.00000000e+00 0.00000000e+00 -3.21124687e+01
0.00000000e+00 -1.49265862e+00 -1.44533834e+01
0.00000000e+00 0.00000000e+00 -2.80611782e+01
0.00000000e+00 -1.80746424e+00 -8.07340336e+00
0.00000000e+00 0.00000000e+00 -1.58012295e+01
0.00000000e+00 0.00000000e+00 -4.27936668e+01
1.89142466e+00 0.00000000e+00 -2.33510761e+01
0.00000000e+00 0.00000000e+00 -3.17539654e+01
0.00000000e+00 0.00000000e+00 -2.38074703e+01
0.00000000e+00 0.00000000e+00 -1.98583126e+01
0.00000000e+00 0.00000000e+00 -2.03081532e+01
0.00000000e+00 0.00000000e+00 -1.26420012e+01
0.00000000e+00 0.00000000e+00 -3.17298260e+01
-8.74626160e-01 0.00000000e+00 -1.87723904e+01
0.00000000e+00 0.00000000e+00 -2.33053913e+01
0.00000000e+00 0.00000000e+00 -1.20217142e+01
0.00000000e+00 0.00000000e+00 -6.73613214e+00
0.00000000e+00 0.00000000e+00 0.00000000e+00
0.00000000e+00 0.00000000e+00 -8.34350395e+00
0.00000000e+00 0.00000000e+00 0.00000000e+00
0.00000000e+00 0.00000000e+00 -5.13062954e+00
0.00000000e+00 0.00000000e+00 0.00000000e+00
0.00000000e+00 0.00000000e+00 -3.28506684e+00
0.00000000e+00 0.00000000e+00 -1.22827177e+01
0.00000000e+00 0.00000000e+00 0.00000000e+00
0.00000000e+00 0.00000000e+00 2.38350534e+00
0.00000000e+00 0.00000000e+00 0.00000000e+00
0.00000000e+00 0.00000000e+00 5.30336523e+00
0.00000000e+00 0.00000000e+00 0.00000000e+00
0.00000000e+00 0.00000000e+00 3.25773883e+00
6.01332009e-01 0.00000000e+00 -1.80070438e+01
0.00000000e+00 0.00000000e+00 -2.10452442e+01
0.00000000e+00 0.00000000e+00 -3.34257317e+01
2.21928644e+00 0.00000000e+00 -2.20132809e+01
0.00000000e+00 0.00000000e+00 1.48085904e+00
0.00000000e+00 0.00000000e+00 -5.81336927e+00
0.00000000e+00 0.00000000e+00 -1.09265852e+00
0.00000000e+00 0.00000000e+00 -1.58419695e+01
8.31138045e-02 0.00000000e+00 -5.87278414e+00
0.00000000e+00 0.00000000e+00 -1.91157322e+01
0.00000000e+00 0.00000000e+00 -1.83051395e+01
0.00000000e+00 0.00000000e+00 -1.18524723e+01
0.00000000e+00 0.00000000e+00 -1.09020033e+01
0.00000000e+00 0.00000000e+00 -5.70118618e+00
0.00000000e+00 0.00000000e+00 6.16932631e-01
0.00000000e+00 0.00000000e+00 -8.67178515e-02
</DataArray>
<DataArray type="Float32" Name="Equivalent_plastic_strain" format="ascii">
6.41703634e-02
6.44391690e-02
7.57004172e-02
7.50744380e-02
4.70014184e-02
5.96449617e-02
1.28974704e-01
1.03343049e-01
9.94109474e-02
1.28656987e-01
1.46989822e-01
1.29032724e-01
0.00000000e+00
0.00000000e+00
0.00000000e+00
0.00000000e+00
0.00000000e+00
0.00000000e+00
0.00000000e+00
0.00000000e+00
9.52973962e-02
9.49664749e-02
9.46678584e-02
9.48879365e-02
1.04919665e-01
1.05566703e-01
1.07386341e-01
1.08885892e-01
9.38884672e-02
9.77139203e-02
1.02352362e-01
1.05455199e-01
9.51658525e-02
9.31658386e-02
9.67980027e-02
9.92179560e-02
9.59104113e-02
1.10430537e-01
9.12006516e-02
8.90064351e-02
9.50588025e-02
1.06208483e-01
8.49872157e-02
9.52816922e-02
9.42819975e-02
1.03701506e-01
8.31501819e-02
9.27497782e-02
9.78636853e-02
9.38757528e-02
1.17104841e-01
1.14118854e-01
1.01034595e-01
1.10253814e-01
1.33078891e-01
1.02626907e-01
1.30551808e-01
1.06490332e-01
1.28696037e-01
1.14294492e-01
1.25721265e-01
1.14447743e-01
9.66556487e-02
8.54631718e-02
1.29223276e-01
1.14870515e-01
1.24724850e-01
1.32226269e-01
1.18994527e-01
4.00374159e-02
6.85414624e-02
8.13639536e-02
5.92850714e-02
7.98408769e-02
8.03915914e-02
1.38897212e-01
9.38034952e-02
9.95293967e-02
1.67298436e-01
1.26871675e-01
8.08786973e-02
4.82518463e-02
1.09763369e-01
1.48835164e-01
1.35665059e-01
1.20434585e-01
1.18883427e-01
1.17669558e-01
1.21115599e-01
1.24694964e-01
1.12563157e-01
1.13633191e-01
1.04662426e-01
1.02781662e-01
9.60528255e-02
9.31718955e-02
8.84732176e-02
8.67798822e-02
8.79973881e-02
8.67747962e-02
1.17736259e-01
1.26186697e-01
1.02456615e-01
8.40200766e-02
6.56926061e-02
5.49899180e-02
6.50648413e-02
1.55591575e-01
1.54883876e-01
1.10717683e-01
2.28759542e-02
6.24214783e-02
4.26235624e-03
2.04896756e-01
1.98291987e-01
1.48982659e-01
1.36694367e-01
1.31692592e-01
1.76389467e-01
1.58871092e-01
1.72419693e-01
1.61345810e-01
7.09417670e-02
7.97465444e-02
-2.02542841e-02
1.33432085e-02
4.48149165e-02
1.09274052e-02
0.00000000e+00
0.00000000e+00
0.00000000e+00
0.00000000e+00
-6.18176799e-05
0.00000000e+00
0.00000000e+00
5.77369841e-05
1.25816226e-01
1.23062231e-01
1.25744456e-01
1.30499706e-01
1.17124666e-01
1.16465755e-01
1.08913891e-01
1.05886772e-01
1.00601755e-01
1.00051699e-01
9.48803872e-02
9.20448806e-02
9.70508158e-02
9.38429162e-02
1.33571343e-01
1.71622150e-01
9.51253548e-02
8.34239852e-02
4.24542484e-02
2.32397820e-02
2.09807404e-02
1.80773698e-01
1.84438437e-01
1.28970779e-01
3.68427788e-03
-2.51600335e-03
1.40609258e-02
-2.27765664e-03
1.58448943e-02
1.49416918e-03
3.35600059e-02
-8.27276777e-03
1.15394436e-01
-1.18447202e-04
2.71203567e-03
-7.03738592e-05
-2.45432517e-04
6.17128797e-04
1.08344085e-03
2.28095472e-01
2.62554199e-01
1.89254656e-01
2.33319126e-01
-6.87814913e-05
-1.51976167e-03
0.00000000e+00
1.73645206e-01
1.68785542e-01
1.79791339e-01
1.80741124e-01
3.67730563e-02
3.77504905e-02
-6.15433295e-04
1.69879335e-04
0.00000000e+00
</DataArray>
<DataArray type="Float32" Name="Stress_Mises" format="ascii">
1.88883035e+01
2.94908406e+01
6.38611298e+01
3.49324321e+01
2.43672684e+01
3.96130903e+01
4.19866629e+01
2.88164265e+01
6.14582121e+01
1.34202293e+02
1.20574390e+02
1.08413372e+02
1.71972233e+00
1.26099813e+00
2.09150499e+00
2.95607090e+00
8.27482581e-01
6.20114744e-01
1.05549765e+00
1.21942103e+00
2.78505392e+01
2.74315970e+01
2.30066621e+01
2.68665743e+01
2.26163673e+01
2.98188834e+01
2.83793518e+01
2.92705903e+01
2.19872117e+01
2.45141622e+01
2.98615506e+01
3.25131249e+01
2.30110121e+01
2.43998838e+01
2.65756619e+01
2.82281331e+01
2.10078911e+01
2.74801391e+01
2.24396288e+01
2.35260633e+01
1.65218539e+01
3.11897988e+01
1.60143882e+01
2.54886101e+01
1.58217125e+01
2.53388638e+01
1.74228864e+01
2.49075630e+01
2.59231043e+01
2.53718014e+01
3.74509237e+01
2.91294009e+01
4.51554105e+01
3.91638283e+01
1.21083403e+02
4.32957023e+01
8.94141560e+01
7.49659775e+01
6.88592567e+01
8.27972221e+01
6.03174381e+01
7.89124928e+01
2.44942239e+01
2.93326272e+01
4.28351401e+01
2.48674686e+01
1.48177830e+02
6.49725353e+01
9.61252670e+01
2.93085165e+01
2.72087743e+01
1.80995001e+01
2.78717012e+01
2.92347826e+01
2.24080620e+01
2.95577389e+01
3.73826597e+01
9.36503801e+01
1.52853088e+02
5.92447292e+01
4.01510324e+01
4.44851851e+01
4.37558336e+01
6.80057945e+01
1.28545124e+02
4.21957722e+01
2.51736822e+01
3.05224288e+01
2.99426192e+01
3.23949285e+01
3.56498232e+01
3.65942003e+01
3.69918251e+01
4.24270790e+01
3.41032262e+01
3.04620918e+01
2.25938339e+01
2.41281982e+01
2.65176120e+01
4.16386523e+01
4.94156104e+01
5.45840120e+01
4.32811078e+01
4.06271047e+01
4.28900660e+01
5.10484074e+01
5.70982164e+01
6.39798649e+01
6.58567238e+01
4.79829214e+01
3.76957116e+01
6.33296280e+01
2.15559612e+01
5.96348505e+01
4.54424388e+01
1.85913048e+02
7.72266375e+01
4.45905876e+01
1.96534567e+01
2.05195132e+01
7.39637289e+01
4.94464264e+01
6.66587605e+01
3.59664536e+01
4.70863380e+01
1.95116520e+01
2.66344838e+01
2.25666946e+01
4.21714830e+00
1.95465040e+00
3.27965522e+00
4.75563812e+00
1.34397763e+01
7.20371787e+00
5.38611627e+00
1.76124862e+01
2.91679993e+01
3.17151747e+01
2.92317158e+01
3.10328617e+01
3.89262218e+01
3.69322169e+01
4.12299938e+01
5.16973262e+01
4.06914892e+01
4.75354962e+01
3.73659248e+01
3.10964699e+01
5.24719887e+01
4.67302876e+01
4.87073917e+01
4.33810115e+01
4.61181965e+01
4.34102299e+01
2.47252848e+01
2.25388761e+01
3.02312045e+01
1.49291454e+02
1.57380112e+02
3.39628245e+01
2.15710740e+01
1.42605398e+01
2.30309672e+01
1.84442728e+01
2.43077660e+01
2.41123323e+01
6.64269333e+01
1.77245502e+01
4.98780289e+01
2.45710478e+01
1.93696513e+01
2.25332782e+01
1.82411394e+01
1.85572658e+01
2.00583181e+01
1.28699219e+02
1.91765427e+02
6.26339455e+01
3.95125279e+01
1.32749060e+01
2.26248347e+01
1.02370925e+01
2.47286350e+01
8.91589260e+00
3.40721970e+01
4.30069351e+01
3.56414852e+01
2.01441193e+01
1.60227695e+01
1.59261303e+01
5.30915833e+00
</DataArray>
<DataArray type="Float32" Name="Stress_Max_Principal" format="ascii">
2.16344234e+01
1.28550698e+01
5.65315580e+00
-2.04020989e+00
2.42796986e+01
4.41002077e+01
3.55657446e+00
1.77950037e+01
-1.65774723e+01
-8.28386822e+01
-6.15689259e+01
-5.31482667e+01
9.62742805e-01
6.79468006e-01
1.08195546e+00
1.76024824e+00
5.86378753e-01
4.95732665e-01
6.86603606e-01
8.20406914e-01
2.26665068e+00
2.97587237e+00
8.34894235e+00
3.59130073e+00
6.88012838e+00
5.03901064e-01
6.68150988e+00
1.43253997e+00
7.86750531e+00
7.96891800e+00
3.69352818e-01
1.29876152e+00
6.62111986e+00
1.48979040e+01
3.90374541e+00
6.04391146e+00
9.28805114e+00
7.74649829e+00
7.41238368e+00
2.09261307e+01
1.23703473e+01
1.57266532e+01
2.03803319e+01
1.10419338e+01
1.26075912e+01
2.45789715e+01
2.45256002e+01
1.67641658e+01
5.56336230e+00
8.26428950e+00
-3.93953869e+00
1.34877563e+00
3.28822969e+01
-4.09796402e+00
-7.30889771e+01
3.13695856e+01
-4.79783130e+01
-3.47458658e+01
-2.99691167e+01
-4.20669761e+01
-2.06992145e+01
-3.48379059e+01
6.99100024e+00
2.17242212e+01
-9.38620492e+00
5.46580002e+00
-9.13620749e+01
-1.76684153e+01
2.18383789e+02
1.89339078e+01
3.80126504e+01
1.71504362e+01
3.60929225e+01
1.22306533e+01
1.98831350e+01
3.64938490e+01
1.10398054e+01
-4.93489904e+01
-9.82174149e+01
1.53231475e+01
1.49320650e+01
9.09765077e+00
1.67008486e+01
-3.98821163e+00
-3.30358963e+01
6.82376025e+00
5.31172135e+00
2.06900477e-01
1.18226369e+00
-4.95958090e-01
-3.65812027e+00
-3.99561828e+00
-5.03298974e+00
-7.45155427e+00
-1.78256649e+00
1.89016056e+00
7.62139150e+00
1.45547107e+01
5.34243703e+00
5.83545369e+00
-7.55766606e-01
7.56350756e+00
-4.45343399e+00
2.09769576e+01
3.35001458e+01
4.03203591e+00
7.98517450e+00
-2.45848907e+01
-2.82031466e+01
3.19192135e+01
6.06251451e+01
1.45520889e+02
3.05976920e+01
-2.08397343e+01
1.22870318e+01
-1.03162411e+02
-2.39356695e+01
-9.61538696e+00
2.89800068e+01
1.21155722e+01
-2.99257006e+01
-8.82242072e+00
2.11898425e+01
3.45670147e+01
1.13825165e+02
5.73202248e+01
2.69936233e+01
2.09003213e+01
2.60471797e+00
9.51852679e-01
1.93839836e+00
2.96137857e+00
9.37926337e+00
1.90175394e+00
1.39918441e+00
8.20488397e+00
2.18558812e+00
-6.31832480e-01
2.04830527e+00
8.74725819e-01
-6.33932924e+00
-3.85011928e+00
-7.25937343e+00
-1.37958233e+01
-6.02794331e+00
-1.03045535e+01
-3.14785355e+00
3.73002213e+00
-1.28795815e+01
-6.97212267e+00
1.18507707e+01
5.25660706e+00
-1.55378066e+00
2.59257050e+01
4.17214041e+01
2.64709234e+01
2.46809320e+01
-9.33769131e+01
-1.06725273e+02
4.99514322e+01
4.38439741e+01
3.63710949e+01
3.69581490e+01
3.10132637e+01
1.72495651e+01
3.47603450e+01
7.22509851e+01
4.11761322e+01
2.17743683e+01
3.64395930e+01
2.19786517e+01
1.81237610e+01
1.45005516e+01
8.82661760e+00
7.43165064e+00
-6.85711594e+01
-1.28949142e+02
2.44782763e+01
1.72411366e+01
7.90470415e+00
3.28028736e+01
3.91507375e+00
9.99733257e+00
2.11237545e+01
1.03376007e+00
-4.84561121e+00
1.82279315e+01
3.23855162e+01
3.06156635e+01
6.87484550e+00
8.70381892e-01
</DataArray>
<DataArray type="Float32" Name="Stress_Mid_Principal" format="ascii">
1.53055248e+01
2.39895034e+00
-1.34034834e+01
-4.53944170e+00
1.63857734e+01
2.35491660e+01
-1.18656698e+01
1.21454389e+01
-2.36445369e+01
-9.37310066e+01
-8.04968751e+01
-7.82099047e+01
-3.72467384e-01
-3.67971130e-01
-1.36599354e-01
-6.36000037e-01
4.63082045e-02
-5.12676910e-02
1.11425117e-01
2.98250746e-02
1.48568678e+00
1.50171623e+00
6.27966905e+00
1.88998187e+00
5.89139605e+00
-1.48610175e-01
3.89644009e+00
-1.20957255e-01
5.99541652e+00
4.96803964e+00
-1.05311871e-02
-1.49317306e+00
5.43990481e+00
1.00118966e+01
2.07643543e+00
2.60916728e+00
7.21533951e+00
4.14857078e+00
5.65636134e+00
1.40642664e+01
1.07847430e+01
8.19486117e+00
1.71899238e+01
7.10501423e+00
1.18517931e+01
1.69711291e+01
1.87397668e+01
1.00958664e+01
1.67981184e+00
3.55119336e+00
-6.50716400e+00
4.87642050e-01
1.57777644e+01
-8.28126466e+00
-8.63761887e+01
1.43140625e+01
-5.38159037e+01
-4.07211579e+01
-3.66550622e+01
-4.81523323e+01
-3.16107550e+01
-4.94578037e+01
3.16736746e+00
1.29196043e+01
-1.12740038e+01
3.78412855e+00
-1.13504385e+02
-2.93740192e+01
1.30841064e+02
8.16883532e+00
2.46204346e+01
1.38794868e+01
2.18768846e+01
5.98556542e+00
1.47688659e+01
2.13944010e+01
6.50659800e-01
-5.96302595e+01
-1.10713123e+02
-7.13712273e+00
4.42611504e+00
-1.71519327e+00
2.15353394e+00
-2.82252359e+01
-6.46575724e+01
-1.09330460e+01
2.95124316e+00
-1.09431326e+00
-1.06548771e+00
-3.66263923e+00
-6.02653360e+00
-7.32957527e+00
-6.83268666e+00
-1.39434690e+01
-5.17653012e+00
-2.38765085e+00
5.13924685e+00
9.05788797e+00
7.02997684e-01
-4.56844482e+00
-1.07079155e+01
-6.22263002e+00
-1.21968116e+01
5.61516738e+00
1.34570248e+01
-1.25034919e+01
-1.30357882e+01
-3.36414433e+01
-3.30213916e+01
9.57967345e+00
3.41680266e+01
8.39141541e+01
1.65119977e+01
-2.67951538e+01
1.32198397e+00
-1.62917252e+02
-3.47331785e+01
-1.39419750e+01
2.02426010e+01
9.56852436e+00
-4.35075254e+01
-2.19770804e+01
-1.02748213e+01
1.44649217e+01
7.12250137e+01
4.15271301e+01
5.59366620e+00
9.38812160e+00
-1.08833575e+00
-1.21924698e-01
-6.69185221e-01
-1.22802603e+00
-8.66062135e-01
-8.43986809e-01
6.85522079e-01
3.63784320e+00
-8.24085712e-01
-2.31688672e+00
-7.14643002e-01
-2.71026754e+00
-9.00881386e+00
-8.08159766e+00
-1.20402472e+01
-2.38250458e+01
-1.24498015e+01
-1.99745673e+01
-9.66571903e+00
-5.60909772e+00
-2.60655098e+01
-2.19177189e+01
-4.77966452e+00
-6.55649567e+00
-1.52055005e+01
8.57812834e+00
2.92110929e+01
1.99978890e+01
6.54229164e+00
-1.11487972e+02
-1.11743362e+02
2.58289586e+01
3.31974163e+01
2.65023841e+01
1.99674110e+01
1.90633486e+01
8.10059142e+00
2.84711192e+01
2.43941097e+01
2.78895350e+01
6.43587589e+00
1.73370321e+01
1.00878303e+01
3.30741364e+00
7.98789977e+00
4.20733538e+00
1.52944863e+00
-1.01875328e+02
-1.47669540e+02
4.59013176e+00
1.75327301e+00
2.88115343e+00
2.13829426e+01
-3.16048801e+00
3.49898529e+00
1.69972115e+01
-5.42863607e+00
-1.77346420e+01
3.47675800e+00
1.74438767e+01
2.02894087e+01
3.49805060e+00
-4.71238891e-04
</DataArray>
<DataArray type="Float32" Name="Stress_Min_Principal" format="ascii">
1.23934817e+00
-1.95965099e+01
-6.25394602e+01
-3.80620599e+01
-1.34367985e+00
1.36253330e+00
-4.35268915e+01
-1.18740387e+01
-8.12033088e+01
-2.22147331e+02
-1.90008830e+02
-1.71480820e+02
-9.77787107e-01
-6.98860988e-01
-1.33279261e+00
-1.51179764e+00
-3.66276681e-01
-1.77936554e-01
-5.31551361e-01
-5.83954394e-01
-2.59654922e+01
-2.51618108e+01
-1.54429646e+01
-2.40767221e+01
-1.62140236e+01
-2.96354637e+01
-2.23520164e+01
-2.85819097e+01
-1.49917831e+01
-1.76043756e+01
-2.96798032e+01
-3.22023077e+01
-1.69512191e+01
-1.02241131e+01
-2.35326072e+01
-2.33581415e+01
-1.26012617e+01
-2.08394561e+01
-1.58528490e+01
-3.61861587e+00
-4.88511968e+00
-1.67015591e+01
3.91978502e+00
-1.53826547e+01
-3.57316923e+00
-1.77076340e+00
6.31590366e+00
-9.79974651e+00
-2.20229134e+01
-1.88566742e+01
-4.24469006e+01
-2.81555653e+01
-1.46119866e+01
-4.48442562e+01
-1.99821985e+02
-1.48094632e+01
-1.40161528e+02
-1.12391121e+02
-1.01925095e+02
-1.27705082e+02
-8.57275124e+01
-1.20037754e+02
-1.90869611e+01
-8.62037373e+00
-5.30563641e+01
-2.01654487e+01
-2.49314098e+02
-8.69689849e+01
1.15516991e+02
-1.28435643e+01
1.00180830e+01
-1.58083200e+00
6.63179843e+00
-1.83324065e+01
-3.31567216e+00
4.64614609e+00
-2.91119871e+01
-1.47522611e+02
-2.56899292e+02
-4.86034702e+01
-2.67127247e+01
-3.77772188e+01
-2.96113586e+01
-7.90744238e+01
-1.71168541e+02
-4.05562960e+01
-2.09590502e+01
-3.09334577e+01
-2.98192439e+01
-3.43564639e+01
-4.04321542e+01
-4.21419002e+01
-4.28915868e+01
-5.27271555e+01
-3.74537258e+01
-3.04354762e+01
-1.61054933e+01
-1.09843361e+01
-2.31851825e+01
-3.88385091e+01
-5.30426760e+01
-4.93110743e+01
-5.07169859e+01
-2.29027444e+01
-1.24434119e+01
-5.17710667e+01
-5.50456467e+01
-9.25123485e+01
-9.63217936e+01
-2.05643037e+01
1.89328906e+01
8.05986023e+01
7.43502684e+00
-8.27358856e+01
-3.54013799e+01
-3.11252350e+02
-1.04156192e+02
-5.61341853e+01
8.03346157e+00
-9.21627522e+00
-1.09687952e+02
-6.33296223e+01
-5.41819866e+01
-5.66091871e+00
6.32668610e+01
3.55082855e+01
-2.36321723e+00
-3.25943247e+00
-1.99050951e+00
-1.30431187e+00
-1.74373722e+00
-2.20785785e+00
-5.13256674e+00
-5.90006471e+00
-4.29708254e+00
-1.11665200e+01
-2.83705597e+01
-3.31497822e+01
-2.84621668e+01
-3.17938306e+01
-4.65161724e+01
-4.26916138e+01
-5.06688299e+01
-6.97335277e+01
-4.95188599e+01
-6.19248080e+01
-4.33436508e+01
-3.09227837e+01
-7.06868820e+01
-5.93408127e+01
-4.05457840e+01
-4.12801838e+01
-5.24382811e+01
-2.14048533e+01
1.46441541e+01
2.53477311e+00
-9.96290779e+00
-2.50797722e+02
-2.66554413e+02
1.26618606e+01
2.05194349e+01
2.01166396e+01
1.09967138e+01
1.05368946e+01
-1.00402222e+01
8.42708874e+00
-3.53474045e+00
2.10854111e+01
-3.39715462e+01
9.10514609e+00
-3.08031241e-01
-7.63134468e+00
-5.95560727e+00
-1.15806069e+01
-1.47880054e+01
-2.10648972e+02
-3.29388214e+02
-4.00211118e+01
-2.69642982e+01
-6.57312351e+00
7.35483201e+00
-7.77948594e+00
-1.72712412e+01
1.08921375e+01
-3.57955437e+01
-5.28222084e+01
-2.13530216e+01
9.50381136e+00
1.34611344e+01
-1.04217234e+01
-4.82036304e+00
</DataArray>
<DataArray type="Float32" Name="Stress_Pressure" format="ascii">
-1.27264320e+01
1.44749594e+00
2.34299297e+01
1.48805709e+01
-1.31072643e+01
-2.30039686e+01
1.72786627e+01
-6.02213526e+00
4.04751070e+01
1.32905674e+02
1.10691540e+02
1.00946330e+02
1.29170574e-01
1.29121378e-01
1.29145496e-01
1.29183155e-01
-8.88034403e-02
-8.88428092e-02
-8.88257995e-02
-8.87591764e-02
7.40438533e+00
6.89474058e+00
2.71451116e-01
6.19847989e+00
1.14750004e+00
9.76005761e+00
3.92468894e+00
9.09010935e+00
3.76287192e-01
1.55580601e+00
9.77366078e+00
1.07989064e+01
1.63006496e+00
-4.89522889e+00
5.85080886e+00
4.90168712e+00
-1.30070949e+00
2.98146242e+00
9.28034961e-01
-1.04572605e+01
-6.08999023e+00
-2.40665174e+00
-1.38300138e+01
-9.21431616e-01
-6.96207166e+00
-1.32597796e+01
-1.65270910e+01
-5.68676147e+00
4.92657965e+00
2.34706360e+00
1.76312010e+01
8.77304965e+00
-1.13493571e+01
1.90744946e+01
1.19762386e+02
-1.02913952e+01
8.06519127e+01
6.26193822e+01
5.61830921e+01
7.26414652e+01
4.60124950e+01
6.81111526e+01
2.97619752e+00
-8.67448437e+00
2.45721907e+01
3.63850737e+00
1.51393524e+02
4.46704724e+01
-1.54913940e+02
-4.75305939e+00
-2.42170559e+01
-9.81636363e+00
-2.15338694e+01
3.87287140e-02
-1.04454430e+01
-2.08447989e+01
5.80717325e+00
8.55006196e+01
1.55276604e+02
1.34724811e+01
2.45151520e+00
1.01315870e+01
3.58565903e+00
3.70959568e+01
8.96206690e+01
1.48885282e+01
4.23202872e+00
1.06069567e+01
9.90082269e+00
1.28383534e+01
1.67056022e+01
1.78223646e+01
1.82524214e+01
2.47073935e+01
1.48042741e+01
1.03109881e+01
1.11495161e+00
-4.20942071e+00
5.71324968e+00
1.25238335e+01
2.15021189e+01
1.59900656e+01
2.24557441e+01
-1.22979403e+00
-1.15045857e+01
2.00808404e+01
2.00320867e+01
5.02462289e+01
5.25154429e+01
-6.97819440e+00
-3.79086876e+01
-1.03344551e+02
-1.81815723e+01
4.34569262e+01
7.26412074e+00
1.92444000e+02
5.42750142e+01
2.65638490e+01
-1.90853566e+01
-4.15594101e+00
6.10403934e+01
3.13763759e+01
1.44223208e+01
-1.44570060e+01
-8.27723465e+01
-4.47852135e+01
-1.00746907e+01
-9.00967032e+00
1.58042446e-01
1.58127964e-01
1.58174708e-01
1.58168450e-01
-1.12687809e+00
1.61409921e+00
7.37458654e-01
-2.25402435e-01
9.00301933e+00
1.20328338e+01
9.04283488e+00
1.12097907e+01
2.06214380e+01
1.82077765e+01
2.33228168e+01
3.57847984e+01
2.26655350e+01
3.07346425e+01
1.87190747e+01
1.09339533e+01
3.65439911e+01
2.94102182e+01
1.11582260e+01
1.41933575e+01
2.30658538e+01
-4.36632586e+00
-2.85255508e+01
-1.63345284e+01
-7.08677101e+00
1.51887527e+02
1.61674347e+02
-2.94807506e+01
-3.25202737e+01
-2.76633727e+01
-2.26407583e+01
-2.02045029e+01
-5.10331133e+00
-2.38861848e+01
-3.10367851e+01
-3.00503597e+01
1.92043340e+00
-2.09605904e+01
-1.05861505e+01
-4.59994334e+00
-5.51094800e+00
-4.84448791e-01
1.94230211e+00
1.27031815e+02
2.02002304e+02
3.65089989e+00
2.65662956e+00
-1.40424481e+00
-2.05135491e+01
2.34163338e+00
1.25830746e+00
-1.63376999e+01
1.33968059e+01
2.51341534e+01
-1.17221832e-01
-1.97777342e+01
-2.14554022e+01
1.62756443e-02
1.31681752e+00
</DataArray>
<DataArray type="Float32" Name="Stress_Tresca" format="ascii">
2.03950751e+01
3.24515791e+01
6.81926165e+01
3.60218496e+01
2.56233785e+01
4.27376744e+01
4.70834665e+01
2.96690421e+01
6.46258364e+01
1.39308647e+02
1.28439907e+02
1.18332554e+02
1.94052994e+00
1.37832904e+00
2.41474807e+00
3.27204573e+00
9.52655435e-01
6.73669219e-01
1.21815491e+00
1.40436125e+00
2.82321434e+01
2.81376836e+01
2.37919068e+01
2.76680231e+01
2.30941525e+01
3.01393652e+01
2.90335267e+01
3.00144496e+01
2.28592877e+01
2.55732933e+01
3.00491560e+01
3.35010692e+01
2.35723391e+01
2.51220167e+01
2.74363523e+01
2.94020530e+01
2.18893127e+01
2.85859540e+01
2.32652326e+01
2.45447466e+01
1.72554669e+01
3.24282122e+01
1.64605470e+01
2.64245882e+01
1.61807599e+01
2.63497348e+01
1.82096968e+01
2.65639124e+01
2.75862756e+01
2.71209636e+01
3.85073621e+01
2.95043406e+01
4.74942839e+01
4.07462928e+01
1.26733008e+02
4.61790491e+01
9.21832161e+01
7.76452538e+01
7.19559784e+01
8.56381054e+01
6.50282993e+01
8.51998482e+01
2.60779608e+01
3.03445959e+01
4.36701595e+01
2.56312485e+01
1.57952023e+02
6.93005699e+01
1.02866798e+02
3.17774722e+01
2.79945676e+01
1.87312677e+01
2.94611244e+01
3.05630603e+01
2.31988068e+01
3.18477030e+01
4.01517925e+01
9.81736174e+01
1.58681885e+02
6.39266182e+01
4.16447887e+01
4.68748693e+01
4.63122082e+01
7.50862112e+01
1.38132647e+02
4.73800570e+01
2.62707720e+01
3.11403589e+01
3.10015078e+01
3.38605061e+01
3.67740335e+01
3.81462818e+01
3.78585978e+01
4.52756011e+01
3.56711588e+01
3.23256364e+01
2.37268851e+01
2.55390464e+01
2.85276198e+01
4.46739621e+01
5.22869093e+01
5.68745813e+01
4.62635520e+01
4.38797026e+01
4.59435579e+01
5.58031025e+01
6.30308202e+01
6.79274575e+01
6.81186473e+01
5.24835164e+01
4.16922544e+01
6.49222870e+01
2.31626652e+01
6.18961506e+01
4.76884104e+01
2.08089943e+02
8.02205207e+01
4.65188003e+01
2.09465454e+01
2.13318472e+01
7.97622519e+01
5.45072031e+01
7.53718290e+01
4.02279334e+01
5.05583038e+01
2.18119392e+01
2.93568401e+01
2.41597538e+01
4.59522724e+00
2.25616455e+00
3.68213558e+00
5.16923618e+00
1.45118302e+01
7.80181837e+00
5.69626689e+00
1.93714037e+01
3.05561485e+01
3.25179491e+01
3.05104713e+01
3.26685562e+01
4.01768436e+01
3.88414946e+01
4.34094553e+01
5.59377036e+01
4.34909172e+01
5.16202545e+01
4.01957970e+01
3.46528068e+01
5.78073006e+01
5.23686905e+01
5.23965549e+01
4.65367908e+01
5.08845005e+01
4.73305564e+01
2.70772500e+01
2.39361503e+01
3.46438389e+01
1.57420807e+02
1.59829132e+02
3.72895718e+01
2.33245392e+01
1.62544551e+01
2.59614348e+01
2.04763694e+01
2.72897873e+01
2.63332558e+01
7.57857246e+01
2.00907211e+01
5.57459145e+01
2.73344466e+01
2.22866834e+01
2.57551057e+01
2.04561586e+01
2.04072247e+01
2.22196560e+01
1.42077820e+02
2.00439072e+02
6.44993896e+01
4.42054348e+01
1.44778278e+01
2.54480419e+01
1.16945601e+01
2.72685728e+01
1.02316170e+01
3.68293037e+01
4.79765987e+01
3.95809536e+01
2.28817043e+01
1.71545296e+01
1.72965689e+01
5.69074488e+00
</DataArray>
<DataArray type="Float32" Name="Stress_Third_Invariant" format="ascii">
-1.03307398e+01
-1.98396172e+01
-4.01069431e+01
-3.38628206e+01
-1.08050435e+01
-1.94070169e+00
-2.59731001e+01
-1.86659133e+01
-6.03412328e+01
-1.33178131e+02
-1.15308617e+02
-9.97291660e+01
1.44915891e+00
1.08640754e+00
-4.34095263e-02
2.53840554e+00
5.06454229e-01
5.89944482e-01
-4.83661562e-01
7.31606424e-01
-2.78238897e+01
-2.73384113e+01
-2.17710578e+01
-2.67183075e+01
-2.25665622e+01
-2.98015542e+01
-2.49091576e+01
-2.91717014e+01
-2.17940183e+01
-2.27197058e+01
-2.98545403e+01
-3.06013922e+01
-2.29229059e+01
-1.74649548e+01
-2.64157655e+01
-2.55456673e+01
-2.03125900e+01
-2.39772886e+01
-2.22817531e+01
-1.27662340e+01
-1.63430686e+01
-1.97402839e+01
-1.00977457e+01
-2.07830824e+01
-1.57648849e+01
-1.07087055e+01
-7.70855284e+00
-1.65421216e+01
-2.50069127e+01
-2.28981381e+01
-3.63277716e+01
-2.88474142e+01
-1.41333125e+01
-3.71399048e+01
-1.17993480e+02
-1.47884494e+01
-8.89634552e+01
-7.40195202e+01
-6.81158600e+01
-8.21878300e+01
-5.80339832e+01
-7.57742481e+01
-2.34235291e+01
-1.42839848e+01
-4.22461039e+01
-2.46173473e+01
-1.44217953e+02
-5.48750845e+01
9.33177032e+01
-1.69208031e+01
-1.45717743e+00
-1.33705659e+01
-1.49221792e+00
-2.13509744e+01
-1.29965019e+01
-3.84261860e+00
-2.56565588e+01
-9.17474041e+01
-1.51588303e+02
-3.11311371e+01
-2.35237827e+01
-2.99263611e+01
-2.41557417e+01
-4.70788493e+01
-1.02886316e+02
-2.45287984e+01
-2.49228392e+01
-3.04240620e+01
-2.97468827e+01
-3.20393879e+01
-3.54692912e+01
-3.62476161e+01
-3.68924437e+01
-4.12115690e+01
-3.37134435e+01
-2.94503357e+01
-2.22666278e+01
-1.78486456e+01
-2.55683022e+01
-3.12125297e+01
-3.90503132e+01
-3.45917473e+01
-3.94718235e+01
-1.92535992e+01
-1.12767713e+01
-3.54780439e+01
-3.56596444e+01
-6.21969921e+01
-6.54121100e+01
-1.44733849e+01
9.01461093e+00
6.31339302e+01
8.16147146e+00
-5.55576856e+01
-2.82105726e+01
-1.60382347e+02
-6.67173955e+01
-4.38696189e+01
-6.11324883e+00
-1.78917326e+01
-7.08922834e+01
-4.37910677e+01
-3.69330621e+01
-7.61986661e+00
4.55362968e+01
1.72295933e+01
1.71683941e+01
-4.30272166e+00
3.99126911e+00
-8.53526652e-01
2.84109449e+00
4.52008343e+00
5.59593244e+00
-3.76468666e+00
-5.24224710e+00
-1.59234449e+01
-2.88155518e+01
-3.15955143e+01
-2.89214000e+01
-3.05583000e+01
-3.86724453e+01
-3.63042846e+01
-4.05912514e+01
-4.93009100e+01
-3.94298601e+01
-4.52186551e+01
-3.60527010e+01
-2.74892368e+01
-4.85298920e+01
-4.07792721e+01
-2.92843485e+01
-3.20315843e+01
-3.75362046e+01
-1.67511369e+01
-3.14013124e+00
-1.07084801e+01
-5.48020554e+00
-1.46474300e+02
-1.57199951e+02
1.43703788e+01
-1.69368631e+00
9.17841122e+00
1.39022481e+01
4.77980661e+00
-1.75496864e+01
-2.06973262e+01
5.00316029e+01
1.41295094e+01
-4.40840530e+01
1.88785799e+01
6.22119427e+00
6.68511045e+00
-1.41590710e+01
-1.70969238e+01
-1.73171206e+01
-1.18407959e+02
-1.89693268e+02
-2.50465724e+01
-2.18097210e+01
-6.27721000e+00
2.95873229e+00
6.82889915e+00
-2.22717284e+01
-6.14505196e+00
-3.26105347e+01
-3.82811832e+01
-1.99039249e+01
1.58613324e+01
2.18474913e+00
-1.49122176e+01
-5.14477825e+00
</DataArray>
<DataArray type="Float32" Name="Logarithmic_strain_Max_Principal" format="ascii">
4.72503752e-02
5.48938126e-02
6.26905011e-02
4.76574963e-02
5.22033055e-02
6.77747950e-02
9.08976421e-02
6.18572449e-02
6.37024567e-02
7.46287331e-02
1.00662375e-01
1.06092036e-01
2.46299669e-05
1.75307723e-05
2.73664473e-05
4.35736965e-05
1.28562378e-05
1.16965339e-05
1.54623376e-05
1.74462912e-05
5.81253413e-02
5.98007496e-02
6.28101942e-02
6.03608908e-02
7.01785795e-02
6.79741260e-02
6.96947314e-02
7.15518594e-02
6.38315016e-02
6.65598670e-02
6.41268473e-02
6.70761908e-02
6.50348859e-02
6.92690844e-02
6.36828737e-02
6.43107099e-02
6.84412606e-02
7.29615875e-02
6.10571038e-02
6.38984512e-02
6.63825357e-02
6.96589136e-02
5.46562113e-02
6.32458190e-02
6.44171592e-02
7.03112520e-02
5.71630653e-02
6.52471622e-02
7.11786086e-02
6.96183108e-02
7.47687845e-02
7.09149875e-02
6.57976461e-02
7.39887943e-02
8.82176459e-02
6.80477326e-02
8.45163651e-02
7.06582852e-02
8.20031427e-02
7.32503794e-02
8.41800943e-02
7.60369264e-02
6.97105697e-02
6.30505886e-02
8.21232210e-02
7.14165261e-02
9.79318786e-02
9.36581507e-02
1.54617980e-01
6.14951551e-02
5.13441467e-02
5.42372810e-02
7.40212748e-02
7.46802688e-02
5.23752784e-02
8.19755952e-02
8.58984757e-02
6.96461033e-02
9.81027968e-02
9.71049309e-02
5.73700350e-02
8.27476941e-02
8.77185203e-02
1.14860168e-01
1.11242106e-01
1.07334214e-01
8.52511339e-02
7.94376526e-02
8.49454552e-02
8.92948005e-02
7.25385379e-02
7.85132190e-02
6.87511526e-02
7.23002767e-02
6.42986037e-02
6.46966398e-02
6.13524970e-02
5.83413248e-02
6.47573583e-02
6.23928700e-02
9.78110814e-02
9.83885080e-02
8.40075649e-02
6.64498052e-02
5.48429345e-02
5.18412708e-02
5.36616705e-02
1.07289705e-01
1.06901397e-01
9.08741752e-02
5.60901233e-02
9.16235596e-02
2.49635872e-02
1.16275135e-01
1.22541790e-01
1.24348421e-01
1.17337612e-01
1.15870083e-01
1.14871927e-01
1.00835789e-01
1.15518885e-01
1.28924806e-01
9.36033875e-02
9.10093077e-02
1.56211495e-01
7.69903436e-02
5.62938869e-02
4.36501246e-02
6.41798397e-05
2.48791639e-05
4.92775507e-05
7.26456929e-05
2.00709467e-04
6.65490346e-05
4.10789453e-05
2.60114136e-04
9.06814411e-02
8.38524960e-02
9.24563017e-02
9.77256857e-02
7.57906288e-02
8.29892214e-02
7.72570558e-02
7.80766755e-02
7.42785558e-02
7.15237949e-02
7.04826191e-02
6.76928032e-02
7.84173235e-02
7.09018651e-02
1.05734877e-01
1.08061973e-01
9.38544851e-02
6.91989223e-02
4.74286126e-02
4.14016307e-02
4.06904016e-02
1.15426578e-01
1.19795389e-01
8.89583578e-02
3.82320371e-02
1.00009879e-02
1.83203775e-02
7.48638345e-03
1.78821330e-02
9.26867977e-03
6.61590556e-02
1.77511405e-02
8.46017525e-02
3.60875339e-03
2.78134815e-03
5.42832209e-04
2.87056475e-04
7.92139821e-04
9.26919573e-04
1.78772360e-01
1.59038588e-01
1.31169535e-01
1.53483592e-01
1.50375745e-04
1.67140413e-02
1.22388505e-04
1.35231301e-01
1.30085617e-01
1.15840234e-01
1.36000752e-01
6.51097931e-02
8.32668133e-02
2.20526531e-02
2.82807901e-04
3.50070914e-05
</DataArray>
<DataArray type="Float32" Name="Logarithmic_strain_Min_Principal" format="ascii">
-6.39051013e-02
-7.10241836e-02
-8.95744879e-02
-7.58354180e-02
-7.61297084e-02
-8.96915804e-02
-1.12693977e-01
-8.61506145e-02
-1.00690488e-01
-1.28471509e-01
-1.40484720e-01
-1.45223878e-01
-2.19028407e-05
-1.64302464e-05
-2.96248199e-05
-3.61066732e-05
-9.97921961e-06
-5.79673724e-06
-1.40638658e-05
-1.50818123e-05
-9.55564156e-02
-9.55883339e-02
-9.44377398e-02
-9.56015456e-02
-1.04841921e-01
-1.05940767e-01
-1.07524500e-01
-1.09127067e-01
-9.36920699e-02
-9.76233166e-02
-1.03216110e-01
-1.06270456e-01
-9.45952162e-02
-1.00685771e-01
-9.72418152e-02
-9.98183358e-02
-9.53899808e-02
-1.07822760e-01
-9.10790619e-02
-9.27953590e-02
-9.48537868e-02
-1.06616518e-01
-8.45214501e-02
-9.47507713e-02
-9.41656008e-02
-1.03542028e-01
-8.23555663e-02
-9.30343643e-02
-9.75159872e-02
-9.28228367e-02
-1.18226644e-01
-1.14490967e-01
-1.07023605e-01
-1.12835302e-01
-1.41048275e-01
-1.01939583e-01
-1.35753758e-01
-1.09752235e-01
-1.29889356e-01
-1.18034825e-01
-1.26483124e-01
-1.16802596e-01
-9.25757672e-02
-8.52306373e-02
-1.26031198e-01
-1.14966420e-01
-1.38799615e-01
-1.37276234e-01
-1.34440809e-01
-7.13112801e-02
-7.51995370e-02
-7.62882587e-02
-1.08002486e-01
-1.09317765e-01
-7.65585061e-02
-1.15213802e-01
-1.14297371e-01
-1.05557796e-01
-1.54103629e-01
-1.29889667e-01
-8.26817900e-02
-1.10272560e-01
-1.21524017e-01
-1.45218225e-01
-1.47787395e-01
-1.24504973e-01
-1.17969114e-01
-1.17513908e-01
-1.21020370e-01
-1.24031924e-01
-1.13337345e-01
-1.14014369e-01
-1.05804667e-01
-1.03756288e-01
-9.67596564e-02
-9.20810075e-02
-8.81411526e-02
-8.48395377e-02
-8.74312781e-02
-8.70613717e-02
-1.31208897e-01
-1.38723191e-01
-1.13190586e-01
-8.52752263e-02
-7.18080311e-02
-6.60537810e-02
-6.71781525e-02
-1.47353056e-01
-1.50091288e-01
-1.13290988e-01
-5.28723986e-02
-8.95997286e-02
-1.61378657e-02
-1.73648402e-01
-1.74633011e-01
-1.58170328e-01
-1.75058636e-01
-1.70937579e-01
-1.63976215e-01
-1.58618666e-01
-1.70304418e-01
-1.62113678e-01
-1.11663504e-01
-9.99432132e-02
-8.44777972e-02
-5.56669459e-02
-3.43554599e-02
-4.52329574e-02
-4.60083029e-05
-3.08900817e-05
-3.91134345e-05
-5.14384010e-05
-1.51796185e-04
-1.21830250e-04
-9.48663583e-05
-3.56637979e-04
-1.24816701e-01
-1.23152226e-01
-1.24220002e-01
-1.28762461e-01
-1.18055411e-01
-1.16256084e-01
-1.09369781e-01
-1.07361091e-01
-1.00714274e-01
-9.59938169e-02
-9.48591866e-02
-8.47241879e-02
-9.68592837e-02
-8.59392285e-02
-1.41514637e-01
-1.53300703e-01
-1.12057300e-01
-8.19687266e-02
-5.62530551e-02
-4.41499287e-02
-4.21778876e-02
-1.88305914e-01
-2.03935757e-01
-1.05902004e-01
-3.02759092e-02
-3.45329364e-03
-1.13055260e-02
-3.08841350e-03
-1.57292583e-02
-8.45469930e-03
-4.49449643e-02
-9.07414034e-03
-1.23308606e-01
-3.04777208e-03
-3.33752215e-03
-3.21554497e-04
-2.23179766e-04
-1.01518976e-03
-1.49876883e-03
-2.57320672e-01
-2.70628363e-01
-1.92584470e-01
-2.04015352e-01
-1.38015660e-04
-8.78638524e-03
-1.58134972e-04
-1.76579244e-01
-1.65536270e-01
-1.70976967e-01
-1.66926377e-01
-6.88431785e-02
-7.79155511e-02
-2.48547225e-02
-4.50216168e-04
-1.01141886e-04
</DataArray>
<DataArray type="Float32" Name="Plastic_strain_Max_Principal" format="ascii">
4.67089312e-02
5.57025825e-02
5.24893440e-02
4.79096472e-02
6.01695352e-02
6.63653418e-02
1.01352217e-01
7.41456822e-02
6.95868200e-02
8.14321898e-02
1.18667406e-01
1.00874901e-01
0.00000000e+00
0.00000000e+00
0.00000000e+00
0.00000000e+00
0.00000000e+00
0.00000000e+00
0.00000000e+00
0.00000000e+00
5.81131894e-02
5.95621150e-02
6.26878128e-02
6.00660462e-02
6.99343458e-02
6.78604487e-02
6.94758249e-02
7.13994559e-02
6.35785544e-02
6.63118972e-02
6.38820603e-02
6.70429338e-02
6.48958208e-02
6.32386236e-02
6.34328695e-02
6.40306473e-02
6.80184774e-02
7.46681150e-02
6.09164387e-02
6.03536214e-02
6.58599213e-02
6.90541230e-02
5.43229217e-02
6.35746066e-02
6.39156587e-02
6.96161389e-02
5.68441153e-02
6.45202622e-02
7.04831276e-02
6.95295446e-02
7.48740733e-02
7.07778465e-02
6.64947991e-02
7.39116780e-02
9.25411433e-02
7.21391285e-02
8.46057851e-02
7.29440764e-02
8.33251365e-02
7.39774890e-02
8.49496536e-02
7.68441632e-02
7.19977772e-02
6.20609280e-02
8.49845005e-02
7.12606739e-02
9.96550526e-02
9.51259062e-02
1.37937918e-01
9.34150716e-02
4.66474623e-02
5.70619320e-02
7.94201431e-02
6.48357291e-02
5.49005866e-02
9.80637132e-02
7.03153443e-02
7.24908663e-02
1.14785496e-01
9.84752893e-02
5.57079390e-02
7.30390772e-02
7.82382041e-02
1.20374613e-01
1.11718004e-01
1.06776774e-01
8.49767178e-02
7.93326627e-02
8.46889680e-02
8.91977176e-02
7.24645182e-02
7.84312505e-02
6.86144382e-02
7.19306786e-02
6.42132862e-02
6.59013437e-02
6.12607896e-02
5.99799627e-02
6.46949969e-02
6.23642700e-02
9.67994602e-02
8.90578069e-02
7.74001454e-02
6.47353977e-02
5.24747957e-02
4.21995868e-02
5.17549490e-02
1.15232409e-01
1.11150036e-01
8.97275228e-02
2.76979531e-02
7.66510218e-02
2.58591203e-02
1.41448624e-01
1.43234471e-01
1.27385996e-01
1.04030222e-01
1.01253831e-01
1.24087512e-01
1.01439137e-01
1.24851981e-01
1.30895190e-01
8.02501552e-02
7.21841832e-02
3.64511088e-02
3.05080153e-02
6.56952768e-02
3.78959405e-02
0.00000000e+00
0.00000000e+00
0.00000000e+00
0.00000000e+00
3.45070246e-05
0.00000000e+00
0.00000000e+00
6.84112601e-05
9.05080214e-02
8.36593322e-02
9.23690852e-02
9.76110697e-02
7.57539831e-02
8.29101633e-02
7.71615542e-02
7.72219971e-02
7.41098896e-02
7.60239325e-02
7.03521706e-02
7.47969151e-02
7.81586766e-02
7.75633007e-02
1.00428794e-01
1.21622857e-01
7.57478867e-02
6.93570254e-02
3.93665535e-02
2.49578897e-02
2.67490223e-02
1.19236588e-01
1.15330637e-01
1.13044165e-01
2.36428797e-02
9.72275542e-03
1.83266286e-02
6.93079473e-03
1.89029177e-02
5.22924704e-03
4.15188260e-02
3.20680793e-02
9.43213254e-02
2.93391451e-03
2.73322058e-03
2.00269040e-04
1.56661833e-04
5.86892420e-04
7.26517464e-04
1.65120482e-01
1.67177558e-01
1.29825808e-01
1.78970292e-01
5.85495509e-05
6.17807568e-03
0.00000000e+00
1.32833641e-01
1.29531860e-01
1.28413260e-01
1.48417361e-01
5.79164587e-02
5.55996895e-02
1.08852363e-02
1.32016765e-04
0.00000000e+00
</DataArray>
<DataArray type="Float32" Name="Plastic_strain_Min_Principal" format="ascii">
-6.38092589e-02
-6.69931297e-02
-7.14200754e-02
-7.54609015e-02
-6.69021667e-02
-7.74660299e-02
-1.33584023e-01
-1.08688742e-01
-1.06864508e-01
-1.32850174e-01
-1.68105215e-01
-1.26558747e-01
0.00000000e+00
0.00000000e+00
0.00000000e+00
0.00000000e+00
0.00000000e+00
0.00000000e+00
0.00000000e+00
0.00000000e+00
-9.53789055e-02
-9.49960407e-02
-9.45384046e-02
-9.49358661e-02
-1.04694694e-01
-1.05412111e-01
-1.07227801e-01
-1.08617591e-01
-9.35744233e-02
-9.73961083e-02
-1.02364775e-01
-1.05715693e-01
-9.46386345e-02
-8.99999232e-02
-9.67688896e-02
-9.94235361e-02
-9.50912908e-02
-1.11365522e-01
-9.11045857e-02
-8.74317507e-02
-9.45640132e-02
-1.06033897e-01
-8.50135665e-02
-9.57050845e-02
-9.39374901e-02
-1.03390055e-01
-8.30388851e-02
-9.24078152e-02
-9.64496667e-02
-9.29242857e-02
-1.17371884e-01
-1.14005731e-01
-1.06687053e-01
-1.10006578e-01
-1.39923830e-01
-1.07370096e-01
-1.30174384e-01
-1.11242558e-01
-1.28846267e-01
-1.14534279e-01
-1.25201877e-01
-1.14241175e-01
-9.69964521e-02
-8.42082463e-02
-1.30979744e-01
-1.14596793e-01
-1.35460433e-01
-1.35758740e-01
-1.61554381e-01
-9.28460471e-02
-6.78256200e-02
-8.21930487e-02
-8.50744496e-02
-8.13128788e-02
-8.17790516e-02
-1.47134602e-01
-8.58530861e-02
-1.05597313e-01
-1.76478740e-01
-1.28943776e-01
-8.01064335e-02
-6.88115426e-02
-1.06681287e-01
-1.52325736e-01
-1.48191676e-01
-1.26778667e-01
-1.17640860e-01
-1.17036052e-01
-1.20258973e-01
-1.23422448e-01
-1.12430735e-01
-1.12926237e-01
-1.04587870e-01
-1.01959315e-01
-9.59185474e-02
-9.35040703e-02
-8.80917497e-02
-8.77680946e-02
-8.70885178e-02
-8.68191402e-02
-1.22095941e-01
-1.20232899e-01
-1.00900247e-01
-8.24061392e-02
-6.77216738e-02
-5.28244351e-02
-6.44252698e-02
-1.56109318e-01
-1.54219280e-01
-1.09433356e-01
-2.18326524e-02
-8.66382420e-02
-1.36637847e-02
-2.16054294e-01
-2.08996460e-01
-1.51319109e-01
-1.37697880e-01
-1.36047334e-01
-1.84030671e-01
-1.60493903e-01
-1.77896522e-01
-1.61652479e-01
-9.07663510e-02
-7.56184595e-02
-3.12090125e-02
-1.46257821e-02
-3.85409784e-02
-3.60053858e-02
0.00000000e+00
0.00000000e+00
0.00000000e+00
0.00000000e+00
-5.26663895e-05
0.00000000e+00
0.00000000e+00
-9.15980005e-05
-1.24369510e-01
-1.22393072e-01
-1.23893341e-01
-1.28259785e-01
-1.16919301e-01
-1.15229689e-01
-1.08017493e-01
-1.04106020e-01
-9.92592722e-02
-1.00632604e-01
-9.36769657e-02
-9.28611066e-02
-9.45435688e-02
-9.38230827e-02
-1.28741095e-01
-1.77420795e-01
-8.48188396e-02
-8.20802934e-02
-4.38701590e-02
-2.36872257e-02
-2.22432008e-02
-1.82877563e-01
-1.81074694e-01
-1.36765112e-01
-1.63122807e-02
-5.06968317e-03
-1.19837979e-02
-3.82855268e-03
-1.67519462e-02
-4.74508747e-03
-2.93656783e-02
-1.99127686e-02
-1.34245172e-01
-2.89190331e-03
-3.43949864e-03
-1.50882693e-04
-1.59245179e-04
-7.33897323e-04
-1.17046712e-03
-2.19596907e-01
-2.63756663e-01
-1.89312855e-01
-2.43408881e-01
-4.43834758e-05
-3.34190597e-03
0.00000000e+00
-1.71099238e-01
-1.65812328e-01
-1.88803934e-01
-1.82216451e-01
-4.64218846e-02
-3.71801234e-02
-5.91794879e-03
-2.00402050e-04
0.00000000e+00
</DataArray>
</PointData>
<Cells>
<DataArray type="Int32" Name="connectivity" format="ascii">
0 1 2 3 4 5 6 7
1 8 9 2 5 10 11 6
12 13 14 15 16 17 18 19
20 21 22 23 24 25 26 27
21 28 29 22 25 30 31 26
28 32 33 29 30 34 35 31
32 36 37 33 34 38 39 35
36 40 41 37 38 42 43 39
40 44 45 41 42 46 47 43
23 22 48 49 27 26 50 51
22 29 52 48 26 31 53 50
29 33 54 52 31 35 55 53
33 37 56 54 35 39 57 55
37 41 58 56 39 43 59 57
41 45 60 58 43 47 61 59
49 48 62 63 51 50 64 65
48 52 66 62 50 53 67 64
52 54 68 66 53 55 69 67
63 62 70 71 65 64 72 73
71 70 4 74 73 72 75 76
70 77 5 4 72 78 79 75
74 4 7 80 76 75 81 82
4 5 6 7 75 79 83 81
5 10 11 6 79 84 85 83
24 25 26 27 86 87 88 89
25 30 31 26 87 90 91 88
30 34 35 31 90 92 93 91
34 38 39 35 92 94 95 93
38 42 43 39 94 96 97 95
42 46 47 43 96 98 99 97
27 26 50 51 89 88 100 101
26 31 53 50 88 91 102 100
31 35 55 53 91 93 103 102
35 39 57 55 93 95 104 103
39 43 59 57 95 97 105 104
43 47 61 59 97 99 106 105
51 50 64 65 101 100 107 108
50 53 67 64 100 102 109 107
53 55 69 67 102 103 110 109
55 57 111 69 103 104 112 110
65 64 72 73 108 107 113 114
64 67 78 72 107 109 115 113
73 72 75 76 114 113 116 117
76 75 81 82 117 116 118 119
75 79 83 81 116 120 121 118
79 84 85 83 120 122 123 121
84 124 125 85 122 126 127 123
128 129 130 131 132 133 134 135
86 87 88 89 136 137 138 139
87 90 91 88 137 140 141 138
90 92 93 91 140 142 143 141
92 94 95 93 142 144 145 143
94 96 97 95 144 146 147 145
96 98 99 97 146 148 149 147
89 88 100 101 139 138 150 151
88 91 102 100 138 141 152 150
91 93 103 102 141 143 153 152
93 95 104 103 143 145 154 153
95 97 105 104 145 147 155 154
97 99 106 105 147 149 156 155
101 100 107 108 151 150 157 158
100 102 109 107 150 152 159 157
102 103 110 109 152 153 160 159
103 104 112 110 153 154 161 160
104 105 162 112 154 155 163 161
105 106 164 162 155 156 165 163
109 110 166 115 159 160 167 168
110 112 169 166 160 161 170 167
112 162 171 169 161 163 172 170
162 164 173 171 163 165 174 172
114 113 116 117 175 176 177 178
169 171 132 126 170 172 179 180
171 173 133 132 172 174 181 179
117 116 118 119 178 177 182 183
116 120 121 118 177 184 185 182
120 122 123 121 184 186 187 185
122 126 127 123 186 180 188 187
126 132 135 127 180 179 189 188
132 133 134 135 179 181 190 189
</DataArray>
<DataArray type="Int32" Name="offsets" format="ascii">
8
16
24
32
40
48
56
64
72
80
88
96
104
112
120
128
136
144
152
160
168
176
184
192
200
208
216
224
232
240
248
256
264
272
280
288
296
304
312
320
328
336
344
352
360
368
376
384
392
400
408
416
424
432
440
448
456
464
472
480
488
496
504
512
520
528
536
544
552
560
568
576
584
592
600
608
616
624
632
</DataArray>
<DataArray type="UInt8" Name="types" format="ascii">
12
12
12
12
12
12
12
12
12
12
12
12
12
12
12
12
12
12
12
12
12
12
12
12
12
12
12
12
12
12
12
12
12
12
12
12
12
12
12
12
12
12
12
12
12
12
12
12
12
12
12
12
12
12
12
12
12
12
12
12
12
12
12
12
12
12
12
12
12
12
12
12
12
12
12
12
12
12
12
</DataArray>
</Cells>
</Piece>
</UnstructuredGrid>
</VTKFile>
