<VTKFile type="UnstructuredGrid" version="0.1" byte_order="LittleEndian">
<UnstructuredGrid>
<Piece NumberOfPoints="173" NumberOfCells="80">
<Points>
<DataArray type="Float64" NumberOfComponents="3" format="ascii">
 0.00000000e+00  0.00000000e+00  0.00000000e+00
 1.03305924e+00  0.00000000e+00  0.00000000e+00
 1.03558576e+00  1.06339073e+00  0.00000000e+00
 0.00000000e+00  1.06077266e+00  0.00000000e+00
 0.00000000e+00  0.00000000e+00  9.25410330e-01
 1.03270149e+00  0.00000000e+00  9.22354579e-01
 1.03339016e+00  1.05880105e+00  9.26151454e-01
 0.00000000e+00  1.05792201e+00  9.28337097e-01
 2.07027650e+00  0.00000000e+00  0.00000000e+00
 2.07115579e+00  1.06867492e+00  0.00000000e+00
 2.06860900e+00  0.00000000e+00  9.16033030e-01
 2.07058954e+00  1.06188536e+00  9.20648515e-01
 3.10877419e+00  0.00000000e+00  0.00000000e+00
 3.11245966e+00  1.07627428e+00  0.00000000e+00
 3.11364698e+00  0.00000000e+00  9.09925342e-01
 3.10923338e+00  1.06491780e+00  9.11717653e-01
 4.16070843e+00  0.00000000e+00  0.00000000e+00
 4.15084219e+00  1.08215451e+00  0.00000000e+00
 4.16439009e+00  0.00000000e+00  9.02235150e-01
 4.15337467e+00  1.06573784e+00  9.05755877e-01
 5.21291924e+00  0.00000000e+00  0.00000000e+00
 5.19956923e+00  1.08837092e+00  0.00000000e+00
 5.21747208e+00  0.00000000e+00  8.93715739e-01
 5.20786619e+00  1.06853223e+00  8.99924874e-01
 6.27154875e+00  0.00000000e+00  0.00000000e+00
 6.23665571e+00  1.11119401e+00  0.00000000e+00
 6.26791525e+00  0.00000000e+00  8.91344368e-01
 6.25934649e+00  1.08863258e+00  8.88760984e-01
 1.03908145e+00  2.11232305e+00  0.00000000e+00
 0.00000000e+00  2.11038256e+00  0.00000000e+00
 1.03568101e+00  2.10876584e+00  9.36292768e-01
 0.00000000e+00  2.10570455e+00  9.37233627e-01
 2.07792783e+00  2.12278748e+00  0.00000000e+00
 2.07122779e+00  2.11455250e+00  9.35685456e-01
 3.10921049e+00  2.13172150e+00  0.00000000e+00
 3.10414004e+00  2.12152982e+00  9.43087578e-01
 4.13553333e+00  2.14856863e+00  0.00000000e+00
 4.13824177e+00  2.12244463e+00  9.40353632e-01
 5.15328407e+00  2.15148425e+00  0.00000000e+00
 5.16647530e+00  2.12719011e+00  9.43944752e-01
 6.17920685e+00  2.18178535e+00  0.00000000e+00
 6.20149469e+00  2.15634799e+00  9.43799257e-01
 1.04180908e+00  3.14205360e+00  0.00000000e+00
 0.00000000e+00  3.13944578e+00  0.00000000e+00
 1.03743804e+00  3.14299536e+00  9.48823392e-01
 0.00000000e+00  3.14148474e+00  9.49178457e-01
 2.08318472e+00  3.14438081e+00  0.00000000e+00
 2.07516408e+00  3.14554548e+00  9.60814238e-01
 3.10570812e+00  3.15231442e+00  0.00000000e+00
 3.10085487e+00  3.14972687e+00  9.87557769e-01
 4.11070061e+00  3.15902209e+00  0.00000000e+00
 4.10439682e+00  3.14942718e+00  1.00438356e+00
 5.12348747e+00  3.15344977e+00  0.00000000e+00
 5.12455225e+00  3.13923430e+00  1.01126540e+00
 6.12595654e+00  3.18716931e+00  0.00000000e+00
 6.13066435e+00  3.18343854e+00  1.00372231e+00
 1.04355443e+00  4.15789652e+00  0.00000000e+00
 0.00000000e+00  4.16098833e+00  0.00000000e+00
 1.03794563e+00  4.16000652e+00  9.55714822e-01
 0.00000000e+00  4.16393232e+00  9.53736424e-01
 2.08188438e+00  4.15540981e+00  0.00000000e+00
 2.07337475e+00  4.15282774e+00  9.69485760e-01
 3.10092807e+00  4.15258789e+00  0.00000000e+00
 3.09408736e+00  4.15113544e+00  9.93926108e-01
 4.09852409e+00  4.15763235e+00  0.00000000e+00
 4.09812784e+00  4.15760803e+00  1.00001621e+00
 6.09843922e+00  4.16324472e+00  0.00000000e+00
 5.09847832e+00  4.16023540e+00  0.00000000e+00
 6.09855509e+00  4.16326618e+00  9.99736428e-01
 5.09856415e+00  4.16019583e+00  1.00001335e+00
 1.04152107e+00  5.17337322e+00  0.00000000e+00
 0.00000000e+00  5.18066216e+00  0.00000000e+00
 1.03869057e+00  5.17880201e+00  9.53672886e-01
 0.00000000e+00  5.18162060e+00  9.47898209e-01
 2.07985830e+00  5.16108274e+00  0.00000000e+00
 2.06795597e+00  5.16352749e+00  9.65390563e-01
 3.09404993e+00  5.15359497e+00  0.00000000e+00
 3.08896708e+00  5.15583563e+00  9.92148101e-01
 4.09582996e+00  5.15770292e+00  0.00000000e+00
 4.09563684e+00  5.15771866e+00  1.00026667e+00
 5.09569931e+00  5.16034126e+00  0.00000000e+00
 5.09579849e+00  5.16031837e+00  1.00002420e+00
 6.09581566e+00  5.16299391e+00  0.00000000e+00
 6.09583378e+00  5.16292953e+00  1.00000513e+00
 1.04670501e+00  6.20013428e+00  0.00000000e+00
 0.00000000e+00  6.20347309e+00  0.00000000e+00
 1.04180372e+00  6.20025587e+00  9.44215238e-01
 0.00000000e+00  6.20850039e+00  9.38830614e-01
 2.08651805e+00  6.17778301e+00  0.00000000e+00
 2.06985974e+00  6.19200659e+00  9.49913263e-01
 3.09653139e+00  6.16041660e+00  0.00000000e+00
 3.09222054e+00  6.17239332e+00  9.79809403e-01
 4.09417915e+00  6.15828180e+00  0.00000000e+00
 4.09355974e+00  6.15826273e+00  1.00052297e+00
 5.09322166e+00  6.16019678e+00  0.00000000e+00
 5.09333563e+00  6.16028357e+00  9.99968708e-01
 6.09318447e+00  6.16294718e+00  0.00000000e+00
 6.09321308e+00  6.16291523e+00  9.99995887e-01
 0.00000000e+00  0.00000000e+00  1.85726070e+00
 1.03379095e+00  0.00000000e+00  1.85093820e+00
 1.03298593e+00  1.04903269e+00  1.85742879e+00
 0.00000000e+00  1.04985607e+00  1.85872209e+00
 2.07538104e+00  0.00000000e+00  1.84243083e+00
 2.06733394e+00  1.04345107e+00  1.84577310e+00
 3.11745620e+00  0.00000000e+00  1.83054817e+00
 3.11760616e+00  1.04273272e+00  1.83063960e+00
 4.17284775e+00  0.00000000e+00  1.81319475e+00
 4.16835451e+00  1.04347169e+00  1.82479835e+00
 5.22955894e+00  0.00000000e+00  1.80056453e+00
 5.22392416e+00  1.04541945e+00  1.81399679e+00
 6.27469778e+00  0.00000000e+00  1.79393637e+00
 6.28485870e+00  1.05063534e+00  1.80366254e+00
 1.02774537e+00  2.09647942e+00  1.87238395e+00
 0.00000000e+00  2.10175347e+00  1.87751758e+00
 2.06392002e+00  2.09545398e+00  1.86689508e+00
 3.10535979e+00  2.09974980e+00  1.86314225e+00
 4.16016912e+00  2.11203551e+00  1.84619582e+00
 5.21810484e+00  2.11402917e+00  1.85044622e+00
 6.26981640e+00  2.12163901e+00  1.83840370e+00
 1.02395356e+00  3.13957310e+00  1.89620137e+00
 0.00000000e+00  3.14158821e+00  1.90090585e+00
 2.05380106e+00  3.14068651e+00  1.90933299e+00
 3.04876614e+00  3.12511873e+00  2.00741506e+00
 1.02624977e+00  4.17364502e+00  1.91668975e+00
 0.00000000e+00  4.16955423e+00  1.90920496e+00
 2.05694771e+00  4.15988827e+00  1.94082546e+00
 3.07344270e+00  4.13578224e+00  1.97446811e+00
 1.03180993e+00  5.18729973e+00  1.91049933e+00
 0.00000000e+00  5.19270849e+00  1.90465558e+00
 2.05367923e+00  5.17884207e+00  1.92858303e+00
 3.09273553e+00  5.16562843e+00  1.94365895e+00
 1.02718139e+00  6.21945524e+00  1.88631272e+00
 0.00000000e+00  6.21761084e+00  1.88332796e+00
 2.05439687e+00  6.22517633e+00  1.89519334e+00
 3.10063386e+00  6.21679068e+00  1.89685822e+00
 5.09583616e+00  5.16036272e+00  2.00003099e+00
 6.09583521e+00  5.16293716e+00  2.00002718e+00
 6.09325743e+00  6.16294432e+00  1.99998486e+00
 5.09323215e+00  6.16037321e+00  1.99996853e+00
 0.00000000e+00  0.00000000e+00  2.78646326e+00
 1.04035997e+00  0.00000000e+00  2.78453374e+00
 1.04225898e+00  1.04393661e+00  2.79033709e+00
 0.00000000e+00  1.04244173e+00  2.79503345e+00
 2.08928967e+00  0.00000000e+00  2.77208447e+00
 2.07939959e+00  1.03680182e+00  2.78048253e+00
 3.13293052e+00  0.00000000e+00  2.75839019e+00
 3.13377619e+00  1.03222132e+00  2.76149225e+00
 4.18548775e+00  0.00000000e+00  2.74589872e+00
 4.18791628e+00  1.03384101e+00  2.74151540e+00
 5.23996782e+00  0.00000000e+00  2.73032188e+00
 5.24098825e+00  1.03639066e+00  2.73284554e+00
 6.28984022e+00  0.00000000e+00  2.72442389e+00
 6.29020834e+00  1.03608906e+00  2.72704411e+00
 1.02914476e+00  2.08260965e+00  2.80945134e+00
 0.00000000e+00  2.09446549e+00  2.81238031e+00
 2.07770824e+00  2.08332253e+00  2.78881764e+00
 3.12497187e+00  2.08934569e+00  2.75132275e+00
 4.18513012e+00  2.09923649e+00  2.74235559e+00
 5.23897839e+00  2.09232378e+00  2.74317956e+00
 6.28519869e+00  2.09555507e+00  2.73851585e+00
 1.02458620e+00  3.14225435e+00  2.84738255e+00
 0.00000000e+00  3.13938999e+00  2.84334946e+00
 2.06952429e+00  3.12474251e+00  2.81904340e+00
 1.02444565e+00  4.17512512e+00  2.87281084e+00
 0.00000000e+00  4.18169832e+00  2.86823535e+00
 2.06009603e+00  4.17572641e+00  2.90166306e+00
 1.02588272e+00  5.21598148e+00  2.86355615e+00
 0.00000000e+00  5.21062279e+00  2.86055827e+00
 2.05822611e+00  5.21392727e+00  2.86966896e+00
 3.07130027e+00  4.21116638e+00  3.01553822e+00
 3.09218907e+00  5.20621586e+00  2.85231614e+00
 1.02823234e+00  6.24740696e+00  2.83599544e+00
 0.00000000e+00  6.24997616e+00  2.82593322e+00
</DataArray>
</Points>
<PointData Tensors="Stress_Components,Plastic_strain_components" Vevtors="Spatial_displacement,Reaction_force" Scalars="Equivalent_plastic_strain,Stress_Mises,Stress_Max_Principal,Stress_Mid_Principal,Stress_Min_Principal,Stress_Pressure,Stress_Tresca,Stress_Third_Invariant,Plastic_strain_Max_Principal,Plastic_strain_Min_Principal">
<DataArray type="Float32" Name="Stress_Components" NumberOfComponents="9" format="ascii">
-3.35497117e+00 -7.89995212e-03 -1.17323073e-02 -7.89995212e-03 7.93879926e-01 5.45731699e-03 -1.17323073e-02 5.45731699e-03 -3.24891663e+01
-7.74103963e+00 2.26936430e-01 -3.51017166e-03 2.26936430e-01 -2.93387246e+00 -2.30225578e-01 -3.51017166e-03 -2.30225578e-01 -4.12194386e+01
-4.09739369e+00 4.47248094e-01 -4.06220850e-01 4.47248094e-01 -1.03317952e+00 -3.25675584e-01 -4.06220850e-01 -3.25675584e-01 -3.53681731e+01
-3.92189467e+00 1.23176534e-01 -3.73275355e-01 1.23176534e-01 -1.12401104e+00 1.56591418e-02 -3.73275355e-01 1.56591418e-02 -3.53246937e+01
-1.56088293e+00 -4.74815443e-03 -2.21028822e-02 -4.74815443e-03 2.27425000e+00 -2.81473644e-01 -2.21028822e-02 -2.81473644e-01 -2.89741354e+01
-5.31397021e+00 1.19923353e-01 3.98908190e-01 1.19923353e-01 -1.03512710e+00 -5.53088784e-01 3.98908190e-01 -5.53088784e-01 -3.65712335e+01
-2.79838818e+00 3.13487966e-01 -9.94851141e-02 3.13487966e-01 2.13308901e-01 -3.84577591e-01 -9.94851141e-02 -3.84577591e-01 -3.26241515e+01
-3.82507408e+00 1.07040492e-01 -1.80871389e-01 1.07040492e-01 -8.35823715e-01 1.16208637e-01 -1.80871389e-01 1.16208637e-01 -3.48785765e+01
-1.07094085e+01 1.34107700e-01 -1.63749573e-02 1.34107700e-01 -5.21622920e+00 -4.44180906e-01 -1.63749573e-02 -4.44180906e-01 -4.68351450e+01
-1.19741986e+01 1.00713699e+00 -6.82812888e-01 1.00713699e+00 -7.36559165e+00 -4.21377050e-01 -6.82812888e-01 -4.21377050e-01 -5.05839392e+01
-6.33398187e+00 1.49564588e-01 4.02119946e-01 1.49564588e-01 -2.66013318e+00 -1.71757592e-01 4.02119946e-01 -1.71757592e-01 -3.95644224e+01
-7.13883990e+00 2.62480163e-01 -6.43168441e-01 2.62480163e-01 -3.28697979e+00 -1.18272974e+00 -6.43168441e-01 -1.18272974e+00 -4.09792458e+01
-1.47955472e+01 5.85121930e-01 -6.76267156e-02 5.85121930e-01 -8.99728107e+00 4.06742722e-01 -6.76267156e-02 4.06742722e-01 -5.53719883e+01
-1.88230314e+01 6.66872367e-01 -1.39032871e+00 6.66872367e-01 -1.25272257e+01 -1.08788970e+00 -1.39032871e+00 -1.08788970e+00 -6.34556689e+01
-6.61384821e+00 -4.76412803e-01 -4.63056952e-01 -4.76412803e-01 -4.25812262e+00 -1.74774410e-01 -4.63056952e-01 -1.74774410e-01 -4.17120912e+01
-1.15249450e+01 -4.45093466e-01 -1.38591208e-01 -4.45093466e-01 -6.83593573e+00 -8.98062364e-01 -1.38591208e-01 -8.98062364e-01 -4.94719210e+01
-1.83971543e+01 -1.40679449e+00 -9.78404991e-02 -1.40679449e+00 -1.33664259e+01 1.97815835e-01 -9.78404991e-02 1.97815835e-01 -6.40695724e+01
-2.70552745e+01 -1.15719273e+00 -2.51079708e+00 -1.15719273e+00 -1.59178462e+01 -9.90448445e-02 -2.51079708e+00 -9.90448445e-02 -7.52308331e+01
-8.51455784e+00 -1.40279038e+00 -2.03277154e-01 -1.40279038e+00 -6.89819694e+00 -1.26745388e-01 -2.03277154e-01 -1.26745388e-01 -4.66036260e+01
-1.73201513e+00 -1.04846325e+00 -3.86181421e-01 -1.04846325e+00 5.03659248e-03 2.33419165e-01 -3.86181421e-01 2.33419165e-01 -3.17946656e+01
-1.97585021e+01 -6.84718292e-01 -2.19012670e-01 -6.84718292e-01 -1.26256881e+01 1.05440038e+00 -2.19012670e-01 1.05440038e+00 -6.45186806e+01
-1.31412753e+01 -3.14092842e+00 -2.34158950e+00 -3.14092842e+00 -6.61491889e+00 6.84040353e-01 -2.34158950e+00 6.84040353e-01 -5.00045052e+01
-3.39441848e+00 -6.02340672e-01 -2.45580682e-01 -6.02340672e-01 -1.76087797e+00 1.16674707e+00 -2.45580682e-01 1.16674707e+00 -3.54979100e+01
1.80191661e+00 -1.93671350e+00 7.64739458e-02 -1.93671350e+00 2.49025510e+00 3.36771251e-01 7.64739458e-02 3.36771251e-01 -2.51079062e+01
-4.74537506e+01 -4.71367311e+00 -2.05273703e-01 -4.71367311e+00 -3.29206123e+01 5.50444663e-01 -2.05273703e-01 5.50444663e-01 -1.15174400e+02
-5.62668381e+01 -5.04612100e+00 -3.27240002e+00 -5.04612100e+00 -3.27782984e+01 4.92591786e+00 -3.27240002e+00 4.92591786e+00 -1.21410587e+02
-2.58601494e+01 -6.51642188e-01 -1.59903792e+00 -6.51642188e-01 -1.69270666e+01 2.36563542e+00 -1.59903792e+00 2.36563542e+00 -7.53648167e+01
-2.36732745e+01 -1.90504649e+00 -7.14735754e-01 -1.90504649e+00 -1.68579848e+01 2.79756371e+00 -7.14735754e-01 2.79756371e+00 -7.23970754e+01
-9.57990885e-01 8.29000212e-01 -5.23916394e-01 8.29000212e-01 -2.87044668e+00 -3.96101136e-01 -5.23916394e-01 -3.96101136e-01 -3.39915943e+01
8.64442110e-01 1.60942350e-01 -6.23533159e-01 1.60942350e-01 -7.98997879e-01 5.30055165e-03 -6.23533159e-01 5.30055165e-03 -2.98193188e+01
-1.18319203e+00 5.70643455e-01 1.48446911e-01 5.70643455e-01 -1.04448384e+00 -8.00108066e-01 1.48446911e-01 -8.00108066e-01 -3.23581504e+01
2.41085255e+00 2.57215951e-01 8.98748558e-01 2.57215951e-01 2.29982388e+00 -2.12064900e-02 8.98748558e-01 -2.12064900e-02 -2.48759031e+01
-4.52139807e+00 2.31507988e+00 -9.13467433e-01 2.31507988e+00 -6.92701674e+00 -1.22686925e+00 -9.13467433e-01 -1.22686925e+00 -4.18368609e+01
-2.91800100e+00 1.63687714e+00 1.64779206e+00 1.63687714e+00 -3.20832373e+00 -4.41021839e-01 1.64779206e+00 -4.41021839e-01 -3.58978942e+01
1.60587484e+01 1.37179284e+00 -1.40337673e+00 1.37179284e+00 1.46055628e+01 -6.68574698e-01 -1.40337673e+00 -6.68574698e-01 2.24710894e+00
4.11798368e+00 1.01768993e+00 3.96975330e+00 1.01768993e+00 5.34779927e+00 -1.21658216e-01 3.96975330e+00 -1.21658216e-01 -1.97608997e+01
2.43956786e+01 -1.50885259e+00 -4.60430630e+00 -1.50885259e+00 1.83514198e+01 -2.19659080e-01 -4.60430630e+00 -2.19659080e-01 1.54739828e+01
-1.12975082e+01 -6.44108527e+00 8.34579965e+00 -6.44108527e+00 -7.95960299e+00 7.95325783e-01 8.34579965e+00 7.95325783e-01 -4.55030643e+01
2.50682110e+01 1.96858644e-01 -4.33350451e+00 1.96858644e-01 2.16534185e+01 7.67433975e-01 -4.33350451e+00 7.67433975e-01 1.90054026e+01
-3.88817692e+00 -4.84744988e+00 9.41965923e+00 -4.84744988e+00 -8.05316186e+00 3.01217052e+00 9.41965923e+00 3.01217052e+00 -3.50832923e+01
1.30588140e+01 -5.23723638e+00 -6.36444438e+00 -5.23723638e+00 2.68429184e+00 3.01452410e+00 -6.36444438e+00 3.01452410e+00 -1.11359253e+01
-3.40551376e+01 -1.05891506e+01 1.07467888e+01 -1.05891506e+01 -2.63243306e+01 6.12589081e+00 1.07467888e+01 6.12589081e+00 -8.63671977e+01
1.58946043e+00 6.02507167e-01 2.64872245e-01 6.02507167e-01 -6.68893266e+00 -7.47663461e-01 2.64872245e-01 -7.47663461e-01 -3.43738333e+01
5.89017487e+00 2.72370368e-01 3.28944489e-01 2.72370368e-01 1.03617859e+00 -5.74875530e-03 3.28944489e-01 -5.74875530e-03 -2.20634440e+01
3.21837664e+00 1.71101007e-01 1.15742802e+00 1.71101007e-01 -3.03614497e+00 -6.31401030e-01 1.15742802e+00 -6.31401030e-01 -2.90396101e+01
6.96857011e+00 1.25719958e-01 9.13153931e-01 1.25719958e-01 4.21113575e+00 -3.73883849e-01 9.13153931e-01 -3.73883849e-01 -1.76551058e+01
1.88504629e+01 -2.03238202e-01 -7.60515733e-02 -2.03238202e-01 1.29063583e+01 -1.20966351e+00 -7.60515733e-02 -1.20966351e+00 4.74366093e+00
1.30227214e+01 8.84951875e-02 1.24482777e+00 8.84951875e-02 4.03108954e+00 1.39560519e+00 1.24482777e+00 1.39560519e+00 -1.08691025e+01
2.82035363e+01 -2.95939561e-01 1.67339146e-01 -2.95939561e-01 2.42268938e+01 -1.55303818e+00 1.67339146e-01 -1.55303818e+00 2.56352539e+01
3.09292623e+01 -1.18979666e+00 -3.80399138e-01 -1.18979666e+00 2.76108946e+01 2.80129646e+00 -3.80399138e-01 2.80129646e+00 3.33472771e+01
2.56205842e+01 -2.72158209e+00 2.31252670e-01 -2.72158209e+00 2.33073025e+01 -3.31051293e+00 2.31252670e-01 -3.31051293e+00 3.22916349e+01
3.06246236e+01 9.35667674e-01 -9.43604994e+00 9.35667674e-01 3.19415333e+01 4.44288619e+00 -9.43604994e+00 4.44288619e+00 4.86310987e+01
3.61231422e+01 -3.28874784e-01 3.56486158e+00 -3.28874784e-01 3.83742682e+01 -5.39192582e-01 3.56486158e+00 -5.39192582e-01 3.91076705e+01
2.90873127e+01 4.71831477e+00 -8.95770041e+00 4.71831477e+00 3.65046829e+01 -1.47427364e+00 -8.95770041e+00 -1.47427364e+00 4.64062881e+01
1.75317779e+01 4.32097054e+00 -6.17166877e-01 4.32097054e+00 5.69075203e+00 1.32285011e+00 -6.17166877e-01 1.32285011e+00 3.12210127e+01
3.65210657e+01 8.72794580e+00 -3.95392203e+00 8.72794580e+00 2.42423215e+01 -2.34183919e+00 -3.95392203e+00 -2.34183919e+00 4.95773954e+01
3.69006449e+00 -7.41375342e-01 1.70196595e-01 -7.41375342e-01 -6.78189465e+00 -1.13060614e+00 1.70196595e-01 -1.13060614e+00 -3.14942853e+01
2.68487310e+00 -7.49787450e-01 3.96440759e-01 -7.49787450e-01 -5.36620831e+00 -3.88155002e-02 3.96440759e-01 -3.88155002e-02 -3.17894974e+01
7.16705140e+00 -1.08552725e+00 1.61455281e+00 -1.08552725e+00 4.03492838e-01 -3.28495102e-02 1.61455281e+00 -3.28495102e-02 -2.05149870e+01
4.94003528e+00 -7.82645881e-01 4.00739111e-01 -7.82645881e-01 -5.47201663e-01 -2.84145232e-02 4.00739111e-01 -2.84145232e-02 -2.46835880e+01
1.21368601e+01 -2.35796472e+00 -9.00745083e-01 -2.35796472e+00 3.73447013e+00 -2.12687567e+00 -9.00745083e-01 -2.12687567e+00 -1.07242863e+01
1.60358491e+01 -1.28304215e+00 -5.67381337e-01 -1.28304215e+00 1.04979804e+01 2.75862908e+00 -5.67381337e-01 2.75862908e+00 1.07086313e+00
2.01628163e+01 -4.61045057e-01 2.87156373e-01 -4.61045057e-01 2.70392623e+01 -4.27746357e+00 2.87156373e-01 -4.27746357e+00 2.24992757e+01
2.75854344e+01 2.39915527e-01 -1.32085597e-01 2.39915527e-01 2.90089309e+01 -1.88904155e+00 -1.32085597e-01 -1.88904155e+00 2.91264367e+01
1.51151314e+01 1.64599828e+00 3.11355347e-01 1.64599828e+00 2.23339135e+01 -2.63391294e+00 3.11355347e-01 -2.63391294e+00 1.99746100e+01
1.41071459e+01 3.13262602e+00 -4.59978732e-01 3.13262602e+00 7.02770789e+00 3.00759395e+00 -4.59978732e-01 3.00759395e+00 7.30529269e-01
-6.14979398e+00 -6.27390766e+00 2.35675797e-01 -6.27390766e+00 -2.61528912e+01 1.24555168e+00 2.35675797e-01 1.24555168e+00 -1.12426481e+01
8.33625635e+00 5.95387956e-01 -9.41644887e-01 5.95387956e-01 1.46985403e+01 1.24779283e+00 -9.41644887e-01 1.24779283e+00 1.06121571e+01
1.51385784e+00 -5.44095325e+00 1.49258554e+00 -5.44095325e+00 -1.88688040e+01 -1.77954379e+00 1.49258554e+00 -1.77954379e+00 -3.99834108e+00
3.49973512e+00 -2.39756465e+00 -2.40545529e+00 -2.39756465e+00 8.58969146e+00 -8.48143558e-01 -2.40545529e+00 -8.48143558e-01 -2.39654863e+00
3.36077142e+00 -1.97683066e+00 1.18450660e+00 -1.97683066e+00 -5.45366061e+00 -3.55716264e-01 1.18450660e+00 -3.55716264e-01 -3.05618339e+01
1.80501008e+00 -1.46759194e+00 3.61283094e-01 -1.46759194e+00 -6.05343246e+00 -6.59419899e-03 3.61283094e-01 -6.59419899e-03 -3.34847264e+01
8.71305701e+00 -1.40222533e+00 6.00385930e-01 -1.40222533e+00 4.44671583e+00 4.40547567e-01 6.00385930e-01 4.40547567e-01 -1.50461258e+01
4.53731263e+00 -5.72549015e-01 -2.41540410e-02 -5.72549015e-01 -1.72414589e+00 7.70233348e-01 -2.41540410e-02 7.70233348e-01 -2.61103424e+01
1.08359408e+01 -2.54116744e+00 4.54738320e-01 -2.54116744e+00 4.71411210e+00 -2.69196475e+00 4.54738320e-01 -2.69196475e+00 -1.13706536e+01
9.52071798e+00 -2.29950058e+00 -7.06245270e-01 -2.29950058e+00 5.93728976e+00 2.18242883e+00 -7.06245270e-01 2.18242883e+00 -1.16518211e+01
1.59185114e+01 2.03616865e+00 2.32220324e+00 2.03616865e+00 1.72902005e+01 -1.78408262e+00 2.32220324e+00 -1.78408262e+00 6.29108381e+00
1.30954548e+01 -1.76418269e+00 -1.21641922e+00 -1.76418269e+00 1.06910523e+01 3.36310192e+00 -1.21641922e+00 3.36310192e+00 -1.96571589e+00
1.36806401e+01 3.69152781e+00 4.27850001e-02 3.69152781e+00 1.60211718e+01 -1.62353184e+00 4.27850001e-02 -1.62353184e+00 1.70763466e+01
9.52861428e+00 2.40606922e+00 2.82106827e+00 2.40606922e+00 4.52301610e+00 5.47555208e-01 2.82106827e+00 5.47555208e-01 4.19461733e+00
3.17295164e-01 7.99605846e-01 -4.13801521e-01 7.99605846e-01 2.25434721e+00 1.84451327e+00 -4.13801521e-01 1.84451327e+00 3.87466873e+00
3.28298016e+00 5.56703806e-01 -7.47704324e-01 5.56703806e-01 8.69364154e-01 -6.98559344e-01 -7.47704324e-01 -6.98559344e-01 2.81419921e-01
2.93809032e+00 5.35501659e-01 -1.34578794e+00 5.35501659e-01 -8.10537481e+00 3.77008349e-01 -1.34578794e+00 3.77008349e-01 -1.83636147e+00
8.97499849e-01 -8.91225934e-01 8.91635486e-01 -8.91225934e-01 -5.64486607e+00 -1.43257052e-01 8.91635486e-01 -1.43257052e-01 -2.73820142e-01
-1.59121845e+01 -2.36509970e+00 8.06694299e-01 -2.36509970e+00 -2.54598637e+01 -1.23749778e+00 8.06694299e-01 -1.23749778e+00 -7.35092220e+01
-1.35683165e+01 -9.03398633e-01 1.48094404e+00 -9.03398633e-01 -2.65257034e+01 -3.11878771e-02 1.48094404e+00 -3.11878771e-02 -7.17139282e+01
-6.77499127e+00 -1.24060296e+00 1.79583132e-02 -1.24060296e+00 -1.34105688e+01 -9.63008940e-01 1.79583132e-02 -9.63008940e-01 -5.11439614e+01
-1.43490200e+01 -1.52770275e+00 -6.25500083e-02 -1.52770275e+00 -2.30013475e+01 8.69091302e-01 -6.25500083e-02 8.69091302e-01 -6.96230507e+01
-2.41755848e+01 -5.40530169e+00 5.62940359e+00 -5.40530169e+00 -3.22172079e+01 -5.41329575e+00 5.62940359e+00 -5.41329575e+00 -8.79746971e+01
-1.28481782e+01 -3.68894297e+00 7.04717621e-01 -3.68894297e+00 -1.21653275e+01 3.01073169e-01 7.04717621e-01 3.01073169e-01 -5.64730573e+01
8.47275925e+00 1.06566927e+00 4.71581757e+00 1.06566927e+00 1.93890696e+01 -2.82888912e+00 4.71581757e+00 -2.82888912e+00 1.09372711e+00
-3.39078239e+01 -8.07322168e+00 1.27584843e+00 -8.07322168e+00 -2.83426066e+01 1.14334246e+01 1.27584843e+00 1.14334246e+01 -9.26797625e+01
1.06119738e+01 -7.81880796e-01 -5.08723259e-01 -7.81880796e-01 2.27254066e+01 -3.21658647e+00 -5.08723259e-01 -3.21658647e+00 2.30407879e+01
-1.30487399e+01 -9.02995485e+00 1.24705529e+00 -9.02995485e+00 -1.11162472e+01 7.14033651e+00 1.24705529e+00 7.14033651e+00 -1.17681792e+01
-5.81344199e+00 -8.12426805e-01 1.39439377e+00 -8.12426805e-01 2.28278613e+00 1.96114564e+00 1.39439377e+00 1.96114564e+00 5.63678407e+00
-3.91877826e+00 -3.65028858e-01 8.15119584e-01 -3.65028858e-01 2.99920479e+00 -2.85203028e+00 8.15119584e-01 -2.85203028e+00 3.57375443e+00
-1.86122811e+00 2.47688913e+00 -6.63730681e-01 2.47688913e+00 -2.24116373e+00 5.98135054e-01 -6.63730681e-01 5.98135054e-01 -6.28211498e-01
-4.03145957e+00 2.24915452e-01 -2.27763742e-01 2.24915452e-01 5.09864494e-01 1.32952225e+00 -2.27763742e-01 1.32952225e+00 6.27870947e-01
-2.08607578e+00 1.04665407e-03 -8.81668814e-02 1.04665407e-03 1.07046318e+00 -4.84451160e-01 -8.81668814e-02 -4.84451160e-01 -3.09433560e+01
-8.29553798e-01 5.66949458e-02 5.31153992e-01 5.66949458e-02 1.24014801e+00 -4.35859041e-01 5.31153992e-01 -4.35859041e-01 -2.94638071e+01
1.84311073e+00 -3.02974954e-01 8.54243124e-02 -3.02974954e-01 4.18508864e+00 1.48966974e-01 8.54243124e-02 1.48966974e-01 -2.33574864e+01
-2.62169218e+00 -2.15718057e-02 -6.25984669e-02 -2.15718057e-02 8.74121219e-01 1.05167519e-01 -6.25984669e-02 1.05167519e-01 -3.16709235e+01
4.45025159e+00 -8.01152356e-01 5.80897711e-01 -8.01152356e-01 4.57941279e+00 2.94373855e-01 5.80897711e-01 2.94373855e-01 -2.02145309e+01
3.78091037e+00 -4.98449435e-01 -3.01198667e-01 -4.98449435e-01 4.98609790e+00 -8.69947299e-01 -3.01198667e-01 -8.69947299e-01 -2.03233608e+01
3.89808744e+00 -1.56004285e-02 -1.98519754e-01 -1.56004285e-02 3.39430243e+00 1.15176123e-02 -1.98519754e-01 1.15176123e-02 -2.21081707e+01
6.36425665e+00 -3.82687288e-01 -5.55800840e-01 -3.82687288e-01 5.80103797e+00 -4.57659951e-01 -5.55800840e-01 -4.57659951e-01 -1.67955422e+01
4.19324291e+00 -3.02002665e-01 2.09434161e-01 -3.02002665e-01 2.27467662e+00 -3.07490416e-01 2.09434161e-01 -3.07490416e-01 -2.29728482e+01
4.02146232e+00 -5.67418087e-01 -2.08517860e-01 -5.67418087e-01 3.78844696e+00 7.80292594e-01 -2.08517860e-01 7.80292594e-01 -2.14585455e+01
9.20054191e+00 -5.28677627e-01 2.37966161e-01 -5.28677627e-01 7.93659848e+00 4.97301050e-01 2.37966161e-01 4.97301050e-01 -1.14079466e+01
4.26225531e+00 -3.81128039e-01 1.77554037e-01 -3.81128039e-01 3.19403235e+00 6.02141551e-01 1.77554037e-01 6.02141551e-01 -2.19295959e+01
8.66842198e+00 5.13470247e-01 -6.66555013e-02 5.13470247e-01 9.40592194e+00 1.57036918e+00 -6.66555013e-02 1.57036918e+00 -1.03132272e+01
5.52783632e+00 2.91219220e-01 -8.15957297e-01 2.91219220e-01 4.66191530e+00 7.35270657e-01 -8.15957297e-01 7.35270657e-01 -1.88833210e+01
4.74733678e+00 -5.52881915e-01 4.39897455e-01 -5.52881915e-01 6.49284840e+00 -9.01229173e-01 4.39897455e-01 -9.01229173e-01 -1.76898555e+01
-1.31707245e+00 -6.17767043e-01 1.56948733e+00 -6.17767043e-01 1.59512463e+00 -1.03857612e-01 1.56948733e+00 -1.03857612e-01 -2.93500787e+01
-1.05430004e+01 -4.54148789e-01 5.08174373e-01 -4.54148789e-01 -6.69776801e+00 -2.50785538e-01 5.08174373e-01 -2.50785538e-01 -5.06045435e+01
-5.49481714e+01 -7.06958899e+00 1.55942507e+01 -7.06958899e+00 -5.51228418e+01 6.96546650e-01 1.55942507e+01 6.96546650e-01 -1.33593162e+02
-3.86209292e+01 -6.06342973e-01 1.19779734e+00 -6.06342973e-01 -3.43237610e+01 2.54102182e+00 1.19779734e+00 2.54102182e+00 -1.08635952e+02
-3.75249078e+01 -1.07633359e+00 3.07711715e+00 -1.07633359e+00 -3.12162210e+01 5.16114128e+00 3.07711715e+00 5.16114128e+00 -1.02837018e+02
-4.25485172e+01 -3.76946270e+00 2.42348552e+00 -3.76946270e+00 -3.25943279e+01 6.41460246e+00 2.42348552e+00 6.41460246e+00 -1.08571110e+02
1.30894115e+01 1.86755946e-02 1.05151814e+00 1.86755946e-02 1.46889335e+01 -1.00023092e+00 1.05151814e+00 -1.00023092e+00 1.02914572e-02
9.80154681e+00 -2.28339355e-01 1.22575256e+00 -2.28339355e-01 1.02562023e+01 3.83299030e-02 1.22575256e+00 3.83299030e-02 -8.15834260e+00
-3.13125567e+01 -1.77880855e+00 6.15129821e+00 -1.77880855e+00 -2.66283961e+01 1.16207253e+01 6.15129821e+00 1.16207253e+01 -8.01360661e+01
3.24412441e+01 1.23000556e+00 -8.65402555e+00 1.23000556e+00 3.46183443e+01 -4.64132071e-01 -8.65402555e+00 -4.64132071e-01 5.69725914e+01
1.33684356e+01 -2.04265617e-01 1.85576377e+00 -2.04265617e-01 1.15906480e+01 6.37191392e-01 1.85576377e+00 6.37191392e-01 -1.99303174e+00
1.37395244e+01 7.49313504e-01 4.38169785e-01 7.49313504e-01 1.35617998e+01 5.51551986e-01 4.38169785e-01 5.51551986e-01 -4.65661168e-01
2.75221065e+01 -1.87247449e+00 3.30802511e-01 -1.87247449e+00 2.56200218e+01 -4.88613923e-01 3.30802511e-01 -4.88613923e-01 2.58413645e+01
2.26119115e+01 -1.02138066e+00 -5.52757382e+00 -1.02138066e+00 2.36618539e+01 -2.59950082e-01 -5.52757382e+00 -2.59950082e-01 1.86039000e+01
1.46320321e+01 -1.75957542e-01 3.02554481e-01 -1.75957542e-01 1.19121546e+01 1.82310902e-01 3.02554481e-01 1.82310902e-01 -1.00822523e+00
1.07385588e+01 -7.68120170e-01 4.15598691e-01 -7.68120170e-01 8.52037078e+00 5.20304436e-01 4.15598691e-01 5.20304436e-01 -8.96811008e+00
2.34381205e+00 -2.68716180e+00 7.83675984e-01 -2.68716180e+00 1.88486075e+00 2.35675993e+00 7.83675984e-01 2.35675993e+00 -2.32921284e+01
-1.75216930e+01 -1.30930264e+00 -5.94818510e-01 -1.30930264e+00 -1.60988901e+01 5.80385628e+00 -5.94818510e-01 5.80385628e+00 -6.77903662e+01
-1.05864629e+00 -6.91761844e-01 -2.28199586e-01 -6.91761844e-01 -8.53462473e-01 -1.13557048e-01 -2.28199586e-01 -1.13557048e-01 -3.21768765e+01
-3.21935362e+00 -3.97348076e-01 -3.60289097e-01 -3.97348076e-01 -5.53011799e+00 1.49929041e+00 -3.60289097e-01 1.49929041e+00 -3.92629776e+01
-6.83558464e+00 -1.13932341e-02 1.21848148e+00 -1.13932341e-02 -7.40539074e-01 -2.19924816e+00 1.21848148e+00 -2.19924816e+00 -3.76948872e+01
-8.01674156e+01 -2.85583055e+00 -5.05067992e+00 -2.85583055e+00 -7.53003445e+01 4.92573178e+00 -5.05067992e+00 4.92573178e+00 -1.98405312e+02
-2.12323591e-01 -6.13217771e-01 -2.46843506e-01 -6.13217771e-01 2.61357650e-01 2.28691794e-01 -2.46843506e-01 2.28691794e-01 -4.42311212e-01
-4.11189921e-01 -6.74460493e-02 -1.04488611e-01 -6.74460493e-02 -8.43358263e-02 -2.36243326e-01 -1.04488611e-01 -2.36243326e-01 1.02293946e-01
6.72475606e-01 -1.40812024e-01 -8.02756026e-02 -1.40812024e-01 -9.22827944e-02 5.81338372e-01 -8.02756026e-02 5.81338372e-01 -9.73421484e-01
3.99410620e-01 -6.86753422e-01 -1.69828832e-02 -6.86753422e-01 -2.18531720e-01 -5.14439911e-01 -1.69828832e-02 -5.14439911e-01 -5.74242875e-01
5.13805389e-01 3.08478232e-02 3.17807488e-01 3.08478232e-02 1.24499583e+00 -6.79317545e-02 3.17807488e-01 -6.79317545e-02 -2.81266766e+01
1.09401001e+00 4.32047889e-01 1.66124966e-01 4.32047889e-01 1.05513513e+00 3.38123597e-01 1.66124966e-01 3.38123597e-01 -2.76425236e+01
5.01951489e+00 -3.58501051e-01 2.75289965e-01 -3.58501051e-01 5.64249648e+00 4.84950088e-01 2.75289965e-01 4.84950088e-01 -1.84118758e+01
9.19807091e-01 1.99661624e-01 3.64950076e-01 1.99661624e-01 2.41362643e+00 -2.65534386e-01 3.64950076e-01 -2.65534386e-01 -2.63672919e+01
5.88713861e+00 -8.73107940e-01 1.97099092e-01 -8.73107940e-01 4.88112605e+00 2.86449818e-02 1.97099092e-01 2.86449818e-02 -1.83210496e+01
5.91118785e+00 -6.32234036e-01 9.19028265e-01 -6.32234036e-01 5.70639803e+00 9.29938741e-01 9.19028265e-01 9.29938741e-01 -1.71626800e+01
6.93718179e+00 1.23226980e-01 2.30361436e-01 1.23226980e-01 5.55674362e+00 6.08149633e-01 2.30361436e-01 6.08149633e-01 -1.63778889e+01
1.07634673e+01 -1.20686418e-01 7.94871859e-02 -1.20686418e-01 9.00356618e+00 1.23680024e-02 7.94871859e-02 1.23680024e-02 -8.57732427e+00
9.25062957e+00 1.79172758e-01 -9.87665366e-02 1.79172758e-01 6.99125040e+00 3.88629448e-01 -9.87665366e-02 3.88629448e-01 -1.22801399e+01
4.24445695e+00 1.16425812e-01 -5.19916761e-01 1.16425812e-01 1.93694735e+00 6.40339619e-02 -5.19916761e-01 6.40339619e-02 -2.31951092e+01
1.24951185e+01 -1.52741398e-01 3.67912557e-02 -1.52741398e-01 1.05875418e+01 -6.88336901e-02 3.67912557e-02 -6.88336901e-02 -4.92462867e+00
8.39572728e+00 8.26199353e-03 -3.37433110e-01 8.26199353e-03 5.85801041e+00 4.01220489e-02 -3.37433110e-01 4.01220489e-02 -1.44657512e+01
1.53708692e+01 -1.40344258e-01 -1.24380998e-02 -1.40344258e-01 1.44110022e+01 -3.87838304e-01 -1.24380998e-02 -3.87838304e-01 2.36477947e+00
1.69669975e+01 6.94720605e-02 -4.69178563e-01 6.94720605e-02 1.50040238e+01 -3.04443501e-02 -4.69178563e-01 -3.04443501e-02 4.59096718e+00
2.58992207e+00 -9.30471212e-01 1.62689331e+00 -9.30471212e-01 5.22456282e+00 1.05358582e-01 1.62689331e+00 1.05358582e-01 -2.08636665e+01
2.60360026e+00 -1.13517045e+00 1.23506553e+00 -1.13517045e+00 6.34093243e+00 -2.87400514e-01 1.23506553e+00 -2.87400514e-01 -1.98785412e+01
1.34571472e+01 2.15542482e+00 3.82947095e+00 2.15542482e+00 1.18666047e+01 3.03534083e+00 3.82947095e+00 3.03534083e+00 -8.31671470e+00
-7.18686844e+01 -5.42458353e+00 -1.53306746e+01 -5.42458353e+00 -7.24153145e+01 -1.93772697e+00 -1.53306746e+01 -1.93772697e+00 -1.70051555e+02
-4.76420135e+01 -1.12130404e+00 -4.15218174e+00 -1.12130404e+00 -4.32552400e+01 1.46106246e+00 -4.15218174e+00 1.46106246e+00 -1.27787704e+02
-3.12386093e+01 -1.30762258e+00 -8.93281847e-02 -1.30762258e+00 -2.74970989e+01 1.64141705e+00 -8.93281847e-02 1.64141705e+00 -9.33698311e+01
-2.33867464e+01 -1.81901062e+00 -6.95518464e-01 -1.81901062e+00 -1.57188663e+01 3.09670210e-01 -6.95518464e-01 3.09670210e-01 -7.16982765e+01
5.08785554e-01 -3.25867108e-02 3.34655355e+00 -3.25867108e-02 3.72781421e+00 7.05426697e-01 3.34655355e+00 7.05426697e-01 -2.43250299e+01
1.19905841e+01 1.97060538e-01 1.31895864e+00 1.97060538e-01 1.35736768e+01 -4.45729168e-01 1.31895864e+00 -4.45729168e-01 -2.12497640e+00
-9.90979204e+01 -1.08913707e+01 1.04338970e+01 -1.08913707e+01 -9.00949020e+01 -1.47052749e+01 1.04338970e+01 -1.47052749e+01 -2.11021942e+02
2.17868986e+01 -7.98990024e-02 -2.00480209e+00 -7.98990024e-02 2.22638827e+01 4.10511370e-01 -2.00480209e+00 4.10511370e-01 1.69228965e+01
1.23930553e+01 -4.21319157e-01 1.46486917e+00 -4.21319157e-01 1.31855316e+01 7.42990315e-01 1.46486917e+00 7.42990315e-01 -1.82538462e+00
-4.86524881e+01 1.27687021e+00 5.97351837e+00 1.27687021e+00 -4.52709386e+01 1.72186732e+01 5.97351837e+00 1.72186732e+01 -1.15362742e+02
1.62569060e+01 9.99819273e-02 1.06666231e+00 9.99819273e-02 1.72028951e+01 -3.25411942e-01 1.06666231e+00 -3.25411942e-01 6.18181619e+00
1.39321668e+01 1.68043263e-02 1.16023427e-01 1.68043263e-02 1.42988156e+01 3.00208896e-01 1.16023427e-01 3.00208896e-01 6.11063242e-01
2.07148557e+01 -1.94727947e+00 2.74911053e+00 -1.94727947e+00 2.33048316e+01 9.41262669e-01 2.74911053e+00 9.41262669e-01 1.43252478e+01
2.03127518e+01 4.37295580e+00 4.29407310e+00 4.37295580e+00 2.13772831e+01 1.43709688e+01 4.29407310e+00 1.43709688e+01 5.97771072e+01
-6.82893798e+01 7.60547757e+00 -2.55011536e+01 7.60547757e+00 -7.13579468e+01 -2.98661019e+00 -2.55011536e+01 -2.98661019e+00 -1.65375045e+02
9.90647124e+00 4.35132906e-02 4.51720841e-01 4.35132906e-02 9.16456603e+00 1.00270457e+00 4.51720841e-01 1.00270457e+00 -9.55970430e+00
1.37689781e+00 -4.25022110e-01 -2.63025120e-01 -4.25022110e-01 3.73999023e+00 8.90917026e-01 -2.63025120e-01 8.90917026e-01 -2.44615555e+01
</DataArray>
<DataArray type="Float32" Name="Logarithmic_strain_components" NumberOfComponents="9" format="ascii">
3.25982906e-02 -1.23988866e-06 1.58879152e-06 -1.23988866e-06 5.90696260e-02 -1.41170167e-05 1.58879152e-06 -1.41170167e-05 -7.74355829e-02
3.43214143e-02 2.43757665e-03 2.90053822e-06 2.43757665e-03 6.12531025e-02 -3.45620589e-04 2.90053822e-06 -3.45620589e-04 -8.10656957e-02
3.52574037e-02 6.64664421e-03 -4.32601990e-03 6.64664421e-03 5.49326260e-02 -2.10181979e-03 -4.32601990e-03 -2.10181979e-03 -7.63852000e-02
3.46833952e-02 2.48049304e-03 -2.69321608e-03 2.48049304e-03 5.34444358e-02 2.66207644e-06 -2.69321608e-03 2.66207644e-06 -7.46772401e-02
3.19512282e-02 4.11448491e-06 3.14285629e-03 4.11448491e-06 5.60839288e-02 -3.25373129e-03 3.14285629e-03 -3.25373129e-03 -7.42902122e-02
3.38989049e-02 6.71521324e-04 4.09328542e-03 6.71521324e-04 5.73046226e-02 -4.69471130e-03 4.09328542e-03 -4.69471130e-03 -7.72464965e-02
3.45866589e-02 3.32475589e-03 6.84529505e-04 3.32475589e-03 5.28840614e-02 -5.37044214e-03 6.84529505e-04 -5.37044214e-03 -7.40256254e-02
3.34827872e-02 8.34502658e-04 1.16500551e-03 8.34502658e-04 5.21398289e-02 -2.37854465e-03 1.16500551e-03 -2.37854465e-03 -7.25245103e-02
3.70379109e-02 8.44491326e-04 4.70639839e-06 8.44491326e-04 6.63003512e-02 -1.60844257e-03 4.70639839e-06 -1.60844257e-03 -8.78413618e-02
3.76113392e-02 9.74337955e-03 -6.37336588e-03 9.74337955e-03 5.94931031e-02 -5.10461126e-04 -6.37336588e-03 -5.10461126e-04 -8.27872548e-02
3.87490960e-02 1.90256911e-03 5.00297593e-03 1.90256911e-03 5.91351399e-02 -4.28051288e-03 5.00297593e-03 -4.28051288e-03 -8.30786172e-02
3.76436180e-02 4.16528969e-03 -1.30235506e-03 4.16528969e-03 5.62036866e-02 -9.60990525e-03 -1.30235506e-03 -9.60990525e-03 -7.96929523e-02
4.20737769e-02 3.51790804e-03 -7.15589317e-06 3.51790804e-03 7.14221187e-02 4.63426486e-03 -7.15589317e-06 4.63426486e-03 -9.68557410e-02
4.05150941e-02 6.53270603e-03 -1.05994693e-02 6.53270603e-03 6.52283235e-02 -3.05026316e-03 -1.05994693e-02 -3.05026316e-03 -9.08044297e-02
4.51102993e-02 -4.21698042e-03 1.94040703e-03 -4.21698042e-03 6.12412598e-02 -3.40105122e-03 1.94040703e-03 -3.40105122e-03 -9.04139969e-02
4.17986033e-02 -2.79396921e-03 2.22650263e-03 -2.79396921e-03 6.02760720e-02 -5.69628231e-03 2.22650263e-03 -5.69628231e-03 -8.68596192e-02
4.79056407e-02 -9.40901367e-03 1.77162692e-05 -9.40901367e-03 7.61281885e-02 3.48655588e-03 1.77162692e-05 3.48655588e-03 -1.06234975e-01
4.28058077e-02 -6.45509426e-03 -1.52022736e-02 -6.45509426e-03 7.18331896e-02 2.35621521e-03 -1.52022736e-02 2.35621521e-03 -9.89199858e-02
5.09003606e-02 -1.04624561e-02 3.85340356e-03 -1.04624561e-02 6.38771085e-02 -3.18336267e-03 3.85340356e-03 -3.18336267e-03 -9.77168623e-02
4.83336919e-02 -1.09114982e-02 2.63202679e-03 -1.09114982e-02 5.96112460e-02 1.63918023e-03 2.63202679e-03 1.63918023e-03 -9.12671098e-02
5.17438632e-02 -1.26520866e-02 4.09997774e-05 -1.26520866e-02 8.24631527e-02 4.26685484e-03 4.09997774e-05 4.26685484e-03 -1.14999641e-01
4.47666869e-02 -1.51028795e-02 -1.82665484e-02 -1.51028795e-02 7.53587522e-02 7.71607948e-03 -1.82665484e-02 7.71607948e-03 -1.02836985e-01
5.26522361e-02 -9.11034597e-03 6.88645442e-03 -9.11034597e-03 6.83415476e-02 1.80307493e-03 6.88645442e-03 1.80307493e-03 -1.02520924e-01
5.23940418e-02 -1.36628803e-02 7.32104178e-03 -1.36628803e-02 6.21587886e-02 1.42847970e-03 7.32104178e-03 1.42847970e-03 -9.65983728e-02
4.79935445e-02 -3.31454799e-02 -3.91827634e-05 -3.31454799e-02 9.64211747e-02 -3.53830541e-03 -3.91827634e-05 -3.53830541e-03 -1.25914410e-01
4.06356174e-02 -2.36313264e-02 -2.02574376e-02 -2.36313264e-02 9.02399458e-02 2.13897917e-02 -2.02574376e-02 2.13897917e-02 -1.14378970e-01
4.67918348e-02 -8.09416873e-03 -2.79583852e-03 -8.09416873e-03 8.25889818e-02 -1.17996568e-03 -2.79583852e-03 -1.17996568e-03 -1.11502804e-01
4.91049057e-02 -1.34384779e-02 7.01914541e-04 -1.34384779e-02 7.36393686e-02 9.25868773e-03 7.01914541e-04 9.25868773e-03 -1.04814829e-01
3.84513792e-02 8.96696164e-03 -3.40221566e-03 8.96696164e-03 3.88118904e-02 -3.25280376e-03 -3.40221566e-03 -3.25280376e-03 -6.55641779e-02
3.82192936e-02 1.86734105e-03 -4.49574972e-03 1.86734105e-03 3.84572186e-02 6.03814260e-06 -4.49574972e-03 6.03814260e-06 -6.49580769e-02
3.54376212e-02 6.25496934e-03 4.50531110e-03 6.25496934e-03 4.16934704e-02 -6.27327507e-03 4.50531110e-03 -6.27327507e-03 -6.53994838e-02
3.46766794e-02 2.93479540e-03 6.94150175e-03 2.93479540e-03 4.05462394e-02 -1.01621868e-03 6.94150175e-03 -1.01621868e-03 -6.35683965e-02
3.64535074e-02 1.51653835e-02 -7.86620460e-03 1.51653835e-02 3.91323389e-02 -6.38626365e-03 -7.86620460e-03 -6.38626365e-03 -6.42681243e-02
3.54704037e-02 8.43439292e-03 8.36329788e-03 8.43439292e-03 4.28356477e-02 -3.07353933e-03 8.36329788e-03 -3.07353933e-03 -6.66590277e-02
2.97475038e-02 9.15983168e-03 -9.80193308e-03 9.15983168e-03 3.87098161e-02 -4.88563487e-03 -9.80193308e-03 -4.88563487e-03 -5.71498573e-02
3.42762201e-02 1.45415709e-05 2.50140778e-02 1.45415709e-05 4.48912084e-02 9.87679049e-04 2.50140778e-02 9.87679049e-04 -6.69719630e-02
2.62753805e-02 -1.00473564e-02 -2.50720605e-02 -1.00473564e-02 4.20647794e-02 2.52177910e-03 -2.50720605e-02 2.52177910e-03 -5.69898151e-02
3.41486838e-02 -1.81458866e-02 2.74709730e-02 -1.81458866e-02 4.88451278e-02 8.48475616e-03 2.74709730e-02 8.48475616e-03 -6.93103435e-02
2.72146240e-02 -2.11975596e-02 -2.33103270e-02 -2.11975596e-02 3.70934037e-02 1.26161759e-02 -2.33103270e-02 1.26161759e-02 -5.24499482e-02
3.54840017e-02 -2.46887854e-02 3.56677889e-02 -2.46887854e-02 4.54976792e-02 2.50815984e-02 3.56677889e-02 2.50815984e-02 -6.62182309e-02
2.87774615e-02 -2.49479711e-02 -2.42395019e-02 -2.49479711e-02 3.93368527e-02 2.14150753e-02 -2.42395019e-02 2.14150753e-02 -5.61976638e-02
3.64652146e-02 -3.38096314e-02 3.43698629e-02 -3.38096314e-02 5.28996928e-02 3.29233197e-02 3.43698629e-02 3.29233197e-02 -7.43034407e-02
4.03292039e-02 4.56820079e-03 9.28865149e-04 4.56820079e-03 2.20898851e-02 -4.19377408e-03 9.28865149e-04 -4.19377408e-03 -5.30054877e-02
3.97201795e-02 2.54634605e-03 1.98593072e-03 2.54634605e-03 2.37341020e-02 -4.42182500e-06 1.98593072e-03 -4.42182500e-06 -5.35178818e-02
3.71234999e-02 3.10011150e-03 9.04607386e-03 3.10011150e-03 2.54699888e-02 -2.46467889e-03 9.04607386e-03 -2.46467889e-03 -5.30258720e-02
3.52107454e-02 1.46660476e-03 9.73433955e-03 1.46660476e-03 2.71111587e-02 -3.87364671e-04 9.73433955e-03 -3.87364671e-04 -5.24834273e-02
3.15812989e-02 6.99339883e-03 1.16915489e-03 6.99339883e-03 1.63160020e-02 -7.77338096e-03 1.16915489e-03 -7.77338096e-03 -3.98549037e-02
3.26903230e-02 4.37384586e-03 1.60092593e-02 4.37384586e-03 2.02106267e-02 6.07358915e-03 1.60092593e-02 6.07358915e-03 -4.46597789e-02
1.18028364e-02 3.23085015e-03 -2.55552708e-03 3.23085015e-03 8.52689275e-03 -4.80915734e-03 -2.55552708e-03 -4.80915734e-03 -1.44610272e-02
1.03602695e-02 -1.91781400e-03 1.60074967e-02 -1.91781400e-03 6.49677366e-03 3.44154223e-03 1.60074967e-02 3.44154223e-03 -9.52559698e-03
3.42554378e-03 -1.78357602e-02 -9.68053627e-03 -1.78357602e-02 2.23062017e-03 -6.34097106e-03 -9.68053627e-03 -6.34097106e-03 3.84675028e-05
-3.12917905e-04 -2.81404578e-02 3.20146438e-02 -2.81404578e-02 1.04960027e-02 6.64125133e-03 3.20146438e-02 6.64125133e-03 -4.25060101e-03
8.90201579e-04 -7.55581694e-03 -1.42770993e-02 -7.55581694e-03 -1.32412692e-03 1.09032644e-03 -1.42770993e-02 1.09032644e-03 5.86749629e-03
4.94651496e-04 -1.07171511e-02 2.66651505e-02 -1.07171511e-02 4.33360347e-03 -2.85984917e-03 2.66651505e-02 -2.85984917e-03 1.51729545e-03
5.44035458e-03 -6.28840295e-03 -3.79760435e-03 -6.28840295e-03 -6.65593334e-03 4.78780083e-03 -3.79760435e-03 4.78780083e-03 5.83023555e-03
4.20846359e-03 -7.18730548e-03 2.40130741e-02 -7.18730548e-03 5.12197614e-04 -4.41191846e-03 2.40130741e-02 -4.41191846e-03 9.15740384e-04
3.94862173e-02 -2.89241431e-03 2.07746157e-03 -2.89241431e-03 1.48768302e-02 -5.38202701e-03 2.07746157e-03 -5.38202701e-03 -4.60097883e-02
4.04815879e-02 -3.03572393e-03 2.88880256e-03 -3.03572393e-03 1.82074532e-02 4.81728057e-06 2.88880256e-03 4.81728057e-06 -4.97202985e-02
3.50781055e-02 -4.92484347e-03 1.02256235e-02 -4.92484347e-03 1.67685376e-02 -1.05680956e-04 1.02256235e-02 -1.05680956e-04 -4.35864995e-02
3.66034973e-02 -3.84648261e-03 3.52692466e-03 -3.84648261e-03 1.92229771e-02 2.08104670e-03 3.52692466e-03 2.08104670e-03 -4.71442509e-02
2.84669227e-02 -4.23084042e-03 -2.57244299e-03 -4.23084042e-03 8.49874876e-03 -8.27280758e-03 -2.57244299e-03 -8.27280758e-03 -3.08228675e-02
2.76262132e-02 -7.96853256e-03 4.53832786e-03 -7.96853256e-03 8.82541161e-03 7.53810808e-03 4.53832786e-03 7.53810808e-03 -2.99474413e-02
8.25810447e-03 -4.67251059e-03 -1.47211380e-03 -4.67251059e-03 6.10117335e-04 -6.79299876e-03 -1.47211380e-03 -6.79299876e-03 -6.13678171e-03
1.37623165e-02 -4.77313204e-03 -3.69936507e-03 -4.77313204e-03 1.75315671e-03 7.33301759e-03 -3.69936507e-03 7.33301759e-03 -1.17371576e-02
-7.01539495e-04 -1.63216204e-03 -2.32187952e-05 -1.63216204e-03 4.85387990e-04 -4.02442335e-04 -2.32187952e-05 -4.02442335e-04 9.14078055e-04
1.17772474e-03 1.42182326e-03 -1.29168535e-03 1.42182326e-03 1.14821524e-03 3.68125627e-03 -1.29168535e-03 3.68125627e-03 -1.64240424e-03
4.47954603e-03 -1.19210147e-02 2.77610507e-05 -1.19210147e-02 -7.81921165e-03 1.09538272e-04 2.77610507e-05 1.09538272e-04 4.12146028e-03
-5.16228698e-04 -7.34101400e-03 -3.30461517e-05 -7.34101400e-03 1.73542960e-03 7.26400103e-05 -3.30461517e-05 7.26400103e-05 -5.39199184e-04
3.95077829e-03 -1.42152819e-02 -1.79584451e-03 -1.42152819e-02 -6.62144079e-03 -1.31884994e-04 -1.79584451e-03 -1.31884994e-04 3.50765909e-03
-1.96322837e-03 -7.67780411e-03 -3.78737829e-03 -7.67780411e-03 4.78797764e-03 -6.34221991e-05 -3.78737829e-03 -6.34221991e-05 -2.17344683e-03
3.79101671e-02 -8.09289591e-03 5.30449825e-03 -8.09289591e-03 1.96741186e-02 -2.69624143e-03 5.30449825e-03 -2.69624143e-03 -4.87852609e-02
4.10863310e-02 -7.13630067e-03 9.33588191e-04 -7.13630067e-03 2.14554491e-02 3.31039155e-06 9.33588191e-04 3.31039155e-06 -5.30534685e-02
3.37174577e-02 -7.02614634e-03 7.28666157e-04 -7.02614634e-03 2.03082864e-02 4.43740861e-03 7.28666157e-04 4.43740861e-03 -4.53745015e-02
3.72656910e-02 -2.75800459e-03 -1.93991762e-03 -2.75800459e-03 2.13641920e-02 6.05679327e-03 -1.93991762e-03 6.05679327e-03 -4.95633548e-02
2.74430178e-02 -7.54301615e-03 2.37790926e-03 -7.54301615e-03 1.26906391e-02 -1.15882624e-02 2.37790926e-03 -1.15882624e-02 -3.36531298e-02
2.46598287e-02 -1.30806834e-02 -1.60490093e-03 -1.30806834e-02 1.92582713e-02 7.16100450e-03 -1.60490093e-03 7.16100450e-03 -3.63057815e-02
7.62376082e-03 -3.88768548e-03 2.23461125e-03 -3.88768548e-03 3.57684324e-03 -5.05863770e-03 2.23461125e-03 -5.05863770e-03 -8.22823879e-03
1.58494969e-02 -5.34855248e-03 -2.53761928e-03 -5.34855248e-03 1.04825978e-02 1.89237709e-02 -2.53761928e-03 1.89237709e-02 -2.16161076e-02
5.37881313e-04 1.20235703e-03 1.65497340e-05 1.20235703e-03 4.14154038e-05 -1.94652839e-04 1.65497340e-05 -1.94652839e-04 -2.18572077e-05
2.25639963e-03 -3.61466264e-05 2.89178941e-04 -3.61466264e-05 -8.22233027e-04 3.75394166e-03 2.89178941e-04 3.75394166e-03 -8.81456197e-04
1.77492491e-05 1.69411433e-05 -2.27972391e-05 1.69411433e-05 5.59900172e-06 9.91853976e-05 -2.27972391e-05 9.91853976e-05 4.54430408e-05
5.95012627e-05 2.28547258e-05 -3.87017621e-05 2.28547258e-05 2.04448952e-06 -2.12351606e-05 -3.87017621e-05 -2.12351606e-05 -9.10970439e-06
9.82790625e-05 2.55502255e-05 -6.47243833e-05 2.55502255e-05 -1.66765785e-04 1.79707140e-05 -6.47243833e-05 1.79707140e-05 -1.64713956e-05
4.13753020e-05 -4.26750706e-05 4.28128625e-05 -4.26750706e-05 -1.15584321e-04 -6.87245514e-06 4.28128625e-05 -6.87245514e-06 1.34474263e-05
4.15129047e-02 -7.54023308e-03 7.33905035e-05 -7.54023308e-03 2.56551988e-02 -4.69562318e-03 7.33905035e-05 -4.69562318e-03 -5.83036467e-02
4.70713228e-02 -3.26974387e-03 4.90225526e-03 -3.26974387e-03 2.40212921e-02 1.40967386e-05 4.90225526e-03 1.40967386e-05 -6.15394041e-02
3.81487720e-02 -5.13383804e-03 -6.24415465e-04 -5.13383804e-03 2.51369318e-02 -3.58399365e-03 -6.24415465e-04 -3.58399365e-03 -5.43385148e-02
4.14750651e-02 -8.01347848e-03 -2.76663073e-03 -8.01347848e-03 2.71139434e-02 5.68735413e-03 -2.76663073e-03 5.68735413e-03 -5.94496392e-02
3.00274435e-02 -1.30908540e-02 1.37987649e-02 -1.30908540e-02 2.22129291e-02 -1.61129041e-02 1.37987649e-02 -1.61129041e-02 -4.56624515e-02
2.77085090e-02 -1.19950328e-02 6.44651079e-03 -1.19950328e-02 3.11590252e-02 3.09109036e-03 6.44651079e-03 3.09109036e-03 -5.05230185e-02
8.14804889e-03 -7.24891081e-03 1.18714385e-02 -7.24891081e-03 1.12058241e-02 -4.26199031e-03 1.18714385e-02 -4.26199031e-03 -1.59915942e-02
2.00209764e-02 -1.42955044e-02 9.16837022e-03 -1.42955044e-02 2.18707109e-02 2.77577117e-02 9.16837022e-03 2.77577117e-02 -3.65870818e-02
-1.24000135e-03 -1.75729302e-03 -8.04758201e-07 -1.75729302e-03 9.80784796e-04 -6.22092746e-04 -8.04758201e-07 -6.22092746e-04 9.30789392e-04
1.73640277e-04 -8.12819522e-03 2.25585056e-04 -8.12819522e-03 2.39134533e-04 9.46306193e-03 2.25585056e-04 9.46306193e-03 2.54325583e-04
-2.56525057e-04 -1.45683647e-04 8.67034214e-05 -1.45683647e-04 9.57520315e-05 1.14345909e-04 8.67034214e-05 1.14345909e-04 2.06310960e-04
-7.59337224e-05 -3.47745469e-05 3.18726003e-05 -3.47745469e-05 4.58567793e-05 -1.24416333e-04 3.18726003e-05 -1.24416333e-04 5.65028822e-05
-2.52889222e-05 1.18659795e-04 -3.17269332e-05 1.18659795e-04 -3.44051514e-05 2.91817705e-05 -3.17269332e-05 2.91817705e-05 5.01149452e-06
-8.48800410e-05 1.05942777e-05 -1.03261082e-05 1.05942777e-05 2.35804146e-05 6.36491513e-05 -1.03261082e-05 6.36491513e-05 2.68496324e-05
3.41861956e-02 5.24148709e-06 1.56562409e-03 5.24148709e-06 4.96029239e-02 -6.79415604e-03 1.56562409e-03 -6.79415604e-03 -7.09243082e-02
3.68397385e-02 -7.64348588e-04 6.95128448e-03 -7.64348588e-04 4.76989131e-02 -4.26587932e-03 6.95128448e-03 -4.26587932e-03 -7.15425387e-02
3.40599609e-02 -5.99807147e-03 4.41411074e-03 -5.99807147e-03 4.80585890e-02 -2.67459439e-03 4.41411074e-03 -2.67459439e-03 -6.91844448e-02
3.22568333e-02 -7.84758857e-04 3.48156749e-03 -7.84758857e-04 4.94365515e-02 -1.33995278e-03 3.48156749e-03 -1.33995278e-03 -6.91212993e-02
4.25569452e-02 -7.72352284e-03 3.58446874e-03 -7.72352284e-03 4.40254947e-02 -1.06343369e-03 3.58446874e-03 -1.06343369e-03 -7.29297437e-02
4.08729813e-02 -8.52406389e-03 1.19198751e-03 -8.52406389e-03 4.61195703e-02 -1.02051783e-02 1.19198751e-03 -1.02051783e-02 -7.31203109e-02
4.87728147e-02 1.46765087e-04 9.62631875e-05 1.46765087e-04 4.30067498e-02 -6.58523454e-03 9.62631875e-05 -6.58523454e-03 -7.73669481e-02
4.78350143e-02 -5.91902751e-03 2.09252990e-03 -5.91902751e-03 4.71953587e-02 2.15914260e-04 2.09252990e-03 2.15914260e-04 -7.95482844e-02
5.43822907e-02 -4.21567634e-03 1.25350738e-02 -4.21567634e-03 4.23147520e-02 -6.27638164e-03 1.25350738e-02 -6.27638164e-03 -8.14728159e-02
5.04476698e-02 -5.00012218e-03 2.89869192e-03 -5.00012218e-03 5.31126354e-02 7.21591673e-03 2.89869192e-03 7.21591673e-03 -8.72139046e-02
5.19438237e-02 -5.34400227e-03 1.45597665e-02 -5.34400227e-03 4.65960074e-02 1.78755668e-04 1.45597665e-02 1.78755668e-04 -8.25877227e-02
5.39885233e-02 -2.28627581e-03 1.20101217e-02 -2.28627581e-03 5.27605871e-02 3.98267852e-03 1.20101217e-02 3.98267852e-03 -8.99544405e-02
4.72793356e-02 9.70226713e-03 1.05680227e-02 9.70226713e-03 5.24090640e-02 3.29096650e-03 1.05680227e-02 3.29096650e-03 -8.35880078e-02
5.36362659e-02 2.22504605e-03 -5.44376613e-04 2.22504605e-03 5.36947148e-02 3.17197631e-03 -5.44376613e-04 3.17197631e-03 -9.04133897e-02
3.20510562e-02 -7.31450273e-03 8.12947974e-03 -7.31450273e-03 4.49247551e-02 -8.85423803e-03 8.12947974e-03 -8.85423803e-03 -6.46685497e-02
2.85939355e-02 -5.00137557e-03 1.70726862e-02 -5.00137557e-03 4.60050413e-02 -5.42085071e-03 1.70726862e-02 -5.42085071e-03 -6.29213918e-02
3.83933995e-02 -4.79789615e-03 1.71753887e-02 -4.79789615e-03 4.86103461e-02 -3.46910009e-03 1.71753887e-02 -3.46910009e-03 -7.45861435e-02
5.06528921e-02 -1.30581358e-02 4.30365371e-02 -1.30581358e-02 5.34135517e-02 -2.50933871e-03 4.30365371e-02 -2.50933871e-03 -9.02977183e-02
5.44290207e-02 -1.38697715e-03 1.28089357e-02 -1.38697715e-03 6.57706708e-02 1.49367121e-02 1.28089357e-02 1.49367121e-02 -1.04729371e-01
5.42020975e-02 -1.83773370e-03 2.40342752e-02 -1.83773370e-03 6.68244809e-02 2.97447155e-02 2.40342752e-02 2.97447155e-02 -1.04856137e-01
5.25049735e-02 -8.42437381e-03 1.02391611e-02 -8.42437381e-03 7.02787861e-02 2.57628452e-02 1.02391611e-02 2.57628452e-02 -1.06285974e-01
2.60582329e-02 -1.12892557e-03 2.29235236e-02 -1.12892557e-03 3.72033110e-02 -1.77881413e-03 2.29235236e-02 -1.77881413e-03 -5.24868770e-02
2.61203810e-02 -1.90687424e-03 1.56594401e-02 -1.90687424e-03 3.56933586e-02 -4.92656871e-03 1.56594401e-02 -4.92656871e-03 -5.16276639e-02
2.60814765e-02 -8.17898284e-03 3.07567796e-02 -8.17898284e-03 3.98786121e-02 3.45738090e-02 3.07567796e-02 3.45738090e-02 -5.61113823e-02
-1.21241040e-02 -3.09368777e-02 3.00732180e-02 -3.09368777e-02 7.80201098e-03 4.35493011e-02 3.00732180e-02 4.35493011e-02 1.82755571e-02
2.79255996e-02 -1.03859615e-03 1.47758519e-02 -1.03859615e-03 2.33949628e-02 9.94648330e-03 1.47758519e-02 9.94648330e-03 -4.23349990e-02
2.63088280e-02 3.95022857e-03 1.06113205e-02 3.95022857e-03 2.56533204e-02 7.79417111e-03 1.06113205e-02 7.79417111e-03 -4.32600603e-02
2.37167472e-02 -1.85798883e-02 1.68982776e-02 -1.85798883e-02 1.83215966e-02 2.14893270e-02 1.68982776e-02 2.14893270e-02 -3.39207524e-02
5.48059090e-03 -3.17132452e-03 -1.80927974e-02 -3.17132452e-03 1.29821751e-02 1.94030820e-02 -1.80927974e-02 1.94030820e-02 -1.04322477e-02
2.83029929e-02 -6.42568548e-03 2.17819802e-03 -6.42568548e-03 2.46307964e-02 6.28956197e-03 2.17819802e-03 6.28956197e-03 -4.39410089e-02
3.06916982e-02 -5.27251058e-03 6.17970596e-04 -5.27251058e-03 2.32213675e-02 6.10817480e-03 6.17970596e-04 6.10817480e-03 -4.51937858e-02
2.86198617e-02 -1.17992033e-02 3.54888398e-04 -1.17992033e-02 3.10598643e-02 1.27194805e-02 3.54888398e-04 1.27194805e-02 -5.01170508e-02
3.90753625e-02 6.59725280e-04 -1.77927641e-02 6.59725280e-04 4.09659953e-02 1.73849873e-02 -1.77927641e-02 1.73849873e-02 -7.08877910e-02
2.87934453e-02 -9.46797125e-04 -2.64256433e-03 -9.46797125e-04 3.38020902e-02 -2.11201143e-04 -2.64256433e-03 -2.11201143e-04 -5.32400794e-02
3.17630358e-02 1.80253742e-03 -2.33293884e-03 1.80253742e-03 2.97926953e-02 3.14462383e-03 -2.33293884e-03 3.14462383e-03 -5.24967462e-02
3.34247709e-02 -9.51603637e-04 3.59459425e-03 -9.51603637e-04 4.33889143e-02 -4.56144387e-03 3.59459425e-03 -4.56144387e-03 -6.52337903e-02
5.10275085e-02 5.94141151e-04 -1.07993023e-02 5.94141151e-04 5.64060565e-02 2.09908709e-02 -1.07993023e-02 2.09908709e-02 -9.66903940e-02
-3.29052523e-06 -2.92326104e-05 -1.19184583e-05 -2.92326104e-05 8.06105970e-06 1.12921398e-05 -1.19184583e-05 1.12921398e-05 -8.83265625e-06
-8.62015975e-06 -3.25476651e-06 -4.90577258e-06 -3.25476651e-06 -6.77001935e-07 -1.09538854e-05 -4.90577258e-06 -1.09538854e-05 3.95811196e-06
1.74095417e-05 -6.62127081e-06 -3.85621229e-06 -6.62127081e-06 -5.89398667e-07 2.79320818e-05 -3.85621229e-06 2.79320818e-05 -2.17163033e-05
1.12161401e-05 -3.26609370e-05 -6.56197699e-07 -3.26609370e-05 -3.66960182e-06 -2.45055489e-05 -6.56197699e-07 -2.45055489e-05 -1.19973063e-05
4.17000595e-02 8.26243740e-06 9.19362484e-03 8.26243740e-06 4.36779764e-02 -2.07234290e-03 9.19362484e-03 -2.07234290e-03 -7.22008198e-02
4.29132758e-02 1.80904529e-03 6.21946261e-03 1.80904529e-03 4.21838099e-02 2.35203325e-03 6.21946261e-03 2.35203325e-03 -7.19717015e-02
4.13405728e-02 -8.13049253e-03 1.07417785e-02 -8.13049253e-03 4.27650437e-02 3.28027138e-03 1.07417785e-02 3.28027138e-03 -7.07011539e-02
4.00664285e-02 1.43919565e-03 9.58419329e-03 1.43919565e-03 4.48232936e-02 -5.03731135e-03 9.58419329e-03 -5.03731135e-03 -7.17603266e-02
4.62515242e-02 -9.45416000e-03 8.99847620e-03 -9.45416000e-03 3.69962575e-02 6.95616793e-04 8.99847620e-03 6.95616793e-04 -6.99723996e-02
4.52845548e-02 -1.11155455e-02 1.01714878e-02 -1.11155455e-02 4.11622194e-02 4.22586381e-03 1.01714878e-02 4.22586381e-03 -7.26055745e-02
4.93716188e-02 8.04243493e-04 3.32165405e-03 8.04243493e-04 3.39549510e-02 5.31138819e-03 3.32165405e-03 5.31138819e-03 -6.99057132e-02
4.98165120e-02 -5.22393890e-03 -5.05478738e-03 -5.22393890e-03 4.05038395e-02 -4.04934926e-03 -5.05478738e-03 -4.04934926e-03 -7.54904374e-02
5.13197286e-02 2.31063238e-03 -4.70429542e-03 2.31063238e-03 3.23431771e-02 -6.35345184e-04 -4.70429542e-03 -6.35345184e-04 -7.00641274e-02
5.01259910e-02 1.72715654e-03 -6.88990044e-03 1.72715654e-03 4.61720005e-02 -1.93709275e-05 -6.88990044e-03 -1.93709275e-05 -8.11440684e-02
4.87588597e-02 9.76171679e-04 2.68539164e-03 9.76171679e-04 3.35933208e-02 -3.60861744e-03 2.68539164e-03 -3.60861744e-03 -6.88325912e-02
4.98772357e-02 5.17931876e-04 3.20252671e-04 5.17931876e-04 4.50744536e-02 2.54175537e-03 3.20252671e-04 2.54175537e-03 -7.97125837e-02
4.67174202e-02 3.38685189e-04 2.78394285e-03 3.38685189e-04 3.34503697e-02 -3.62116704e-03 2.78394285e-03 -3.62116704e-03 -6.67320006e-02
4.63422136e-02 -2.55484011e-03 -1.87632476e-03 -2.55484011e-03 4.49869717e-02 -2.89603716e-03 -1.87632476e-03 -2.89603716e-03 -7.60466550e-02
3.73867345e-02 -1.38163086e-02 2.68028065e-02 -1.38163086e-02 4.69818916e-02 8.19123336e-04 2.68028065e-02 8.19123336e-04 -7.05061755e-02
3.15023507e-02 -1.12699489e-02 1.96041707e-02 -1.12699489e-02 5.00334185e-02 -3.00787378e-03 1.96041707e-02 -3.00787378e-03 -6.83759395e-02
4.84831871e-02 -1.34123004e-03 1.96007426e-02 -1.34123004e-03 4.46401132e-02 -3.75280915e-03 1.96007426e-02 -3.75280915e-03 -7.98142893e-02
5.66610485e-02 -1.28385440e-02 -5.40240468e-02 -1.28385440e-02 5.17530408e-02 -1.05619533e-03 -5.40240468e-02 -1.05619533e-03 -9.66210604e-02
5.59085039e-02 -1.42387359e-03 -1.58462641e-02 -1.42387359e-03 6.38237521e-02 1.10573634e-02 -1.58462641e-02 1.10573634e-02 -1.05120849e-01
5.48626604e-02 -3.82578661e-03 -1.84989232e-03 -3.82578661e-03 6.04995675e-02 9.63876315e-03 -1.84989232e-03 9.63876315e-03 -9.98720583e-02
4.93928436e-02 -1.89446425e-03 -3.94264213e-03 -1.89446425e-03 6.20520283e-02 3.42962856e-03 -3.94264213e-03 3.42962856e-03 -9.57353674e-02
3.19493059e-02 -8.24464292e-03 3.53279319e-02 -8.24464292e-03 4.58778462e-02 1.26330954e-03 3.53279319e-02 1.26330954e-03 -6.50437538e-02
2.71589821e-02 2.69386207e-03 2.80335471e-02 2.69386207e-03 4.53275172e-02 4.26417647e-03 2.80335471e-02 4.26417647e-03 -6.00140793e-02
4.32838751e-02 -2.33311830e-02 4.82549984e-02 -2.33311830e-02 5.73685085e-02 -5.45364658e-02 4.82549984e-02 -5.45364658e-02 -8.67924653e-02
2.68275450e-02 -2.66082888e-03 1.40635041e-02 -2.66082888e-03 3.47927668e-02 2.14526720e-02 1.40635041e-02 2.14526720e-02 -5.04023970e-02
2.56973412e-02 -6.39751740e-03 2.28116955e-02 -6.39751740e-03 3.64366299e-02 4.86587058e-03 2.28116955e-02 4.86587058e-03 -5.14387870e-02
2.72827321e-02 5.50869884e-03 1.41294855e-02 5.50869884e-03 3.92945320e-02 6.34018397e-02 1.41294855e-02 6.34018397e-02 -5.74422339e-02
2.87705609e-02 3.48498354e-03 1.12054187e-02 3.48498354e-03 3.59956888e-02 7.42744723e-03 1.12054187e-02 7.42744723e-03 -5.31272991e-02
2.78100753e-02 5.18840400e-03 -1.80641003e-03 5.18840400e-03 3.59649239e-02 3.13856138e-03 -1.80641003e-03 3.13856138e-03 -5.32607483e-02
3.05276247e-02 -9.79576988e-03 -1.18524177e-02 -9.79576988e-03 4.75422069e-02 1.25071464e-02 -1.18524177e-02 1.25071464e-02 -6.49166639e-02
-3.93738970e-03 6.06117733e-02 -8.32500607e-02 6.06117733e-02 -1.64454300e-02 1.08699962e-01 -8.32500607e-02 1.08699962e-01 4.07123938e-02
5.45022612e-02 2.49910972e-02 -8.10124117e-02 2.49910972e-02 5.17009472e-02 -1.08665349e-02 -8.10124117e-02 -1.08665349e-02 -9.26586601e-02
3.30451345e-02 1.41890649e-02 8.07095694e-03 1.41890649e-02 4.07202486e-02 1.34258992e-02 8.07095694e-03 1.34258992e-02 -6.20537298e-02
2.98004271e-02 -2.49660411e-03 7.67352013e-03 -2.49660411e-03 4.15565278e-02 1.07153347e-02 7.67352013e-03 1.07153347e-02 -5.96687365e-02
</DataArray>
<DataArray type="Float32" Name="Plastic_strain_components" NumberOfComponents="9" format="ascii">
3.25486660e-02 -4.41992597e-07 5.34335413e-07 -4.41992597e-07 5.89227490e-02 -8.90417141e-07 5.34335413e-07 -8.90417141e-07 -7.67952651e-02
3.43493558e-02 2.42730591e-03 8.16876764e-07 2.42730591e-03 6.11627921e-02 -3.32823620e-04 8.16876764e-07 -3.32823620e-04 -8.02041329e-02
3.52346217e-02 6.62957109e-03 -4.31093667e-03 6.62957109e-03 5.48304636e-02 -2.08650919e-03 -4.31093667e-03 -2.08650919e-03 -7.56857209e-02
3.46377213e-02 2.47431698e-03 -2.67781224e-03 2.47431698e-03 5.33128530e-02 1.14655268e-06 -2.67781224e-03 1.14655268e-06 -7.39348233e-02
3.18614030e-02 4.62638127e-06 3.14901327e-03 4.62638127e-06 5.58999125e-02 -3.27248394e-03 3.14901327e-03 -3.27248394e-03 -7.37053193e-02
3.38928495e-02 6.66440872e-04 4.07385675e-03 6.66440872e-04 5.72017711e-02 -4.67711582e-03 4.07385675e-03 -4.67711582e-03 -7.65289441e-02
3.45256880e-02 3.31229766e-03 6.96249255e-04 3.31229766e-03 5.27456552e-02 -5.35627033e-03 6.96249255e-04 -5.35627033e-03 -7.33599290e-02
3.34597873e-02 8.30883233e-04 1.18487177e-03 8.30883233e-04 5.20517193e-02 -2.35729420e-03 1.18487177e-03 -2.35729420e-03 -7.18729291e-02
3.71424854e-02 8.39212444e-04 2.38902385e-06 8.39212444e-04 6.62695281e-02 -1.58224610e-03 2.38902385e-06 -1.58224610e-03 -8.68503265e-02
3.77438087e-02 9.70183022e-03 -6.34850806e-03 9.70183022e-03 5.95042156e-02 -4.87523175e-04 -6.34850806e-03 -4.87523175e-04 -8.17080196e-02
3.87262786e-02 1.89818171e-03 4.98569885e-03 1.89818171e-03 5.90197332e-02 -4.27678708e-03 4.98569885e-03 -4.27678708e-03 -8.21955409e-02
3.76844713e-02 4.15862811e-03 -1.25431825e-03 4.15862811e-03 5.61571773e-02 -9.55435587e-03 -1.25431825e-03 -9.55435587e-03 -7.88931167e-02
4.22029328e-02 3.48528195e-03 -2.53912549e-06 3.48528195e-03 7.13639408e-02 4.63292748e-03 -2.53912549e-06 4.63292748e-03 -9.54220556e-02
4.25065858e-02 6.92192942e-03 -1.11522982e-02 6.92192942e-03 6.88334731e-02 -3.27861850e-03 -1.11522982e-02 -3.27861850e-03 -9.44500286e-02
4.50690379e-02 -4.18594840e-03 1.98067905e-03 -4.18594840e-03 6.11293931e-02 -3.38375568e-03 1.98067905e-03 -3.38375568e-03 -8.93858802e-02
4.23994763e-02 -2.91167281e-03 2.47392571e-03 -2.91167281e-03 6.10205089e-02 -5.78017092e-03 2.47392571e-03 -5.78017092e-03 -8.71451488e-02
4.81089093e-02 -9.31337150e-03 2.21462287e-05 -9.31337150e-03 7.61399157e-02 3.47607816e-03 2.21462287e-05 3.47607816e-03 -1.04450755e-01
4.40461915e-02 -7.27698725e-03 -1.63262524e-02 -7.27698725e-03 7.49031100e-02 2.55412876e-03 -1.63262524e-02 2.55412876e-03 -1.00547416e-01
5.09864921e-02 -1.03980263e-02 3.86354572e-03 -1.03980263e-02 6.39477391e-02 -3.17940248e-03 3.86354572e-03 -3.17940248e-03 -9.67678726e-02
4.90562045e-02 -1.11626253e-02 2.52480595e-03 -1.11626253e-02 6.08458677e-02 1.73469557e-03 2.52480595e-03 1.73469557e-03 -9.28424606e-02
5.20734657e-02 -1.26127265e-02 4.92640684e-05 -1.26127265e-02 8.25753286e-02 4.20262758e-03 4.92640684e-05 4.20262758e-03 -1.13193635e-01
4.74306317e-02 -1.77784368e-02 -2.02869792e-02 -1.77784368e-02 8.15625545e-02 8.89645028e-03 -2.02869792e-02 8.89645028e-03 -1.09800054e-01
5.27572185e-02 -9.09930537e-03 6.91559468e-03 -9.09930537e-03 6.84687681e-02 1.71958579e-03 6.91559468e-03 1.71958579e-03 -1.02032706e-01
5.34397028e-02 -1.44055756e-02 7.78106065e-03 -1.44055756e-02 6.39759880e-02 1.83930031e-03 7.78106065e-03 1.83930031e-03 -9.93240355e-02
4.88024727e-02 -3.26992236e-02 5.68328323e-06 -3.26992236e-02 9.64694619e-02 -3.58290994e-03 5.68328323e-06 -3.58290994e-03 -1.21780865e-01
4.42321841e-02 -2.61894302e-02 -2.22341353e-02 -2.61894302e-02 9.83139016e-02 2.33907597e-02 -2.22341353e-02 2.33907597e-02 -1.20898638e-01
4.73176241e-02 -8.07582866e-03 -2.71668541e-03 -8.07582866e-03 8.28784481e-02 -1.33514381e-03 -2.71668541e-03 -1.33514381e-03 -1.09410185e-01
5.00846254e-02 -1.41399773e-02 1.26549834e-03 -1.41399773e-02 7.50617795e-02 9.57504939e-03 1.26549834e-03 9.57504939e-03 -1.05342543e-01
3.83631447e-02 8.92795483e-03 -3.37633688e-03 8.92795483e-03 3.87460534e-02 -3.23577423e-03 -3.37633688e-03 -3.23577423e-03 -6.48765909e-02
3.80897596e-02 1.85945939e-03 -4.46323887e-03 1.85945939e-03 3.83382645e-02 5.59597538e-06 -4.46323887e-03 5.59597538e-06 -6.43328689e-02
3.53673655e-02 6.22983393e-03 4.51076149e-03 6.22983393e-03 4.16076798e-02 -6.23589050e-03 4.51076149e-03 -6.23589050e-03 -6.47619283e-02
3.45115056e-02 2.92191701e-03 6.90025080e-03 2.92191701e-03 4.03705947e-02 -1.01329366e-03 6.90025080e-03 -1.01329366e-03 -6.30343826e-02
3.63640934e-02 1.50632372e-02 -7.83519004e-03 1.50632372e-02 3.90818464e-02 -6.29227457e-03 -7.83519004e-03 -6.29227457e-03 -6.32753214e-02
3.61798478e-02 8.43191030e-03 8.50539550e-03 8.43191030e-03 4.38409005e-02 -2.47979561e-03 8.50539550e-03 -2.47979561e-03 -6.75157509e-02
2.52866594e-02 8.20828066e-03 -6.98640276e-03 8.20828066e-03 2.83778752e-02 -4.14371940e-03 -6.98640276e-03 -4.14371940e-03 -4.29583937e-02
3.29026295e-02 1.28500646e-05 2.75073895e-02 1.28500646e-05 4.28494784e-02 1.74548284e-03 2.75073895e-02 1.74548284e-03 -6.33647192e-02
2.45210676e-02 -1.04377734e-02 -2.02867396e-02 -1.04377734e-02 3.29358205e-02 1.23253351e-03 -2.02867396e-02 1.23253351e-03 -4.68479452e-02
2.98493220e-02 -1.64547417e-02 2.88767065e-02 -1.64547417e-02 4.20178402e-02 8.01477092e-03 2.88767065e-02 8.01477092e-03 -5.80661641e-02
1.97546884e-02 -1.37628277e-02 -1.64141647e-02 -1.37628277e-02 1.51495880e-02 8.82568672e-03 -1.64141647e-02 8.82568672e-03 -2.40305187e-02
2.92030103e-02 -2.04347442e-02 3.50725435e-02 -2.04347442e-02 3.56635327e-02 2.25934905e-02 3.50725435e-02 2.25934905e-02 -5.06947564e-02
2.13727411e-02 -1.82363577e-02 -1.50970221e-02 -1.82363577e-02 1.41907800e-02 1.40092811e-02 -1.50970221e-02 1.40092811e-02 -2.39544436e-02
3.22706600e-02 -2.88118627e-02 3.09562832e-02 -2.88118627e-02 4.50674550e-02 3.00127917e-02 3.09562832e-02 3.00127917e-02 -6.18068911e-02
4.01545158e-02 4.53418889e-03 9.16491685e-04 4.53418889e-03 2.21084622e-02 -4.15836694e-03 9.16491685e-04 -4.15836694e-03 -5.22690741e-02
3.94511912e-02 2.52894626e-03 1.97065040e-03 2.52894626e-03 2.35986272e-02 -3.31084630e-06 1.97065040e-03 -3.31084630e-06 -5.29914908e-02
3.69562334e-02 3.08872189e-03 8.99368516e-03 3.08872189e-03 2.54336193e-02 -2.43091995e-03 8.99368516e-03 -2.43091995e-03 -5.24270879e-02
3.49427871e-02 1.45746936e-03 9.66874091e-03 1.45746936e-03 2.69065583e-02 -3.61308979e-04 9.66874091e-03 -3.61308979e-04 -5.20178201e-02
3.15908040e-02 7.09230162e-03 1.19708438e-03 7.09230162e-03 1.64914585e-02 -7.89196079e-03 1.19708438e-03 -7.89196079e-03 -4.06372445e-02
3.06340143e-02 4.12231821e-03 1.44727867e-02 4.12231821e-03 1.65732618e-02 3.93092097e-03 1.44727867e-02 3.93092097e-03 -3.88592688e-02
4.99967940e-03 6.36698431e-04 -4.37050412e-03 6.36698431e-04 -1.09577205e-03 -3.48671933e-03 -4.37050412e-03 -3.48671933e-03 5.31968428e-04
4.00749821e-03 4.92482213e-04 5.01840399e-03 4.92482213e-04 1.90342974e-03 1.98224482e-03 5.01840399e-03 1.98224482e-03 -7.24271017e-04
-1.74779554e-03 5.13868406e-04 -9.77198624e-03 5.13868406e-04 -4.57653799e-03 -3.10549070e-03 -9.77198624e-03 -3.10549070e-03 1.06125139e-02
-5.48793469e-06 -2.75490276e-02 2.54019418e-02 -2.75490276e-02 9.09582890e-03 5.25326286e-03 2.54019418e-02 5.25326286e-03 -5.16175527e-03
-4.33073612e-03 6.41442416e-03 -8.69424711e-03 6.41442416e-03 -2.24943718e-03 -2.09946620e-03 -8.69424711e-03 -2.09946620e-03 1.05658637e-02
-2.67594277e-04 -1.06547088e-02 1.37145358e-02 -1.06547088e-02 1.88887690e-03 -1.59896460e-03 1.37145358e-02 -1.59896460e-03 2.38359343e-03
2.51160841e-03 6.35323185e-03 -8.03548307e-03 6.35323185e-03 -1.20804780e-02 1.42045360e-03 -8.03548307e-03 1.42045360e-03 1.31873642e-02
4.29713668e-03 -1.12313107e-02 2.88556181e-02 -1.12313107e-02 2.00354774e-03 -3.77341860e-03 2.88556181e-02 -3.77341860e-03 -3.35329631e-03
3.92641546e-02 -2.85529626e-03 2.06681842e-03 -2.85529626e-03 1.49214205e-02 -5.32580307e-03 2.06681842e-03 -5.32580307e-03 -4.53257225e-02
4.02201451e-02 -2.99348484e-03 2.86466687e-03 -2.99348484e-03 1.81865199e-02 6.56910925e-06 2.86466687e-03 6.56910925e-06 -4.89484593e-02
3.48081510e-02 -4.87019721e-03 1.01399288e-02 -4.87019721e-03 1.66790828e-02 -1.00924954e-04 1.01399288e-02 -1.00924954e-04 -4.31108959e-02
3.63843553e-02 -3.80786642e-03 3.50244266e-03 -3.80786642e-03 1.91406254e-02 2.07988441e-03 3.50244266e-03 2.07988441e-03 -4.66027167e-02
2.86483485e-02 -4.29994904e-03 -2.51967297e-03 -4.29994904e-03 8.36071221e-03 -8.18766048e-03 -2.51967297e-03 -8.18766048e-03 -3.09724207e-02
2.74499841e-02 -7.95210118e-03 4.57987582e-03 -7.95210118e-03 8.74922902e-03 7.57111593e-03 4.57987582e-03 7.57111593e-03 -3.01217108e-02
6.20170258e-03 -3.97351248e-03 -1.53398013e-03 -3.97351248e-03 4.07201878e-04 -6.52017095e-03 -1.53398013e-03 -6.52017095e-03 -4.82326333e-03
1.26507767e-02 -4.53358878e-03 -3.76426910e-03 -4.53358878e-03 8.72235498e-04 6.65142389e-03 -3.76426910e-03 6.65142389e-03 -1.08805129e-02
-8.35461326e-04 -1.71243259e-03 -4.09848030e-05 -1.71243259e-03 1.77575879e-04 -2.73431031e-04 -4.09848030e-05 -2.73431031e-04 6.62736774e-04
9.28913176e-04 1.27115992e-03 -1.26783135e-03 1.27115992e-03 1.06728516e-03 3.53305542e-03 -1.26783135e-03 3.53305542e-03 -1.56466978e-03
4.59646108e-03 -1.17215998e-02 6.93048933e-05 -1.17215998e-02 -7.31132319e-03 4.76733985e-05 6.93048933e-05 4.76733985e-05 4.33009770e-03
-5.68962961e-04 -7.33890767e-03 -1.25748163e-04 -7.33890767e-03 1.56538647e-03 2.12582213e-05 -1.25748163e-04 2.12582213e-05 -5.73362232e-04
3.92317120e-03 -1.40413139e-02 -1.90558378e-03 -1.40413139e-02 -6.19066879e-03 -4.59977018e-05 -1.90558378e-03 -4.59977018e-05 3.61654768e-03
-1.94043043e-03 -7.49937553e-03 -3.62477643e-03 -7.49937553e-03 4.67558151e-03 -2.66154636e-05 -3.62477643e-03 -2.66154636e-05 -2.02465589e-03
3.76798427e-02 -7.99093343e-03 5.24568767e-03 -7.99093343e-03 1.96678867e-02 -2.68230075e-03 5.24568767e-03 -2.68230075e-03 -4.80879452e-02
4.09385636e-02 -7.06764054e-03 9.17396741e-04 -7.06764054e-03 2.14878507e-02 2.46589298e-06 9.17396741e-04 2.46589298e-06 -5.23927789e-02
3.34832163e-02 -6.96949086e-03 6.99408251e-04 -6.96949086e-03 2.01780119e-02 4.42224947e-03 6.99408251e-04 4.42224947e-03 -4.50548404e-02
3.70490998e-02 -2.72679480e-03 -1.94039725e-03 -2.72679480e-03 2.13036351e-02 6.01713790e-03 -1.94039725e-03 6.01713790e-03 -4.89859190e-02
2.81276167e-02 -7.89488142e-03 2.50719138e-03 -7.89488142e-03 1.32470921e-02 -1.15507389e-02 2.50719138e-03 -1.15507389e-02 -3.49574802e-02
2.20894933e-02 -1.20378253e-02 -1.47698421e-03 -1.20378253e-02 1.63596703e-02 5.74809837e-03 -1.47698421e-03 5.74809837e-03 -3.11857267e-02
3.90469510e-03 -2.24093400e-03 1.51941446e-03 -2.24093400e-03 8.58096289e-04 -4.61813150e-03 1.51941446e-03 -4.61813150e-03 -2.40860274e-03
1.70558908e-02 -5.90398659e-03 -2.45900979e-03 -5.90398659e-03 1.16874177e-02 1.92279247e-02 -2.45900979e-03 1.92279247e-02 -2.43548791e-02
3.94525582e-04 1.02469288e-03 1.49261722e-05 1.02469288e-03 -1.59498643e-04 -1.15025858e-04 1.49261722e-05 -1.15025858e-04 -2.46797907e-04
2.09577340e-03 -1.49888200e-04 1.53499328e-04 -1.49888200e-04 -8.55983191e-04 3.71941325e-03 1.53499328e-04 3.71941325e-03 -9.09146364e-04
3.57988237e-05 -2.13041652e-05 -3.21429785e-06 -2.13041652e-05 -2.27227024e-05 1.06478677e-05 -3.21429785e-06 1.06478677e-05 -2.14872967e-05
-1.49784419e-06 -3.95805009e-06 -3.02562805e-06 -3.95805009e-06 -1.29038626e-06 1.20881509e-05 -3.02562805e-06 1.20881509e-05 2.20101699e-06
0.00000000e+00 0.00000000e+00 0.00000000e+00 0.00000000e+00 0.00000000e+00 0.00000000e+00 0.00000000e+00 0.00000000e+00 0.00000000e+00
0.00000000e+00 0.00000000e+00 0.00000000e+00 0.00000000e+00 0.00000000e+00 0.00000000e+00 0.00000000e+00 0.00000000e+00 0.00000000e+00
4.15877774e-02 -7.42754905e-03 4.13643138e-05 -7.42754905e-03 2.59764567e-02 -4.63755266e-03 4.13643138e-05 -4.63755266e-03 -5.67560345e-02
4.72210608e-02 -3.22957989e-03 4.83392272e-03 -3.22957989e-03 2.44485773e-02 1.30599947e-05 4.83392272e-03 1.30599947e-05 -6.01535477e-02
3.82693810e-02 -5.09685988e-03 -6.26698136e-04 -5.09685988e-03 2.53812615e-02 -3.54591606e-03 -6.26698136e-04 -3.54591606e-03 -5.35014831e-02
4.16059755e-02 -7.94651266e-03 -2.76568503e-03 -7.94651266e-03 2.74418788e-02 5.65628288e-03 -2.76568503e-03 5.65628288e-03 -5.80495596e-02
2.97990553e-02 -1.26415873e-02 1.34954238e-02 -1.26415873e-02 2.23368080e-02 -1.58614544e-02 1.34954238e-02 -1.58614544e-02 -4.33701128e-02
2.89477957e-02 -1.23492747e-02 6.35419204e-03 -1.23492747e-02 3.26147438e-02 3.78867681e-03 6.35419204e-03 3.78867681e-03 -5.22571411e-02
9.89276520e-03 -8.25247048e-03 1.19833816e-02 -8.25247048e-03 1.21410843e-02 -4.29105130e-03 1.19833816e-02 -4.29105130e-03 -1.91161525e-02
1.97659380e-02 -1.36283447e-02 9.16059020e-03 -1.36283447e-02 2.15025647e-02 2.71844479e-02 9.16059020e-03 2.71844479e-02 -3.38361450e-02
-1.27797312e-03 -1.72354307e-03 1.98308353e-05 -1.72354307e-03 6.49298367e-04 -4.64275916e-04 1.98308353e-05 -4.64275916e-04 6.02910644e-04
3.38472513e-04 -7.69132110e-03 1.67102480e-04 -7.69132110e-03 3.54192933e-04 9.11748683e-03 1.67102480e-04 9.11748683e-03 3.89357905e-04
-1.08847395e-04 -1.07037282e-04 1.95898665e-05 -1.07037282e-04 4.99273301e-05 2.02810024e-05 1.95898665e-05 2.02810024e-05 7.97176326e-05
2.87193737e-05 -1.72813016e-05 -7.69386133e-06 -1.72813016e-05 -1.56085965e-05 1.19933259e-05 -7.69386133e-06 1.19933259e-05 -1.84673142e-05
0.00000000e+00 0.00000000e+00 0.00000000e+00 0.00000000e+00 0.00000000e+00 0.00000000e+00 0.00000000e+00 0.00000000e+00 0.00000000e+00
0.00000000e+00 0.00000000e+00 0.00000000e+00 0.00000000e+00 0.00000000e+00 0.00000000e+00 0.00000000e+00 0.00000000e+00 0.00000000e+00
3.41512021e-02 5.19325476e-06 1.57487916e-03 5.19325476e-06 4.95100096e-02 -6.75883773e-03 1.57487916e-03 -6.75883773e-03 -7.03715086e-02
3.67379943e-02 -7.64335040e-04 6.93014334e-03 -7.64335040e-04 4.75535421e-02 -4.24554017e-03 6.93014334e-03 -4.24554017e-03 -7.09362868e-02
3.39376670e-02 -5.98530311e-03 4.42147252e-03 -5.98530311e-03 4.78950669e-02 -2.68428578e-03 4.42147252e-03 -2.68428578e-03 -6.88054627e-02
3.21888952e-02 -7.82860094e-04 3.48664261e-03 -7.82860094e-04 4.92793992e-02 -1.39039484e-03 3.48664261e-03 -1.39039484e-03 -6.84764124e-02
4.24042214e-02 -7.69097463e-03 3.56053846e-03 -7.69097463e-03 4.38779397e-02 -1.08687923e-03 3.56053846e-03 -1.08687923e-03 -7.26777613e-02
4.06333129e-02 -8.50072893e-03 1.19095598e-03 -8.50072893e-03 4.58617629e-02 -1.01708509e-02 1.19095598e-03 -1.01708509e-02 -7.27051124e-02
4.86147059e-02 1.44265756e-04 1.06676453e-04 1.44265756e-04 4.28802660e-02 -6.60742039e-03 1.06676453e-04 -6.60742039e-03 -7.70488400e-02
4.53026630e-02 -5.49036236e-03 1.62700913e-03 -5.49036236e-03 4.45341114e-02 -1.05107189e-04 1.62700913e-03 -1.05107189e-04 -7.48029756e-02
5.41648287e-02 -4.20459488e-03 1.25438839e-02 -4.20459488e-03 4.21603099e-02 -6.28003705e-03 1.25438839e-02 -6.28003705e-03 -8.10470916e-02
5.07158795e-02 -5.06815000e-03 3.00346679e-03 -5.06815000e-03 5.33890990e-02 7.25570793e-03 3.00346679e-03 7.25570793e-03 -8.78420826e-02
5.17711602e-02 -5.32957667e-03 1.45986581e-02 -5.32957667e-03 4.64595351e-02 1.41455443e-04 1.45986581e-02 1.41455443e-04 -8.26383475e-02
5.36399987e-02 -2.25562497e-03 1.19253994e-02 -2.25562497e-03 5.24129998e-02 3.92622245e-03 1.19253994e-02 3.92622245e-03 -8.92448863e-02
4.71790042e-02 9.69869085e-03 1.05903754e-02 9.69869085e-03 5.23373503e-02 3.18427157e-03 1.05903754e-02 3.18427157e-03 -8.37622881e-02
5.31442547e-02 2.24504317e-03 -5.93453180e-04 2.24504317e-03 5.32004880e-02 3.10346042e-03 -5.93453180e-04 3.10346042e-03 -8.94563776e-02
3.19410290e-02 -7.30433810e-03 8.17210894e-03 -7.30433810e-03 4.48109820e-02 -8.81385134e-03 8.17210894e-03 -8.81385134e-03 -6.45418325e-02
2.85411826e-02 -4.97635046e-03 1.70346939e-02 -4.97635046e-03 4.58941404e-02 -5.42560907e-03 1.70346939e-02 -5.42560907e-03 -6.24180976e-02
3.83445163e-02 -4.79592671e-03 1.70361136e-02 -4.79592671e-03 4.83674593e-02 -3.67896611e-03 1.70361136e-02 -3.67896611e-03 -7.29200808e-02
5.22832662e-02 -1.27807307e-02 4.19289095e-02 -1.27807307e-02 5.50375652e-02 -2.24137560e-03 4.19289095e-02 -2.24137560e-03 -8.96147922e-02
5.48465084e-02 -1.29263976e-03 1.26733612e-02 -1.29263976e-03 6.60542790e-02 1.47489882e-02 1.26733612e-02 1.47489882e-02 -1.01609821e-01
5.49256513e-02 -1.76219331e-03 2.39234720e-02 -1.76219331e-03 6.73938990e-02 2.94397188e-02 2.39234720e-02 2.94397188e-02 -1.02650518e-01
5.32639902e-02 -8.24522483e-03 1.01339384e-02 -8.24522483e-03 7.08060339e-02 2.54365598e-02 1.01339384e-02 2.54365598e-02 -1.04149953e-01
2.59851618e-02 -1.24777426e-03 2.31730759e-02 -1.24777426e-03 3.69743071e-02 -1.41871432e-03 2.31730759e-02 -1.41871432e-03 -5.27972532e-02
2.59341095e-02 -1.89586551e-03 1.56408378e-02 -1.89586551e-03 3.55105945e-02 -4.93614364e-03 1.56408378e-02 -4.93614364e-03 -5.15838265e-02
2.72622942e-02 -8.01560170e-03 3.14253628e-02 -8.01560170e-03 4.16753106e-02 3.50924198e-02 3.14253628e-02 3.50924198e-02 -5.72478802e-02
-1.09524759e-02 -3.26432665e-02 3.46691906e-02 -3.26432665e-02 7.07603124e-03 4.22396660e-02 3.46691906e-02 4.22396660e-02 1.05127944e-02
2.56375588e-02 -4.08899039e-04 1.28680947e-02 -4.08899039e-04 2.12393190e-02 8.56901487e-03 1.28680947e-02 8.56901487e-03 -3.84397213e-02
2.60291188e-02 3.91217554e-03 1.06016742e-02 3.91217554e-03 2.53755497e-02 7.77460588e-03 1.06016742e-02 7.77460588e-03 -4.32259105e-02
2.08970321e-02 -1.65369980e-02 1.69423203e-02 -1.65369980e-02 1.52177869e-02 1.58117185e-02 1.69423203e-02 1.58117185e-02 -2.88939141e-02
4.76946558e-03 -5.09791802e-03 -2.42665292e-02 -5.09791802e-03 9.19699157e-03 -1.37463088e-03 -2.42665292e-02 -1.37463088e-03 -7.58856783e-03
2.80233119e-02 -6.42069292e-03 2.19469158e-03 -6.42069292e-03 2.44031330e-02 6.30380738e-03 2.19469158e-03 6.30380738e-03 -4.39752131e-02
3.04230931e-02 -5.23649063e-03 5.98069862e-04 -5.23649063e-03 2.30106846e-02 6.08222606e-03 5.98069862e-04 6.08222606e-03 -4.49380046e-02
2.43526323e-02 -1.09628730e-02 9.32417373e-04 -1.09628730e-02 2.56805613e-02 1.21377655e-02 9.32417373e-04 1.21377655e-02 -4.00311598e-02
4.23111110e-02 4.42683580e-04 -1.65474762e-02 4.42683580e-04 4.53987611e-02 2.23536831e-02 -1.65474762e-02 2.23536831e-02 -7.58435614e-02
2.87636495e-02 -9.20218095e-04 -2.65225300e-03 -9.20218095e-04 3.37793063e-02 -2.08344427e-04 -2.65225300e-03 -2.08344427e-04 -5.26830014e-02
3.18379365e-02 1.81690807e-03 -2.34014355e-03 1.81690807e-03 2.99123963e-02 3.09168443e-03 -2.34014355e-03 3.09168443e-03 -5.19876964e-02
3.22159189e-02 -4.57345275e-04 3.10110388e-03 -4.57345275e-04 4.23954967e-02 -3.36514646e-03 3.10110388e-03 -3.36514646e-03 -6.26414679e-02
5.32084126e-02 5.18053203e-04 -1.05071263e-02 5.18053203e-04 5.82834817e-02 2.01871567e-02 -1.05071263e-02 2.01871567e-02 -9.41098779e-02
0.00000000e+00 0.00000000e+00 0.00000000e+00 0.00000000e+00 0.00000000e+00 0.00000000e+00 0.00000000e+00 0.00000000e+00 0.00000000e+00
0.00000000e+00 0.00000000e+00 0.00000000e+00 0.00000000e+00 0.00000000e+00 0.00000000e+00 0.00000000e+00 0.00000000e+00 0.00000000e+00
0.00000000e+00 0.00000000e+00 0.00000000e+00 0.00000000e+00 0.00000000e+00 0.00000000e+00 0.00000000e+00 0.00000000e+00 0.00000000e+00
0.00000000e+00 0.00000000e+00 0.00000000e+00 0.00000000e+00 0.00000000e+00 0.00000000e+00 0.00000000e+00 0.00000000e+00 0.00000000e+00
4.16627992e-02 7.76116576e-06 9.20741772e-03 7.76116576e-06 4.36213128e-02 -2.07539869e-03 9.20741772e-03 -2.07539869e-03 -7.18113407e-02
4.27418845e-02 1.79123608e-03 6.21241960e-03 1.79123608e-03 4.20128834e-02 2.34493591e-03 6.21241960e-03 2.34493591e-03 -7.13590514e-02
4.12276462e-02 -8.12733689e-03 1.07744389e-02 -8.12733689e-03 4.26330087e-02 3.25419153e-03 1.07744389e-02 3.25419153e-03 -7.05456091e-02
3.98991397e-02 1.43813735e-03 9.55654739e-03 1.43813735e-03 4.46020886e-02 -5.02554083e-03 9.55654739e-03 -5.02554083e-03 -7.11312331e-02
4.60462691e-02 -9.41437460e-03 9.00108484e-03 -9.41437460e-03 3.68075669e-02 6.84090075e-04 9.00108484e-03 6.84090075e-04 -6.97071329e-02
4.50663297e-02 -1.10926375e-02 1.01405682e-02 -1.10926375e-02 4.09567943e-02 4.20690076e-03 1.01405682e-02 4.20690076e-03 -7.23121520e-02
4.92006326e-02 7.95868938e-04 3.31849692e-03 7.95868938e-04 3.37918745e-02 5.28254209e-03 3.31849692e-03 5.28254209e-03 -6.97994065e-02
4.74571623e-02 -5.05453101e-03 -4.52936697e-03 -5.05453101e-03 3.81531678e-02 -4.04282790e-03 -4.52936697e-03 -4.04282790e-03 -7.13691767e-02
5.09573957e-02 2.29785556e-03 -4.68818971e-03 2.29785556e-03 3.20520177e-02 -6.67131511e-04 -4.68818971e-03 -6.67131511e-04 -6.97864741e-02
5.02954293e-02 1.69346858e-03 -6.98016849e-03 1.69346858e-03 4.63602790e-02 -1.68978004e-05 -6.98016849e-03 -1.68978004e-05 -8.15016394e-02
4.83163930e-02 9.79862423e-04 2.69641704e-03 9.79862423e-04 3.32295089e-02 -3.58842334e-03 2.69641704e-03 -3.58842334e-03 -6.86038081e-02
4.95660850e-02 5.20281006e-04 3.44162094e-04 5.20281006e-04 4.48055672e-02 2.53832764e-03 3.44162094e-04 2.53832764e-03 -7.94571806e-02
4.62524667e-02 3.40937375e-04 2.79699417e-03 3.40937375e-04 3.30335526e-02 -3.57455015e-03 2.79699417e-03 -3.57455015e-03 -6.66729864e-02
4.58337497e-02 -2.54746013e-03 -1.84975777e-03 -2.54746013e-03 4.44964347e-02 -2.90594590e-03 -1.84975777e-03 -2.90594590e-03 -7.60340244e-02
3.71407836e-02 -1.37750948e-02 2.67021036e-02 -1.37750948e-02 4.66490341e-02 8.49821532e-04 2.67021036e-02 8.49821532e-04 -7.00255027e-02
3.14285867e-02 -1.12312098e-02 1.96363125e-02 -1.12312098e-02 4.99034580e-02 -3.00284207e-03 1.96363125e-02 -3.00284207e-03 -6.82356246e-02
4.88302702e-02 -1.43204794e-03 1.92277831e-02 -1.43204794e-03 4.49516986e-02 -3.88645095e-03 1.92277831e-02 -3.88645095e-03 -7.94612137e-02
5.88015296e-02 -1.26270052e-02 -5.24891296e-02 -1.26270052e-02 5.40848911e-02 -6.82350714e-04 -5.24891296e-02 -6.82350714e-04 -9.36141014e-02
5.65981371e-02 -1.34466367e-03 -1.55195973e-02 -1.34466367e-03 6.44210381e-02 1.10125619e-02 -1.55195973e-02 1.10125619e-02 -1.01762543e-01
5.57077592e-02 -3.77993664e-03 -1.84340100e-03 -3.77993664e-03 6.12954013e-02 9.61746412e-03 -1.84340100e-03 9.61746412e-03 -9.85152405e-02
4.99549750e-02 -1.82496785e-03 -3.90852708e-03 -1.82496785e-03 6.24833219e-02 3.41864559e-03 -3.90852708e-03 3.41864559e-03 -9.46395248e-02
3.20654416e-02 -8.20529789e-03 3.54279240e-02 -8.20529789e-03 4.59789937e-02 1.43058977e-03 3.54279240e-02 1.43058977e-03 -6.50803915e-02
2.67571695e-02 2.71018210e-03 2.79040723e-02 2.71018210e-03 4.49139159e-02 4.18460427e-03 2.79040723e-02 4.18460427e-03 -5.98926088e-02
4.38176049e-02 -2.29833666e-02 4.98723364e-02 -2.29833666e-02 5.81672266e-02 -5.45017063e-02 4.98723364e-02 -5.45017063e-02 -8.31992216e-02
2.57326985e-02 -2.68167605e-03 1.33032999e-02 -2.68167605e-03 3.35141625e-02 2.09882406e-02 1.33032999e-02 2.09882406e-02 -4.92312711e-02
2.60383571e-02 -6.47048780e-03 2.34445295e-02 -6.47048780e-03 3.68364849e-02 5.22550161e-03 2.34445295e-02 5.22550161e-03 -5.26992092e-02
2.93434444e-02 4.61661439e-03 1.35175872e-02 4.61661439e-03 4.14216057e-02 6.53320393e-02 1.35175872e-02 6.53320393e-02 -5.74254226e-02
1.61052358e-02 1.66782820e-03 1.26141115e-02 1.66782820e-03 2.07317350e-02 5.16799148e-04 1.26141115e-02 5.16799148e-04 -2.61927135e-02
2.99462792e-02 5.77435386e-03 -1.88890006e-03 5.77435386e-03 3.85118835e-02 4.08581865e-03 -1.88890006e-03 4.08581865e-03 -5.84017187e-02
2.23539259e-02 -7.12348501e-03 -6.12404421e-03 -7.12348501e-03 3.34755180e-02 1.84165114e-02 -6.12404421e-03 1.84165114e-02 -4.34131346e-02
-7.16823060e-03 6.12538680e-02 -7.68814981e-02 6.12538680e-02 -1.73071176e-02 1.23982951e-01 -7.68814981e-02 1.23982951e-01 3.31886746e-02
6.25709035e-02 2.35160089e-02 -8.58202080e-02 2.35160089e-02 6.34826763e-02 -1.50969525e-02 -8.58202080e-02 -1.50969525e-02 -1.07575518e-01
3.97768370e-02 1.52901315e-02 7.30379083e-03 1.52901315e-02 4.89442106e-02 1.72740628e-02 7.30379083e-03 1.72740628e-02 -7.69984536e-02
2.83013657e-02 -2.79815798e-03 7.76235596e-03 -2.79815798e-03 3.98470499e-02 1.01300781e-02 7.76235596e-03 1.01300781e-02 -5.68143502e-02
</DataArray>
<DataArray type="Float32" Name="Spatial_displacement" NumberOfComponents="3" format="ascii">
0.00000000e+00 0.00000000e+00 0.00000000e+00
3.30592543e-02 0.00000000e+00 0.00000000e+00
3.55857313e-02 6.33907020e-02 0.00000000e+00
0.00000000e+00 6.07726388e-02 0.00000000e+00
0.00000000e+00 0.00000000e+00 -7.45896846e-02
3.27015445e-02 0.00000000e+00 -7.76454359e-02
3.33902165e-02 5.88010401e-02 -7.38485307e-02
0.00000000e+00 5.79220615e-02 -7.16629177e-02
7.02766031e-02 0.00000000e+00 0.00000000e+00
7.11558610e-02 6.86749071e-02 0.00000000e+00
6.86089396e-02 0.00000000e+00 -8.39669853e-02
7.05894828e-02 6.18852973e-02 -7.93514848e-02
1.08774170e-01 0.00000000e+00 0.00000000e+00
1.12459660e-01 7.62742907e-02 0.00000000e+00
1.13646924e-01 0.00000000e+00 -9.00746584e-02
1.09233305e-01 6.49177581e-02 -8.82823318e-02
1.60708442e-01 0.00000000e+00 0.00000000e+00
1.50842026e-01 8.21544975e-02 0.00000000e+00
1.64390296e-01 0.00000000e+00 -9.77648795e-02
1.53374851e-01 6.57378435e-02 -9.42441374e-02
2.12919146e-01 0.00000000e+00 0.00000000e+00
1.99569151e-01 8.83709341e-02 0.00000000e+00
2.17472136e-01 0.00000000e+00 -1.06284231e-01
2.07866207e-01 6.85321689e-02 -1.00075155e-01
2.71548748e-01 0.00000000e+00 0.00000000e+00
2.36655802e-01 1.11193977e-01 0.00000000e+00
2.67915040e-01 0.00000000e+00 -1.08655617e-01
2.59346396e-01 8.86325240e-02 -1.11238994e-01
3.90814394e-02 1.12323120e-01 0.00000000e+00
0.00000000e+00 1.10382512e-01 0.00000000e+00
3.56809795e-02 1.08765900e-01 -6.37072474e-02
0.00000000e+00 1.05704576e-01 -6.27663881e-02
7.79278800e-02 1.22787513e-01 0.00000000e+00
7.12278336e-02 1.14552520e-01 -6.43145293e-02
1.09210439e-01 1.31721392e-01 0.00000000e+00
1.04139939e-01 1.21529758e-01 -5.69124222e-02
1.35533452e-01 1.48568720e-01 0.00000000e+00
1.38241991e-01 1.22444727e-01 -5.96463531e-02
1.53283879e-01 1.51484147e-01 0.00000000e+00
1.66475400e-01 1.27190113e-01 -5.60552627e-02
1.79206789e-01 1.81785256e-01 0.00000000e+00
2.01494798e-01 1.56348065e-01 -5.62007129e-02
4.18090373e-02 1.42053589e-01 0.00000000e+00
0.00000000e+00 1.39445722e-01 0.00000000e+00
3.74379903e-02 1.42995462e-01 -5.11766076e-02
0.00000000e+00 1.41484842e-01 -5.08215278e-02
8.31847861e-02 1.44380882e-01 0.00000000e+00
7.51640350e-02 1.45545602e-01 -3.91857922e-02
1.05708078e-01 1.52314484e-01 0.00000000e+00
1.00854836e-01 1.49726748e-01 -1.24422163e-02
1.10700667e-01 1.59022033e-01 0.00000000e+00
1.04397014e-01 1.49427190e-01 4.38353419e-03
1.23487547e-01 1.53449684e-01 0.00000000e+00
1.24552354e-01 1.39234304e-01 1.12654269e-02
1.25956431e-01 1.87169403e-01 0.00000000e+00
1.30664364e-01 1.83438569e-01 3.72235477e-03
4.35544103e-02 1.57896414e-01 0.00000000e+00
0.00000000e+00 1.60988197e-01 0.00000000e+00
3.79456803e-02 1.60006583e-01 -4.42851484e-02
0.00000000e+00 1.63932145e-01 -4.62635607e-02
8.18844438e-02 1.55409694e-01 0.00000000e+00
7.33747110e-02 1.52827874e-01 -3.05142403e-02
1.00928009e-01 1.52587652e-01 0.00000000e+00
9.40872654e-02 1.51135370e-01 -6.07390702e-03
9.85241309e-02 1.57632470e-01 0.00000000e+00
9.81277376e-02 1.57607794e-01 1.61826611e-05
9.84394252e-02 1.63244754e-01 0.00000000e+00
9.84783471e-02 1.60235316e-01 0.00000000e+00
9.85549241e-02 1.63266182e-01 -2.63601542e-04
9.85640287e-02 1.60195857e-01 1.33216381e-05
4.15210277e-02 1.73373282e-01 0.00000000e+00
0.00000000e+00 1.80662259e-01 0.00000000e+00
3.86905894e-02 1.78802192e-01 -4.63270992e-02
0.00000000e+00 1.81620836e-01 -5.21017909e-02
7.98581988e-02 1.61082730e-01 0.00000000e+00
6.79559559e-02 1.63527280e-01 -3.46094221e-02
9.40498486e-02 1.53595150e-01 0.00000000e+00
8.89671743e-02 1.55835778e-01 -7.85191357e-03
9.58298743e-02 1.57702893e-01 0.00000000e+00
9.56367180e-02 1.57718778e-01 2.66626477e-04
9.56992581e-02 1.60341322e-01 0.00000000e+00
9.57984477e-02 1.60318211e-01 2.41994858e-05
9.58156586e-02 1.62993953e-01 0.00000000e+00
9.58337486e-02 1.62929386e-01 5.14090061e-06
4.67049852e-02 2.00134516e-01 0.00000000e+00
0.00000000e+00 2.03473091e-01 0.00000000e+00
4.18036953e-02 2.00255752e-01 -5.57847470e-02
0.00000000e+00 2.08500221e-01 -6.11694008e-02
8.65181535e-02 1.77783132e-01 0.00000000e+00
6.98598251e-02 1.92006633e-01 -5.00867665e-02
9.65312868e-02 1.60416618e-01 0.00000000e+00
9.22205746e-02 1.72393203e-01 -2.01906264e-02
9.41792876e-02 1.58281878e-01 0.00000000e+00
9.35595185e-02 1.58262849e-01 5.23015857e-04
9.32214558e-02 1.60196871e-01 0.00000000e+00
9.33358222e-02 1.60283461e-01 -3.13073397e-05
9.31842327e-02 1.62947252e-01 0.00000000e+00
9.32129398e-02 1.62915349e-01 -4.11272049e-06
0.00000000e+00 0.00000000e+00 -1.42739296e-01
3.37909237e-02 0.00000000e+00 -1.49061799e-01
3.29858661e-02 4.90326956e-02 -1.42571166e-01
0.00000000e+00 4.98561040e-02 -1.41277939e-01
7.53810257e-02 0.00000000e+00 -1.57569200e-01
6.73340410e-02 4.34510857e-02 -1.54226899e-01
1.17456235e-01 0.00000000e+00 -1.69451877e-01
1.17606081e-01 4.27327156e-02 -1.69360414e-01
1.72847837e-01 0.00000000e+00 -1.86805293e-01
1.68354660e-01 4.34717014e-02 -1.75201684e-01
2.29558945e-01 0.00000000e+00 -1.99435428e-01
2.23924354e-01 4.54194322e-02 -1.86003178e-01
2.74697900e-01 0.00000000e+00 -2.06063583e-01
2.84858644e-01 5.06352857e-02 -1.96337521e-01
2.77453959e-02 9.64793935e-02 -1.27616018e-01
0.00000000e+00 1.01753533e-01 -1.22482426e-01
6.39200509e-02 9.54539031e-02 -1.33104920e-01
1.05359875e-01 9.97498333e-02 -1.36857808e-01
1.60168976e-01 1.12035610e-01 -1.53804138e-01
2.18104661e-01 1.14029117e-01 -1.49553835e-01
2.69816190e-01 1.21639065e-01 -1.61596313e-01
2.39535496e-02 1.39573008e-01 -1.03798583e-01
0.00000000e+00 1.41588122e-01 -9.90941375e-02
5.38011789e-02 1.40686482e-01 -9.06670690e-02
4.87660542e-02 1.25118673e-01 7.41516054e-03
2.62498036e-02 1.73644900e-01 -8.33102912e-02
0.00000000e+00 1.69554040e-01 -9.07949954e-02
5.69477528e-02 1.59888044e-01 -5.91744930e-02
7.34427795e-02 1.35782138e-01 -2.55318433e-02
3.18099260e-02 1.87299505e-01 -8.95006359e-02
0.00000000e+00 1.92708597e-01 -9.53444093e-02
5.36793172e-02 1.78842232e-01 -7.14169443e-02
9.27356035e-02 1.65628225e-01 -5.63410670e-02
2.71814093e-02 2.19455034e-01 -1.13687225e-01
0.00000000e+00 2.17610925e-01 -1.16672039e-01
5.43969348e-02 2.25176454e-01 -1.04806699e-01
1.00633837e-01 2.16790587e-01 -1.03141747e-01
9.58361104e-02 1.60362631e-01 3.09050083e-05
9.58352312e-02 1.62937149e-01 2.71499157e-05
9.32574868e-02 1.62944138e-01 -1.51842833e-05
9.32321548e-02 1.60373136e-01 -3.15159559e-05
0.00000000e+00 0.00000000e+00 -2.13536859e-01
4.03599292e-02 0.00000000e+00 -2.15466291e-01
4.22589630e-02 4.39366251e-02 -2.09662899e-01
0.00000000e+00 4.24417555e-02 -2.04966545e-01
8.92896727e-02 0.00000000e+00 -2.27915570e-01
7.93994665e-02 3.68018150e-02 -2.19517484e-01
1.32930532e-01 0.00000000e+00 -2.41609722e-01
1.33776292e-01 3.22212949e-02 -2.38507807e-01
1.85487747e-01 0.00000000e+00 -2.54101187e-01
1.87916428e-01 3.38410512e-02 -2.58484542e-01
2.39967793e-01 0.00000000e+00 -2.69678235e-01
2.40988195e-01 3.63906473e-02 -2.67154545e-01
2.89840102e-01 0.00000000e+00 -2.75576085e-01
2.90208161e-01 3.60890478e-02 -2.72955865e-01
2.91447118e-02 8.26097429e-02 -1.90548599e-01
0.00000000e+00 9.44654197e-02 -1.87619805e-01
7.77082443e-02 8.33225399e-02 -2.11182341e-01
1.24971852e-01 8.93455967e-02 -2.48677373e-01
1.85130179e-01 9.92365330e-02 -2.57644415e-01
2.38978446e-01 9.23237652e-02 -2.56820500e-01
2.85198569e-01 9.55551267e-02 -2.61484087e-01
2.45861411e-02 1.42254472e-01 -1.52617455e-01
0.00000000e+00 1.39389962e-01 -1.56650588e-01
6.95243329e-02 1.24742463e-01 -1.80956542e-01
2.44456753e-02 1.75125033e-01 -1.27189100e-01
0.00000000e+00 1.81698382e-01 -1.31764591e-01
6.00959808e-02 1.75726280e-01 -9.83369499e-02
2.58826688e-02 2.15981632e-01 -1.36443943e-01
0.00000000e+00 2.10622594e-01 -1.39441758e-01
5.82260564e-02 2.13927388e-01 -1.30331159e-01
7.13001937e-02 2.11166412e-01 1.55381411e-02
9.21890587e-02 2.06215799e-01 -1.47683769e-01
2.82323584e-02 2.47406989e-01 -1.64004475e-01
0.00000000e+00 2.49976322e-01 -1.74066886e-01
</DataArray>
<DataArray type="Float32" Name="Spatial_acceleration" NumberOfComponents="3" format="ascii">
0.00000000e+00 0.00000000e+00 0.00000000e+00
-1.26560522e-07 0.00000000e+00 0.00000000e+00
-2.04145906e-07 -3.27825546e-07 0.00000000e+00
0.00000000e+00 -2.97367563e-07 0.00000000e+00
0.00000000e+00 0.00000000e+00 5.06083154e-07
-1.35779374e-07 0.00000000e+00 4.53313191e-07
-1.79812304e-07 -3.27264274e-07 4.36464944e-07
0.00000000e+00 -2.83420093e-07 4.12623081e-07
-3.64343322e-07 0.00000000e+00 0.00000000e+00
-3.94821171e-07 -4.12066782e-07 0.00000000e+00
-3.61124677e-07 0.00000000e+00 4.43776457e-07
-3.59932585e-07 -3.34719800e-07 4.57445765e-07
-5.94615926e-07 0.00000000e+00 0.00000000e+00
-5.70615100e-07 -3.99351109e-07 0.00000000e+00
-5.91640685e-07 0.00000000e+00 5.11805183e-07
-5.80906885e-07 -3.33229707e-07 4.60942573e-07
-8.14686189e-07 0.00000000e+00 0.00000000e+00
-7.89523142e-07 -4.15484095e-07 0.00000000e+00
-8.68280722e-07 0.00000000e+00 5.18163063e-07
-8.01801662e-07 -3.17255655e-07 4.85738099e-07
-1.10167764e-06 0.00000000e+00 0.00000000e+00
-1.02464355e-06 -4.30583952e-07 0.00000000e+00
-1.14520390e-06 0.00000000e+00 4.87963348e-07
-1.07804931e-06 -3.27666584e-07 5.15619888e-07
-1.34326024e-06 0.00000000e+00 0.00000000e+00
-1.24390920e-06 -5.62667822e-07 0.00000000e+00
-1.37446318e-06 0.00000000e+00 5.08626272e-07
-1.29016234e-06 -4.90466732e-07 5.69025644e-07
-2.41597490e-07 -6.22034065e-07 0.00000000e+00
0.00000000e+00 -6.07868003e-07 0.00000000e+00
-1.96948648e-07 -5.83479789e-07 3.62078339e-07
0.00000000e+00 -5.64674508e-07 3.05175774e-07
-4.21047218e-07 -6.27199825e-07 0.00000000e+00
-3.48433844e-07 -5.95331187e-07 3.39031203e-07
-6.03357933e-07 -6.35385504e-07 0.00000000e+00
-5.28216333e-07 -5.62213700e-07 2.79381169e-07
-7.19388311e-07 -7.31070827e-07 0.00000000e+00
-7.65376626e-07 -5.78403501e-07 3.04751921e-07
-7.89483352e-07 -8.06172693e-07 0.00000000e+00
-8.73618660e-07 -5.98828024e-07 2.80592189e-07
-8.55445876e-07 -9.45568047e-07 0.00000000e+00
-1.04289586e-06 -7.36660411e-07 3.72144910e-07
-1.12533570e-07 -6.85373948e-07 0.00000000e+00
0.00000000e+00 -8.05060040e-07 0.00000000e+00
-1.79012616e-07 -7.54833195e-07 2.19662979e-07
0.00000000e+00 -7.30276099e-07 3.04857878e-07
-3.86079137e-07 -8.00450607e-07 0.00000000e+00
-3.27984480e-07 -7.66714379e-07 1.53859460e-07
-4.54584750e-07 -8.31643717e-07 0.00000000e+00
-5.18374975e-07 -8.00847999e-07 1.44110786e-08
-6.34299397e-07 -5.93821198e-07 0.00000000e+00
-7.12076826e-07 -7.47468732e-07 -1.39872238e-08
-6.42034763e-07 -7.84622330e-07 0.00000000e+00
-7.15255737e-07 -9.17010823e-07 -1.69542105e-07
-6.99679049e-07 -9.33488195e-07 0.00000000e+00
-8.35736557e-07 -7.98364454e-07 4.48226913e-08
-1.57038372e-07 -8.12768917e-07 0.00000000e+00
0.00000000e+00 -8.51949039e-07 0.00000000e+00
-1.68542059e-07 -7.91350999e-07 8.15391559e-08
0.00000000e+00 -8.60482430e-07 3.10897832e-07
-4.40915414e-07 -9.42988947e-07 0.00000000e+00
-4.15643058e-07 -8.46147543e-07 2.13305157e-07
-3.47018243e-07 -7.28845578e-07 0.00000000e+00
-5.52336360e-07 -6.56922680e-07 2.38630520e-07
-3.22235962e-07 -7.08686002e-07 0.00000000e+00
-5.53978794e-07 -5.40839324e-07 3.17679508e-07
-6.53107975e-07 -1.06016796e-06 0.00000000e+00
-6.94804726e-07 -8.13987526e-07 0.00000000e+00
-4.83910242e-07 -1.03251136e-06 -1.81992846e-07
-4.49260085e-07 -9.13884890e-07 1.77277457e-07
-6.52670877e-08 -9.74734576e-07 0.00000000e+00
0.00000000e+00 -9.16679710e-07 0.00000000e+00
-1.69922913e-07 -9.71505983e-07 8.55127951e-08
0.00000000e+00 -8.76148533e-07 1.88827514e-07
-4.94321171e-07 -7.90357603e-07 0.00000000e+00
-3.43481702e-07 -9.20057289e-07 1.52746836e-07
-2.25424770e-07 -8.33272907e-07 0.00000000e+00
-4.88281273e-07 -7.03705666e-07 1.17407907e-07
-4.90109130e-07 -9.40958671e-07 0.00000000e+00
-5.62071818e-07 -8.42889165e-07 1.44163764e-07
-5.20785647e-07 -7.84357383e-07 0.00000000e+00
-5.25252005e-07 -8.17775742e-07 1.00895761e-07
-6.93400693e-07 -9.44614385e-07 0.00000000e+00
-3.58925917e-07 -9.60217562e-07 -1.83934148e-07
-4.97500103e-08 -9.81410381e-07 0.00000000e+00
0.00000000e+00 -1.10265114e-06 0.00000000e+00
-1.50680535e-07 -9.98814926e-07 2.24749243e-07
0.00000000e+00 -1.11499423e-06 2.16166171e-07
-2.60512024e-07 -8.28266138e-07 0.00000000e+00
-2.82843899e-07 -9.41117605e-07 2.23159788e-07
-7.02003604e-07 -8.26517748e-07 0.00000000e+00
-4.61578367e-07 -1.03632613e-06 1.64455841e-07
-5.09262065e-07 -1.09227494e-06 0.00000000e+00
-3.68118293e-07 -8.26835617e-07 -5.75383510e-08
-6.07728964e-07 -9.47793296e-07 0.00000000e+00
-3.88834223e-07 -8.03152716e-07 -2.08020214e-08
-4.60426008e-07 -9.20057289e-07 0.00000000e+00
-6.32385422e-07 -8.87076055e-07 1.23351811e-07
0.00000000e+00 0.00000000e+00 7.79469815e-07
-1.96258227e-07 0.00000000e+00 8.15073633e-07
-1.60137816e-07 -2.41155419e-07 7.93615982e-07
0.00000000e+00 -2.59419267e-07 7.64846789e-07
-3.56286762e-07 0.00000000e+00 9.07897913e-07
-3.42051180e-07 -2.28325518e-07 8.35418689e-07
-6.02722139e-07 0.00000000e+00 9.75926696e-07
-5.77608716e-07 -2.13722387e-07 9.01540091e-07
-8.77638627e-07 0.00000000e+00 9.64800506e-07
-8.70863573e-07 -2.25474437e-07 9.15686257e-07
-1.18488072e-06 0.00000000e+00 1.01693468e-06
-1.14711122e-06 -2.16682750e-07 9.30945077e-07
-1.41660371e-06 0.00000000e+00 1.03759760e-06
-1.45224726e-06 -2.84830719e-07 1.00008640e-06
-1.37170161e-07 -4.94718563e-07 6.64075230e-07
0.00000000e+00 -5.42481757e-07 6.68525672e-07
-3.07582667e-07 -4.84852535e-07 6.81922529e-07
-5.45374576e-07 -4.94829806e-07 6.46464059e-07
-8.09510539e-07 -6.29176668e-07 8.05536899e-07
-1.17222464e-06 -5.69343570e-07 7.52766937e-07
-1.42767033e-06 -6.96192160e-07 8.31603984e-07
-1.19010608e-07 -7.10884706e-07 5.17845137e-07
0.00000000e+00 -7.05719003e-07 4.88281216e-07
-3.26633455e-07 -7.35176968e-07 5.17951150e-07
-2.84194954e-07 -6.83943426e-07 -1.12930934e-07
-1.12513703e-07 -8.71534155e-07 3.98476914e-07
0.00000000e+00 -8.92519950e-07 4.13258874e-07
-3.66120105e-07 -7.95001085e-07 3.36419959e-07
-4.20040550e-07 -7.13136444e-07 3.46713591e-07
-1.84893608e-07 -9.71635131e-07 3.87191761e-07
0.00000000e+00 -9.74073714e-07 3.85602306e-07
-3.24408205e-07 -9.33567662e-07 4.70320373e-07
-3.91006466e-07 -8.96980339e-07 4.45048016e-07
-1.20043751e-07 -1.18939079e-06 5.59171042e-07
0.00000000e+00 -1.16074079e-06 5.18798799e-07
-2.90195146e-07 -1.31424270e-06 5.46137471e-07
-6.24457982e-07 -1.16491321e-06 6.24338782e-07
-5.03004856e-07 -9.30445651e-07 -3.97821253e-07
-6.74088767e-07 -8.95261735e-07 4.08058355e-07
-3.83446604e-07 -8.24276356e-07 -4.16462626e-07
-4.40518050e-07 -8.08725758e-07 3.36721541e-07
0.00000000e+00 0.00000000e+00 1.20480854e-06
-1.98483463e-07 0.00000000e+00 1.20798745e-06
-2.14536982e-07 -2.18093390e-07 1.17190677e-06
0.00000000e+00 -1.99347738e-07 1.14377337e-06
-4.58677619e-07 0.00000000e+00 1.26075747e-06
-3.96966925e-07 -1.66093301e-07 1.23818711e-06
-6.78698200e-07 0.00000000e+00 1.29699708e-06
-6.79175059e-07 -1.53819713e-07 1.33482615e-06
-9.51508696e-07 0.00000000e+00 1.34404502e-06
-9.45885972e-07 -1.60177549e-07 1.38886764e-06
-1.20510651e-06 0.00000000e+00 1.39840438e-06
-1.25896929e-06 -2.01006728e-07 1.41970315e-06
-1.53398514e-06 0.00000000e+00 1.47883100e-06
-1.53195856e-06 -2.07116202e-07 1.42955776e-06
-1.39633812e-07 -4.30742887e-07 1.02265676e-06
0.00000000e+00 -5.08705796e-07 9.99768531e-07
-3.79153647e-07 -4.42277809e-07 1.11243833e-06
-6.36545849e-07 -4.66918948e-07 1.30818682e-06
-9.30150350e-07 -5.20984315e-07 1.33768719e-06
-1.21680898e-06 -5.15739146e-07 1.37329096e-06
-1.43890577e-06 -5.49197182e-07 1.39363601e-06
-1.00839706e-07 -7.37144831e-07 8.57398618e-07
0.00000000e+00 -6.63399703e-07 7.82330801e-07
-3.38077541e-07 -6.24497716e-07 9.58760552e-07
-1.66302627e-07 -8.77289551e-07 6.23430537e-07
0.00000000e+00 -9.16950398e-07 7.03493754e-07
-3.73681388e-07 -9.54409415e-07 5.46773265e-07
-1.97211904e-07 -1.15358830e-06 7.19785703e-07
0.00000000e+00 -1.15430350e-06 7.98225415e-07
-3.34149320e-07 -1.12097598e-06 6.83012445e-07
-3.37501376e-07 -9.76244564e-07 -1.55131019e-07
-5.19434593e-07 -1.09990435e-06 8.35842570e-07
-1.96297961e-07 -1.44354499e-06 9.18070441e-07
0.00000000e+00 -1.43456452e-06 9.35872379e-07
</DataArray>
<DataArray type="Float32" Name="Spatial_velocity" NumberOfComponents="3" format="ascii">
0.00000000e+00 0.00000000e+00 0.00000000e+00
8.69840878e-05 0.00000000e+00 0.00000000e+00
9.08311631e-05 1.30242450e-04 0.00000000e+00
0.00000000e+00 1.27759966e-04 0.00000000e+00
0.00000000e+00 0.00000000e+00 -1.56990733e-04
8.36370527e-05 0.00000000e+00 -1.61740492e-04
8.56964543e-05 1.23671591e-04 -1.55302725e-04
0.00000000e+00 1.21940109e-04 -1.57594768e-04
1.76334273e-04 0.00000000e+00 0.00000000e+00
1.78466507e-04 1.35344293e-04 0.00000000e+00
1.70855026e-04 0.00000000e+00 -1.63589881e-04
1.73892797e-04 1.26069455e-04 -1.58657422e-04
2.64372677e-04 0.00000000e+00 0.00000000e+00
2.72682402e-04 1.42522273e-04 0.00000000e+00
2.71041616e-04 0.00000000e+00 -1.62590513e-04
2.61390640e-04 1.26103798e-04 -1.70501851e-04
3.76787939e-04 0.00000000e+00 0.00000000e+00
3.55664990e-04 1.45361744e-04 0.00000000e+00
3.80229583e-04 0.00000000e+00 -1.69534978e-04
3.56113043e-04 1.23675898e-04 -1.71691208e-04
4.72099637e-04 0.00000000e+00 0.00000000e+00
4.57696529e-04 1.53354937e-04 0.00000000e+00
4.83686454e-04 0.00000000e+00 -1.69308376e-04
4.70575324e-04 1.26017476e-04 -1.74708723e-04
5.77820523e-04 0.00000000e+00 0.00000000e+00
5.23839088e-04 1.80318282e-04 0.00000000e+00
5.79432701e-04 0.00000000e+00 -1.62301498e-04
5.65418566e-04 1.61102565e-04 -1.81929645e-04
9.59533281e-05 2.40565481e-04 0.00000000e+00
0.00000000e+00 2.37858054e-04 0.00000000e+00
9.03270484e-05 2.32268576e-04 -1.43624216e-04
0.00000000e+00 2.27410070e-04 -1.43625817e-04
1.90184030e-04 2.54829472e-04 0.00000000e+00
1.75800029e-04 2.41281581e-04 -1.48377905e-04
2.68592878e-04 2.67679046e-04 0.00000000e+00
2.56493222e-04 2.50480167e-04 -1.38425428e-04
3.32964963e-04 3.03958688e-04 0.00000000e+00
3.35260120e-04 2.39239132e-04 -1.41644778e-04
3.72045091e-04 2.93018966e-04 0.00000000e+00
3.96630785e-04 2.42845126e-04 -1.31453053e-04
4.26010491e-04 3.48733680e-04 0.00000000e+00
4.65739315e-04 2.89128540e-04 -1.30492030e-04
1.01124169e-04 3.13458237e-04 0.00000000e+00
0.00000000e+00 3.08639341e-04 0.00000000e+00
9.24843553e-05 3.15887475e-04 -1.25358056e-04
0.00000000e+00 3.12653254e-04 -1.18131356e-04
2.10072336e-04 3.15355719e-04 0.00000000e+00
1.94126405e-04 3.16620106e-04 -1.07944514e-04
2.70961260e-04 3.23868502e-04 0.00000000e+00
2.58610526e-04 3.22388019e-04 -2.73055084e-05
2.84654874e-04 3.25753761e-04 0.00000000e+00
2.65794923e-04 3.13423749e-04 1.47931005e-05
3.08786926e-04 3.10506439e-04 0.00000000e+00
3.14696983e-04 2.64165137e-04 3.15572688e-05
3.08389659e-04 3.65416694e-04 0.00000000e+00
3.24815308e-04 3.69408459e-04 7.53742643e-06
1.06863321e-04 3.56786157e-04 0.00000000e+00
0.00000000e+00 3.66811117e-04 0.00000000e+00
9.44763669e-05 3.60107777e-04 -1.10287510e-04
0.00000000e+00 3.71942617e-04 -1.10264242e-04
2.11826860e-04 3.45764594e-04 0.00000000e+00
1.89373299e-04 3.36290686e-04 -8.18474218e-05
2.69516197e-04 3.21308296e-04 0.00000000e+00
2.54220184e-04 3.21629632e-04 -1.43861616e-05
2.62581918e-04 3.27510759e-04 0.00000000e+00
2.62525253e-04 3.27779708e-04 -2.45492004e-07
2.62319256e-04 3.15836631e-04 0.00000000e+00
2.62432179e-04 3.21983534e-04 0.00000000e+00
2.62303394e-04 3.15509213e-04 -3.99155681e-07
2.62377551e-04 3.21847241e-04 -4.06118055e-08
1.04758008e-04 3.94536299e-04 0.00000000e+00
0.00000000e+00 4.14702343e-04 0.00000000e+00
1.01528596e-04 4.09980596e-04 -1.12476293e-04
0.00000000e+00 4.19303484e-04 -1.23333448e-04
2.12249186e-04 3.58505844e-04 0.00000000e+00
1.83133394e-04 3.65248794e-04 -9.80059776e-05
2.56397412e-04 3.22912150e-04 0.00000000e+00
2.43910734e-04 3.36239435e-04 -3.05583853e-05
2.68538774e-04 3.27961956e-04 0.00000000e+00
2.68212432e-04 3.28086026e-04 -2.30684691e-07
2.68440956e-04 3.21979402e-04 0.00000000e+00
2.68400559e-04 3.21893109e-04 2.97804732e-08
2.68509495e-04 3.15786980e-04 0.00000000e+00
2.68518372e-04 3.15759477e-04 1.12712556e-07
1.20508208e-04 4.61101212e-04 0.00000000e+00
0.00000000e+00 4.69489751e-04 0.00000000e+00
1.09661683e-04 4.67676931e-04 -1.39504962e-04
0.00000000e+00 4.83869197e-04 -1.46734819e-04
2.26929042e-04 4.03565908e-04 0.00000000e+00
1.92395280e-04 4.41314711e-04 -1.36672053e-04
2.78765918e-04 3.53101001e-04 0.00000000e+00
2.58913147e-04 3.88630404e-04 -7.79463080e-05
2.75583763e-04 3.28976195e-04 0.00000000e+00
2.74762860e-04 3.28969763e-04 3.19632960e-07
2.74622726e-04 3.21877946e-04 0.00000000e+00
2.74568243e-04 3.21857486e-04 -5.85586246e-09
2.74589052e-04 3.15750221e-04 0.00000000e+00
2.74547026e-04 3.15866724e-04 1.61302172e-09
0.00000000e+00 0.00000000e+00 -3.03500856e-04
7.89165861e-05 0.00000000e+00 -3.11323180e-04
8.00342314e-05 1.06967331e-04 -3.02670960e-04
0.00000000e+00 1.06963809e-04 -3.04688729e-04
1.75465117e-04 0.00000000e+00 -3.19291168e-04
1.59801828e-04 9.84958315e-05 -3.08736606e-04
2.69505341e-04 0.00000000e+00 -3.22481676e-04
2.68734730e-04 1.00262710e-04 -3.28164402e-04
3.85334512e-04 0.00000000e+00 -3.35266232e-04
3.76459415e-04 9.84719154e-05 -3.31529562e-04
5.06893441e-04 0.00000000e+00 -3.40501952e-04
4.93557891e-04 9.99862241e-05 -3.37479258e-04
6.04142668e-04 0.00000000e+00 -3.33869655e-04
6.20937499e-04 1.19166878e-04 -3.43001186e-04
7.57187663e-05 2.08269295e-04 -2.84183858e-04
0.00000000e+00 2.18969304e-04 -2.83085974e-04
1.61535063e-04 2.08925994e-04 -2.93182180e-04
2.45540665e-04 2.10375481e-04 -2.99462845e-04
3.60432314e-04 2.32674647e-04 -3.12780670e-04
4.72677028e-04 2.35320753e-04 -2.99164705e-04
5.61265275e-04 2.60981207e-04 -3.03174660e-04
6.90556408e-05 3.04948248e-04 -2.46471987e-04
0.00000000e+00 3.11283511e-04 -2.43929098e-04
1.39784184e-04 3.08289920e-04 -2.38732071e-04
1.23216043e-04 2.39368324e-04 2.17618981e-05
7.01410827e-05 3.94042087e-04 -2.09203135e-04
0.00000000e+00 3.81535123e-04 -2.22363145e-04
1.60171723e-04 3.51385243e-04 -1.63982506e-04
2.07459409e-04 2.90397991e-04 -7.81377457e-05
9.22674808e-05 4.32518806e-04 -2.26972174e-04
0.00000000e+00 4.48635692e-04 -2.38147317e-04
1.49271917e-04 4.06312232e-04 -1.96750771e-04
2.43350369e-04 3.74502823e-04 -1.46976221e-04
8.63622336e-05 5.14756364e-04 -2.78225169e-04
0.00000000e+00 5.18945162e-04 -2.97200837e-04
1.54924594e-04 5.21885115e-04 -2.76127452e-04
2.64765898e-04 4.89358732e-04 -2.66499585e-04
2.68411794e-04 3.21946398e-04 9.83303181e-08
2.68392847e-04 3.15857033e-04 4.04319209e-08
2.74460763e-04 3.15812882e-04 1.22235491e-07
2.74450344e-04 3.21972650e-04 -7.28268077e-08
0.00000000e+00 0.00000000e+00 -4.46567661e-04
8.56681363e-05 0.00000000e+00 -4.47488215e-04
9.40286700e-05 9.64823485e-05 -4.45559534e-04
0.00000000e+00 9.15340206e-05 -4.41151729e-04
1.91942308e-04 0.00000000e+00 -4.61535034e-04
1.74005676e-04 8.86774869e-05 -4.56612994e-04
2.85641669e-04 0.00000000e+00 -4.78328700e-04
2.87706236e-04 8.69019423e-05 -4.73428285e-04
3.97852156e-04 0.00000000e+00 -4.89846105e-04
4.02998063e-04 8.82713721e-05 -4.93000727e-04
5.23883966e-04 0.00000000e+00 -5.00642112e-04
5.20247384e-04 9.12921387e-05 -5.00982744e-04
6.45424065e-04 0.00000000e+00 -4.99039539e-04
6.37767254e-04 9.90010667e-05 -5.04165306e-04
7.12722249e-05 1.85872967e-04 -4.26326646e-04
0.00000000e+00 2.07955556e-04 -4.22670855e-04
1.83476470e-04 1.95184868e-04 -4.37745766e-04
2.74539227e-04 2.00097275e-04 -4.82797856e-04
3.87825945e-04 2.17768888e-04 -5.00482041e-04
4.94272623e-04 2.13662657e-04 -4.89163620e-04
5.86930139e-04 2.46244599e-04 -4.96244349e-04
7.31069158e-05 3.13489785e-04 -3.75500880e-04
0.00000000e+00 3.09479656e-04 -3.73116956e-04
1.66570200e-04 2.75345170e-04 -3.99887154e-04
7.74303553e-05 3.94955918e-04 -3.20094201e-04
0.00000000e+00 4.08260967e-04 -3.40733997e-04
1.65625228e-04 3.95817828e-04 -2.75219238e-04
7.52029810e-05 5.01080765e-04 -3.53735872e-04
0.00000000e+00 4.93389845e-04 -3.63954925e-04
1.56404727e-04 4.84749326e-04 -3.23258428e-04
1.91145387e-04 5.23533206e-04 4.04111306e-05
2.14400323e-04 4.76763438e-04 -3.65106534e-04
8.32339792e-05 5.83737739e-04 -4.23874357e-04
0.00000000e+00 5.95498597e-04 -4.35163762e-04
</DataArray>
<DataArray type="Float32" Name="Reaction_force" NumberOfComponents="3" format="ascii">
5.22712827e-01 -2.63261646e-01 8.57564545e+00
0.00000000e+00 -7.09599316e-01 1.74511204e+01
0.00000000e+00 0.00000000e+00 3.35218124e+01
6.04373932e-01 0.00000000e+00 1.68370018e+01
1.02719963e+00 -5.71128607e-01 0.00000000e+00
0.00000000e+00 -1.05033016e+00 0.00000000e+00
0.00000000e+00 0.00000000e+00 0.00000000e+00
1.14396167e+00 0.00000000e+00 0.00000000e+00
0.00000000e+00 -8.91612947e-01 1.76448402e+01
0.00000000e+00 0.00000000e+00 3.49375992e+01
0.00000000e+00 -7.22650111e-01 0.00000000e+00
0.00000000e+00 0.00000000e+00 0.00000000e+00
0.00000000e+00 -6.43046975e-01 1.87153625e+01
0.00000000e+00 0.00000000e+00 3.45263519e+01
0.00000000e+00 -2.75954068e-01 0.00000000e+00
0.00000000e+00 0.00000000e+00 0.00000000e+00
0.00000000e+00 -8.59723032e-01 1.85356770e+01
0.00000000e+00 0.00000000e+00 3.39609451e+01
0.00000000e+00 -5.47997177e-01 0.00000000e+00
0.00000000e+00 0.00000000e+00 0.00000000e+00
0.00000000e+00 -1.38130963e+00 1.65647526e+01
0.00000000e+00 0.00000000e+00 3.07100105e+01
0.00000000e+00 -1.87610590e+00 0.00000000e+00
0.00000000e+00 0.00000000e+00 0.00000000e+00
0.00000000e+00 -2.36084437e+00 1.02378054e+01
0.00000000e+00 0.00000000e+00 1.88993950e+01
0.00000000e+00 -3.17026281e+00 0.00000000e+00
0.00000000e+00 0.00000000e+00 0.00000000e+00
0.00000000e+00 0.00000000e+00 3.13246536e+01
-4.03953850e-01 0.00000000e+00 1.55205612e+01
0.00000000e+00 0.00000000e+00 0.00000000e+00
-1.47882670e-01 0.00000000e+00 0.00000000e+00
0.00000000e+00 0.00000000e+00 2.84446640e+01
0.00000000e+00 0.00000000e+00 0.00000000e+00
0.00000000e+00 0.00000000e+00 2.30793724e+01
0.00000000e+00 0.00000000e+00 0.00000000e+00
0.00000000e+00 0.00000000e+00 1.86558113e+01
0.00000000e+00 0.00000000e+00 0.00000000e+00
0.00000000e+00 0.00000000e+00 1.87267990e+01
0.00000000e+00 0.00000000e+00 0.00000000e+00
0.00000000e+00 0.00000000e+00 1.50542908e+01
0.00000000e+00 0.00000000e+00 0.00000000e+00
0.00000000e+00 0.00000000e+00 2.81512299e+01
-1.09380901e+00 0.00000000e+00 1.44690304e+01
0.00000000e+00 0.00000000e+00 0.00000000e+00
-1.49827719e+00 0.00000000e+00 0.00000000e+00
0.00000000e+00 0.00000000e+00 2.09159946e+01
0.00000000e+00 0.00000000e+00 0.00000000e+00
0.00000000e+00 0.00000000e+00 1.23887882e+01
0.00000000e+00 0.00000000e+00 0.00000000e+00
0.00000000e+00 0.00000000e+00 4.58939695e+00
0.00000000e+00 0.00000000e+00 0.00000000e+00
0.00000000e+00 0.00000000e+00 3.73762608e+00
0.00000000e+00 0.00000000e+00 0.00000000e+00
0.00000000e+00 0.00000000e+00 3.12235665e+00
0.00000000e+00 0.00000000e+00 0.00000000e+00
0.00000000e+00 0.00000000e+00 2.63280334e+01
-1.79027295e+00 0.00000000e+00 1.43387470e+01
0.00000000e+00 0.00000000e+00 0.00000000e+00
-3.02619410e+00 0.00000000e+00 0.00000000e+00
0.00000000e+00 0.00000000e+00 1.97185917e+01
0.00000000e+00 0.00000000e+00 0.00000000e+00
0.00000000e+00 0.00000000e+00 1.03816452e+01
0.00000000e+00 0.00000000e+00 0.00000000e+00
0.00000000e+00 0.00000000e+00 3.76362801e-01
0.00000000e+00 0.00000000e+00 0.00000000e+00
0.00000000e+00 0.00000000e+00 -2.21913719e+00
0.00000000e+00 0.00000000e+00 -3.50040102e+00
0.00000000e+00 0.00000000e+00 0.00000000e+00
0.00000000e+00 0.00000000e+00 0.00000000e+00
0.00000000e+00 0.00000000e+00 2.71968880e+01
-2.38232946e+00 0.00000000e+00 1.39816589e+01
0.00000000e+00 0.00000000e+00 0.00000000e+00
-3.48476458e+00 0.00000000e+00 0.00000000e+00
0.00000000e+00 0.00000000e+00 2.28951511e+01
0.00000000e+00 0.00000000e+00 0.00000000e+00
0.00000000e+00 0.00000000e+00 1.74875183e+01
0.00000000e+00 0.00000000e+00 0.00000000e+00
0.00000000e+00 0.00000000e+00 7.02396393e+00
0.00000000e+00 0.00000000e+00 0.00000000e+00
0.00000000e+00 0.00000000e+00 -4.29893446e+00
0.00000000e+00 0.00000000e+00 0.00000000e+00
0.00000000e+00 0.00000000e+00 1.90488052e+00
0.00000000e+00 0.00000000e+00 0.00000000e+00
0.00000000e+00 0.00000000e+00 1.71239834e+01
-1.94361389e+00 0.00000000e+00 8.36162853e+00
0.00000000e+00 0.00000000e+00 0.00000000e+00
-3.39034796e+00 0.00000000e+00 0.00000000e+00
0.00000000e+00 0.00000000e+00 1.78754406e+01
0.00000000e+00 0.00000000e+00 0.00000000e+00
0.00000000e+00 0.00000000e+00 1.37401447e+01
0.00000000e+00 0.00000000e+00 0.00000000e+00
0.00000000e+00 0.00000000e+00 6.36187935e+00
0.00000000e+00 0.00000000e+00 0.00000000e+00
0.00000000e+00 0.00000000e+00 -3.02929854e+00
0.00000000e+00 0.00000000e+00 0.00000000e+00
0.00000000e+00 0.00000000e+00 3.95201147e-01
0.00000000e+00 0.00000000e+00 0.00000000e+00
4.34785664e-01 -6.79529071e-01 0.00000000e+00
0.00000000e+00 -1.16170526e-01 0.00000000e+00
0.00000000e+00 0.00000000e+00 0.00000000e+00
1.54057026e+00 0.00000000e+00 0.00000000e+00
0.00000000e+00 7.02826917e-01 0.00000000e+00
0.00000000e+00 0.00000000e+00 0.00000000e+00
0.00000000e+00 1.25862420e+00 0.00000000e+00
0.00000000e+00 0.00000000e+00 0.00000000e+00
0.00000000e+00 1.80760241e+00 0.00000000e+00
0.00000000e+00 0.00000000e+00 0.00000000e+00
0.00000000e+00 -1.12759650e-01 0.00000000e+00
0.00000000e+00 0.00000000e+00 0.00000000e+00
0.00000000e+00 -9.62457120e-01 0.00000000e+00
0.00000000e+00 0.00000000e+00 0.00000000e+00
0.00000000e+00 0.00000000e+00 0.00000000e+00
6.28027797e-01 0.00000000e+00 0.00000000e+00
0.00000000e+00 0.00000000e+00 0.00000000e+00
0.00000000e+00 0.00000000e+00 0.00000000e+00
0.00000000e+00 0.00000000e+00 0.00000000e+00
0.00000000e+00 0.00000000e+00 0.00000000e+00
0.00000000e+00 0.00000000e+00 0.00000000e+00
0.00000000e+00 0.00000000e+00 0.00000000e+00
-7.65703976e-01 0.00000000e+00 0.00000000e+00
0.00000000e+00 0.00000000e+00 0.00000000e+00
0.00000000e+00 0.00000000e+00 0.00000000e+00
0.00000000e+00 0.00000000e+00 0.00000000e+00
-9.29597259e-01 0.00000000e+00 0.00000000e+00
0.00000000e+00 0.00000000e+00 0.00000000e+00
0.00000000e+00 0.00000000e+00 0.00000000e+00
0.00000000e+00 0.00000000e+00 0.00000000e+00
-1.30925393e+00 0.00000000e+00 0.00000000e+00
0.00000000e+00 0.00000000e+00 0.00000000e+00
0.00000000e+00 0.00000000e+00 0.00000000e+00
0.00000000e+00 0.00000000e+00 0.00000000e+00
-1.82260633e+00 0.00000000e+00 0.00000000e+00
0.00000000e+00 0.00000000e+00 0.00000000e+00
0.00000000e+00 0.00000000e+00 0.00000000e+00
0.00000000e+00 0.00000000e+00 0.00000000e+00
0.00000000e+00 0.00000000e+00 0.00000000e+00
0.00000000e+00 0.00000000e+00 0.00000000e+00
0.00000000e+00 0.00000000e+00 0.00000000e+00
-2.28839666e-02 -2.49012962e-01 0.00000000e+00
0.00000000e+00 7.82914400e-01 0.00000000e+00
0.00000000e+00 0.00000000e+00 0.00000000e+00
1.64536071e+00 0.00000000e+00 0.00000000e+00
0.00000000e+00 1.49828470e+00 0.00000000e+00
0.00000000e+00 0.00000000e+00 0.00000000e+00
0.00000000e+00 2.08170247e+00 0.00000000e+00
0.00000000e+00 0.00000000e+00 0.00000000e+00
0.00000000e+00 3.03222418e+00 0.00000000e+00
0.00000000e+00 0.00000000e+00 0.00000000e+00
0.00000000e+00 1.56269622e+00 0.00000000e+00
0.00000000e+00 0.00000000e+00 0.00000000e+00
0.00000000e+00 3.76257896e-01 0.00000000e+00
0.00000000e+00 0.00000000e+00 0.00000000e+00
0.00000000e+00 0.00000000e+00 0.00000000e+00
1.47077882e+00 0.00000000e+00 0.00000000e+00
0.00000000e+00 0.00000000e+00 0.00000000e+00
0.00000000e+00 0.00000000e+00 0.00000000e+00
0.00000000e+00 0.00000000e+00 0.00000000e+00
0.00000000e+00 0.00000000e+00 0.00000000e+00
0.00000000e+00 0.00000000e+00 0.00000000e+00
0.00000000e+00 0.00000000e+00 0.00000000e+00
4.27619368e-02 0.00000000e+00 0.00000000e+00
0.00000000e+00 0.00000000e+00 0.00000000e+00
0.00000000e+00 0.00000000e+00 0.00000000e+00
7.83883393e-01 0.00000000e+00 0.00000000e+00
0.00000000e+00 0.00000000e+00 0.00000000e+00
0.00000000e+00 0.00000000e+00 0.00000000e+00
5.23851693e-01 0.00000000e+00 0.00000000e+00
0.00000000e+00 0.00000000e+00 0.00000000e+00
0.00000000e+00 0.00000000e+00 0.00000000e+00
0.00000000e+00 0.00000000e+00 0.00000000e+00
0.00000000e+00 0.00000000e+00 0.00000000e+00
-5.80356240e-01 0.00000000e+00 0.00000000e+00
</DataArray>
<DataArray type="Float32" Name="Equivalent_plastic_strain" format="ascii">
7.83366710e-02
8.17198455e-02
7.67445061e-02
7.48151205e-02
7.50487074e-02
7.77592007e-02
7.42571596e-02
7.27957133e-02
8.83948281e-02
8.29507858e-02
8.30283277e-02
7.97817940e-02
9.68471542e-02
9.42579489e-02
8.97535644e-02
8.78381152e-02
1.05652932e-01
1.01086028e-01
9.70101412e-02
9.29477327e-02
1.14427131e-01
1.09850891e-01
1.02472434e-01
9.94968088e-02
1.25441656e-01
1.23560466e-01
1.10945888e-01
1.07671108e-01
6.52910648e-02
6.45503271e-02
6.51891255e-02
6.32412136e-02
6.45735888e-02
6.78351093e-02
4.67904906e-02
6.55802632e-02
5.08283786e-02
6.41324557e-02
3.51940179e-02
6.16004113e-02
3.65175242e-02
7.17898831e-02
5.33529958e-02
5.36901504e-02
5.31842108e-02
5.24805374e-02
4.10864400e-02
4.14935335e-02
5.70174353e-03
7.32516109e-03
-1.66530084e-03
2.19496981e-02
-2.17500639e-03
1.76874430e-02
2.66124494e-03
2.33248211e-02
4.72892327e-02
5.04677724e-02
4.47038887e-02
4.76357685e-02
3.27784829e-02
3.25524721e-02
7.47270853e-03
1.35625348e-02
2.58700975e-05
2.30360138e-03
8.58618971e-03
2.34820147e-03
7.21051963e-03
3.76848693e-03
4.94269636e-02
5.35648502e-02
4.59405421e-02
4.99961739e-02
3.60640544e-02
3.42285279e-02
5.79674123e-03
2.62233822e-02
-6.27841719e-05
1.76482960e-03
-4.49018836e-05
-3.13286582e-06
0.00000000e+00
0.00000000e+00
5.76991066e-02
6.14585914e-02
5.41770384e-02
5.87069280e-02
4.58183009e-02
5.21014994e-02
1.92030086e-02
3.82035120e-02
-1.37339113e-04
5.77566597e-03
1.11031572e-04
-2.86005234e-05
0.00000000e+00
0.00000000e+00
7.09392205e-02
7.12816883e-02
6.95436113e-02
6.93554487e-02
7.26123098e-02
7.36062396e-02
7.70956706e-02
7.67296352e-02
8.15660655e-02
8.77554892e-02
8.32220446e-02
8.97215707e-02
8.41131769e-02
9.01468731e-02
6.53136987e-02
6.41490100e-02
7.31762334e-02
9.49761227e-02
1.02479327e-01
1.04990251e-01
1.06338050e-01
5.46096307e-02
5.26363077e-02
6.36635063e-02
4.90664560e-02
4.17684079e-02
4.36503030e-02
3.41802067e-02
1.19394666e-02
4.51149521e-02
4.53469874e-02
4.51723524e-02
7.29346601e-02
5.26351808e-02
5.21104559e-02
6.27804650e-02
9.33741815e-02
0.00000000e+00
0.00000000e+00
0.00000000e+00
0.00000000e+00
7.19173588e-02
7.15111680e-02
7.10725924e-02
7.13664796e-02
7.01775681e-02
7.31862783e-02
7.04497695e-02
7.30398023e-02
7.05742389e-02
8.16893391e-02
6.90865703e-02
7.96117568e-02
6.73274659e-02
7.63125233e-02
7.34363813e-02
6.99132998e-02
7.68330001e-02
1.02235897e-01
1.02357270e-01
9.86898094e-02
9.50197056e-02
6.96759740e-02
6.25981633e-02
9.79358647e-02
5.22793345e-02
5.53392768e-02
7.32264780e-02
3.42935787e-02
5.76600870e-02
4.83140206e-02
6.46714568e-02
1.10899024e-01
7.46496497e-02
5.83642535e-02
</DataArray>
<DataArray type="Float32" Name="Stress_Mises" format="ascii">
3.14147816e+01
3.61272907e+01
3.29434357e+01
3.29069033e+01
2.95224323e+01
3.36240187e+01
3.14679564e+01
3.26778145e+01
3.91708698e+01
4.11826043e+01
3.52325149e+01
3.60344666e+01
4.38026142e+01
4.82132816e+01
3.63620596e+01
4.06516809e+01
4.84542570e+01
5.48471136e+01
3.90028625e+01
3.11070257e+01
4.87798424e+01
4.22996571e+01
3.46604332e+01
3.28312103e+01
7.64799576e+01
8.08202972e+01
5.47794113e+01
5.34828649e+01
3.22214715e+01
2.99651060e+01
3.13359366e+01
2.72945344e+01
3.66166055e+01
3.38343905e+01
2.82742658e+01
3.53856247e+01
2.92815461e+01
5.28206965e+01
2.33423781e+01
4.75680580e+01
4.78566418e+01
8.24330324e+01
3.27093525e+01
2.58850741e+01
2.98834304e+01
2.34737988e+01
3.52579832e+01
2.82537957e+01
1.66576563e+01
2.26554835e+01
1.62615102e+01
3.15896454e+01
9.73506212e+00
2.57378101e+01
2.72957582e+01
3.14641199e+01
3.13869538e+01
3.12800493e+01
2.54725147e+01
2.73867955e+01
2.21205837e+01
2.18644788e+01
1.90250437e+01
1.99926408e+01
1.50488472e+01
2.26848927e+01
3.22007408e+01
8.63563029e+00
3.16106892e+01
2.10404577e+01
3.08436620e+01
3.22040043e+01
2.25317901e+01
2.81612997e+01
2.27964579e+01
2.63213863e+01
2.32170113e+01
3.69282188e+01
1.52396939e+01
2.29638963e+01
1.15431653e+01
8.49233494e+00
1.01826715e+01
7.41729005e+00
5.38519650e+01
5.29567909e+01
4.17197728e+01
5.16208210e+01
6.26349411e+01
4.51127940e+01
4.62934427e+01
6.81105410e+01
1.51270247e+01
3.64238901e+01
1.86938639e+01
1.43695415e+01
4.78884125e+00
5.29905629e+00
3.05700998e+01
2.97657399e+01
2.64851457e+01
3.09786072e+01
2.48126066e+01
2.52870240e+01
2.57900765e+01
3.00050113e+01
2.62772779e+01
2.63694553e+01
2.00943102e+01
2.59923125e+01
1.96075144e+01
2.42564242e+01
2.40093945e+01
2.97760186e+01
4.24304885e+01
9.12359947e+01
7.24992857e+01
6.97759457e+01
7.31227341e+01
2.90183289e+01
1.83511409e+01
6.29582891e+01
3.09455462e+01
1.60148518e+01
1.44808145e+01
1.87790130e+01
1.75126979e+01
1.83595311e+01
1.88925878e+01
2.78800305e+01
5.43535436e+01
3.17376674e+01
3.51892767e+01
5.86234493e+01
1.21547997e+02
1.64685154e+00
1.30725873e+00
2.07079279e+00
2.93359709e+00
2.90189638e+01
2.87780294e+01
2.38665541e+01
2.81200542e+01
2.37830029e+01
2.45778906e+01
2.27258594e+01
2.60048540e+01
2.05538593e+01
2.65576616e+01
1.65605912e+01
2.98685744e+01
1.26995826e+01
2.41145655e+01
2.54249364e+01
2.48242350e+01
4.05989001e+01
1.09150816e+02
8.29170084e+01
6.42716045e+01
5.26997032e+01
2.75680114e+01
2.68566561e+01
1.34539791e+02
2.31266098e+01
1.52642010e+01
8.13855190e+01
2.20366139e+01
2.21855893e+01
3.75277424e+01
4.74216957e+01
1.13751417e+02
2.46185527e+01
3.22928998e+01
</DataArray>
<DataArray type="Float32" Name="Stress_Max_Principal" format="ascii">
7.93899119e-01
-2.92305446e+00
-9.51057941e-01
-1.11389637e+00
2.27428303e+00
-1.02758551e+00
2.60006219e-01
-8.20807338e-01
-5.21283340e+00
-7.08707142e+00
-2.64793168e+00
-3.23855770e+00
-8.92531312e+00
-1.24083962e+01
-4.15760136e+00
-6.72004050e+00
-1.29972701e+01
-1.56818371e+01
-6.08146310e+00
6.60462469e-01
-1.25396931e+01
-4.29602128e+00
-6.19305015e-01
6.96149355e+00
-3.15241814e+01
-3.12994404e+01
-1.68253770e+01
-1.49704559e+01
-3.11599970e-01
1.34322977e+00
-2.62707442e-01
2.83270395e+00
-2.62336564e+00
-7.92657398e-01
2.44759932e+01
1.18155996e+01
3.45229420e+01
4.60553948e+00
3.34274509e+01
6.74924080e+00
2.78663440e+01
-7.87676366e+00
1.65553924e+00
5.90621877e+00
3.28865200e+00
6.98055845e+00
3.09467406e+01
1.67868445e+01
3.58442109e+01
4.41303297e+01
3.63842284e+01
5.73586013e+01
4.39571946e+01
5.40409133e+01
3.26468723e+01
5.45267954e+01
3.78230208e+00
2.75549138e+00
7.42114791e+00
5.05313796e+00
1.35543853e+01
2.09925946e+01
3.30884173e+01
3.95761953e+01
2.68294048e+01
2.03782355e+01
1.53600335e+00
1.63929978e+01
7.75501537e+00
1.67860088e+01
3.81007621e+00
2.07452250e+00
9.55717126e+00
4.60962939e+00
1.30893998e+01
1.40245428e+01
2.57187285e+01
2.76393039e+01
2.46685457e+01
1.96597443e+01
8.19368887e+00
6.54285951e+00
2.98564756e+00
1.21425929e+00
-1.47976065e+01
-1.35053263e+01
-6.39267379e+00
-1.40734124e+01
-2.01697412e+01
-8.47063655e+00
3.49115963e+01
-2.06118638e+01
2.47977157e+01
8.68377399e+00
8.65191841e+00
7.84286626e+00
4.33132887e-01
1.41738412e+00
1.07071948e+00
1.25098073e+00
4.25440318e+00
8.94235671e-01
5.33811392e+00
5.73594841e+00
4.13321942e+00
1.03268088e+01
4.24781215e+00
5.31930166e+00
9.55478978e+00
4.74934861e+00
9.86245871e+00
6.66346002e+00
6.94981444e+00
1.81949526e+00
-6.24892374e+00
-4.38669358e+01
-3.41086841e+01
-3.06508001e+01
-3.12783194e+01
2.23676712e+01
1.05087342e+01
-2.15613685e+01
6.16140957e+01
1.46789736e+01
1.44962620e+01
3.66587674e+01
3.10264416e+01
1.66588171e+01
1.09981547e+01
6.36392856e+00
-1.30990579e+01
1.83028728e-01
-3.08180728e+00
1.21509333e+01
-7.35888882e+01
9.08910722e-01
7.05994993e-01
1.05448905e+00
1.73454499e+00
1.25038457e+00
1.80937701e+00
6.28872333e+00
2.58428681e+00
6.43895483e+00
7.75183876e+00
7.01625893e+00
1.46020790e+01
9.29135865e+00
4.51320875e+00
1.25140991e+01
1.24210356e+01
1.54787817e+01
2.28850466e+01
6.21431458e+00
6.75048327e+00
2.39860534e+01
-6.35411720e+01
-4.26182828e+01
-2.66035881e+01
-1.52983303e+01
4.74127122e+00
1.98021631e+01
-7.85504332e+01
3.15717800e+01
1.36976746e+01
-3.86268947e+01
2.32847618e+01
1.90242640e+01
3.92049531e+01
6.51337051e+01
-5.54465785e+01
1.26037549e+01
6.40641975e+00
</DataArray>
<DataArray type="Float32" Name="Stress_Mid_Principal" format="ascii">
-3.35498524e+00
-7.75027366e+00
-4.17140305e+00
-3.92792153e+00
-1.55798674e+00
-5.30697072e+00
-2.83439921e+00
-3.82913625e+00
-1.07071606e+01
-1.22375357e+01
-6.33680236e+00
-7.11522815e+00
-1.48632393e+01
-1.88777266e+01
-6.70355999e+00
-1.15451327e+01
-1.87652240e+01
-2.71833664e+01
-9.32872725e+00
-2.34908313e+00
-1.98177592e+01
-1.47399837e+01
-3.55197799e+00
1.84133589e-01
-4.88453674e+01
-5.72795315e+01
-2.57919111e+01
-2.51604371e+01
-3.50356495e+00
-1.26438999e+00
-1.92928923e+00
1.91148686e+00
-8.76128745e+00
-4.85088837e+00
1.41263944e+01
3.41551277e+00
2.12020845e+01
-1.55297771e+01
2.41676476e+01
-8.59380174e+00
3.35096359e+00
-3.91198018e+01
-6.73639202e+00
1.02523565e+00
-2.99303496e+00
4.25640464e+00
1.32724351e+01
4.30085373e+00
2.49125013e+01
2.81342520e+01
2.66689669e+01
3.16805334e+01
3.64572595e+01
3.19904927e+01
1.99774857e+01
3.67322173e+01
-6.83656608e+00
-5.43082666e+00
4.31039348e-01
-6.24786347e-01
3.26796293e+00
1.04533684e+01
2.49279336e+01
2.87929584e+01
2.07751538e+01
6.71695932e+00
-1.13336935e+01
1.07665111e+01
-1.73699683e+00
-8.00840219e-01
-5.84380317e+00
-6.31807232e+00
3.80725470e+00
-1.73992729e+00
3.67988801e+00
4.77840968e+00
1.44767339e+01
7.67200692e+00
1.45396357e+01
4.28355122e+00
3.10900739e+00
7.32096806e-01
-1.42664176e+00
3.24127207e-01
-2.65359068e+01
-2.65402107e+01
-1.36806392e+01
-2.32378721e+01
-3.52880945e+01
-1.62046292e+01
1.07012405e+01
-3.88231218e+01
2.27759225e+01
-1.16928978e+01
4.65297174e+00
3.02367924e+00
-4.33786154e-01
9.79021192e-02
-2.07788801e+00
-8.20028707e-01
1.79148207e+00
-2.62165242e+00
3.71849567e+00
3.31924389e+00
3.17071086e+00
5.44442299e+00
2.22693533e+00
2.99506700e+00
7.60319428e+00
2.88900003e+00
8.35412693e+00
3.59994960e+00
4.62820305e+00
-1.44711438e+00
-1.08295191e+01
-5.87057306e+01
-3.86864271e+01
-3.73882217e+01
-4.29158878e+01
1.34790798e+01
9.63889790e+00
-2.87317698e+01
3.45268116e+01
1.10315728e+01
1.29635483e+01
2.60087850e+01
2.25385157e+01
1.20556391e+01
8.35902834e+00
-1.10993791e+00
-1.84272461e+01
-1.84007578e+00
-5.50947726e+00
-7.02792454e+00
-8.14251289e+01
-3.46544411e-01
-3.57564315e-01
-1.11341044e-01
-6.05041146e-01
5.12018442e-01
3.61736089e-01
4.40307095e+00
7.69575708e-01
4.33202571e+00
4.66824429e+00
5.51461786e+00
8.92426583e+00
6.97706981e+00
1.76269048e+00
1.05737491e+01
6.10474205e+00
1.43907213e+01
1.58952736e+01
1.81590068e+00
2.30141139e+00
1.13000172e+01
-7.37007172e+01
-4.79863253e+01
-3.20701365e+01
-2.37808580e+01
-1.00078923e-02
1.19983120e+01
-9.93958941e+01
2.17550325e+01
1.22766916e+01
-4.69501142e+01
1.63139479e+01
1.39325942e+01
2.04767500e+01
2.19491081e+01
-7.29398206e+01
9.51845911e+00
1.47063446e+00
</DataArray>
<DataArray type="Float32" Name="Stress_Min_Principal" format="ascii">
-3.24891701e+01
-4.12210226e+01
-3.53762858e+01
-3.53287811e+01
-2.89770651e+01
-3.65857749e+01
-3.26348372e+01
-3.48895316e+01
-4.68407888e+01
-5.05991215e+01
-3.95738029e+01
-4.10512810e+01
-5.53762646e+01
-6.35198040e+01
-4.17229016e+01
-4.95676290e+01
-6.40706577e+01
-7.53387489e+01
-4.66061896e+01
-3.18330233e+01
-6.45454178e+01
-5.07246957e+01
-3.64819236e+01
-2.79613611e+01
-1.15179214e+02
-1.21876751e+02
-7.55347443e+01
-7.27974397e+01
-3.40048671e+01
-2.98327146e+01
-3.23938298e+01
-2.49094180e+01
-4.19006226e+01
-3.63806738e+01
-5.69096708e+00
-2.55262293e+01
2.49605465e+00
-5.38359367e+01
8.13193583e+00
-4.51800715e+01
-2.66101246e+01
-9.97501017e+01
-3.43924520e+01
-2.20685443e+01
-2.91529957e+01
-1.77123629e+01
-7.71869087e+00
-1.49029894e+01
1.73089719e+01
1.96228534e+01
1.81663267e+01
2.21581198e+01
3.31906268e+01
2.59668779e+01
1.81918716e+00
1.90817699e+01
-3.15318520e+01
-3.17954979e+01
-2.07966298e+01
-2.47191055e+01
-1.16753047e+01
-3.84127063e+00
1.16850053e+01
1.73516484e+01
9.81909569e+00
-5.22981189e+00
-3.37476425e+01
6.48744472e+00
-2.73713045e+01
-6.29229049e+00
-3.06209960e+01
-3.34895978e+01
-1.52507786e+01
-2.61668781e+01
-1.25898879e+01
-1.49967655e+01
-6.95667744e-01
-1.34905200e+01
7.56997752e+00
-5.69704735e+00
-4.85638496e+00
-2.84119202e+00
-8.56265140e+00
-6.55957297e+00
-7.35477562e+01
-7.17624130e+01
-5.12562084e+01
-6.96621323e+01
-8.89096546e+01
-5.68112988e+01
-1.66572819e+01
-9.54952081e+01
8.80453014e+00
-3.29240422e+01
-1.11987615e+01
-8.21236451e+00
-4.72994995e+00
-4.40901029e+00
-3.09517994e+01
-2.94841652e+01
-2.33751717e+01
-3.16910777e+01
-2.02414761e+01
-2.06115451e+01
-2.21197112e+01
-2.04014799e+01
-2.29796762e+01
-2.19630045e+01
-1.14287893e+01
-2.21116570e+01
-1.04554687e+01
-1.89569794e+01
-1.80276874e+01
-2.94444076e+01
-5.07668691e+01
-1.41091509e+02
-1.08785532e+02
-1.03539127e+02
-1.09519745e+02
-8.05811530e+00
-8.24822545e+00
-8.77838803e+01
2.78912716e+01
-2.74449492e+00
-6.24147385e-01
1.63159397e+01
1.13127076e+01
-3.17849491e+00
-9.06636405e+00
-2.43174467e+01
-6.98846478e+01
-3.24319386e+01
-3.94211655e+01
-5.03940201e+01
-1.98859055e+02
-9.55643445e-01
-7.41662502e-01
-1.33637664e+00
-1.52286777e+00
-2.81302781e+01
-2.76644913e+01
-1.84416590e+01
-2.63877208e+01
-1.83237655e+01
-1.79651765e+01
-1.64148405e+01
-1.23366349e+01
-1.23066888e+01
-2.32896041e+01
-4.92981666e+00
-1.87377913e+01
2.27714682e+00
-2.21833086e+00
-2.10793966e+01
-1.99859035e+01
-1.82790339e+01
-1.77093663e+02
-1.28080355e+02
-9.34318142e+01
-7.17247009e+01
-2.48196937e+01
-8.36119008e+00
-2.22268436e+02
7.64686530e+00
-2.22116351e+00
-1.23709162e+02
4.29075956e-02
-4.11481309e+00
-1.33676706e+00
1.43843288e+01
-1.76635967e+02
-1.26108818e+01
-2.72217236e+01
</DataArray>
<DataArray type="Float32" Name="Stress_Pressure" format="ascii">
1.16834192e+01
1.72981172e+01
1.34995819e+01
1.34568663e+01
9.42025614e+00
1.43067766e+01
1.17364104e+01
1.31798248e+01
2.09202609e+01
2.33079093e+01
1.61861792e+01
1.71350217e+01
2.63882723e+01
3.16019750e+01
1.75280211e+01
2.26109344e+01
3.19443836e+01
3.94013188e+01
2.06721272e+01
1.11738810e+01
3.23009577e+01
2.32535660e+01
1.35510693e+01
6.93857777e+00
6.51829224e+01
7.01519089e+01
3.93840117e+01
3.76427789e+01
1.26066774e+01
9.91795826e+00
1.15286091e+01
6.72174215e+00
1.77617580e+01
1.40080734e+01
-1.09704732e+01
3.43170575e+00
-1.94070265e+01
2.15867249e+01
-2.19090114e+01
1.56748768e+01
-1.53572655e+00
4.89155528e+01
1.31577684e+01
5.04569721e+00
9.61912599e+00
2.15846682e+00
-1.21668280e+01
-2.06156963e+00
-2.60218952e+01
-3.06291448e+01
-2.70731738e+01
-3.70657519e+01
-3.78683599e+01
-3.73327608e+01
-1.81478477e+01
-3.67802610e+01
1.15287050e+01
1.14902773e+01
4.31481427e+00
6.76358470e+00
-1.71568108e+00
-9.20156431e+00
-2.32337844e+01
-2.85736008e+01
-1.91412185e+01
-7.28846105e+00
1.45151114e+01
-1.12156514e+01
7.11776221e+00
-3.23095942e+00
1.08849074e+01
1.25777162e+01
6.28784090e-01
7.76572537e+00
-1.39313328e+00
-1.26872832e+00
-1.31665988e+01
-7.27359676e+00
-1.55927193e+01
-6.08208281e+00
-2.14877033e+00
-1.47792147e+00
2.33454871e+00
1.67372880e+00
3.82937565e+01
3.72693176e+01
2.37765067e+01
3.56578064e+01
4.81224957e+01
2.71621876e+01
-9.65185165e+00
5.16433992e+01
-1.87927234e+01
1.19777221e+01
-7.02042758e-01
-8.84727041e-01
1.57686782e+00
9.64574695e-01
1.06529892e+01
9.68440437e+00
5.77642904e+00
1.11394982e+01
3.72828883e+00
3.85211727e+00
4.93859369e+00
1.54341561e+00
5.50164310e+00
4.54954553e+00
-1.90973079e+00
4.82443605e+00
-2.58703899e+00
2.89785600e+00
2.14988980e+00
9.69067538e+00
2.26151042e+01
8.12213924e+01
6.05268793e+01
5.71927171e+01
6.12379856e+01
-9.26287919e+00
-3.96646893e+00
4.60256728e+01
-4.13440590e+01
-7.65535056e+00
-8.94522071e+00
-2.63278305e+01
-2.16258878e+01
-8.51198721e+00
-3.43027306e+00
6.35448569e+00
3.38036494e+01
1.13629949e+01
1.60041494e+01
1.50903368e+01
1.17957691e+02
1.31092381e-01
1.31077264e-01
1.31076228e-01
1.31121326e-01
8.78929192e+00
8.49779260e+00
2.58328818e+00
7.67795277e+00
2.51759517e+00
1.84836477e+00
1.29465455e+00
-3.72990292e+00
-1.32058001e+00
5.67123473e+00
-6.05267709e+00
7.06710815e-02
-1.07155505e+01
-1.21873299e+01
4.34972754e+00
3.64466953e+00
-5.66901193e+00
1.04778519e+02
7.28949852e+01
5.07018471e+01
3.69346304e+01
6.69614349e+00
-7.81309515e+00
1.33404921e+02
-2.03245595e+01
-7.91773415e+00
6.97620566e+01
-1.32138727e+01
-9.61401525e+00
-1.94483109e+01
-3.38223801e+01
1.01674123e+02
-3.17044425e+00
6.44822311e+00
</DataArray>
<DataArray type="Float32" Name="Stress_Tresca" format="ascii">
3.32830696e+01
3.82979679e+01
3.44252281e+01
3.42148848e+01
3.12513475e+01
3.55581908e+01
3.28948433e+01
3.40687242e+01
4.16279554e+01
4.35120497e+01
3.69258709e+01
3.78127232e+01
4.64509525e+01
5.11114068e+01
3.75653000e+01
4.28475888e+01
5.10733871e+01
5.96569109e+01
4.05247264e+01
3.24934859e+01
5.20057259e+01
4.64286737e+01
3.58626189e+01
3.49228544e+01
8.36550293e+01
9.05773125e+01
5.87093658e+01
5.78269832e+01
3.36932666e+01
3.11759453e+01
3.21311225e+01
2.77421219e+01
3.92772565e+01
3.55880163e+01
3.01669602e+01
3.73418290e+01
3.20268869e+01
5.84414768e+01
2.52955151e+01
5.19293118e+01
5.44764690e+01
9.18733393e+01
3.60479913e+01
2.79747639e+01
3.24416472e+01
2.46929214e+01
3.86654305e+01
3.16898339e+01
1.85352387e+01
2.45074762e+01
1.82179012e+01
3.52004814e+01
1.07665679e+01
2.80740356e+01
3.08276844e+01
3.54450245e+01
3.53141546e+01
3.45509892e+01
2.82177776e+01
2.97722430e+01
2.52296903e+01
2.48338652e+01
2.14034123e+01
2.22245468e+01
1.70103092e+01
2.56080468e+01
3.52836456e+01
9.90555286e+00
3.51263199e+01
2.30782998e+01
3.44310722e+01
3.55641203e+01
2.48079494e+01
3.07765069e+01
2.56792870e+01
2.90213083e+01
2.64143963e+01
4.11298242e+01
1.70985680e+01
2.53567920e+01
1.30500740e+01
9.38405180e+00
1.15482988e+01
7.77383232e+00
5.87501507e+01
5.82570877e+01
4.48635349e+01
5.55887203e+01
6.87399120e+01
4.83406630e+01
5.15688801e+01
7.48833440e+01
1.59931850e+01
4.16078167e+01
1.98506799e+01
1.60552311e+01
5.16308308e+00
5.82639432e+00
3.20225191e+01
3.07351456e+01
2.76295745e+01
3.25853133e+01
2.55795898e+01
2.63474939e+01
2.62529306e+01
3.07282889e+01
2.72274876e+01
2.72823060e+01
2.09835789e+01
2.68610064e+01
2.03179274e+01
2.56204398e+01
2.49775012e+01
3.12639027e+01
4.45179461e+01
9.72245758e+01
7.46768494e+01
7.28883305e+01
7.82414246e+01
3.04257863e+01
1.87569597e+01
6.62225122e+01
3.37228241e+01
1.74234685e+01
1.51204093e+01
2.03428278e+01
1.97137340e+01
1.98373121e+01
2.00645182e+01
3.06813750e+01
5.67855902e+01
3.26149673e+01
3.63393593e+01
6.25449543e+01
1.25270164e+02
1.86455417e+00
1.44765753e+00
2.39086568e+00
3.25741267e+00
2.93806629e+01
2.94738684e+01
2.47303817e+01
2.89720073e+01
2.47627196e+01
2.57170153e+01
2.34310987e+01
2.69387140e+01
2.15980468e+01
2.78028129e+01
1.74439158e+01
3.11588273e+01
1.32016344e+01
2.51033773e+01
2.72937114e+01
2.67363863e+01
4.22650885e+01
1.13552492e+02
8.54620705e+01
6.68282261e+01
5.64263687e+01
2.95609651e+01
2.81633534e+01
1.43718008e+02
2.39249148e+01
1.59188383e+01
8.50822673e+01
2.32418540e+01
2.31390772e+01
4.05417204e+01
5.07493744e+01
1.21189388e+02
2.52146368e+01
3.36281433e+01
</DataArray>
<DataArray type="Float32" Name="Stress_Third_Invariant" format="ascii">
-3.07893581e+01
-3.53900375e+01
-3.25548964e+01
-3.26077356e+01
-2.89546518e+01
-3.30009127e+01
-3.11041706e+01
-3.23353853e+01
-3.82895260e+01
-4.04372017e+01
-3.47755227e+01
-3.55501832e+01
-4.28262100e+01
-4.71898780e+01
-3.61520729e+01
-3.99957172e+01
-4.76514435e+01
-5.19280853e+01
-3.86962056e+01
-3.07491109e+01
-4.75214872e+01
-3.83044852e+01
-3.29768058e+01
-2.66637747e+01
-7.18652267e+01
-7.02771778e+01
-5.30901804e+01
-5.11683321e+01
-3.18461547e+01
-2.96843719e+01
-3.12212090e+01
-2.72554197e+01
-3.53592374e+01
-3.27582525e+01
-1.29422820e+01
-2.29525461e+01
-7.92714834e+00
-3.47692339e+01
-7.23466444e+00
-3.21876545e+01
-1.67355490e+01
-5.46375484e+01
-2.99881165e+01
-2.48064346e+01
-2.80507049e+01
-2.30388629e+01
-9.46344471e+00
-1.65864438e+01
9.23031449e-01
7.73027690e+00
-1.06839323e+00
2.78290278e+01
7.08925271e+00
2.34784152e+01
-7.94696045e+00
1.65517902e+00
-2.68500032e+01
-2.86845875e+01
-2.30745497e+01
-2.59823861e+01
-1.27316225e+01
-9.79702765e+00
-6.16177392e+00
-1.45565987e-01
-1.06474018e+01
4.97308350e+00
-1.40635881e+01
2.80597758e+00
-2.73730521e+01
1.83826847e+01
-2.67252603e+01
-2.95688038e+01
-2.03688246e+01
-2.64140291e+01
-1.47583095e+01
-1.80528791e+01
-9.04730612e+00
-1.00051920e+01
3.61221290e+00
4.57905245e+00
-6.12398767e+00
3.07082491e+00
-4.09372044e+00
-7.05893660e+00
-5.08425503e+01
-4.91491737e+01
-4.01823187e+01
-4.97390575e+01
-5.80343208e+01
-4.20768106e+01
-1.18555231e+01
-6.02038530e+01
-1.46700706e+01
6.69678402e+00
-1.07669713e+01
-1.18379792e+01
-4.60731125e+00
-4.87809372e+00
-3.02019730e+01
-2.95662165e+01
-2.62225302e+01
-3.05209947e+01
-2.46834836e+01
-2.46348065e+01
-2.57347462e+01
-2.28779516e+01
-2.60958033e+01
-2.52993719e+01
-1.98252870e+01
-2.57987832e+01
-1.94757538e+01
-2.37414393e+01
-2.32338560e+01
-2.93349791e+01
-4.18146157e+01
-8.66563931e+01
-7.21644049e+01
-6.90012503e+01
-7.09869537e+01
-1.39995277e+01
-1.82629182e+01
-6.19855744e+01
2.92718382e+01
-1.41340922e+01
-1.37124867e+01
-8.40535436e-01
-6.47790496e+00
-1.40303455e+01
-1.84414924e+01
-2.45034232e+01
-5.36488001e+01
-3.08941490e+01
-3.49974031e+01
-3.31901569e+01
-1.20958332e+02
1.35575396e+00
1.12793195e+00
-7.13882476e-01
2.46053076e+00
-2.89964991e+01
-2.86939344e+01
-2.36166309e+01
-2.79530344e+01
-2.35602801e+01
-2.29253236e+01
-2.25884364e+01
-1.83435249e+01
-2.02048321e+01
-2.60679886e+01
-1.62975572e+01
-2.14566948e+01
-1.25723312e+01
-1.14868250e+01
-2.43966429e+01
-2.38627213e+01
-1.82986794e+01
-1.07056334e+02
-8.24986610e+01
-6.37390785e+01
-5.11296158e+01
-2.63659285e+01
-1.48791893e+01
-1.30740713e+02
-4.68031313e+00
-1.50927435e+01
-7.99631786e+01
-1.07181625e+01
-1.36471167e+01
-3.91437374e+00
4.60347862e+01
-1.09603961e+02
-1.96599286e+01
-2.68488638e+01
</DataArray>
<DataArray type="Float32" Name="Logarithmic_strain_Max_Principal" format="ascii">
5.90696260e-02
6.13084342e-02
5.56297833e-02
5.35473023e-02
5.61028905e-02
5.73396152e-02
5.31251747e-02
5.21851350e-02
6.63064457e-02
6.09682910e-02
5.92221320e-02
5.65594872e-02
7.15322420e-02
6.58627730e-02
6.15288531e-02
6.09264122e-02
7.68921562e-02
7.26956557e-02
6.57648668e-02
6.26770835e-02
8.37249905e-02
8.06218125e-02
6.96314462e-02
6.92941695e-02
1.01550676e-01
9.51251611e-02
8.30502547e-02
8.13200586e-02
4.52831667e-02
4.33902033e-02
4.39865710e-02
4.14196169e-02
4.89759436e-02
4.66749840e-02
4.45183925e-02
4.80884452e-02
5.08453520e-02
5.66739800e-02
5.24482075e-02
5.83960687e-02
5.61666749e-02
6.62881782e-02
4.07195948e-02
3.98262423e-02
3.77735356e-02
3.54044782e-02
3.36467735e-02
3.58000689e-02
1.63760951e-02
2.30660471e-02
1.32171266e-02
3.02819355e-02
1.45013854e-02
2.98672399e-02
1.27100800e-02
2.63591898e-02
3.96915898e-02
4.05848026e-02
3.56051987e-02
3.68262399e-02
2.90237148e-02
2.89717785e-02
1.05709556e-02
1.54557008e-02
1.72813628e-03
3.48070062e-03
7.03865728e-03
4.53041762e-03
7.70905571e-03
7.01301307e-03
3.89333945e-02
4.17180061e-02
3.55694261e-02
3.75068169e-02
2.94881472e-02
3.06369294e-02
1.08408120e-02
2.11792681e-02
1.14235891e-03
3.41184899e-03
1.52865616e-04
1.33143175e-04
9.94079273e-05
4.89472610e-05
4.36923169e-02
4.71869558e-02
3.89160626e-02
4.26118392e-02
3.72382859e-02
3.60559076e-02
1.67558347e-02
3.07852030e-02
1.47760712e-03
7.00710516e-03
2.80499626e-04
1.72679026e-04
2.96579583e-05
4.59128951e-05
4.96080332e-02
4.78212042e-02
4.89515923e-02
4.96515343e-02
4.72608237e-02
4.99687344e-02
4.91822716e-02
5.30254324e-02
5.48855690e-02
5.83823146e-02
5.37411328e-02
5.95543114e-02
5.55570833e-02
6.16990887e-02
4.61900048e-02
4.71409429e-02
5.04595754e-02
6.45749241e-02
6.64841458e-02
6.78080656e-02
7.14042224e-02
3.90439779e-02
3.67142381e-02
4.63409952e-02
6.04157094e-02
3.37115638e-02
2.90402784e-02
3.27293024e-02
3.09920286e-02
3.33297027e-02
3.16733876e-02
3.97554191e-02
4.72641280e-02
3.40621322e-02
3.21825016e-02
4.55100108e-02
5.66004980e-02
2.35914786e-05
1.82030108e-05
2.66746692e-05
4.30207147e-05
4.38606888e-02
4.48908918e-02
4.75752410e-02
4.53764154e-02
4.83267829e-02
5.08190338e-02
4.94916542e-02
5.31813772e-02
5.14090173e-02
5.58764907e-02
4.88671735e-02
5.23051717e-02
4.70599867e-02
5.16126323e-02
5.42214890e-02
5.25547992e-02
4.98258471e-02
6.89366765e-02
6.59379512e-02
6.23901738e-02
6.22575916e-02
5.31270690e-02
4.73089293e-02
7.68260658e-02
3.74291193e-02
3.94774149e-02
5.13966307e-02
3.75103306e-02
3.75025067e-02
4.98289673e-02
8.11432824e-02
7.69528523e-02
4.60782452e-02
4.22163457e-02
</DataArray>
<DataArray type="Float32" Name="Logarithmic_strain_Min_Principal" format="ascii">
-7.74355829e-02
-8.10659528e-02
-7.64298309e-02
-7.46914223e-02
-7.43340887e-02
-7.73346648e-02
-7.41360001e-02
-7.25736357e-02
-8.78465436e-02
-8.28590039e-02
-8.31919033e-02
-8.00139541e-02
-9.68945064e-02
-9.10005104e-02
-9.04431064e-02
-8.74707745e-02
-1.06254712e-01
-9.92660522e-02
-9.77640897e-02
-9.18361358e-02
-1.15026999e-01
-1.03389263e-01
-1.02637550e-01
-9.74227116e-02
-1.25932559e-01
-1.15538120e-01
-1.11552861e-01
-1.06504437e-01
-6.56153951e-02
-6.50074854e-02
-6.56052185e-02
-6.36969917e-02
-6.45056525e-02
-6.70398623e-02
-5.74648259e-02
-6.88425122e-02
-5.86998267e-02
-7.18968802e-02
-5.44540379e-02
-7.20968538e-02
-5.88523746e-02
-8.02652786e-02
-5.30561404e-02
-5.35306837e-02
-5.34996777e-02
-5.28120399e-02
-4.00810493e-02
-4.62497571e-02
-1.47746606e-02
-2.03956558e-02
-9.92067531e-03
-2.34764524e-02
-1.06473542e-02
-2.36853600e-02
-1.24659785e-02
-2.18032170e-02
-4.61106757e-02
-4.97510172e-02
-4.44013397e-02
-4.73179333e-02
-3.11704688e-02
-3.09839044e-02
-7.54338235e-03
-1.36401255e-02
-1.96216548e-03
-2.95193924e-03
-1.03760626e-02
-3.31700583e-03
-1.04448940e-02
-4.24914251e-03
-4.89049228e-02
-5.30564003e-02
-4.55550882e-02
-4.97747576e-02
-3.42360828e-02
-3.71384840e-02
-8.77335877e-03
-2.45021321e-02
-5.18834273e-04
-2.03572008e-03
-1.16197429e-04
-8.65472386e-05
-1.77852595e-04
-1.37459414e-04
-5.83591629e-02
-6.16095923e-02
-5.46954246e-02
-5.95590156e-02
-4.71014567e-02
-5.14738979e-02
-1.73532413e-02
-4.08576379e-02
-1.75113854e-03
-6.62218267e-03
-4.03209910e-04
-1.94884885e-04
-9.40415630e-05
-9.38954618e-05
-7.10390806e-02
-7.17027318e-02
-6.94224639e-02
-6.93313144e-02
-7.29916263e-02
-7.37252561e-02
-7.75250308e-02
-8.02993830e-02
-8.18760488e-02
-8.74629049e-02
-8.30212571e-02
-9.05579953e-02
-8.38478729e-02
-9.11330655e-02
-6.51139328e-02
-6.36876356e-02
-7.56838577e-02
-9.79181707e-02
-1.05537338e-01
-1.07577823e-01
-1.08402003e-01
-5.43745067e-02
-5.25379265e-02
-6.76334687e-02
-5.41372970e-02
-4.45050867e-02
-4.40456234e-02
-3.96585957e-02
-3.15507787e-02
-4.49335151e-02
-4.56383657e-02
-5.15359477e-02
-7.30743418e-02
-5.35170538e-02
-5.29280975e-02
-6.55160556e-02
-9.77569222e-02
-2.10891940e-05
-1.62619613e-05
-3.05333260e-05
-3.46127154e-05
-7.23922998e-02
-7.21699130e-02
-7.11390451e-02
-7.20679127e-02
-7.01695923e-02
-7.31940996e-02
-7.00385105e-02
-7.58523224e-02
-7.01362491e-02
-8.13808069e-02
-6.89437445e-02
-7.98374042e-02
-6.70921691e-02
-7.61677232e-02
-7.28985025e-02
-6.93176538e-02
-8.15239123e-02
-1.10415091e-01
-1.05849316e-01
-1.00201629e-01
-9.59330648e-02
-6.89697409e-02
-6.19080923e-02
-1.09434281e-01
-5.38619480e-02
-5.36183091e-02
-7.80981593e-02
-5.40629653e-02
-5.38968304e-02
-6.66888601e-02
-7.89871439e-02
-1.08647130e-01
-6.32393509e-02
-6.05448503e-02
</DataArray>
<DataArray type="Float32" Name="Plastic_strain_Max_Principal" format="ascii">
5.89227490e-02
6.12178985e-02
5.55267641e-02
5.34156132e-02
5.59190605e-02
5.72366118e-02
5.29862479e-02
5.20968540e-02
6.62755743e-02
6.09754510e-02
5.91067243e-02
5.65131018e-02
7.14726970e-02
6.95003606e-02
6.14145156e-02
6.16936353e-02
7.68936798e-02
7.58873317e-02
6.58174865e-02
6.38466999e-02
8.38382244e-02
8.72988608e-02
6.97555467e-02
7.11936597e-02
1.01539582e-01
1.03494156e-01
8.33400525e-02
8.28464068e-02
4.51681418e-02
4.32352833e-02
4.38865474e-02
4.12348351e-02
4.88320393e-02
4.75320788e-02
3.62570824e-02
4.59140225e-02
4.24904882e-02
4.97874677e-02
3.45332134e-02
4.79815506e-02
3.08909146e-02
5.73741347e-02
4.05428931e-02
3.95566747e-02
3.76058971e-02
3.51356789e-02
3.36604309e-02
3.34810659e-02
1.49278410e-02
2.26595605e-02
1.26585366e-02
2.66750169e-02
1.30496907e-02
2.38430444e-02
1.48905842e-02
2.88899187e-02
3.94673292e-02
4.03216034e-02
3.53293647e-02
3.66045982e-02
2.91971629e-02
2.87978584e-02
8.42509978e-03
1.42171011e-02
1.33227150e-03
3.08508965e-03
6.99710706e-03
4.32184264e-03
7.56241102e-03
6.68153618e-03
3.86914937e-02
4.15638741e-02
3.53217609e-02
3.72882709e-02
3.01184775e-02
2.74724320e-02
1.05888355e-02
2.22895211e-02
7.53694132e-04
3.01439978e-03
3.84932486e-05
8.11471064e-06
0.00000000e+00
0.00000000e+00
4.37422954e-02
4.73352447e-02
3.90328122e-02
4.27392293e-02
3.70009784e-02
3.75939645e-02
1.84705984e-02
3.01705251e-02
1.12954006e-03
6.65311681e-03
8.29377168e-05
3.12244568e-05
0.00000000e+00
0.00000000e+00
4.95152082e-02
4.76758787e-02
4.87871561e-02
4.94948449e-02
4.70952354e-02
4.96984492e-02
4.90258988e-02
5.02325175e-02
5.46690738e-02
5.86549412e-02
5.35695283e-02
5.91696976e-02
5.54753337e-02
6.11300999e-02
4.60762735e-02
4.70283814e-02
5.02641276e-02
6.58104770e-02
6.67700469e-02
6.83730394e-02
7.19032772e-02
3.88100189e-02
3.65288612e-02
4.81360741e-02
6.18952718e-02
3.11787196e-02
2.87464568e-02
2.89090288e-02
3.11430072e-02
3.30498479e-02
3.13992947e-02
3.98416410e-02
5.18312426e-02
3.40365190e-02
3.22703589e-02
4.41253046e-02
5.84676303e-02
0.00000000e+00
0.00000000e+00
0.00000000e+00
0.00000000e+00
4.38053031e-02
4.47021918e-02
4.74401657e-02
4.51537557e-02
4.81098481e-02
5.05814562e-02
4.93195523e-02
5.07222004e-02
5.10461153e-02
5.60317640e-02
4.84245485e-02
5.19972397e-02
4.65923958e-02
5.11002205e-02
5.38744656e-02
5.24230041e-02
5.01796273e-02
7.09609866e-02
6.65415972e-02
6.31713672e-02
6.26855735e-02
5.32013119e-02
4.68889726e-02
7.82550052e-02
3.60401228e-02
3.99342827e-02
5.30973850e-02
4.14930284e-02
4.01251633e-02
4.71465659e-02
8.03325847e-02
8.82263482e-02
5.42882569e-02
4.05802932e-02
</DataArray>
<DataArray type="Float32" Name="Plastic_strain_Min_Principal" format="ascii">
-7.67952651e-02
-8.02043751e-02
-7.57302381e-02
-7.39489421e-02
-7.37498216e-02
-7.66169578e-02
-7.34704304e-02
-7.19217993e-02
-8.68553743e-02
-8.17797258e-02
-8.23090337e-02
-7.92130241e-02
-9.54611413e-02
-9.46583636e-02
-8.94151591e-02
-8.77626063e-02
-1.04470577e-01
-1.00938099e-01
-9.68154427e-02
-9.33851786e-02
-1.13220420e-01
-1.10441919e-01
-1.02149513e-01
-1.00149000e-01
-1.21799812e-01
-1.22197445e-01
-1.09459270e-01
-1.07046690e-01
-6.49275128e-02
-6.43819124e-02
-6.49675182e-02
-6.31623575e-02
-6.35116855e-02
-6.78989803e-02
-4.69452092e-02
-6.57113881e-02
-4.83332981e-02
-6.10764486e-02
-3.01006123e-02
-5.75313000e-02
-2.63272510e-02
-6.75585829e-02
-5.23193367e-02
-5.30042052e-02
-5.28986133e-02
-5.23444125e-02
-4.08679666e-02
-4.14807944e-02
-9.19531350e-03
-1.63842325e-02
-7.19531719e-03
-2.09414229e-02
-7.57191749e-03
-1.90806063e-02
-1.37057947e-02
-2.65299026e-02
-4.54257550e-02
-4.89790253e-02
-4.39192667e-02
-4.67754500e-02
-3.13092321e-02
-3.11530326e-02
-6.39296032e-03
-1.28527484e-02
-1.98629902e-03
-2.73640290e-03
-9.71205998e-03
-3.32513038e-03
-9.84084792e-03
-3.97435952e-03
-4.82063936e-02
-5.23956325e-02
-4.52345861e-02
-4.91961073e-02
-3.55144669e-02
-3.19992483e-02
-7.48151878e-03
-2.70178330e-02
-5.21850192e-04
-1.83474831e-03
-2.50494681e-05
-6.87460531e-06
0.00000000e+00
0.00000000e+00
-5.68110328e-02
-6.02225661e-02
-5.38564352e-02
-5.81588987e-02
-4.48109154e-02
-5.31968111e-02
-2.03597974e-02
-3.81789400e-02
-1.75440451e-03
-5.98422984e-03
-1.25970182e-04
-2.11418519e-05
0.00000000e+00
0.00000000e+00
-7.04858340e-02
-7.10962676e-02
-6.90441523e-02
-6.86872657e-02
-7.27394577e-02
-7.33101871e-02
-7.72074517e-02
-7.55900298e-02
-8.14527795e-02
-8.80927201e-02
-8.30745678e-02
-8.98460308e-02
-8.40214379e-02
-9.01748706e-02
-6.49890290e-02
-6.31854758e-02
-7.40331795e-02
-9.69149232e-02
-1.02412665e-01
-1.05352402e-01
-1.06241573e-01
-5.47407726e-02
-5.24944747e-02
-6.83213007e-02
-6.01038616e-02
-4.04048958e-02
-4.40114569e-02
-3.59565344e-02
-3.04763963e-02
-4.49673799e-02
-4.53804582e-02
-4.71655220e-02
-7.84493499e-02
-5.29610487e-02
-5.24168573e-02
-6.29181266e-02
-9.50877592e-02
0.00000000e+00
0.00000000e+00
0.00000000e+00
0.00000000e+00
-7.20041394e-02
-7.15574641e-02
-7.09853517e-02
-7.14390911e-02
-6.99051693e-02
-7.28991088e-02
-6.99314177e-02
-7.17383781e-02
-6.98584486e-02
-8.17409353e-02
-6.87148683e-02
-7.95815205e-02
-6.70307186e-02
-7.61546418e-02
-7.24164825e-02
-6.91817105e-02
-8.11112204e-02
-1.07115468e-01
-1.02481740e-01
-9.88455024e-02
-9.48379859e-02
-6.90446235e-02
-6.17780890e-02
-1.06549004e-01
-5.26108534e-02
-5.49483160e-02
-7.77142420e-02
-4.65460960e-02
-5.90389473e-02
-5.69675422e-02
-8.55676010e-02
-1.24084371e-01
-7.82019049e-02
-5.77257350e-02
</DataArray>
</PointData>
<Cells>
<DataArray type="Int32" Name="connectivity" format="ascii">
0 1 2 3 4 5 6 7
1 8 9 2 5 10 11 6
8 12 13 9 10 14 15 11
12 16 17 13 14 18 19 15
16 20 21 17 18 22 23 19
20 24 25 21 22 26 27 23
3 2 28 29 7 6 30 31
2 9 32 28 6 11 33 30
9 13 34 32 11 15 35 33
13 17 36 34 15 19 37 35
17 21 38 36 19 23 39 37
21 25 40 38 23 27 41 39
29 28 42 43 31 30 44 45
28 32 46 42 30 33 47 44
32 34 48 46 33 35 49 47
34 36 50 48 35 37 51 49
36 38 52 50 37 39 53 51
38 40 54 52 39 41 55 53
43 42 56 57 45 44 58 59
42 46 60 56 44 47 61 58
46 48 62 60 47 49 63 61
48 50 64 62 49 51 65 63
52 54 66 67 53 55 68 69
57 56 70 71 59 58 72 73
56 60 74 70 58 61 75 72
60 62 76 74 61 63 77 75
62 64 78 76 63 65 79 77
64 67 80 78 65 69 81 79
67 66 82 80 69 68 83 81
71 70 84 85 73 72 86 87
70 74 88 84 72 75 89 86
74 76 90 88 75 77 91 89
76 78 92 90 77 79 93 91
78 80 94 92 79 81 95 93
80 82 96 94 81 83 97 95
4 5 6 7 98 99 100 101
5 10 11 6 99 102 103 100
10 14 15 11 102 104 105 103
14 18 19 15 104 106 107 105
18 22 23 19 106 108 109 107
22 26 27 23 108 110 111 109
7 6 30 31 101 100 112 113
6 11 33 30 100 103 114 112
11 15 35 33 103 105 115 114
15 19 37 35 105 107 116 115
19 23 39 37 107 109 117 116
23 27 41 39 109 111 118 117
31 30 44 45 113 112 119 120
30 33 47 44 112 114 121 119
33 35 49 47 114 115 122 121
45 44 58 59 120 119 123 124
44 47 61 58 119 121 125 123
47 49 63 61 121 122 126 125
59 58 72 73 124 123 127 128
58 61 75 72 123 125 129 127
61 63 77 75 125 126 130 129
73 72 86 87 128 127 131 132
72 75 89 86 127 129 133 131
75 77 91 89 129 130 134 133
81 83 97 95 135 136 137 138
98 99 100 101 139 140 141 142
99 102 103 100 140 143 144 141
102 104 105 103 143 145 146 144
104 106 107 105 145 147 148 146
106 108 109 107 147 149 150 148
108 110 111 109 149 151 152 150
101 100 112 113 142 141 153 154
100 103 114 112 141 144 155 153
103 105 115 114 144 146 156 155
105 107 116 115 146 148 157 156
107 109 117 116 148 150 158 157
109 111 118 117 150 152 159 158
113 112 119 120 154 153 160 161
112 114 121 119 153 155 162 160
120 119 123 124 161 160 163 164
119 121 125 123 160 162 165 163
124 123 127 128 164 163 166 167
123 125 129 127 163 165 168 166
125 126 130 129 165 169 170 168
128 127 131 132 167 166 171 172
</DataArray>
<DataArray type="Int32" Name="offsets" format="ascii">
8
16
24
32
40
48
56
64
72
80
88
96
104
112
120
128
136
144
152
160
168
176
184
192
200
208
216
224
232
240
248
256
264
272
280
288
296
304
312
320
328
336
344
352
360
368
376
384
392
400
408
416
424
432
440
448
456
464
472
480
488
496
504
512
520
528
536
544
552
560
568
576
584
592
600
608
616
624
632
640
</DataArray>
<DataArray type="UInt8" Name="types" format="ascii">
12
12
12
12
12
12
12
12
12
12
12
12
12
12
12
12
12
12
12
12
12
12
12
12
12
12
12
12
12
12
12
12
12
12
12
12
12
12
12
12
12
12
12
12
12
12
12
12
12
12
12
12
12
12
12
12
12
12
12
12
12
12
12
12
12
12
12
12
12
12
12
12
12
12
12
12
12
12
12
12
</DataArray>
</Cells>
</Piece>
</UnstructuredGrid>
</VTKFile>
