<VTKFile type="UnstructuredGrid" version="0.1" byte_order="LittleEndian">
<UnstructuredGrid>
<Piece NumberOfPoints="191" NumberOfCells="79">
<Points>
<DataArray type="Float64" NumberOfComponents="3" format="ascii">
 1.00580382e+00  5.05097914e+00  1.97932696e+00
 2.01107144e+00  5.04914618e+00  1.98588049e+00
 2.01041460e+00  6.05988455e+00  1.97782099e+00
 1.00392675e+00  6.05790663e+00  1.97346878e+00
 1.00467253e+00  5.05719090e+00  2.96936226e+00
 2.01184797e+00  5.05815029e+00  2.96967936e+00
 2.00861073e+00  6.07245636e+00  2.95943809e+00
 1.00445986e+00  6.06303072e+00  2.96529913e+00
 3.01957250e+00  5.04627800e+00  1.98891878e+00
 3.02147651e+00  6.05854893e+00  1.97870457e+00
 3.02316523e+00  5.05372810e+00  2.96749330e+00
 3.03583193e+00  6.07573795e+00  2.93573499e+00
 5.01932240e+00  5.05084038e+00  2.00001049e+00
 6.01933050e+00  5.05341625e+00  1.99995542e+00
 6.01673126e+00  6.05343342e+00  2.00001335e+00
 5.01671553e+00  6.05084324e+00  2.00004244e+00
 5.01936769e+00  5.05079508e+00  2.99999595e+00
 6.01935530e+00  5.05339384e+00  2.99996734e+00
 6.01676416e+00  6.05337858e+00  3.00000072e+00
 5.01677895e+00  6.05078459e+00  3.00005364e+00
 0.00000000e+00  0.00000000e+00  2.93592668e+00
 1.01202893e+00  0.00000000e+00  2.93473315e+00
 1.01201820e+00  1.01263416e+00  2.93825006e+00
 0.00000000e+00  1.01248384e+00  2.94040823e+00
 0.00000000e+00  0.00000000e+00  3.91408563e+00
 1.01711845e+00  0.00000000e+00  3.91376114e+00
 1.01731455e+00  1.01153576e+00  3.91462636e+00
 0.00000000e+00  1.01118553e+00  3.91731668e+00
 2.02643442e+00  0.00000000e+00  2.92888308e+00
 2.02310967e+00  1.00960898e+00  2.93410277e+00
 2.03296542e+00  0.00000000e+00  3.91063166e+00
 2.03384805e+00  1.01203179e+00  3.90935206e+00
 3.03946185e+00  0.00000000e+00  2.92317009e+00
 3.03961992e+00  1.00719142e+00  2.92507362e+00
 3.04854393e+00  0.00000000e+00  3.90425444e+00
 3.04760623e+00  1.01075089e+00  3.90362668e+00
 4.05520535e+00  0.00000000e+00  2.91761255e+00
 4.05553007e+00  1.00774765e+00  2.91530442e+00
 4.06137991e+00  0.00000000e+00  3.89900303e+00
 4.06127405e+00  1.00850070e+00  3.89608908e+00
 5.06945705e+00  0.00000000e+00  2.90982342e+00
 5.07054138e+00  1.00876629e+00  2.91131544e+00
 5.07250643e+00  0.00000000e+00  3.89647532e+00
 5.07278252e+00  1.00718486e+00  3.89112139e+00
 6.08116055e+00  0.00000000e+00  2.90641212e+00
 6.08306885e+00  1.00733876e+00  2.90836954e+00
 6.08064556e+00  0.00000000e+00  3.89547896e+00
 6.08382273e+00  1.00564218e+00  3.89120960e+00
 1.00745881e+00  2.02318668e+00  2.94726896e+00
 0.00000000e+00  2.02726436e+00  2.94855857e+00
 1.01708007e+00  2.02507687e+00  3.92575359e+00
 0.00000000e+00  2.02538729e+00  3.92715549e+00
 2.02085423e+00  2.02230573e+00  2.93536448e+00
 2.03620529e+00  2.02571464e+00  3.91258049e+00
 3.03590584e+00  2.02519417e+00  2.91944242e+00
 3.04973555e+00  2.02342749e+00  3.89039230e+00
 4.05637264e+00  2.02855015e+00  2.91768003e+00
 4.05927038e+00  2.01920152e+00  3.88453102e+00
 5.07320595e+00  2.02445841e+00  2.91540170e+00
 5.07364511e+00  2.02211761e+00  3.88710117e+00
 6.08694077e+00  2.02106452e+00  2.91377234e+00
 6.08811712e+00  2.01928520e+00  3.88708448e+00
 1.00459349e+00  3.04019070e+00  2.96322608e+00
 0.00000000e+00  3.03957367e+00  2.95918036e+00
 1.01355910e+00  3.03982377e+00  3.93608427e+00
 0.00000000e+00  3.03770113e+00  3.94638014e+00
 2.01851273e+00  3.03617239e+00  2.94928145e+00
 2.03979802e+00  3.04218531e+00  3.90686870e+00
 3.01638341e+00  3.03124428e+00  2.85895753e+00
 3.06023049e+00  3.03371835e+00  3.87494969e+00
 1.00398803e+00  4.04872274e+00  2.97055578e+00
 0.00000000e+00  4.05074358e+00  2.96945405e+00
 1.00795472e+00  4.05291557e+00  3.95808220e+00
 0.00000000e+00  4.05263758e+00  3.95723224e+00
 0.00000000e+00  5.05499744e+00  2.97025800e+00
 1.00893271e+00  5.06518316e+00  3.95939040e+00
 0.00000000e+00  5.06104517e+00  3.95506620e+00
 2.01123857e+00  4.04860258e+00  2.98128557e+00
 2.02438426e+00  4.05619144e+00  3.94720197e+00
 2.02537489e+00  5.06350851e+00  3.95326591e+00
 0.00000000e+00  6.06336260e+00  2.96105838e+00
 1.01435268e+00  6.08179045e+00  3.93526506e+00
 0.00000000e+00  6.08402681e+00  3.94300652e+00
 2.02798009e+00  6.08835030e+00  3.92999744e+00
 3.04275751e+00  5.05616379e+00  3.90059853e+00
 3.06198263e+00  6.07170868e+00  3.90749502e+00
 0.00000000e+00  0.00000000e+00  4.88849258e+00
 1.02186263e+00  0.00000000e+00  4.88698578e+00
 1.02316725e+00  1.01203442e+00  4.88946342e+00
 0.00000000e+00  1.01118577e+00  4.88989258e+00
 2.03991437e+00  0.00000000e+00  4.88526869e+00
 2.04275584e+00  1.01457727e+00  4.88579082e+00
 3.05407739e+00  0.00000000e+00  4.88309956e+00
 3.05588150e+00  1.01587880e+00  4.88103008e+00
 4.06503201e+00  0.00000000e+00  4.87957096e+00
 4.06469297e+00  1.01427746e+00  4.87831306e+00
 5.07410717e+00  0.00000000e+00  4.87889481e+00
 5.07286739e+00  1.01179898e+00  4.87677479e+00
 6.08174515e+00  0.00000000e+00  4.87918711e+00
 6.08235645e+00  1.01199639e+00  4.87758446e+00
 1.02810955e+00  2.02771378e+00  4.89096117e+00
 0.00000000e+00  2.02389526e+00  4.89632702e+00
 2.04905367e+00  2.03063989e+00  4.88286400e+00
 3.06137705e+00  2.02931690e+00  4.87451601e+00
 4.06726122e+00  2.02565026e+00  4.86756754e+00
 5.07150316e+00  2.02168703e+00  4.86341524e+00
 6.07641983e+00  2.02122808e+00  4.86408281e+00
 1.02942455e+00  3.03654790e+00  4.91105890e+00
 0.00000000e+00  3.04241371e+00  4.91974497e+00
 2.05645132e+00  3.03842068e+00  4.87964916e+00
 3.07007122e+00  3.03561783e+00  4.86298656e+00
 4.06430721e+00  3.01405716e+00  3.84765863e+00
 4.07398224e+00  3.03053093e+00  4.85906124e+00
 1.02868986e+00  4.04813766e+00  4.93937874e+00
 0.00000000e+00  4.04261398e+00  4.92900753e+00
 2.06306529e+00  4.05232191e+00  4.88707972e+00
 1.02633405e+00  5.07769918e+00  4.91407776e+00
 0.00000000e+00  5.07932281e+00  4.91705894e+00
 1.03003263e+00  6.11020327e+00  4.90426111e+00
 0.00000000e+00  6.10869551e+00  4.90682173e+00
 2.04732537e+00  5.06857491e+00  4.90432692e+00
 2.06975436e+00  6.09289742e+00  4.89855766e+00
 3.06869745e+00  5.04852772e+00  4.86911440e+00
 3.09213257e+00  6.05555201e+00  4.87706041e+00
 4.03636837e+00  5.04114008e+00  3.83428335e+00
 4.06146288e+00  6.04333401e+00  3.85130548e+00
 4.08416939e+00  5.03083897e+00  4.85856771e+00
 4.09087896e+00  6.03233767e+00  4.85899448e+00
 5.08463573e+00  5.02560377e+00  3.85878229e+00
 6.08462000e+00  5.02013826e+00  3.85879111e+00
 6.09007359e+00  6.02013874e+00  3.85879230e+00
 5.09004784e+00  6.02562809e+00  3.85884619e+00
 5.08459997e+00  5.02560520e+00  4.85878372e+00
 6.08462763e+00  5.02015686e+00  4.85880756e+00
 6.09006071e+00  6.02013350e+00  4.85878849e+00
 5.09016418e+00  6.02550793e+00  4.85884237e+00
 0.00000000e+00  0.00000000e+00  5.85880995e+00
 1.02343512e+00  0.00000000e+00  5.85880995e+00
 1.02622092e+00  1.01399267e+00  5.85880995e+00
 0.00000000e+00  1.01170015e+00  5.85880995e+00
 2.04328227e+00  0.00000000e+00  5.85880995e+00
 2.04542065e+00  1.01683831e+00  5.85880995e+00
 3.05629158e+00  0.00000000e+00  5.85880995e+00
 3.05887341e+00  1.01796925e+00  5.85880995e+00
 4.06556129e+00  0.00000000e+00  5.85880995e+00
 4.06686831e+00  1.01804256e+00  5.85880995e+00
 5.07466650e+00  0.00000000e+00  5.85880995e+00
 5.07301188e+00  1.01638198e+00  5.85880995e+00
 6.08443785e+00  0.00000000e+00  5.85880995e+00
 6.07943821e+00  1.01845825e+00  5.85880995e+00
 1.03273022e+00  2.02380896e+00  5.85880995e+00
 0.00000000e+00  2.02220082e+00  5.85880995e+00
 2.05503774e+00  2.03025317e+00  5.85880995e+00
 3.06511688e+00  2.03208447e+00  5.85880995e+00
 4.07084274e+00  2.02926993e+00  5.85880995e+00
 5.07151461e+00  2.02504969e+00  5.85880995e+00
 6.07318974e+00  2.02311993e+00  5.85880995e+00
 1.04023468e+00  3.05395269e+00  5.85880995e+00
 0.00000000e+00  3.05789876e+00  5.85880995e+00
 2.06609130e+00  3.04387379e+00  5.85880995e+00
 3.07411814e+00  3.03749919e+00  5.85880995e+00
 4.07414246e+00  3.03077579e+00  5.85880995e+00
 5.07426643e+00  3.02521086e+00  4.85846138e+00
 5.07454681e+00  3.02537513e+00  5.85880995e+00
 6.07481527e+00  3.02106452e+00  4.85837650e+00
 6.07485819e+00  3.02172542e+00  5.85880995e+00
 3.07969046e+00  4.03662205e+00  4.85555983e+00
 3.08137846e+00  4.03815079e+00  5.85880995e+00
 2.08107185e+00  4.04866171e+00  5.85880995e+00
 4.07942867e+00  4.03049040e+00  4.85900640e+00
 4.07946491e+00  4.03063965e+00  5.85880995e+00
 5.07922077e+00  4.02563190e+00  4.85880232e+00
 5.07926512e+00  4.02555895e+00  5.85880995e+00
 6.07920361e+00  4.02053404e+00  4.85878754e+00
 6.07916307e+00  4.02036333e+00  5.85880995e+00
 0.00000000e+00  4.02860928e+00  5.85880995e+00
 1.05338526e+00  4.03678846e+00  5.85880995e+00
 1.03865647e+00  5.08954334e+00  5.85880995e+00
 0.00000000e+00  5.09117556e+00  5.85880995e+00
 5.08454514e+00  5.02559137e+00  5.85880995e+00
 4.08449459e+00  5.03099823e+00  5.85880995e+00
 6.08465242e+00  5.02019072e+00  5.85880995e+00
 1.04151165e+00  6.11606932e+00  5.85880995e+00
 0.00000000e+00  6.12064934e+00  5.85880995e+00
 2.05695534e+00  5.07057524e+00  5.85880995e+00
 2.08582401e+00  6.09041977e+00  5.85880995e+00
 3.07657933e+00  5.04287195e+00  5.85880995e+00
 3.09779501e+00  6.05086040e+00  5.85880995e+00
 4.09149408e+00  6.03159142e+00  5.85880995e+00
 5.09016085e+00  6.02542400e+00  5.85880995e+00
 6.09004402e+00  6.02015829e+00  5.85880995e+00
</DataArray>
</Points>
<PointData Tensors="Stress_Components,Plastic_strain_components" Vevtors="Spatial_displacement,Reaction_force" Scalars="Equivalent_plastic_strain,Stress_Mises,Stress_Max_Principal,Stress_Mid_Principal,Stress_Min_Principal,Stress_Pressure,Stress_Tresca,Stress_Third_Invariant,Plastic_strain_Max_Principal,Plastic_strain_Min_Principal">
<DataArray type="Float32" Name="Stress_Components" NumberOfComponents="9" format="ascii">
4.07943615e+00 -1.35173609e+00 4.09095272e-01 -1.35173609e+00 2.79590143e+00 1.30775091e+00 4.09095272e-01 1.30775091e+00 -2.15680442e+01
1.35046227e+00 -2.23779043e+00 7.16297058e-01 -2.23779043e+00 6.94753557e-01 2.23709716e+00 7.16297058e-01 2.23709716e+00 -2.59701526e+01
-3.91021705e+00 4.50403914e-01 1.09103606e+00 4.50403914e-01 1.61603093e-02 -3.20026508e-01 1.09103606e+00 -3.20026508e-01 -3.42290144e+01
8.87819946e-01 -8.84641409e-02 -6.79674855e-01 -8.84641409e-02 3.25468951e+00 -4.69810829e-01 -6.79674855e-01 -4.69810829e-01 -2.55344533e+01
1.37730809e+01 6.61620002e-01 1.86333707e+00 6.61620002e-01 1.54343835e+01 -4.86558201e-01 1.86333707e+00 -4.86558201e-01 1.74440312e+00
1.10778540e+01 -7.42417685e-01 1.92633365e-01 -7.42417685e-01 1.36172983e+01 1.57707592e+00 1.92633365e-01 1.57707592e+00 -4.79417583e+00
-9.33714211e+00 7.67240047e-01 9.06147867e-01 7.67240047e-01 -3.46934474e+00 -1.60700351e+00 9.06147867e-01 -1.60700351e+00 -4.19817069e+01
-4.40230787e-01 1.91258095e+00 2.53204366e+00 1.91258095e+00 1.49766588e+00 2.75368503e+00 2.53204366e+00 2.75368503e+00 -2.72977289e+01
-4.04160404e+00 8.91602397e-01 -3.29105330e+00 8.91602397e-01 -5.08028746e+00 4.25459084e+00 -3.29105330e+00 4.25459084e+00 -3.90042472e+01
-3.24594154e+01 4.55110058e-01 1.72560662e-01 4.55110058e-01 -2.88066111e+01 4.50248325e+00 1.72560662e-01 4.50248325e+00 -9.72241173e+01
-3.81702881e+01 4.22135353e+00 -1.69471639e+01 4.22135353e+00 -3.81771371e+01 -1.77239100e-01 -1.69471639e+01 -1.77239100e-01 -1.07394016e+02
-3.09753261e+01 4.50086105e+00 -9.56655788e+00 4.50086105e+00 -4.25722008e+01 -2.71567382e+00 -9.56655788e+00 -2.71567382e+00 -1.05862885e+02
1.36511654e-01 -6.52473390e-01 5.05711734e-02 -6.52473390e-01 -8.96594971e-02 -1.30643355e-01 5.05711734e-02 -1.30643355e-01 -4.52040121e-01
-2.22811751e-01 -4.93825018e-01 -2.93655396e-01 -4.93825018e-01 1.61240380e-01 -7.71834701e-02 -2.93655396e-01 -7.71834701e-02 -3.43611848e-01
2.41999269e-01 -1.88685097e-01 3.19641229e-01 -1.88685097e-01 3.08595803e-01 2.30912331e-01 3.19641229e-01 2.30912331e-01 -9.55791116e-01
1.66047320e-01 -3.47413674e-01 -2.07004920e-01 -3.47413674e-01 -3.77514340e-01 -2.72570401e-01 -2.07004920e-01 -2.72570401e-01 -1.93773791e-01
1.51854649e-01 2.10024223e-01 2.59426802e-01 2.10024223e-01 2.19715923e-01 3.39559197e-01 2.59426802e-01 3.39559197e-01 -9.24615636e-02
-1.54577449e-01 1.57136351e-01 2.31465340e-01 1.57136351e-01 -2.76146382e-01 -8.03875029e-02 2.31465340e-01 -8.03875029e-02 7.09840178e-01
1.15930848e-01 6.23991676e-02 -4.45575953e-01 6.23991676e-02 1.00274637e-01 -4.16363329e-01 -4.45575953e-01 -4.16363329e-01 6.29163310e-02
-2.76785046e-01 1.15293525e-01 -1.84343755e-02 1.15293525e-01 -1.03095137e-01 2.16306657e-01 -1.84343755e-02 2.16306657e-01 6.58962607e-01
-8.10484886e-02 2.75887945e-03 1.58825278e+00 2.75887945e-03 4.91705656e-01 -1.90459251e-01 1.58825278e+00 -1.90459251e-01 -2.94732018e+01
4.18778524e-01 1.17295258e-01 9.72488180e-01 1.17295258e-01 1.46235600e-01 3.52407640e-01 9.72488180e-01 3.52407640e-01 -2.93157830e+01
8.97573789e-01 -1.31665787e+00 1.50934400e+00 -1.31665787e+00 1.21048988e+00 4.40347737e-01 1.50934400e+00 4.40347737e-01 -2.74103103e+01
-7.04833120e-01 1.17039564e-01 1.51238915e+00 1.17039564e-01 7.07087606e-01 -8.58334854e-01 1.51238915e+00 -8.58334854e-01 -2.98912344e+01
2.90039244e+00 -5.24527160e-03 1.13251001e+00 -5.24527160e-03 -4.04296517e-01 -1.36099726e-01 1.13251001e+00 -1.36099726e-01 -2.70855761e+01
9.97738540e-01 1.07583143e-01 5.60051546e-01 1.07583143e-01 -1.56364015e+00 1.13601133e+00 5.60051546e-01 1.13601133e+00 -3.04077654e+01
1.63503669e+00 1.78744626e-01 1.61857858e+00 1.78744626e-01 -8.29175584e-01 6.99238800e-01 1.61857858e+00 6.99238800e-01 -2.87933959e+01
2.93182343e-01 2.54700206e-01 1.75273722e+00 2.54700206e-01 -2.53159338e+00 -7.39131957e-01 1.75273722e+00 -7.39131957e-01 -3.20693488e+01
2.94406849e+00 -1.34948562e+00 1.20520204e+00 -1.34948562e+00 1.71650112e-01 1.44543068e-01 1.20520204e+00 1.44543068e-01 -2.63887494e+01
3.02063233e+00 -1.86817935e+00 1.49703979e+00 -1.86817935e+00 1.40251787e+00 8.93596470e-01 1.49703979e+00 8.93596470e-01 -2.46206807e+01
1.61496347e+00 2.96239275e-01 8.90765842e-02 2.96239275e-01 -3.29284802e-01 7.74271663e-01 8.90765842e-02 7.74271663e-01 -2.85536356e+01
-5.85352853e-01 2.60757416e-01 1.36478097e+00 2.60757416e-01 -1.46864920e+00 1.88664518e+00 1.36478097e+00 1.88664518e+00 -3.20209006e+01
5.13259500e+00 1.06834564e-01 4.09609511e-01 1.06834564e-01 3.82825851e-01 9.44068573e-01 4.09609511e-01 9.44068573e-01 -2.35863957e+01
4.77010887e+00 -7.55215652e-01 -2.27463316e-01 -7.55215652e-01 1.60030693e+00 -3.77833521e-01 -2.27463316e-01 -3.77833521e-01 -2.26811740e+01
2.70984219e+00 -5.65857977e-01 -1.80497859e-02 -5.65857977e-01 3.53373244e-01 9.81622040e-01 -1.80497859e-02 9.81622040e-01 -2.65854435e+01
-1.17542610e-01 -7.08177849e-01 -4.93543237e-01 -7.08177849e-01 -1.33118492e+00 6.67771682e-01 -4.93543237e-01 6.67771682e-01 -3.13253767e+01
7.19222385e+00 2.82593817e-01 -6.18737832e-01 2.82593817e-01 2.16851616e+00 -6.65731840e-02 -6.18737832e-01 -6.65731840e-02 -1.94008819e+01
2.21276164e-01 4.20087130e-01 -1.03081303e+00 4.20087130e-01 -2.24371773e+00 7.73062930e-02 -1.03081303e+00 7.73062930e-02 -3.17674628e+01
2.98505156e+00 -1.81592762e-01 -1.19335383e+00 -1.81592762e-01 -1.45819426e-01 7.72533622e-01 -1.19335383e+00 7.72533622e-01 -2.67709785e+01
5.72898018e+00 -1.11346488e+00 -9.07854974e-01 -1.11346488e+00 3.49232434e+00 -7.00546825e-01 -9.07854974e-01 -7.00546825e-01 -1.97944565e+01
9.09778273e+00 2.45577864e-01 5.33948585e-01 2.45577864e-01 5.72425058e+00 -6.31609460e-01 5.33948585e-01 -6.31609460e-01 -1.37196196e+01
3.10535225e+00 3.39863612e-01 -1.07303970e-01 3.39863612e-01 8.68385255e-01 1.17635308e-01 -1.07303970e-01 1.17635308e-01 -2.55767682e+01
6.58548594e+00 6.40323041e-02 -2.05232474e+00 6.40323041e-02 4.58832163e+00 1.35069057e-01 -2.05232474e+00 1.35069057e-01 -1.76537134e+01
3.37011828e+00 -3.94492188e-01 -1.32946121e+00 -3.94492188e-01 2.45395580e+00 -5.57183167e-01 -1.32946121e+00 -5.57183167e-01 -2.33125052e+01
1.24946041e+01 2.71880783e-01 5.32050386e-01 2.71880783e-01 9.65046024e+00 -8.32513645e-01 5.32050386e-01 -8.32513645e-01 -5.71287584e+00
9.46410662e+00 1.10399943e-01 -2.81863885e-01 1.10399943e-01 7.43796562e+00 -6.49269819e-01 -2.81863885e-01 -6.49269819e-01 -1.15762997e+01
1.02444661e+01 1.41720587e+00 -1.45742178e+00 1.41720587e+00 8.80228209e+00 -7.00746328e-01 -1.45742178e+00 -7.00746328e-01 -9.17803931e+00
7.57057382e+00 7.66021129e-01 -6.59707785e-01 7.66021129e-01 5.91229749e+00 -3.49817166e-01 -6.59707785e-01 -3.49817166e-01 -1.50743087e+01
1.13307774e-01 -2.09991398e+00 3.49614397e+00 -2.09991398e+00 3.45439509e+00 8.89092979e-02 3.49614397e+00 8.89092979e-02 -2.41570889e+01
-2.80855656e-01 -1.48483664e+00 2.50460961e+00 -1.48483664e+00 4.78741598e+00 -3.63998204e-01 2.50460961e+00 -3.63998204e-01 -2.42027669e+01
-3.90667172e+00 -2.21250496e-01 4.57675165e+00 -2.21250496e-01 -6.51871130e+00 1.57834809e+00 4.57675165e+00 1.57834809e+00 -3.99342023e+01
-1.88260525e-03 -1.43502209e-01 3.43383825e+00 -1.43502209e-01 -1.41939953e+00 -4.61496465e-01 3.43383825e+00 -4.61496465e-01 -3.08527362e+01
2.78913287e+00 -2.48050217e-01 2.55067325e+00 -2.48050217e-01 1.44038957e+00 1.79947357e-01 2.55067325e+00 1.79947357e-01 -2.75862295e+01
-1.29135731e+00 9.67625519e-01 1.16167811e+00 9.67625519e-01 -1.84740871e+00 -9.88854650e-01 1.16167811e+00 -9.88854650e-01 -3.30284414e+01
-3.09505978e+01 -1.84341106e+00 -9.24366603e+00 -1.84341106e+00 -3.13536818e+01 -6.94090164e-01 -9.24366603e+00 -6.94090164e-01 -9.21077995e+01
1.25553014e+00 1.17046660e+00 -4.23935957e+00 1.17046660e+00 2.19578164e+00 2.60591541e-01 -4.23935957e+00 2.60591541e-01 -2.57889592e+01
-2.37137504e+01 1.64179802e-02 -3.07203987e+00 1.64179802e-02 -2.09000623e+01 1.99679706e+00 -3.07203987e+00 1.99679706e+00 -7.78849993e+01
-1.16891959e+01 -8.62849122e-01 -1.05439318e+01 -8.62849122e-01 -1.62766522e+01 1.53790046e+00 -1.05439318e+01 1.53790046e+00 -5.30239208e+01
-1.31058838e+01 -3.02982738e-01 -3.99680391e-01 -3.02982738e-01 -1.20481753e+01 1.49711721e+00 -3.99680391e-01 1.49711721e+00 -5.71287794e+01
-1.73322048e+01 3.63328576e-01 -3.32015997e+00 3.63328576e-01 -1.53644537e+01 -3.51328865e-01 -3.32015997e+00 -3.51328865e-01 -6.53238077e+01
-4.53885577e+00 2.15469271e-01 -4.78224337e-01 2.15469271e-01 -2.94874775e+00 3.64777520e-01 -4.78224337e-01 3.64777520e-01 -3.80381794e+01
-1.56995916e+01 2.70579308e-01 -2.89672899e+00 2.70579308e-01 -1.38868427e+01 -3.48324358e+00 -2.89672899e+00 -3.48324358e+00 -6.09564171e+01
-5.08626074e+00 -1.20331823e+00 5.23358999e+00 -1.20331823e+00 -1.55860105e-01 6.93700620e-01 5.23358999e+00 6.93700620e-01 -3.24530313e+01
5.88420522e+00 5.51947221e-01 3.24569807e+00 5.51947221e-01 1.07662649e+01 2.95767128e-01 3.24569807e+00 2.95767128e-01 -1.06153461e+01
9.24880164e-03 -6.27160169e-01 4.33624611e+00 -6.27160169e-01 -1.50789962e+00 -1.70444242e-01 4.33624611e+00 -1.70444242e-01 -2.98877810e+01
6.44149899e+00 3.07475660e-01 3.40808111e+00 3.07475660e-01 7.89563018e+00 -1.07628539e+00 3.40808111e+00 -1.07628539e+00 -1.36923505e+01
-4.71283183e+01 -6.17662978e+00 1.16577774e+01 -6.17662978e+00 -4.29247746e+01 -1.19795074e+01 1.16577774e+01 -1.19795074e+01 -1.15299803e+02
-1.46875645e+01 5.68555224e-01 4.19846368e-01 5.68555224e-01 -2.10297955e+01 -4.77107363e+00 4.19846368e-01 -4.77107363e+00 -6.72602608e+01
-2.04866695e+01 -7.91581726e+00 -2.68809872e+01 -7.91581726e+00 -1.76430988e+01 -1.36787024e+01 -2.68809872e+01 -1.36787024e+01 -5.16651011e+00
2.02218989e+01 -1.23241631e+00 -2.19332329e+00 -1.23241631e+00 2.11871234e+01 -4.28550434e+00 -2.19332329e+00 -4.28550434e+00 1.28829327e+01
6.36992499e+00 -3.70238017e-01 1.56505362e+00 -3.70238017e-01 9.09524236e+00 2.16182209e+00 1.56505362e+00 2.16182209e+00 -1.22931382e+01
5.47458386e+00 -1.03445496e+00 3.39227688e+00 -1.03445496e+00 9.12898725e+00 -1.85934687e-01 3.39227688e+00 -1.85934687e-01 -1.21963357e+01
1.57313559e+01 -3.35677199e-01 2.02277079e+00 -3.35677199e-01 1.83299798e+01 9.23159579e-01 2.02277079e+00 9.23159579e-01 8.47244581e+00
1.64525775e+01 -4.50034786e-01 1.58548957e+00 -4.50034786e-01 1.81425854e+01 5.66464409e-01 1.58548957e+00 5.66464409e-01 7.48122740e+00
7.37830876e+00 9.01346497e-01 -6.08681738e-02 9.01346497e-01 9.39180994e+00 1.96542693e-01 -6.08681738e-02 1.96542693e-01 -1.14284196e+01
2.35808621e+00 1.39803794e+00 2.29173541e-01 1.39803794e+00 3.95800858e+00 2.84560850e+00 2.29173541e-01 2.84560850e+00 -2.18816932e+01
4.01955271e+00 1.46922876e+00 5.57456717e-01 1.46922876e+00 7.38224407e+00 9.01269995e-01 5.57456717e-01 9.01269995e-01 -1.70309901e+01
-1.90876592e+01 2.13315504e-01 3.33025432e+00 2.13315504e-01 -1.49906649e+01 1.31289784e+01 3.33025432e+00 1.31289784e+01 -5.42914319e+01
-4.90358734e+01 -2.02099478e+00 1.37415738e+01 -2.02099478e+00 -5.65226116e+01 5.83390558e+00 1.37415738e+01 5.83390558e+00 -1.40339733e+02
-1.21040799e+01 -1.89816628e+00 -3.16201754e+00 -1.89816628e+00 -8.18703794e+00 -3.00437927e-01 -3.16201754e+00 -3.00437927e-01 -4.95281572e+01
-2.84053826e+00 -5.57590835e-02 9.23447192e-01 -5.57590835e-02 1.87995338e+00 2.06428534e+00 9.23447192e-01 2.06428534e+00 -3.03425174e+01
6.81486607e+00 1.50053661e+00 -8.87115680e-01 1.50053661e+00 7.40025401e+00 9.35118504e-01 -8.87115680e-01 9.35118504e-01 -1.50944805e+01
-5.99704123e+00 -1.43787029e+00 2.97072220e+00 -1.43787029e+00 2.82706738e-01 -1.30653289e+00 2.97072220e+00 -1.30653289e+00 -3.55976331e+01
-1.11180663e+01 -1.88590619e+00 -3.36963373e+00 -1.88590619e+00 -9.84285426e+00 5.77786955e+00 -3.36963373e+00 5.77786955e+00 -4.93169966e+01
-4.19401503e+01 5.27361194e+00 3.78692349e-01 5.27361194e+00 -3.10232328e+01 -2.23018745e+01 3.78692349e-01 -2.23018745e+01 -8.80519826e+01
-1.23358310e+01 -1.61727090e+00 -2.50893984e+00 -1.61727090e+00 -1.14459378e+01 -7.37280194e+00 -2.50893984e+00 -7.37280194e+00 -4.69812094e+01
2.12382704e+00 -7.77270738e-03 3.89160439e-01 -7.77270738e-03 -3.75555825e+00 -3.49976912e-01 3.89160439e-01 -3.49976912e-01 -3.11925602e+01
6.57200515e-01 3.92315149e-01 4.43000712e-01 3.92315149e-01 -3.54496178e+00 7.27490522e-01 4.43000712e-01 7.27490522e-01 -3.27707200e+01
7.86464892e-01 1.34045055e+00 9.73671280e-01 1.34045055e+00 -3.22787419e+00 6.32451110e-01 9.73671280e-01 6.32451110e-01 -3.21532588e+01
2.08153732e+00 2.84577131e-01 1.00436525e+00 2.84577131e-01 -3.66015529e+00 -2.43745640e-01 1.00436525e+00 -2.43745640e-01 -3.11035538e+01
-2.91110420e+00 1.07456012e+00 -2.05529455e-01 1.07456012e+00 -3.04109359e+00 1.28588726e+00 -2.05529455e-01 1.28588726e+00 -3.62618036e+01
-2.51141124e+00 2.11266367e+00 5.20735890e-01 2.11266367e+00 -2.31661414e+00 8.51862879e-01 5.20735890e-01 8.51862879e-01 -3.47581749e+01
-4.13253387e+00 7.35934868e-01 -5.41590504e-01 7.35934868e-01 -1.27463874e+00 3.80531639e-01 -5.41590504e-01 3.80531639e-01 -3.57550306e+01
-5.18042929e+00 1.27314822e+00 -1.88428927e-01 1.27314822e+00 -1.18895598e+00 1.32798959e+00 -1.88428927e-01 1.32798959e+00 -3.63266208e+01
-2.90264410e+00 -4.29459751e-01 -2.61648417e-01 -4.29459751e-01 6.26305461e-01 2.42146915e-01 -2.61648417e-01 2.42146915e-01 -3.23537469e+01
-2.43149211e+00 -4.81870743e-01 -7.19939545e-01 -4.81870743e-01 1.70416371e+00 2.80836255e-01 -7.19939545e-01 2.80836255e-01 -3.03164065e+01
-7.21584648e-01 -7.26169303e-01 -7.68796995e-01 -7.26169303e-01 2.76365036e+00 2.99640786e-01 -7.68796995e-01 2.99640786e-01 -2.76195965e+01
1.03318929e+00 -1.29758059e+00 -1.89652106e+00 -1.29758059e+00 2.91472882e+00 -2.18427159e-01 -1.89652106e+00 -2.18427159e-01 -2.51431576e+01
-1.07476985e+00 3.09995249e-01 -5.21139413e-01 3.09995249e-01 3.86339259e+00 5.32025620e-01 -5.21139413e-01 5.32025620e-01 -2.67655230e+01
-1.29333615e-01 -1.52505901e+00 -9.16726887e-01 -1.52505901e+00 1.42973232e+00 -1.19043390e+00 -9.16726887e-01 -1.19043390e+00 -2.80099503e+01
-5.77080861e-01 1.97316394e+00 1.91895959e+00 1.97316394e+00 -6.34979105e+00 1.17387623e+00 1.91895959e+00 1.17387623e+00 -3.64504616e+01
-1.66510344e+00 1.01124886e+00 2.60852706e+00 1.01124886e+00 -8.38058043e+00 -8.07294741e-01 2.60852706e+00 -8.07294741e-01 -3.97571349e+01
6.61693692e-01 2.33393618e+00 9.15667750e-02 2.33393618e+00 -6.44862771e-01 4.48112385e-01 9.15667750e-02 4.48112385e-01 -2.95355540e+01
4.50566942e+00 1.98684843e+00 -2.76884299e+00 1.98684843e+00 5.37118410e+00 -3.30753554e-01 -2.76884299e+00 -3.30753554e-01 -1.77626883e+01
4.07956753e+00 8.00064104e-01 -3.32239205e+00 8.00064104e-01 7.10045164e+00 -3.27984163e-01 -3.32239205e+00 -3.27984163e-01 -1.77202666e+01
-8.46236189e-01 -1.04473213e+00 -4.94417659e+00 -1.04473213e+00 2.63270390e+00 -2.05161525e+00 -4.94417659e+00 -2.05161525e+00 -2.71533578e+01
-1.77490064e+00 -4.16113631e+00 -7.25358788e+00 -4.16113631e+00 -4.83530887e+00 -4.58134874e+00 -7.25358788e+00 -4.58134874e+00 -3.25566147e+01
-7.53858360e+00 -8.57173403e-02 6.94215508e+00 -8.57173403e-02 -1.79943277e+01 -1.57815092e+00 6.94215508e+00 -1.57815092e+00 -5.40245891e+01
-1.72431458e+01 -1.96642506e+00 8.50783078e+00 -1.96642506e+00 -2.82276580e+01 -2.95282094e+00 8.50783078e+00 -2.95282094e+00 -7.51383260e+01
4.56137934e+00 2.05636414e+00 5.24026752e-01 2.05636414e+00 -1.35422868e+00 -3.02395609e+00 5.24026752e-01 -3.02395609e+00 -2.52671241e+01
1.43556292e+01 3.10507184e+00 -4.94771555e+00 3.10507184e+00 1.02844868e+01 -1.79056212e-01 -4.94771555e+00 -1.79056212e-01 -6.18307670e-01
-7.56570530e+00 -8.79445362e+00 -1.41917620e+01 -8.79445362e+00 -1.91061325e+01 -1.19865065e+01 -1.41917620e+01 -1.19865065e+01 1.65800130e+00
1.83514612e+01 1.92695048e+00 -1.66327233e+00 1.92695048e+00 1.58684992e+01 -4.81903495e+00 -1.66327233e+00 -4.81903495e+00 1.20333135e+01
-9.90301061e+00 2.57015660e-01 7.98488975e-01 2.57015660e-01 -1.31902651e+01 6.14366400e+00 7.98488975e-01 6.14366400e+00 -4.89990737e+01
-5.03870320e+00 1.17798565e+00 -3.13980504e+00 1.17798565e+00 -8.29708801e+00 3.49659808e+00 -3.13980504e+00 3.49659808e+00 -4.34109523e+01
-4.06564884e+01 -2.57450330e+00 4.31492686e+00 -2.57450330e+00 -6.00834713e+01 -9.90270853e+00 4.31492686e+00 -9.90270853e+00 -1.38828861e+02
-1.06732973e+01 -4.58295852e-01 -7.15803598e-01 -4.58295852e-01 -7.07858237e+00 3.55629035e+00 -7.15803598e-01 3.55629035e+00 -4.87414379e+01
-2.83617902e+00 -2.10979570e-01 2.41034039e+00 -2.10979570e-01 -3.50206614e-01 1.07816504e-01 2.41034039e+00 1.07816504e-01 -3.34754410e+01
-1.80250335e+00 -8.30722570e-01 1.25941208e+00 -8.30722570e-01 -4.41539645e+00 1.98498222e+00 1.25941208e+00 1.98498222e+00 -3.62333038e+01
1.45253229e+00 1.93484113e-01 2.38613985e+00 1.93484113e-01 6.54910088e-01 -1.40174216e+00 2.38613985e+00 -1.40174216e+00 -2.71926711e+01
-1.91609600e+01 1.77410168e+00 -1.36370245e+00 1.77410168e+00 -2.17687559e+01 -4.61093670e+00 -1.36370245e+00 -4.61093670e+00 -7.27887866e+01
-5.45848560e+00 -1.71580258e+00 -1.99361388e+00 -1.71580258e+00 -1.20088391e+01 5.19265418e+00 -1.99361388e+00 5.19265418e+00 -4.62963266e+01
1.85821030e+01 1.93279241e+00 5.39304763e-02 1.93279241e+00 8.21006012e+00 3.66652703e+00 5.39304763e-02 3.66652703e+00 -8.57490492e+00
2.41285753e+00 -2.45600694e+00 3.25095303e-01 -2.45600694e+00 8.70137954e+00 -8.18582639e-01 3.25095303e-01 -8.18582639e-01 -1.69168074e+01
5.08621330e+01 9.27320421e-01 1.95395207e+00 9.27320421e-01 4.43300781e+01 8.22321892e+00 1.95395207e+00 8.22321892e+00 5.93574409e+01
3.26467628e+01 1.38871387e-01 2.24451137e+00 1.38871387e-01 2.85984325e+01 3.78578568e+00 2.24451137e+00 3.78578568e+00 4.86097641e+01
4.88920403e+00 -4.44572663e+00 -1.65444688e+00 -4.44572663e+00 1.37891519e+00 2.04863365e+00 -1.65444688e+00 2.04863365e+00 2.20506489e-01
8.12124793e+00 -5.05683676e+00 -2.88217415e-01 -5.05683676e+00 1.72721812e+01 -5.42469978e+00 -2.88217415e-01 -5.42469978e+00 1.17416951e+01
-8.23652506e-01 -1.11392450e+00 1.36112773e+00 -1.11392450e+00 8.55885983e-01 -5.49818039e-01 1.36112773e+00 -5.49818039e-01 -7.03967512e-01
-6.92693830e-01 -2.52371639e-01 4.11351353e-01 -2.52371639e-01 -4.37412784e-03 3.44891131e-01 4.11351353e-01 3.44891131e-01 2.54282281e-02
7.35776901e-01 -7.47879684e-01 -7.47456402e-02 -7.47879684e-01 -2.99228013e-01 -1.39361084e+00 -7.47456402e-02 -1.39361084e+00 -1.10823524e+00
4.03042287e-01 -1.60978138e+00 -1.16208839e+00 -1.60978138e+00 3.59332383e-01 1.30155325e+00 -1.16208839e+00 1.30155325e+00 -1.43410611e+00
6.51831939e+00 3.24787488e+00 8.67621958e-01 3.24787488e+00 -1.77315904e+00 1.73840281e+00 8.67621958e-01 1.73840281e+00 -5.99893779e-01
1.30428261e+00 -4.00918305e-01 4.78028424e-01 -4.00918305e-01 -5.71580601e+00 8.88023754e-01 4.78028424e-01 8.88023754e-01 -1.53878947e-01
-3.51361275e+00 1.23832500e+00 -1.85158145e-01 1.23832500e+00 -1.80205047e-01 -1.43748796e+00 -1.85158145e-01 -1.43748796e+00 5.50669439e-01
-5.19157310e+00 -2.90223169e+00 -1.04756441e+00 -2.90223169e+00 2.07334141e+00 -1.12648221e+00 -1.04756441e+00 -1.12648221e+00 3.31249734e+00
1.56544292e+00 -1.11106522e-02 -3.86386737e-03 -1.11106522e-02 -4.44887161e+00 1.16990972e-03 -3.86386737e-03 1.16990972e-03 -3.25404549e+01
6.92854226e-01 7.12613732e-01 -1.11419274e-02 7.12613732e-01 -3.24277246e+00 4.78189826e-01 -1.11419274e-02 4.78189826e-01 -3.24662075e+01
-5.31807244e-01 1.98973176e+00 5.46772987e-01 1.98973176e+00 -5.91542351e+00 8.79118815e-01 5.46772987e-01 8.79118815e-01 -3.61929865e+01
1.88103271e+00 5.02301797e-01 3.08478564e-01 5.02301797e-01 -5.58163476e+00 -8.58615944e-03 3.08478564e-01 -8.58615944e-03 -3.31259947e+01
-3.60567728e+00 6.67061925e-01 -9.28115984e-03 6.67061925e-01 -2.65921044e+00 1.21528310e+00 -9.28115984e-03 1.21528310e+00 -3.66044254e+01
-4.22223917e+00 2.88428488e+00 6.84577316e-01 2.88428488e+00 -4.09948695e+00 9.17297795e-01 6.84577316e-01 9.17297795e-01 -3.83056064e+01
-7.67823899e+00 1.08133349e+00 1.69057706e-02 1.08133349e+00 -1.74298388e+00 9.45842832e-01 1.69057706e-02 9.45842832e-01 -3.95864830e+01
-6.10780901e+00 2.15944451e+00 1.02135806e+00 2.15944451e+00 -1.12514463e+00 1.33630283e+00 1.02135806e+00 1.33630283e+00 -3.69508166e+01
-7.54072416e+00 4.02850002e-01 2.42661014e-02 4.02850002e-01 2.44727731e-01 2.40701616e-01 2.42661014e-02 2.40701616e-01 -3.70632391e+01
-7.50486472e+00 6.86800770e-01 2.06319585e+00 6.86800770e-01 -3.65080237e-02 1.28361097e+00 2.06319585e+00 1.28361097e+00 -3.71987081e+01
-6.42414069e+00 -7.60471135e-01 3.16936653e-02 -7.60471135e-01 3.90615001e-01 1.83918498e-01 3.16936653e-02 1.83918498e-01 -3.58805256e+01
-5.92233597e+00 -1.22352438e+00 2.53289837e+00 -1.22352438e+00 1.46875715e+00 1.71458613e-01 2.53289837e+00 1.71458613e-01 -3.40096836e+01
-1.20247908e+01 -2.54835010e+00 3.26427519e-02 -2.54835010e+00 -2.26959848e+00 1.12870812e+00 3.26427519e-02 1.12870812e+00 -4.40111847e+01
-9.05089045e+00 -2.52321345e+00 3.74842370e+00 -2.52321345e+00 -2.47863662e+00 -2.26862568e+00 3.74842370e+00 -2.26862568e+00 -4.06629028e+01
1.86452556e+00 3.10042104e+00 -1.01081294e+00 3.10042104e+00 -3.13476157e+00 1.15663177e+00 -1.01081294e+00 1.15663177e+00 -3.01841879e+01
-1.82432365e+00 8.76637518e-01 -7.66997218e-01 8.76637518e-01 -1.00833139e+01 5.25999479e-02 -7.66997218e-01 5.25999479e-02 -4.16771302e+01
4.32410002e-01 4.08063826e+00 1.25750652e-01 4.08063826e+00 3.02506283e-01 2.12410334e+00 1.25750652e-01 2.12410334e+00 -2.77132185e+01
1.73775023e+00 3.67152441e+00 1.48255239e+00 3.67152441e+00 2.96567583e+00 2.06099698e+00 1.48255239e+00 2.06099698e+00 -2.36714964e+01
8.43507439e+00 -2.36345507e-01 2.59667535e+00 -2.36345507e-01 1.01847835e+01 2.38997604e+00 2.59667535e+00 2.38997604e+00 -9.03430641e+00
1.34886811e+01 -2.30329007e-01 4.13168204e+00 -2.30329007e-01 1.38512853e+01 -2.58614805e-01 4.13168204e+00 -2.58614805e-01 9.51854467e-01
1.33515098e+01 -9.19207215e-01 2.72774005e+00 -9.19207215e-01 8.29528761e+00 -4.35267219e+00 2.72774005e+00 -4.35267219e+00 -6.24771786e+00
-4.35673618e+01 2.70170182e-01 6.17132163e+00 2.70170182e-01 -4.95642223e+01 4.69957948e+00 6.17132163e+00 4.69957948e+00 -1.30183414e+02
-5.49052467e+01 -1.01464200e+00 4.94625521e+00 -1.01464200e+00 -6.01787415e+01 7.68661946e-02 4.94625521e+00 7.68661946e-02 -1.54486313e+02
4.20669587e+00 3.66758463e+00 1.46400579e+00 3.66758463e+00 -1.03215822e+00 3.56602482e+00 1.46400579e+00 3.56602482e+00 -2.50156123e+01
2.31051754e+01 2.04932094e-02 1.20118168e+00 2.04932094e-02 2.69659836e+01 3.12134372e+00 1.20118168e+00 3.12134372e+00 2.26564473e+01
2.31575961e+01 -3.46281654e+00 1.68607394e+00 -3.46281654e+00 1.86245129e+01 1.45304536e+00 1.68607394e+00 1.45304536e+00 1.23134015e+01
-3.63101661e-02 -5.78876078e-01 -1.36306071e+00 -5.78876078e-01 7.37154624e+00 -1.20807218e+00 -1.36306071e+00 -1.20807218e+00 -1.62356593e+00
1.15998281e+01 -1.89199328e+00 1.43199731e+00 -1.89199328e+00 8.05514443e+00 2.83178715e+00 1.43199731e+00 2.83178715e+00 5.45758927e+00
-9.47906733e-01 -7.12260246e+00 -3.04268074e+00 -7.12260246e+00 -1.06971116e+01 -5.55707119e-01 -3.04268074e+00 -5.55707119e-01 -2.39806795e+00
1.05796895e+01 -5.92189753e+00 2.62680614e+00 -5.92189753e+00 -1.20869920e+01 -5.33087045e-01 2.62680614e+00 -5.33087045e-01 5.67259789e+00
-1.37996507e+00 3.79561198e+00 -8.99470150e+00 3.79561198e+00 -1.16580155e+01 -3.98491096e+00 -8.99470150e+00 -3.98491096e+00 -6.54809231e+00
2.24389660e+01 -2.62608521e-01 2.66470039e+00 -2.62608521e-01 3.43433614e+01 5.60981351e+00 2.66470039e+00 5.60981351e+00 4.85188379e+01
-1.98201618e+01 3.62655425e+00 -9.08555388e-01 3.62655425e+00 -1.72905121e+01 1.30389233e+01 -9.08555388e-01 1.30389233e+01 -6.77686462e+01
7.04015779e+00 2.66887192e+00 -2.50349355e+00 2.66887192e+00 1.39324999e+01 2.47794962e+00 -2.50349355e+00 2.47794962e+00 5.23364507e+00
1.90848271e-01 -1.78202154e+00 2.35832171e+00 -1.78202154e+00 1.29988613e+01 4.47034230e-01 2.35832171e+00 4.47034230e-01 6.59629844e+00
-2.75871420e+00 3.97822481e+00 2.17048520e+00 3.97822481e+00 1.02378760e+01 -1.31282614e+00 2.17048520e+00 -1.31282614e+00 1.56995699e+00
-1.82165289e+00 -3.23187676e+00 -1.46311259e+00 -3.23187676e+00 6.84334971e+00 1.05498479e+00 -1.46311259e+00 1.05498479e+00 4.58187631e+00
5.80104291e+00 -1.77397394e+00 5.46441793e-01 -1.77397394e+00 -1.28567414e+01 -9.94079292e-01 5.46441793e-01 -9.94079292e-01 6.85744154e+00
2.17465198e+00 4.74452972e-03 -2.48593163e+00 4.74452972e-03 -1.14711065e+01 -7.36454427e-01 -2.48593163e+00 -7.36454427e-01 5.47409296e+00
-5.41269379e+01 2.03838897e+00 -2.11825991e+00 2.03838897e+00 -4.29662132e+01 4.44092959e-01 -2.11825991e+00 4.44092959e-01 -1.34449600e+02
-6.78637009e+01 -6.64002448e-02 -1.94872189e+00 -6.64002448e-02 -6.29282913e+01 3.93166685e+00 -1.94872189e+00 3.93166685e+00 -1.71533783e+02
-4.28158538e+00 -1.33090962e+00 1.72668447e+00 -1.33090962e+00 -3.37228012e+00 2.11356640e+00 1.72668447e+00 2.11356640e+00 -3.79534070e+01
-1.42152801e+01 -1.00304911e+00 2.89621222e+00 -1.00304911e+00 -1.41446538e+01 1.56569742e-01 2.89621222e+00 1.56569742e-01 -5.99071732e+01
2.72966811e+00 2.24629563e+00 -3.08928557e-01 2.24629563e+00 -3.28248620e-01 -8.58423169e-01 -3.08928557e-01 -8.58423169e-01 2.86871800e+00
9.78170737e+00 3.59874407e-01 1.38550302e+00 3.59874407e-01 1.58706551e+01 3.77697384e+00 1.38550302e+00 3.77697384e+00 1.07511012e+01
2.40776575e+00 8.13906603e-01 7.11507618e-01 8.13906603e-01 -6.34774351e+00 5.19040972e-01 7.11507618e-01 5.19040972e-01 -2.57176083e+00
-1.52993298e+00 -2.61111248e+00 1.50205258e+00 -2.61111248e+00 -8.46992874e+00 1.52870861e+00 1.50205258e+00 1.52870861e+00 -3.95447378e+01
1.99479485e+00 5.21929145e-01 1.01912236e+00 5.21929145e-01 -3.08745480e+00 -5.63683026e-02 1.01912236e+00 -5.63683026e-02 -3.07488937e+01
-3.51084232e+00 -1.56925642e+00 3.26303478e-01 -1.56925642e+00 -4.61614799e+00 3.02948283e+00 3.26303478e-01 3.02948283e+00 -3.92353191e+01
-8.09471798e+00 -2.61523098e+00 -4.04325183e-02 -2.61523098e+00 -1.25422775e+01 4.59620488e+00 -4.04325183e-02 4.59620488e+00 -5.01276884e+01
1.74762702e+01 5.08102345e+00 -3.19979457e+00 5.08102345e+00 1.57772412e+01 1.76624334e+00 -3.19979457e+00 1.76624334e+00 6.45591927e+00
7.13400841e+00 8.81392181e-01 -1.87823618e+00 8.81392181e-01 2.36975815e+01 1.36873358e+00 -1.87823618e+00 1.36873358e+00 4.19215965e+00
3.23319912e+00 -2.49420619e+00 -1.93603320e+00 -2.49420619e+00 1.78996396e+01 3.12886283e+00 -1.93603320e+00 3.12886283e+00 1.27509818e+01
-9.15434003e+00 5.12965202e-01 -1.62530059e+00 5.12965202e-01 2.70524955e+00 2.28759687e-01 -1.62530059e+00 2.28759687e-01 5.77358344e+00
-4.75304890e+00 2.62218451e+00 5.09163737e-01 2.62218451e+00 -1.27436519e+00 -3.52317303e-01 5.09163737e-01 -3.52317303e-01 4.12696213e-01
</DataArray>
<DataArray type="Float32" Name="Logarithmic_strain_components" NumberOfComponents="9" format="ascii">
5.83309430e-03 -2.45128214e-03 6.34632128e-04 -2.45128214e-03 5.29541043e-03 2.43703771e-03 6.34632128e-04 2.43703771e-03 -9.52272455e-03
6.84518984e-03 -3.12277293e-03 8.57370120e-04 -3.12277293e-03 7.02372289e-03 3.48362575e-03 8.57370120e-04 3.48362575e-03 -1.19211983e-02
8.35482799e-03 -3.61473416e-04 2.04481889e-03 -3.61473416e-04 1.03415148e-02 -2.95671067e-04 2.04481889e-03 -2.95671067e-04 -1.62569322e-02
5.37861849e-03 -1.94928743e-05 -1.39009689e-03 -1.94928743e-05 7.09156133e-03 -5.52320846e-04 -1.39009689e-03 -5.52320846e-04 -1.07909644e-02
5.69542445e-03 1.80716073e-03 4.40923398e-03 1.80716073e-03 6.94012234e-03 1.26334700e-03 4.40923398e-03 1.26334700e-03 -1.02387237e-02
8.46640273e-03 -2.85401051e-03 -3.61785737e-03 -2.85401051e-03 1.17506917e-02 5.47302684e-03 -3.61785737e-03 5.47302684e-03 -1.68988391e-02
1.50055678e-02 3.19107868e-03 3.51250742e-03 3.19107868e-03 1.37494188e-02 -6.47161284e-03 3.51250742e-03 -6.47161284e-03 -2.46539735e-02
8.16751330e-03 4.35775172e-03 7.67170452e-03 4.35775172e-03 9.77473485e-03 4.32613853e-03 7.67170452e-03 4.32613853e-03 -1.53588543e-02
8.74864124e-03 5.51373247e-04 -4.79729092e-03 5.51373247e-04 8.96369922e-03 5.48621197e-03 -4.79729092e-03 5.48621197e-03 -1.55710282e-02
1.46284788e-02 7.01268757e-04 2.92732674e-03 7.01268757e-04 1.58896754e-02 9.82317771e-03 2.92732674e-03 9.82317771e-03 -2.78101005e-02
1.61538040e-02 7.63286790e-03 -2.86991460e-02 7.63286790e-03 1.94932787e-02 6.25321226e-03 -2.86991460e-02 6.25321226e-03 -3.20704697e-02
2.44391812e-02 1.56308417e-02 -2.65291343e-02 1.56308417e-02 1.90162007e-02 -5.04159066e-03 -2.65291343e-02 -5.04159066e-03 -3.84676009e-02
4.87643575e-06 -3.10779360e-05 2.30880596e-06 -3.10779360e-05 -4.18167474e-07 -6.25228029e-06 2.30880596e-06 -6.25228029e-06 -8.94075447e-06
-3.57740311e-06 -2.37455915e-05 -1.36397557e-05 -2.37455915e-05 5.37535527e-06 -3.87123055e-06 -1.36397557e-05 -3.87123055e-06 -6.72583553e-06
7.37870016e-06 -9.27105111e-06 1.52579838e-05 -9.27105111e-06 8.91652053e-06 1.12366788e-05 1.52579838e-05 1.12366788e-05 -2.09948039e-05
6.30090517e-06 -1.66521413e-05 -1.01592059e-05 -1.66521413e-05 -7.28416171e-06 -1.28332358e-05 -1.01592059e-05 -1.28332358e-05 -3.12996192e-06
2.65107292e-06 9.95503160e-06 1.31362840e-05 9.95503160e-06 3.89711886e-06 1.64805533e-05 1.31362840e-05 1.64805533e-05 -3.29463319e-06
-4.70656323e-06 7.59768591e-06 1.11188156e-05 7.59768591e-06 -7.76159413e-06 -4.38008419e-06 1.11188156e-05 -4.38008419e-06 1.56801871e-05
2.28247904e-06 2.85106557e-06 -2.16825356e-05 2.85106557e-06 1.47044852e-06 -1.98254729e-05 -2.16825356e-05 -1.98254729e-05 8.35260835e-07
-8.53569600e-06 5.71226838e-06 -1.20945140e-06 5.71226838e-06 -3.34942479e-06 1.03448274e-05 -1.20945140e-06 1.03448274e-05 1.43164361e-05
1.23900734e-02 3.02233275e-06 4.57873871e-03 3.02233275e-06 1.28345829e-02 -1.21972873e-03 4.57873871e-03 -1.21972873e-03 -2.16187499e-02
1.27266638e-02 -1.18701701e-05 3.59198812e-03 -1.18701701e-05 1.21414009e-02 3.93979353e-04 3.59198812e-03 3.93979353e-04 -2.13123010e-02
1.23313183e-02 -3.68688135e-03 4.98291673e-03 -3.68688135e-03 1.23506037e-02 1.20280650e-03 4.98291673e-03 1.20280650e-03 -2.10795430e-02
1.16785595e-02 1.51733333e-04 4.57967707e-03 1.51733333e-04 1.32700827e-02 -2.20373552e-03 4.57967707e-03 -2.20373552e-03 -2.13912781e-02
1.69956880e-02 -3.30108833e-07 3.30960506e-03 -3.30108833e-07 1.11436956e-02 -3.31964839e-04 3.30960506e-03 -3.31964839e-04 -2.39764331e-02
1.64869719e-02 1.91299016e-04 8.85817630e-04 1.91299016e-04 1.15997272e-02 3.06719830e-03 8.85817630e-04 3.06719830e-03 -2.40296670e-02
1.67061058e-02 3.91778280e-04 5.84920471e-03 3.91778280e-04 1.23571963e-02 1.40043888e-03 5.84920471e-03 1.40043888e-03 -2.47651245e-02
1.72081790e-02 3.53563148e-04 6.06177066e-03 3.53563148e-04 1.26458763e-02 -2.76080327e-03 6.06177066e-03 -2.76080327e-03 -2.55184365e-02
1.39403143e-02 -3.28044529e-03 5.32782869e-03 -3.28044529e-03 9.85237234e-03 2.96464494e-04 5.32782869e-03 2.96464494e-04 -2.02913345e-02
1.37991698e-02 -5.44137519e-03 3.31711020e-03 -5.44137519e-03 1.11530091e-02 1.25723959e-03 3.31711020e-03 1.25723959e-03 -2.12189404e-02
1.50503260e-02 8.69682030e-04 -1.30794497e-03 8.69682030e-04 1.13983841e-02 1.77721220e-03 -1.30794497e-03 1.77721220e-03 -2.26199669e-02
1.52737278e-02 1.22319591e-03 3.44948130e-03 1.22319591e-03 1.29752158e-02 4.04200648e-03 3.44948130e-03 4.04200648e-03 -2.42464368e-02
1.50904302e-02 1.54344711e-04 1.94113716e-03 1.54344711e-04 7.94658740e-03 2.23459446e-03 1.94113716e-03 2.23459446e-03 -1.95730212e-02
1.48768703e-02 -2.67421216e-03 -2.18939918e-03 -2.67421216e-03 1.12801886e-02 -2.17459748e-03 -2.18939918e-03 -2.17459748e-03 -2.21528064e-02
1.37716485e-02 -9.25890417e-04 -6.39225254e-04 -9.25890417e-04 1.03304128e-02 1.27238574e-03 -6.39225254e-04 1.27238574e-03 -2.05955403e-02
1.38454166e-02 -1.11927517e-03 -2.78328895e-03 -1.11927517e-03 1.18405550e-02 1.23028441e-03 -2.78328895e-03 1.23028441e-03 -2.20186512e-02
1.45749555e-02 3.18940198e-04 -2.35350995e-03 3.18940198e-04 7.38574693e-03 -7.19992626e-04 -2.35350995e-03 -7.19992626e-04 -1.85609725e-02
1.47049110e-02 1.33770095e-03 -1.74978930e-03 1.33770095e-03 1.35088385e-02 -3.05562862e-04 -1.74978930e-03 -3.05562862e-04 -2.41468402e-02
1.25551696e-02 -1.03430508e-04 -2.96989805e-03 -1.03430508e-04 9.09840688e-03 8.89184928e-04 -2.96989805e-03 8.89184928e-04 -1.85407717e-02
1.25098749e-02 -2.80127356e-03 -4.13388514e-03 -2.80127356e-03 9.54617816e-03 -1.84489421e-03 -4.13388514e-03 -1.84489421e-03 -1.86314427e-02
1.20449311e-02 1.07135365e-03 1.51570607e-03 1.07135365e-03 7.87147402e-03 -2.16238780e-03 1.51570607e-03 -2.16238780e-03 -1.67332978e-02
1.39205465e-02 1.63209869e-03 9.10137337e-05 1.63209869e-03 1.23928146e-02 6.90536508e-04 9.10137337e-05 6.90536508e-04 -2.24221041e-02
1.01132290e-02 2.74522448e-04 -5.43722813e-03 2.74522448e-04 7.67809036e-03 5.12557388e-04 -5.43722813e-03 5.12557388e-04 -1.50393976e-02
1.06628774e-02 -8.54202954e-04 -3.26844517e-03 -8.54202954e-04 1.04504544e-02 -1.34182895e-03 -3.26844517e-03 -1.34182895e-03 -1.79772930e-02
1.09865386e-02 1.88755617e-03 1.98584225e-03 1.88755617e-03 6.65732054e-03 -2.24028781e-03 1.98584225e-03 -2.24028781e-03 -1.46148708e-02
1.26453098e-02 1.43654510e-03 2.04514756e-04 1.43654510e-03 1.06756761e-02 -2.07376303e-03 2.04514756e-04 -2.07376303e-03 -1.95431155e-02
8.95301718e-03 3.14771559e-03 -4.32550698e-03 3.14771559e-03 6.46704552e-03 -7.26735609e-04 -4.32550698e-03 -7.26735609e-04 -1.28382007e-02
1.03151430e-02 2.16415824e-03 -1.95698353e-03 2.16415824e-03 8.93109932e-03 -2.81097891e-04 -1.95698353e-03 -2.81097891e-04 -1.61944816e-02
1.00863851e-02 -6.11660833e-03 1.10356649e-02 -6.11660833e-03 1.33557946e-02 -1.23570988e-03 1.10356649e-02 -1.23570988e-03 -1.97153913e-02
8.37116735e-03 -4.01604804e-03 7.37470947e-03 -4.01604804e-03 1.43848776e-02 -1.29595652e-03 7.37470947e-03 -1.29595652e-03 -1.93280992e-02
1.83576874e-02 -1.67986957e-03 1.32643072e-02 -1.67986957e-03 1.43841098e-02 2.63173843e-03 1.32643072e-02 2.63173843e-03 -2.81307516e-02
1.72398766e-02 -3.06984024e-04 1.32485067e-02 -3.06984024e-04 1.34282806e-02 -1.43886259e-03 1.32485067e-02 -1.43886259e-03 -2.60742879e-02
1.46685249e-02 -1.52209536e-03 6.38709836e-03 -1.52209536e-03 1.37110499e-02 -3.08263134e-03 6.38709836e-03 -3.08263134e-03 -2.44182785e-02
1.61449310e-02 2.17834003e-03 2.84639069e-03 2.17834003e-03 1.48318631e-02 -4.25699787e-03 2.84639069e-03 -4.25699787e-03 -2.65941950e-02
1.91235131e-02 -3.77754964e-03 -2.01399941e-02 -3.77754964e-03 1.73230398e-02 4.15516552e-04 -2.01399941e-02 4.15516552e-04 -3.25288575e-02
1.23935906e-02 2.57183223e-03 -1.18620756e-02 2.57183223e-03 1.21595051e-02 -3.19496675e-03 -1.18620756e-02 -3.19496675e-03 -2.09710154e-02
1.84299042e-02 4.25698585e-04 -4.76276356e-03 4.25698585e-04 2.05445332e-02 4.87169377e-03 -4.76276356e-03 4.87169377e-03 -3.45233129e-02
1.40266132e-02 -1.92135829e-03 -1.67692380e-02 -1.92135829e-03 1.00517989e-02 3.28653867e-03 -1.67692380e-02 3.28653867e-03 -2.09393775e-02
1.73847736e-02 -1.09740667e-03 -1.96379801e-03 -1.09740667e-03 1.77975665e-02 2.88583210e-03 -1.96379801e-03 2.88583210e-03 -3.07339933e-02
1.44852221e-02 8.90617841e-04 -5.49921324e-03 8.90617841e-04 1.49841087e-02 4.59686242e-04 -5.49921324e-03 4.59686242e-04 -2.61630113e-02
1.57773276e-02 4.43522149e-04 -2.18585809e-03 4.43522149e-04 1.58022204e-02 9.33362782e-04 -2.18585809e-03 9.33362782e-04 -2.71731298e-02
1.45630776e-02 1.42388191e-03 -4.14854707e-03 1.42388191e-03 1.37292640e-02 -5.22858248e-03 -4.14854707e-03 -5.22858248e-03 -2.49857884e-02
8.17780464e-03 -3.23765515e-03 1.20752524e-02 -3.23765515e-03 1.28703339e-02 -1.19132655e-04 1.20752524e-02 -1.19132655e-04 -1.78835888e-02
5.08899277e-03 5.88876166e-04 9.13964468e-03 5.88876166e-04 1.21541424e-02 4.10953409e-03 9.13964468e-03 4.10953409e-03 -1.42704912e-02
1.82672952e-02 -2.12502802e-03 1.36946948e-02 -2.12502802e-03 1.32834285e-02 -6.28878348e-03 1.36946948e-02 -6.28878348e-03 -2.66471433e-02
1.25434694e-02 2.18451145e-03 1.67281034e-02 2.18451145e-03 1.25646070e-02 -1.05210845e-02 1.67281034e-02 -1.05210845e-02 -2.07791310e-02
1.53863095e-02 -7.48971745e-03 1.94899663e-02 -7.48971745e-03 1.90361382e-02 -2.05698260e-02 1.94899663e-02 -2.05698260e-02 -3.06913722e-02
2.33157869e-02 -2.10997406e-03 3.76692836e-03 -2.10997406e-03 1.53259076e-02 -1.33363213e-02 3.76692836e-03 -1.33363213e-02 -3.38368513e-02
-6.90594409e-03 -2.56328620e-02 -5.78253120e-02 -2.56328620e-02 1.08442036e-04 -4.54501808e-02 -5.78253120e-02 -4.54501808e-02 1.45881809e-02
8.78269652e-03 -1.64571661e-03 -1.32236794e-02 -1.64571661e-03 3.85587942e-03 -9.90853831e-03 -1.32236794e-02 -9.90853831e-03 -8.74279346e-03
5.17882536e-03 -1.07456787e-03 4.71666859e-03 -1.07456787e-03 8.27146667e-03 5.87111858e-03 4.71666859e-03 5.87111858e-03 -1.11745310e-02
4.27892554e-03 -2.01062462e-03 8.21356341e-03 -2.01062462e-03 7.96073151e-03 1.11907776e-03 8.21356341e-03 1.11907776e-03 -1.00817166e-02
9.71365518e-03 -1.11165761e-03 1.15660842e-02 -1.11165761e-03 1.14711830e-02 9.07080861e-03 1.15660842e-02 9.07080861e-03 -1.67854941e-02
9.59902746e-03 2.74497994e-04 4.52002074e-04 2.74497994e-04 1.32782250e-02 8.55821796e-04 4.52002074e-04 8.55821796e-04 -1.86801548e-02
5.37674571e-03 2.18049862e-03 2.30569625e-04 2.18049862e-03 7.00781471e-03 -9.10896095e-04 2.30569625e-04 -9.10896095e-04 -1.03633598e-02
1.31770438e-02 5.20139014e-03 -3.83748327e-03 5.20139014e-03 1.57171691e-02 9.52629223e-03 -3.83748327e-03 9.52629223e-03 -2.42551241e-02
1.11992864e-02 4.05275600e-03 4.63142293e-03 4.05275600e-03 1.79323663e-02 4.43343713e-03 4.63142293e-03 4.43343713e-03 -2.45308473e-02
5.50694737e-03 -4.17913601e-04 3.19894392e-03 -4.17913601e-04 1.00350323e-02 1.66092846e-02 3.19894392e-03 1.66092846e-02 -1.33885373e-02
2.47660372e-02 -3.98681313e-03 2.61094812e-02 -3.98681313e-03 1.85618973e-02 1.37477405e-02 2.61094812e-02 1.37477405e-02 -3.94592257e-02
1.56685531e-02 -1.58203208e-03 -1.27528204e-02 -1.58203208e-03 2.00133053e-02 -9.03618168e-03 -1.27528204e-02 -9.03618168e-03 -3.04285724e-02
6.17420604e-03 -3.33360629e-04 4.46473237e-03 -3.33360629e-04 1.01486146e-02 4.30802698e-03 4.46473237e-03 4.30802698e-03 -1.40178730e-02
1.58505535e-02 7.76211271e-03 -1.73120090e-03 7.76211271e-03 1.86146791e-02 5.77223924e-03 -1.73120090e-03 5.77223924e-03 -2.86840484e-02
1.26655186e-02 -2.17131525e-03 9.76745784e-03 -2.17131525e-03 2.13859500e-02 -7.94254383e-03 9.76745784e-03 -7.94254383e-03 -2.90713087e-02
1.99827941e-02 -2.01598159e-03 -1.39116480e-02 -2.01598159e-03 2.06480189e-02 1.54033749e-02 -1.39116480e-02 1.54033749e-02 -3.47924344e-02
1.70868766e-02 9.16166045e-03 3.73408152e-03 9.16166045e-03 2.29655113e-02 -3.56654295e-02 3.73408152e-03 -3.56654295e-02 -3.50343492e-02
2.14867016e-02 -1.77396558e-03 -4.00882044e-03 -1.77396558e-03 1.44427313e-02 -6.39659779e-03 -4.00882044e-03 -6.39659779e-03 -3.08650869e-02
2.16738293e-02 1.13192073e-06 1.43978623e-03 1.13192073e-06 1.11712366e-02 -1.54975068e-03 1.43978623e-03 -1.54975068e-03 -2.79758945e-02
2.00388515e-02 1.27661804e-03 2.54663691e-03 1.27661804e-03 1.22362010e-02 1.44074216e-03 2.54663691e-03 1.44074216e-03 -2.75710276e-02
2.06230956e-02 4.73395854e-03 3.24913469e-03 4.73395854e-03 1.32150697e-02 2.25479971e-03 3.24913469e-03 2.25479971e-03 -2.88701272e-02
2.29403810e-02 8.37308631e-04 4.28979256e-03 8.37308631e-04 1.19088653e-02 -4.42261247e-04 4.28979256e-03 -4.42261247e-04 -2.96462416e-02
1.60137687e-02 2.79493182e-03 5.31468395e-04 2.79493182e-03 1.44920794e-02 3.08187661e-03 5.31468395e-04 3.08187661e-03 -2.62309117e-02
1.57433340e-02 6.40575349e-03 1.12067210e-03 6.40575349e-03 1.46986684e-02 1.35958314e-03 1.12067210e-03 1.35958314e-03 -2.61089313e-02
1.19940983e-02 1.78235443e-03 -2.11754238e-03 1.78235443e-03 1.52593507e-02 9.09606038e-04 -2.11754238e-03 9.09606038e-04 -2.34927689e-02
1.11713120e-02 3.48524322e-03 -8.36282656e-04 3.48524322e-03 1.47972114e-02 1.72665463e-03 -8.36282656e-04 1.72665463e-03 -2.23972655e-02
9.78626125e-03 -3.35801531e-04 -1.28355669e-03 -3.35801531e-04 1.39954782e-02 -7.69873704e-05 -1.28355669e-03 -7.69873704e-05 -2.04841709e-02
8.66784027e-03 -8.94343442e-04 -1.39797374e-03 -8.94343442e-04 1.29562938e-02 5.91689735e-04 -1.39797374e-03 5.91689735e-04 -1.85780041e-02
8.98148608e-03 -1.22669613e-03 -2.15994607e-03 -1.22669613e-03 1.23849902e-02 8.76168531e-04 -2.15994607e-03 8.76168531e-04 -1.83338895e-02
8.62399203e-03 -2.41802652e-03 -3.31675683e-03 -2.41802652e-03 1.06196338e-02 -2.50110359e-04 -3.31675683e-03 -2.50110359e-04 -1.64233216e-02
8.24654801e-03 6.11221360e-04 -1.63427636e-03 6.11221360e-04 1.25603303e-02 2.17707898e-03 -1.63427636e-03 2.17707898e-03 -1.78478211e-02
9.13206651e-03 -2.45475738e-03 -1.33529981e-03 -2.45475738e-03 1.02525146e-02 -1.32120913e-03 -1.33529981e-03 -1.32120913e-03 -1.66177505e-02
2.53572632e-02 6.36474258e-03 1.04966575e-02 6.36474258e-03 1.32518695e-02 6.80185258e-04 1.04966575e-02 6.80185258e-04 -3.28156108e-02
2.69944412e-02 3.78730078e-03 1.38972846e-02 3.78730078e-03 1.47067728e-02 -5.57842164e-03 1.38972846e-02 -5.57842164e-03 -3.54352454e-02
1.76317274e-02 7.54704332e-03 -9.35273623e-04 7.54704332e-03 1.29309311e-02 7.95398519e-04 -9.35273623e-04 7.95398519e-04 -2.61082088e-02
9.08278523e-03 4.60032871e-03 -4.86180847e-03 4.60032871e-03 9.78800288e-03 -2.07279634e-04 -4.86180847e-03 -2.07279634e-04 -1.58900756e-02
5.41842047e-03 5.90167391e-04 -5.09696141e-03 5.90167391e-04 8.79363656e-03 -4.21875331e-04 -5.09696141e-03 -4.21875331e-04 -1.20647820e-02
4.74794939e-03 -2.19075331e-03 -8.59420291e-03 -2.19075331e-03 7.89451428e-03 -2.46850512e-03 -8.59420291e-03 -2.46850512e-03 -1.08137281e-02
5.57952312e-03 -4.96104290e-03 -9.15115334e-03 -4.96104290e-03 6.70394731e-03 -5.30915009e-03 -9.15115334e-03 -5.30915009e-03 -1.05557574e-02
2.88484646e-02 -1.25468899e-03 2.71518445e-02 -1.25468899e-03 1.05566206e-02 -6.90233273e-03 2.71518445e-02 -6.90233273e-03 -3.34053077e-02
3.01008640e-02 -5.66621963e-03 2.76357448e-02 -5.66621963e-03 1.32839122e-02 -8.94800077e-03 2.76357448e-02 -8.94800077e-03 -3.76665735e-02
1.97303896e-02 6.54657996e-03 1.21146153e-03 6.54657996e-03 9.34452323e-03 -1.17224411e-02 1.21146153e-03 -1.17224411e-02 -2.45247489e-02
7.30653491e-03 5.00948393e-03 -8.33327129e-03 5.00948393e-03 3.03900405e-03 -4.51831631e-03 -8.33327129e-03 -4.51831631e-03 -8.19629516e-03
1.15312333e-03 -1.47293573e-02 -1.97181851e-02 -1.47293573e-02 -7.88417086e-03 -1.78006757e-02 -1.97181851e-02 -1.78006757e-02 9.28093120e-03
2.78492732e-04 1.07231174e-03 -1.62520856e-03 1.07231174e-03 7.33522107e-04 -5.50605904e-04 -1.62520856e-03 -5.50605904e-04 -1.23094206e-04
2.71019288e-02 3.69810965e-03 -5.06962463e-03 3.69810965e-03 1.75520703e-02 1.58509589e-02 -5.06962463e-03 1.58509589e-02 -3.73406084e-02
2.77427584e-02 5.43363951e-03 -1.62493352e-02 5.43363951e-03 2.35833761e-02 1.08490288e-02 -1.62493352e-02 1.08490288e-02 -4.37603717e-02
2.84692608e-02 7.43317883e-04 4.17682086e-03 7.43317883e-04 1.68960430e-02 -1.61428717e-02 4.17682086e-03 -1.61428717e-02 -4.11611414e-02
2.57642381e-02 -2.15245710e-03 -3.91344930e-03 -2.15245710e-03 3.25287655e-02 8.96295703e-03 -3.91344930e-03 8.96295703e-03 -4.99190322e-02
2.57993462e-02 -1.58700679e-03 2.93590607e-03 -1.58700679e-03 3.24205076e-02 -3.12860328e-03 2.93590607e-03 -3.12860328e-03 -4.94426014e-02
2.79532359e-02 -3.88342782e-03 6.51361933e-03 -3.88342782e-03 2.58026207e-02 8.82517337e-03 6.51361933e-03 8.82517337e-03 -4.58264044e-02
2.71362131e-02 1.47875631e-03 7.12359816e-03 1.47875631e-03 2.66561005e-02 -2.69486825e-03 7.12359816e-03 -2.69486825e-03 -4.56001703e-02
2.42298809e-02 7.77983817e-03 -2.11971885e-03 7.77983817e-03 2.71061952e-02 -8.23580318e-03 -2.11971885e-03 -8.23580318e-03 -4.48773792e-02
2.71257875e-02 -4.79531509e-03 -4.47959997e-03 -4.79531509e-03 2.03479691e-02 1.38534566e-02 -4.47959997e-03 1.38534566e-02 -4.04827185e-02
1.82837918e-02 4.17971658e-03 2.02380719e-03 4.17971658e-03 6.80601608e-03 -6.64052827e-03 2.02380719e-03 -6.64052827e-03 -2.12397359e-02
1.42620478e-02 -7.09672792e-03 -1.56998861e-03 -7.09672792e-03 1.08392225e-02 -2.39469775e-03 -1.56998861e-03 -2.39469775e-03 -2.10267229e-02
-1.13533372e-02 9.75876395e-03 7.49774091e-03 9.75876395e-03 -3.99163645e-03 -1.64656602e-02 7.49774091e-03 -1.64656602e-02 1.99511461e-02
-2.73412792e-03 -3.51113710e-03 7.45182019e-03 -3.51113710e-03 -1.26177911e-04 -2.59753745e-02 7.45182019e-03 -2.59753745e-02 6.39419863e-03
3.22004423e-03 -5.43019483e-03 -2.17796987e-03 -5.43019483e-03 -3.64966809e-03 6.96274641e-03 -2.17796987e-03 6.96274641e-03 1.22719034e-03
-1.69337261e-03 -1.11137956e-02 -3.52457887e-03 -1.11137956e-02 9.52695225e-04 -1.84719459e-03 -3.52457887e-03 -1.84719459e-03 1.77932195e-03
-1.73366388e-05 -5.31938749e-05 6.54745672e-05 -5.31938749e-05 2.29674952e-05 -2.60530505e-05 6.54745672e-05 -2.60530505e-05 -1.45769809e-05
-1.40447291e-05 -1.17430318e-05 1.97373247e-05 -1.17430318e-05 2.30035516e-06 1.69193463e-05 1.97373247e-05 1.69193463e-05 3.17279068e-06
2.00723371e-05 -3.63940380e-05 -4.14006035e-06 -3.63940380e-05 -4.37729659e-06 -6.70617810e-05 -4.14006035e-06 -6.70617810e-05 -2.39063520e-05
1.23806967e-05 -7.67918464e-05 -5.58741049e-05 -7.67918464e-05 1.19183705e-05 6.24204695e-05 -5.58741049e-05 6.24204695e-05 -3.16453952e-05
1.59640715e-04 1.26382368e-04 1.63946694e-05 1.26382368e-04 -9.84969360e-05 4.97472241e-05 1.63946694e-05 4.97472241e-05 -2.28473264e-05
4.99492814e-05 -1.93187376e-05 2.29904683e-05 -1.93187376e-05 -1.18681204e-04 4.23974161e-05 2.29904683e-05 4.23974161e-05 1.49050585e-05
-7.20814223e-05 5.93568093e-05 -8.95753487e-06 5.93568093e-05 8.38338906e-06 -6.89626213e-05 -8.95753487e-06 -6.89626213e-05 2.55391233e-05
-1.55768055e-04 -2.94415571e-04 -3.70023287e-05 -2.94415571e-04 5.60860299e-05 -4.99278564e-05 -3.70023287e-05 -4.99278564e-05 1.13049177e-04
2.33439375e-02 -6.92118192e-07 2.01514922e-07 -6.92118192e-07 1.18127456e-02 -6.03164608e-07 2.01514922e-07 -6.03164608e-07 -2.99430843e-02
2.08494952e-02 2.72795651e-03 -7.61996489e-07 2.72795651e-03 1.33267469e-02 1.53974741e-03 -7.61996489e-07 1.53974741e-03 -2.91722324e-02
2.31306944e-02 7.07908568e-03 1.92433194e-03 7.07908568e-03 1.25075234e-02 2.97667185e-03 1.92433194e-03 2.97667185e-03 -3.04229376e-02
2.59486614e-02 2.26625835e-03 5.09463920e-04 2.26625835e-03 1.11092539e-02 -7.19704531e-07 5.09463920e-04 -7.19704531e-07 -3.15040099e-02
1.57413105e-02 2.10519554e-03 -3.70202542e-06 2.10519554e-03 1.61414789e-02 3.31429578e-03 -3.70202542e-06 3.31429578e-03 -2.73973737e-02
1.63964969e-02 7.74283020e-03 2.21769651e-03 7.74283020e-03 1.51949606e-02 2.61121808e-03 2.21769651e-03 2.61121808e-03 -2.71493336e-02
1.09537714e-02 2.55414296e-03 -2.27868441e-06 2.55414296e-03 1.76828457e-02 2.18972994e-03 -2.27868441e-06 2.18972994e-03 -2.47215368e-02
1.05114907e-02 4.96338471e-03 2.04942812e-03 4.96338471e-03 1.57490876e-02 2.95408885e-03 2.04942812e-03 2.95408885e-03 -2.26403698e-02
8.29394441e-03 1.29556912e-03 -2.24770702e-07 1.29556912e-03 1.70365823e-02 5.25727432e-04 -2.24770702e-07 5.25727432e-04 -2.18569348e-02
7.41834485e-03 1.84382760e-03 3.70695296e-03 1.84382760e-03 1.48979600e-02 2.15368340e-03 3.70695296e-03 2.15368340e-03 -1.93204354e-02
8.71652551e-03 -1.63978682e-03 -1.20927325e-07 -1.63978682e-03 1.55740846e-02 5.54211583e-04 -1.20927325e-07 5.54211583e-04 -2.09869333e-02
6.96785201e-03 -1.35776556e-03 4.52498673e-03 -1.35776556e-03 1.31495453e-02 1.47362003e-04 4.52498673e-03 1.47362003e-04 -1.74141405e-02
8.35452043e-03 -4.95382957e-03 5.17167791e-06 -4.95382957e-03 1.69214942e-02 2.67358590e-03 5.17167791e-06 2.67358590e-03 -2.20026933e-02
7.63627351e-03 -3.53508326e-03 6.37929072e-03 -3.53508326e-03 1.27067859e-02 -2.88076606e-03 6.37929072e-03 -2.88076606e-03 -1.77160036e-02
2.45676981e-02 1.07668831e-02 -3.84166406e-03 1.07668831e-02 1.71580126e-02 4.52266028e-03 -3.84166406e-03 4.52266028e-03 -3.54079939e-02
2.90502934e-02 1.56648981e-03 -1.63170957e-03 1.56648981e-03 1.96263520e-02 -4.83775875e-06 -1.63170957e-03 -4.83775875e-06 -4.16202210e-02
1.58492783e-02 1.42628171e-02 -4.32403038e-04 1.42628171e-02 1.31670791e-02 5.88666357e-03 -4.32403038e-04 5.88666357e-03 -2.45813364e-02
8.20804725e-03 7.08679092e-03 2.72443541e-03 7.08679092e-03 1.00221931e-02 3.70037480e-03 2.72443541e-03 3.70037480e-03 -1.55128592e-02
3.54335613e-03 1.42741377e-04 3.59772617e-03 1.42741377e-04 6.69369183e-03 3.57132655e-03 3.59772617e-03 3.57132655e-03 -8.45793262e-03
1.25941450e-03 -2.29469864e-03 3.35171458e-03 -2.29469864e-03 4.57657772e-03 1.55945590e-05 3.35171458e-03 1.55945590e-05 -4.53133322e-03
2.70707812e-03 -4.21510269e-03 1.88600528e-03 -4.21510269e-03 2.65588969e-03 -3.21948540e-03 1.88600528e-03 -3.21948540e-03 -4.25366382e-03
3.17972284e-02 4.83021024e-04 1.69729060e-02 4.83021024e-04 2.90306518e-02 1.04361349e-02 1.69729060e-02 1.04361349e-02 -5.45767136e-02
3.79180908e-02 -3.83793726e-03 1.50083276e-02 -3.83793726e-03 3.36199701e-02 2.50180528e-06 1.50083276e-02 2.50180528e-06 -6.45967498e-02
1.40479288e-02 4.68814707e-03 5.40162375e-03 4.68814707e-03 1.07309809e-02 9.48860403e-03 5.40162375e-03 9.48860403e-03 -2.09984779e-02
3.68103774e-03 1.58347310e-03 1.88387898e-03 1.58347310e-03 2.67713079e-03 4.03523503e-03 1.88387898e-03 4.03523503e-03 -4.56732814e-03
2.12314297e-04 -1.74708776e-03 2.47813332e-04 -1.74708776e-03 6.92474883e-04 1.63848668e-04 2.47813332e-04 1.63848668e-04 -2.61016394e-04
-4.02704916e-04 -8.68486022e-04 -2.14239578e-03 -8.68486022e-04 1.15281514e-03 -6.92326612e-05 -2.14239578e-03 -6.92326612e-05 -4.75042525e-04
1.30806397e-04 -6.50023852e-04 1.65177145e-04 -6.50023852e-04 3.05122830e-05 2.80530265e-04 1.65177145e-04 2.80530265e-04 1.13912354e-04
3.77244913e-04 -2.75740311e-03 -1.98612653e-03 -2.75740311e-03 -5.17934590e-04 -4.62817061e-05 -1.98612653e-03 -4.62817061e-05 2.65506511e-04
5.65108698e-04 -6.68671419e-04 6.61726808e-04 -6.68671419e-04 -1.12238881e-03 4.14488604e-05 6.61726808e-04 4.14488604e-05 6.82764512e-04
4.41465515e-03 -1.38610438e-03 -5.76169440e-03 -1.38610438e-03 -2.62631183e-03 -1.24502787e-02 -5.76169440e-03 -1.24502787e-02 -2.95547419e-04
-1.33923834e-03 -1.71827080e-03 1.52635475e-03 -1.71827080e-03 1.16955713e-04 1.71841861e-03 1.52635475e-03 1.71841861e-03 2.67038494e-03
8.96012504e-03 4.42902884e-03 -3.66074010e-03 4.42902884e-03 1.32384682e-02 1.79143529e-02 -3.66074010e-03 1.79143529e-02 -2.00645979e-02
-8.28622615e-06 -7.07567039e-05 -3.99523706e-05 -7.07567039e-05 3.07877005e-04 1.04916102e-03 -3.99523706e-05 1.04916102e-03 6.83275395e-06
-3.51994508e-04 -6.61269415e-04 1.48998520e-04 -6.61269415e-04 4.52231172e-04 3.59944861e-05 1.48998520e-04 3.59944861e-05 2.09614943e-04
-1.02866276e-04 1.90116942e-04 8.90776555e-05 1.90116942e-04 2.05387090e-04 -6.42416367e-05 8.90776555e-05 -6.42416367e-05 3.55384714e-06
-1.00306471e-04 -1.37885152e-04 -7.30446645e-05 -1.37885152e-04 1.59546524e-04 4.45880041e-05 -7.30446645e-05 4.45880041e-05 4.56591736e-05
1.35500752e-04 -1.94289998e-04 4.45073383e-05 -1.94289998e-04 -3.00155589e-04 -5.53425580e-05 4.45073383e-05 -5.53425580e-05 1.63690122e-04
1.83999045e-04 -3.02203567e-04 -1.70832966e-04 -3.02203567e-04 -4.80199818e-04 -4.10790562e-05 -1.70832966e-04 -4.10790562e-05 2.96560553e-04
4.25616689e-02 7.74106942e-03 -1.33270463e-02 7.74106942e-03 5.13897203e-02 8.80078296e-05 -1.33270463e-02 8.80078296e-05 -8.34347010e-02
4.92400602e-02 -6.39735535e-03 -1.07996073e-02 -6.39735535e-03 4.84743044e-02 2.35036425e-02 -1.07996073e-02 2.35036425e-02 -8.75322595e-02
3.16581173e-02 -9.98993979e-03 1.14679569e-02 -9.98993979e-03 3.49739684e-02 1.19877917e-02 1.14679569e-02 1.19877917e-02 -5.66260728e-02
3.39144683e-02 -1.56554015e-03 1.13333859e-02 -1.56554015e-03 4.09920588e-02 -5.93255754e-06 1.13333859e-02 -5.93255754e-06 -6.44451026e-02
8.79044787e-05 4.31107146e-05 -1.40267143e-05 4.31107146e-05 -5.87981276e-05 -5.48648168e-05 -1.40267143e-05 -5.48648168e-05 2.04220410e-05
1.70049350e-03 -1.23737007e-03 1.58010997e-04 -1.23737007e-03 -4.38232916e-04 3.24511959e-04 1.58010997e-04 3.24511959e-04 -7.42890907e-04
8.34725943e-05 3.91258759e-05 3.41635223e-05 3.91258759e-05 -1.26144030e-04 2.49759951e-05 3.41635223e-05 2.49759951e-05 -3.55032907e-05
3.78302075e-02 -1.19857048e-02 5.82235563e-03 -1.19857048e-02 2.20832676e-02 1.10602016e-02 5.82235563e-03 1.10602016e-02 -5.10994010e-02
3.71048003e-02 -4.45074402e-03 1.16404593e-02 -4.45074402e-03 2.54878774e-02 1.76864305e-05 1.16404593e-02 1.76864305e-05 -5.31306490e-02
2.39081122e-02 5.44825091e-03 1.96785590e-03 5.44825091e-03 2.46150400e-02 9.39410040e-03 1.96785590e-03 9.39410040e-03 -4.15897015e-02
2.79507916e-02 -3.85360932e-03 -2.37002526e-03 -3.85360932e-03 1.99907888e-02 1.56186097e-02 -2.37002526e-03 1.56186097e-02 -4.08229530e-02
1.11810551e-02 1.25107658e-03 -5.61247347e-03 1.25107658e-03 5.44337439e-03 7.80262961e-03 -5.61247347e-03 7.80262961e-03 -1.31747848e-02
6.52077157e-03 -8.04152549e-03 -4.61371848e-03 -8.04152549e-03 1.19022764e-02 5.61814872e-03 -4.61371848e-03 5.61814872e-03 -1.48444860e-02
-2.47303105e-03 -5.66759880e-03 -7.47488957e-04 -5.66759880e-03 2.01633503e-03 6.17343379e-04 -7.47488957e-04 6.17343379e-04 1.15267735e-03
-4.04501315e-04 -9.81441117e-05 -8.42752634e-05 -9.81441117e-05 1.54292073e-04 -3.54729582e-06 -8.42752634e-05 -3.54729582e-06 2.72573709e-04
-9.18593068e-05 1.26722822e-04 2.44714793e-05 1.26722822e-04 -8.62671277e-06 -1.70204930e-05 2.44714793e-05 -1.70204930e-05 3.13795827e-05
</DataArray>
<DataArray type="Float32" Name="Plastic_strain_components" NumberOfComponents="9" format="ascii">
5.67436102e-03 -2.38618972e-03 6.16646266e-04 -2.38618972e-03 5.16619629e-03 2.37521180e-03 6.16646266e-04 2.37521180e-03 -9.07047885e-03
6.72345399e-03 -3.01605597e-03 8.28933393e-04 -3.01605597e-03 6.91523092e-03 3.37977584e-03 8.28933393e-04 3.37977584e-03 -1.13933497e-02
8.28475179e-03 -3.82657978e-04 1.99122812e-03 -3.82657978e-04 1.01741129e-02 -2.89789074e-04 1.99122812e-03 -2.89789074e-04 -1.55870083e-02
5.27012517e-03 -1.62882916e-05 -1.35912061e-03 -1.62882916e-05 6.92663016e-03 -5.32149264e-04 -1.35912061e-03 -5.32149264e-04 -1.02691147e-02
4.77398037e-03 1.59369817e-03 4.28542035e-03 1.59369817e-03 5.84469667e-03 8.32546379e-04 4.28542035e-03 8.32546379e-04 -8.64655059e-03
8.46738734e-03 -2.76454440e-03 -3.60897894e-03 -2.76454440e-03 1.17270710e-02 5.52143937e-03 -3.60897894e-03 5.52143937e-03 -1.71692285e-02
1.48835052e-02 3.13235995e-03 3.46079809e-03 3.13235995e-03 1.34998958e-02 -6.41242682e-03 3.46079809e-03 -6.41242682e-03 -2.36365683e-02
8.50733742e-03 4.38060555e-03 7.59993983e-03 4.38060555e-03 1.01468238e-02 4.46441898e-03 7.59993983e-03 4.46441898e-03 -1.56926555e-02
8.67242645e-03 5.09784091e-04 -4.63892413e-03 5.09784091e-04 8.91448685e-03 5.28317643e-03 -4.63892413e-03 5.28317643e-03 -1.48107302e-02
1.49288285e-02 6.91972004e-04 2.91572140e-03 6.91972004e-04 1.61049226e-02 9.63100046e-03 2.91572140e-03 9.63100046e-03 -2.61505060e-02
1.65868492e-02 7.46575743e-03 -2.80259506e-02 7.46575743e-03 1.99350927e-02 6.32212214e-03 -2.80259506e-02 6.32212214e-03 -3.02740050e-02
2.44570347e-02 1.53894117e-02 -2.59903558e-02 1.53894117e-02 1.93011370e-02 -4.95080632e-03 -2.59903558e-02 -4.95080632e-03 -3.64655573e-02
0.00000000e+00 0.00000000e+00 0.00000000e+00 0.00000000e+00 0.00000000e+00 0.00000000e+00 0.00000000e+00 0.00000000e+00 0.00000000e+00
0.00000000e+00 0.00000000e+00 0.00000000e+00 0.00000000e+00 0.00000000e+00 0.00000000e+00 0.00000000e+00 0.00000000e+00 0.00000000e+00
0.00000000e+00 0.00000000e+00 0.00000000e+00 0.00000000e+00 0.00000000e+00 0.00000000e+00 0.00000000e+00 0.00000000e+00 0.00000000e+00
0.00000000e+00 0.00000000e+00 0.00000000e+00 0.00000000e+00 0.00000000e+00 0.00000000e+00 0.00000000e+00 0.00000000e+00 0.00000000e+00
0.00000000e+00 0.00000000e+00 0.00000000e+00 0.00000000e+00 0.00000000e+00 0.00000000e+00 0.00000000e+00 0.00000000e+00 0.00000000e+00
0.00000000e+00 0.00000000e+00 0.00000000e+00 0.00000000e+00 0.00000000e+00 0.00000000e+00 0.00000000e+00 0.00000000e+00 0.00000000e+00
0.00000000e+00 0.00000000e+00 0.00000000e+00 0.00000000e+00 0.00000000e+00 0.00000000e+00 0.00000000e+00 0.00000000e+00 0.00000000e+00
0.00000000e+00 0.00000000e+00 0.00000000e+00 0.00000000e+00 0.00000000e+00 0.00000000e+00 0.00000000e+00 0.00000000e+00 0.00000000e+00
1.22818900e-02 2.57853935e-06 4.50410089e-03 2.57853935e-06 1.27124428e-02 -1.21106778e-03 4.50410089e-03 -1.21106778e-03 -2.10366715e-02
1.25958580e-02 -1.68232068e-05 3.54373414e-03 -1.68232068e-05 1.20170764e-02 3.78191078e-04 3.54373414e-03 3.78191078e-04 -2.07153731e-02
1.22174129e-02 -3.62599557e-03 4.91584482e-03 -3.62599557e-03 1.22282843e-02 1.18178720e-03 4.91584482e-03 1.18178720e-03 -2.05450866e-02
1.15760539e-02 1.47341816e-04 4.50571731e-03 1.47341816e-04 1.31314571e-02 -2.16269266e-03 4.50571731e-03 -2.16269266e-03 -2.07872801e-02
1.68212540e-02 1.05451363e-08 3.25473503e-03 1.05451363e-08 1.10469926e-02 -3.25252593e-04 3.25473503e-03 -3.25252593e-04 -2.34351121e-02
1.63416450e-02 1.86044221e-04 8.58760555e-04 1.86044221e-04 1.15153824e-02 3.01294052e-03 8.58760555e-04 3.01294052e-03 -2.34300885e-02
1.65472012e-02 3.84660123e-04 5.76923846e-03 3.84660123e-04 1.22563423e-02 1.36692273e-03 5.76923846e-03 1.36692273e-03 -2.41908373e-02
1.70640843e-02 3.41190687e-04 5.97716664e-03 3.41190687e-04 1.25678047e-02 -2.72489671e-03 5.97716664e-03 -2.72489671e-03 -2.48906966e-02
1.37735836e-02 -3.21596413e-03 5.26997296e-03 -3.21596413e-03 9.75111732e-03 2.88069468e-04 5.26997296e-03 2.88069468e-04 -1.97646902e-02
1.36393035e-02 -5.35211508e-03 3.24839448e-03 -5.35211508e-03 1.10335554e-02 1.22016191e-03 3.24839448e-03 1.22016191e-03 -2.07192423e-02
1.48919174e-02 8.55819701e-04 -1.31305584e-03 8.55819701e-04 1.12888943e-02 1.73917969e-03 -1.31305584e-03 1.73917969e-03 -2.20363932e-02
1.51635708e-02 1.21170558e-03 3.38306815e-03 1.21170558e-03 1.28857489e-02 3.95243720e-03 3.38306815e-03 3.95243720e-03 -2.36093327e-02
1.48962429e-02 1.49019699e-04 1.92197663e-03 1.49019699e-04 7.86224520e-03 2.19031170e-03 1.92197663e-03 2.19031170e-03 -1.91058316e-02
1.46543997e-02 -2.63375582e-03 -2.16809867e-03 -2.63375582e-03 1.11310908e-02 -2.15395163e-03 -2.16809867e-03 -2.15395163e-03 -2.16625466e-02
1.36002116e-02 -8.97999344e-04 -6.39084174e-04 -8.97999344e-04 1.02183970e-02 1.22474132e-03 -6.39084174e-04 1.22474132e-03 -2.00515781e-02
1.37140198e-02 -1.08646190e-03 -2.75772045e-03 -1.08646190e-03 1.17376173e-02 1.19744910e-03 -2.75772045e-03 1.19744910e-03 -2.14070936e-02
1.43381592e-02 3.04937865e-04 -2.32050318e-03 3.04937865e-04 7.27307517e-03 -7.21355551e-04 -2.32050318e-03 -7.21355551e-04 -1.81452604e-02
1.45511396e-02 1.31707570e-03 -1.70211465e-03 1.31707570e-03 1.34054497e-02 -3.07543160e-04 -1.70211465e-03 -3.07543160e-04 -2.35091196e-02
1.23925032e-02 -9.48382749e-05 -2.91418924e-03 -9.48382749e-05 9.00927186e-03 8.52476238e-04 -2.91418924e-03 8.52476238e-04 -1.80089776e-02
1.23016917e-02 -2.74656140e-03 -4.08482159e-03 -2.74656140e-03 9.39267804e-03 -1.81145588e-03 -4.08482159e-03 -1.81145588e-03 -1.82248689e-02
1.17979741e-02 1.05879790e-03 1.49181348e-03 1.05879790e-03 7.71054509e-03 -2.13075925e-03 1.49181348e-03 -2.13075925e-03 -1.64073147e-02
1.37504026e-02 1.61566144e-03 9.83244568e-05 1.61566144e-03 1.22745037e-02 6.85474464e-04 9.83244568e-05 6.85474464e-04 -2.19113806e-02
9.92116495e-03 2.71778954e-04 -5.34017605e-03 2.71778954e-04 7.53408263e-03 5.05726821e-04 -5.34017605e-03 5.05726821e-04 -1.46622523e-02
1.04967176e-02 -8.34639795e-04 -3.20364835e-03 -8.34639795e-04 1.03030940e-02 -1.31411101e-03 -3.20364835e-03 -1.31411101e-03 -1.74883124e-02
1.07182269e-02 1.87358924e-03 1.96159433e-03 1.87358924e-03 6.46163151e-03 -2.19750602e-03 1.96159433e-03 -2.19750602e-03 -1.44315688e-02
1.24126684e-02 1.43125262e-03 2.19446971e-04 1.43125262e-03 1.04902624e-02 -2.04466211e-03 2.19446971e-04 -2.04466211e-03 -1.92776439e-02
8.73545138e-03 3.08191916e-03 -4.25697421e-03 3.08191916e-03 6.28224970e-03 -6.93735514e-04 -4.25697421e-03 -6.93735514e-04 -1.26107316e-02
1.00975737e-02 2.12628974e-03 -1.92435106e-03 2.12628974e-03 8.75197444e-03 -2.62934729e-04 -1.92435106e-03 -2.62934729e-04 -1.58480848e-02
9.98061127e-03 -6.01552788e-03 1.08660618e-02 -6.01552788e-03 1.31672934e-02 -1.23295131e-03 1.08660618e-02 -1.23295131e-03 -1.92297704e-02
8.30304949e-03 -3.94696870e-03 7.26442004e-03 -3.94696870e-03 1.41984543e-02 -1.27926416e-03 7.26442004e-03 -1.27926416e-03 -1.88519177e-02
1.82951512e-02 -1.66675119e-03 1.30479357e-02 -1.66675119e-03 1.43793745e-02 2.55795245e-03 1.30479357e-02 2.55795245e-03 -2.73641457e-02
1.71179932e-02 -2.97530933e-04 1.30925067e-02 -2.97530933e-04 1.33339704e-02 -1.42048791e-03 1.30925067e-02 -1.42048791e-03 -2.54839514e-02
1.45742606e-02 -1.51181009e-03 6.21973351e-03 -1.51181009e-03 1.36332476e-02 -3.09680136e-03 6.21973351e-03 -3.09680136e-03 -2.38600754e-02
1.59872249e-02 2.14628017e-03 2.95726101e-03 2.14628017e-03 1.47288627e-02 -4.16178811e-03 2.95726101e-03 -4.16178811e-03 -2.58094119e-02
1.93375306e-02 -3.67949176e-03 -1.94740023e-02 -3.67949176e-03 1.76080212e-02 5.08299191e-04 -1.94740023e-02 5.08299191e-04 -3.06530595e-02
1.26071713e-02 2.44868354e-03 -1.23910796e-02 2.44868354e-03 1.21869338e-02 -3.43952780e-03 -1.23910796e-02 -3.43952780e-03 -2.08791389e-02
1.86011503e-02 4.26122802e-04 -4.60300274e-03 4.26122802e-04 2.06520418e-02 4.77731068e-03 -4.60300274e-03 4.77731068e-03 -3.30441417e-02
1.40328854e-02 -1.88640584e-03 -1.62819753e-02 -1.88640584e-03 1.01656980e-02 3.20338551e-03 -1.62819753e-02 3.20338551e-03 -1.99975647e-02
1.74545567e-02 -1.08393170e-03 -1.94927354e-03 -1.08393170e-03 1.78448264e-02 2.82494174e-03 -1.94927354e-03 2.82494174e-03 -2.97175702e-02
1.45727026e-02 8.74754798e-04 -5.33516856e-03 8.74754798e-04 1.50239656e-02 4.78039015e-04 -5.33516856e-03 4.78039015e-04 -2.49324739e-02
1.57425553e-02 4.35494221e-04 -2.16768577e-03 4.35494221e-04 1.57316760e-02 9.15134224e-04 -2.16768577e-03 9.15134224e-04 -2.64960090e-02
1.46249831e-02 1.41405134e-03 -4.00672364e-03 1.41405134e-03 1.37464842e-02 -5.05578204e-03 -4.00672364e-03 -5.05578204e-03 -2.38458887e-02
8.15423116e-03 -3.17398573e-03 1.18159670e-02 -3.17398573e-03 1.27304051e-02 -1.32769014e-04 1.18159670e-02 -1.32769014e-04 -1.72468831e-02
4.95123467e-03 5.63529655e-04 8.99056369e-03 5.63529655e-04 1.19020722e-02 4.09045932e-03 8.99056369e-03 4.09045932e-03 -1.40176336e-02
1.80958587e-02 -2.09523425e-03 1.34823809e-02 -2.09523425e-03 1.31569308e-02 -6.26320688e-03 1.34823809e-02 -6.26320688e-03 -2.60622469e-02
1.23707401e-02 2.16814358e-03 1.65618050e-02 2.16814358e-03 1.23489136e-02 -1.04698788e-02 1.65618050e-02 -1.04698788e-02 -2.04602955e-02
1.56371251e-02 -7.20630353e-03 1.93152654e-02 -7.20630353e-03 1.92860786e-02 -2.00404591e-02 1.93152654e-02 -2.00404591e-02 -2.86611309e-02
2.37317730e-02 -2.22261576e-03 2.71464088e-03 -2.22261576e-03 1.56632120e-02 -1.34273758e-02 2.71464088e-03 -1.34273758e-02 -3.31472531e-02
-5.57387760e-03 -2.56013572e-02 -6.13924265e-02 -2.56013572e-02 1.89964136e-04 -4.61480096e-02 -6.13924265e-02 -4.61480096e-02 1.04287658e-02
5.64845799e-03 -1.01104487e-03 -6.71871193e-03 -1.01104487e-03 2.15199590e-03 -7.59742285e-03 -6.71871193e-03 -7.59742285e-03 -5.03246486e-03
5.02353182e-03 -1.05721434e-03 4.64661736e-03 -1.05721434e-03 8.05118208e-03 5.76018155e-03 4.64661736e-03 5.76018155e-03 -1.08763106e-02
4.15091036e-03 -1.96140993e-03 8.04789754e-03 -1.96140993e-03 7.74326082e-03 1.12855542e-03 8.04789754e-03 1.12855542e-03 -9.79195093e-03
8.62913897e-03 -1.08584389e-03 1.18302061e-02 -1.08584389e-03 1.00867388e-02 7.70290739e-03 1.18302061e-02 7.70290739e-03 -1.50308493e-02
8.49430333e-03 2.55116978e-04 7.05775390e-04 2.55116978e-04 1.20963987e-02 6.80577243e-04 7.05775390e-04 6.80577243e-04 -1.70490858e-02
5.22137980e-03 2.14003597e-03 2.36149353e-04 2.14003597e-03 6.80737378e-03 -9.18620994e-04 2.36149353e-04 -9.18620994e-04 -1.00859773e-02
1.34917750e-02 5.19626348e-03 -3.93683570e-03 5.19626348e-03 1.61032279e-02 9.88719865e-03 -3.93683570e-03 9.88719865e-03 -2.47918434e-02
1.13484305e-02 3.99636524e-03 4.54907957e-03 3.99636524e-03 1.80177486e-02 4.43329581e-03 4.54907957e-03 4.43329581e-03 -2.47324337e-02
5.65320825e-03 -4.19230026e-04 3.01301747e-03 -4.19230026e-04 1.00804196e-02 1.60003914e-02 3.01301747e-03 1.60003914e-02 -1.24278709e-02
2.53554648e-02 -3.93520552e-03 2.56812363e-02 -3.93520552e-03 1.92687078e-02 1.35274026e-02 2.56812363e-02 1.35274026e-02 -3.71800959e-02
1.56119892e-02 -1.52068174e-03 -1.26154382e-02 -1.52068174e-03 1.98423889e-02 -9.03729470e-03 -1.26154382e-02 -9.03729470e-03 -2.93272585e-02
6.10947935e-03 -3.32044554e-04 4.42872522e-03 -3.32044554e-04 9.98225296e-03 4.20401338e-03 4.42872522e-03 4.20401338e-03 -1.34616508e-02
1.54523726e-02 7.66638503e-03 -1.68813154e-03 7.66638503e-03 1.81868719e-02 5.67051730e-03 -1.68813154e-03 5.67051730e-03 -2.83323862e-02
1.26278833e-02 -2.10202648e-03 9.62505350e-03 -2.10202648e-03 2.11823294e-02 -7.88079179e-03 9.62505350e-03 -7.88079179e-03 -2.83808643e-02
1.99415074e-02 -1.88415404e-03 -1.37029861e-02 -1.88415404e-03 2.05975985e-02 1.51569408e-02 -1.37029861e-02 1.51569408e-02 -3.37671740e-02
1.75505970e-02 8.91231218e-03 3.71741552e-03 8.91231218e-03 2.31843094e-02 -3.47942896e-02 3.71741552e-03 -3.47942896e-02 -3.38147103e-02
2.14130894e-02 -1.58104743e-03 -3.80618839e-03 -1.58104743e-03 1.43940498e-02 -6.15082588e-03 -3.80618839e-03 -6.15082588e-03 -2.99698735e-02
2.14874651e-02 1.76735921e-06 1.42092613e-03 1.76735921e-06 1.11241248e-02 -1.53288723e-03 1.42092613e-03 -1.53288723e-03 -2.73690028e-02
1.98814981e-02 1.25862789e-03 2.52586621e-03 1.25862789e-03 1.21794408e-02 1.40583332e-03 2.52586621e-03 1.40583332e-03 -2.69383662e-02
2.04542354e-02 4.66762713e-03 3.20006491e-03 4.66762713e-03 1.31473148e-02 2.22214750e-03 3.20006491e-03 2.22214750e-03 -2.82225455e-02
2.27537649e-02 8.24776856e-04 4.24125505e-03 8.24776856e-04 1.18584533e-02 -4.28953921e-04 4.24125505e-03 -4.28953921e-04 -2.90416111e-02
1.59217864e-02 2.74363102e-03 5.41336252e-04 2.74363102e-03 1.44047232e-02 3.02010393e-03 5.41336252e-04 3.02010393e-03 -2.55222600e-02
1.56437709e-02 6.30098162e-03 1.09453389e-03 6.30098162e-03 1.45982247e-02 1.31591909e-03 1.09453389e-03 1.31591909e-03 -2.54107856e-02
1.19317670e-02 1.74627631e-03 -2.09146622e-03 1.74627631e-03 1.51285105e-02 8.89793260e-04 -2.09146622e-03 8.89793260e-04 -2.27777255e-02
1.11369730e-02 3.42428005e-03 -8.28448277e-04 3.42428005e-03 1.46689770e-02 1.66356568e-03 -8.28448277e-04 1.66356568e-03 -2.16899447e-02
9.72169917e-03 -3.15055964e-04 -1.27066765e-03 -3.15055964e-04 1.38470826e-02 -8.81282326e-05 -1.27066765e-03 -8.81282326e-05 -1.98366926e-02
8.60159047e-03 -8.71462176e-04 -1.36618645e-03 -8.71462176e-04 1.27915539e-02 5.77406063e-04 -1.36618645e-03 5.77406063e-04 -1.79792212e-02
8.90361378e-03 -1.19300818e-03 -2.12300854e-03 -1.19300818e-03 1.22269206e-02 8.62101457e-04 -2.12300854e-03 8.62101457e-04 -1.77845028e-02
8.49975366e-03 -2.35550031e-03 -3.22485890e-03 -2.35550031e-03 1.04501715e-02 -2.39798588e-04 -3.22485890e-03 -2.39798588e-04 -1.59130010e-02
8.18488910e-03 5.95205231e-04 -1.60812296e-03 5.95205231e-04 1.23851337e-02 2.15308659e-03 -1.60812296e-03 2.15308659e-03 -1.73118711e-02
9.01164301e-03 -2.38157548e-03 -1.29241636e-03 -2.38157548e-03 1.00948471e-02 -1.26273450e-03 -1.29241636e-03 -1.26273450e-03 -1.60594189e-02
2.52189392e-02 6.27835700e-03 1.04154586e-02 6.27835700e-03 1.32433230e-02 6.23202039e-04 1.04154586e-02 6.23202039e-04 -3.21494469e-02
2.68019135e-02 3.73923249e-03 1.37440864e-02 3.73923249e-03 1.46860317e-02 -5.53709501e-03 1.37440864e-02 -5.53709501e-03 -3.46691525e-02
1.75309464e-02 7.44211458e-03 -9.41779348e-04 7.44211458e-03 1.28550447e-02 7.73949432e-04 -9.41779348e-04 7.73949432e-04 -2.55271883e-02
8.91702052e-03 4.50472086e-03 -4.71214195e-03 4.50472086e-03 9.60502826e-03 -1.95377914e-04 -4.71214195e-03 -1.95377914e-04 -1.54867722e-02
5.32491981e-03 5.51915844e-04 -5.02729835e-03 5.51915844e-04 8.60567763e-03 -3.90436850e-04 -5.02729835e-03 -3.90436850e-04 -1.17461799e-02
4.67260851e-03 -2.14121654e-03 -8.36475112e-03 -2.14121654e-03 7.73740859e-03 -2.37188226e-03 -8.36475112e-03 -2.37188226e-03 -1.02843872e-02
5.46892546e-03 -4.76257410e-03 -8.80989471e-03 -4.76257410e-03 6.66758274e-03 -5.09959816e-03 -8.80989471e-03 -5.09959816e-03 -9.95670849e-03
2.87783255e-02 -1.24436834e-03 2.68613383e-02 -1.24436834e-03 1.07203692e-02 -6.84079404e-03 2.68613383e-02 -6.84079404e-03 -3.24784822e-02
3.02510156e-02 -5.57826071e-03 2.72772939e-02 -5.57826071e-03 1.36831523e-02 -8.81172251e-03 2.72772939e-02 -8.81172251e-03 -3.62875164e-02
1.94993101e-02 6.43991275e-03 1.16745821e-03 6.43991275e-03 9.25951793e-03 -1.15652924e-02 1.16745821e-03 -1.15652924e-02 -2.40127034e-02
7.04635105e-03 4.85472633e-03 -8.19739567e-03 4.85472633e-03 2.88973736e-03 -4.48293678e-03 -8.19739567e-03 -4.48293678e-03 -8.12039777e-03
1.28248916e-03 -1.42818708e-02 -1.96096301e-02 -1.42818708e-02 -7.59676890e-03 -1.70998704e-02 -1.96096301e-02 -1.70998704e-02 8.44127312e-03
-2.13434209e-04 9.80706823e-04 -1.05615463e-03 9.80706823e-04 4.11856507e-04 -3.85154326e-04 -1.05615463e-03 -3.85154326e-04 1.20458549e-04
2.73909899e-02 3.67070019e-03 -5.36145782e-03 3.67070019e-03 1.80653684e-02 1.61250285e-02 -5.36145782e-03 1.61250285e-02 -3.72411124e-02
2.80335310e-02 5.39638692e-03 -1.62061613e-02 5.39638692e-03 2.39528202e-02 1.07328411e-02 -1.62061613e-02 1.07328411e-02 -4.35904413e-02
2.85042617e-02 9.11065377e-04 3.97926685e-03 9.11065377e-04 1.74071980e-02 -1.57827889e-02 3.97926685e-03 -1.57827889e-02 -3.87800932e-02
2.57492385e-02 -2.14849416e-03 -3.84463556e-03 -2.14849416e-03 3.24153562e-02 8.69187559e-03 -3.84463556e-03 8.69187559e-03 -4.89590770e-02
2.56424849e-02 -1.58351101e-03 2.83560967e-03 -1.58351101e-03 3.22045092e-02 -3.15542583e-03 2.83560967e-03 -3.15542583e-03 -4.87322472e-02
2.77025071e-02 -3.82524158e-03 6.41256873e-03 -3.82524158e-03 2.56136935e-02 8.67809088e-03 6.41256873e-03 8.67809088e-03 -4.47999947e-02
2.69346545e-02 1.46871334e-03 6.98277607e-03 1.46871334e-03 2.64643664e-02 -2.60835211e-03 6.98277607e-03 -2.60835211e-03 -4.49553244e-02
2.43181293e-02 7.77478010e-03 -2.02736291e-03 7.77478010e-03 2.72992332e-02 -8.01992656e-03 -2.02736291e-03 -8.01992656e-03 -4.33880109e-02
2.68894015e-02 -4.74958692e-03 -4.37099701e-03 -4.74958692e-03 2.02806233e-02 1.35328312e-02 -4.37099701e-03 1.35328312e-02 -3.95401875e-02
1.84053264e-02 3.94294679e-03 1.96909253e-03 3.94294679e-03 6.95299386e-03 -6.80053292e-03 1.96909253e-03 -6.80053292e-03 -2.16660961e-02
1.39853202e-02 -7.33259779e-03 -1.81953877e-03 -7.33259779e-03 1.05163121e-02 -2.09091080e-03 -1.81953877e-03 -2.09091080e-03 -2.05211923e-02
-1.25287650e-02 1.00955488e-02 7.61686778e-03 1.00955488e-02 -5.14712837e-03 -1.69197358e-02 7.61686778e-03 -1.69197358e-02 1.83890779e-02
-3.57348565e-03 -5.15049417e-03 6.33815071e-03 -5.15049417e-03 -7.31375825e-04 -2.50491966e-02 6.33815071e-03 -2.50491966e-02 5.55432914e-03
3.15416215e-03 -5.59194336e-03 -2.33042187e-03 -5.59194336e-03 -3.54555468e-03 7.05454166e-03 -2.33042187e-03 7.05454166e-03 1.38464162e-03
-1.42748553e-03 -8.80001710e-03 -2.25478651e-03 -8.80001710e-03 7.82813353e-04 -2.87426419e-03 -2.25478651e-03 -2.87426419e-03 1.54636282e-03
0.00000000e+00 0.00000000e+00 0.00000000e+00 0.00000000e+00 0.00000000e+00 0.00000000e+00 0.00000000e+00 0.00000000e+00 0.00000000e+00
0.00000000e+00 0.00000000e+00 0.00000000e+00 0.00000000e+00 0.00000000e+00 0.00000000e+00 0.00000000e+00 0.00000000e+00 0.00000000e+00
0.00000000e+00 0.00000000e+00 0.00000000e+00 0.00000000e+00 0.00000000e+00 0.00000000e+00 0.00000000e+00 0.00000000e+00 0.00000000e+00
0.00000000e+00 0.00000000e+00 0.00000000e+00 0.00000000e+00 0.00000000e+00 0.00000000e+00 0.00000000e+00 0.00000000e+00 0.00000000e+00
1.99714220e-05 -2.96421607e-05 -2.54293556e-05 -2.96421607e-05 -3.94425100e-05 -3.38759481e-05 -2.54293556e-05 -3.38759481e-05 8.33421774e-06
0.00000000e+00 0.00000000e+00 0.00000000e+00 0.00000000e+00 0.00000000e+00 0.00000000e+00 0.00000000e+00 0.00000000e+00 0.00000000e+00
0.00000000e+00 0.00000000e+00 0.00000000e+00 0.00000000e+00 0.00000000e+00 0.00000000e+00 0.00000000e+00 0.00000000e+00 0.00000000e+00
-3.04911179e-05 -1.54929740e-04 1.34296376e-05 -1.54929740e-04 6.96564045e-06 4.25316042e-06 1.34296376e-05 4.25316042e-06 3.43072631e-05
2.31612325e-02 3.95040843e-07 5.29762474e-07 3.95040843e-07 1.17739160e-02 1.54609552e-08 5.29762474e-07 1.54609552e-08 -2.93167625e-02
2.06755390e-02 2.69241387e-03 -9.57683369e-07 2.69241387e-03 1.32527882e-02 1.51654641e-03 -9.57683369e-07 1.51654641e-03 -2.85207322e-02
2.29904568e-02 6.99031167e-03 1.89894674e-03 6.99031167e-03 1.24921734e-02 2.93647440e-03 1.89894674e-03 2.93647440e-03 -2.97407978e-02
2.57528983e-02 2.24242883e-03 4.94799111e-04 2.24242883e-03 1.10907387e-02 4.20186552e-08 4.94799111e-04 4.20186552e-08 -3.08649549e-02
1.56526691e-02 2.07168981e-03 -3.38373138e-06 2.07168981e-03 1.60340085e-02 3.25466075e-03 -3.38373138e-06 3.25466075e-03 -2.66659241e-02
1.63257690e-02 7.60717422e-03 2.18454556e-03 7.60717422e-03 1.51229810e-02 2.56801571e-03 2.18454556e-03 2.56801571e-03 -2.64072679e-02
1.09556727e-02 2.50170694e-03 -3.35600635e-06 2.50170694e-03 1.75422421e-02 2.14392948e-03 -3.35600635e-06 2.14392948e-03 -2.39476617e-02
1.04923754e-02 4.85934241e-03 2.00053904e-03 4.85934241e-03 1.56112185e-02 2.88998097e-03 2.00053904e-03 2.88998097e-03 -2.19101566e-02
8.30407860e-03 1.27530639e-03 -1.24257076e-06 1.27530639e-03 1.68529609e-02 5.11788036e-04 -1.24257076e-06 5.11788036e-04 -2.11112155e-02
7.43754511e-03 1.81223544e-03 3.60896101e-03 1.81223544e-03 1.47387479e-02 2.09344819e-03 3.60896101e-03 2.09344819e-03 -1.85961509e-02
8.71204725e-03 -1.60242128e-03 -1.38809355e-06 -1.60242128e-03 1.54033331e-02 5.45656658e-04 -1.38809355e-06 5.45656658e-04 -2.02639643e-02
6.97150629e-03 -1.30059740e-03 4.40480141e-03 -1.30059740e-03 1.29779968e-02 1.39541862e-04 4.40480141e-03 1.39541862e-04 -1.67493387e-02
8.42955988e-03 -4.82769636e-03 3.69516783e-06 -4.82769636e-03 1.67527329e-02 2.61706882e-03 3.69516783e-06 2.61706882e-03 -2.11181734e-02
7.67229008e-03 -3.42066982e-03 6.20286074e-03 -3.42066982e-03 1.25799165e-02 -2.77463731e-03 6.20286074e-03 -2.77463731e-03 -1.69485314e-02
2.43244586e-02 1.06005806e-02 -3.80502822e-03 1.06005806e-02 1.70469536e-02 4.45798191e-03 -3.80502822e-03 4.45798191e-03 -3.47080966e-02
2.88080629e-02 1.52118137e-03 -1.61325681e-03 1.52118137e-03 1.95787312e-02 -3.20975050e-06 -1.61325681e-03 -3.20975050e-06 -4.06626891e-02
1.57222492e-02 1.40588558e-02 -4.35331167e-04 1.40588558e-02 1.30556275e-02 5.78498398e-03 -4.35331167e-04 5.78498398e-03 -2.40146122e-02
8.09005392e-03 6.91066519e-03 2.65395734e-03 6.91066519e-03 9.87177843e-03 3.60202283e-03 2.65395734e-03 3.60202283e-03 -1.50215628e-02
3.36960154e-03 1.52346991e-04 3.47173755e-03 1.52346991e-04 6.47483655e-03 3.45641689e-03 3.47173755e-03 3.45641689e-03 -8.20983376e-03
1.03729076e-03 -2.28226106e-03 3.15064588e-03 -2.28226106e-03 4.34268336e-03 2.75998677e-05 3.15064588e-03 2.75998677e-05 -4.44899948e-03
2.43861519e-03 -4.17274170e-03 1.75232452e-03 -4.17274170e-03 2.50879642e-03 -3.01288744e-03 1.75232452e-03 -3.01288744e-03 -4.05426777e-03
3.21854688e-02 4.77593159e-04 1.66153926e-02 4.77593159e-04 2.95952037e-02 1.02269966e-02 1.66153926e-02 1.02269966e-02 -5.20034451e-02
3.85368653e-02 -3.77498823e-03 1.46962916e-02 -3.77498823e-03 3.43882367e-02 1.56520910e-05 1.46962916e-02 1.56520910e-05 -6.14081249e-02
1.37549071e-02 4.52839717e-03 5.32902249e-03 4.52839717e-03 1.06260773e-02 9.32082627e-03 5.32902249e-03 9.32082627e-03 -2.04185570e-02
3.57183377e-03 1.54975307e-03 1.83751667e-03 1.54975307e-03 2.31650782e-03 3.86069395e-03 1.83751667e-03 3.86069395e-03 -5.03838545e-03
-1.30231193e-04 -1.58062617e-03 1.65087508e-04 -1.58062617e-03 4.58907048e-04 9.29311914e-05 1.65087508e-04 9.29311914e-05 -3.42141480e-04
-3.79186982e-04 -8.39138821e-04 -2.07442846e-03 -8.39138821e-04 9.96919669e-04 -1.11818022e-05 -2.07442846e-03 -1.11818022e-05 -4.13400043e-04
-4.84225675e-05 -5.59371629e-04 9.55033954e-05 -5.59371629e-04 -6.30590059e-05 1.44669409e-04 9.55033954e-05 1.44669409e-04 8.30057942e-05
3.43767926e-04 -2.41473220e-03 -1.83984652e-03 -2.41473220e-03 -3.16711259e-04 -1.95387681e-05 -1.83984652e-03 -1.95387681e-05 2.67246076e-04
3.27692353e-04 -3.84724437e-04 5.35371175e-04 -3.84724437e-04 -8.15937470e-04 6.75570745e-05 5.35371175e-04 6.75570745e-05 5.64054048e-04
4.67145519e-03 -1.61262089e-03 -5.28750010e-03 -1.61262089e-03 -2.41041316e-03 -1.22305294e-02 -5.28750010e-03 -1.22305294e-02 -6.41242135e-04
-2.84177007e-03 -1.48768027e-03 1.27219938e-03 -1.48768027e-03 -4.87442615e-04 1.56137301e-03 1.27219938e-03 1.56137301e-03 3.45033302e-03
9.85768065e-03 4.14752634e-03 -3.55644478e-03 4.14752634e-03 1.34485895e-02 1.72903240e-02 -3.55644478e-03 1.72903240e-02 -1.97896827e-02
-7.05737313e-05 -1.98415944e-04 7.97005835e-05 -1.98415944e-04 7.98450277e-05 9.30427508e-04 7.97005835e-05 9.30427508e-04 -1.19935531e-05
-2.77082842e-04 -5.76054126e-04 3.61147839e-05 -5.76054126e-04 2.20102896e-04 1.48422005e-05 3.61147839e-05 1.48422005e-05 1.31299780e-04
-8.95496967e-07 -7.52320645e-07 -1.51414514e-05 -7.52320645e-07 -4.14647691e-06 -1.47830366e-06 -1.51414514e-05 -1.47830366e-06 1.92284885e-06
-1.79061229e-05 1.72886719e-05 -2.53189546e-06 1.72886719e-05 3.37678317e-05 -6.41174231e-06 -2.53189546e-06 -6.41174231e-06 -2.56327659e-05
-4.27176565e-06 -1.08989218e-04 1.84470136e-05 -1.08989218e-04 7.58667647e-06 -7.05229422e-06 1.84470136e-05 -7.05229422e-06 -1.81943130e-06
1.16088777e-04 -3.02471482e-04 -5.15509746e-05 -3.02471482e-04 -2.20667745e-04 -5.29174213e-06 -5.15509746e-05 -5.29174213e-06 1.49560117e-04
4.31058295e-02 7.59275118e-03 -1.30801722e-02 7.59275118e-03 5.15939891e-02 8.65466427e-06 -1.30801722e-02 8.65466427e-06 -7.97644705e-02
5.01733460e-02 -6.38887240e-03 -1.05930697e-02 -6.38887240e-03 4.93093170e-02 2.32044235e-02 -1.05930697e-02 2.32044235e-02 -8.36980119e-02
3.16060564e-02 -9.93655090e-03 1.14077348e-02 -9.93655090e-03 3.48804084e-02 1.18889666e-02 1.14077348e-02 1.18889666e-02 -5.58591622e-02
3.39307766e-02 -1.50905986e-03 1.11663206e-02 -1.50905986e-03 4.09135222e-02 -9.42589759e-06 1.11663206e-02 -9.42589759e-06 -6.29362725e-02
4.37431424e-05 -6.45099477e-05 7.93556197e-07 -6.45099477e-05 -2.95340036e-05 -1.38016642e-05 7.93556197e-07 -1.38016642e-05 -2.71784172e-05
1.62793373e-03 -1.25071049e-03 9.22267141e-05 -1.25071049e-03 -6.56145282e-04 1.40793890e-04 9.22267141e-05 1.40793890e-04 -8.36367206e-04
0.00000000e+00 0.00000000e+00 0.00000000e+00 0.00000000e+00 0.00000000e+00 0.00000000e+00 0.00000000e+00 0.00000000e+00 0.00000000e+00
3.76074165e-02 -1.18112730e-02 5.71808219e-03 -1.18112730e-02 2.20661303e-02 1.09435800e-02 5.71808219e-03 1.09435800e-02 -5.00356518e-02
3.68327759e-02 -4.46566055e-03 1.15604103e-02 -4.46566055e-03 2.53700651e-02 2.27371929e-05 1.15604103e-02 2.27371929e-05 -5.22853285e-02
2.48385351e-02 5.05496163e-03 1.72900740e-03 5.05496163e-03 2.51562875e-02 9.33933631e-03 1.72900740e-03 9.33933631e-03 -4.24961299e-02
2.75134034e-02 -3.63315130e-03 -2.31375417e-03 -3.63315130e-03 1.98115450e-02 1.53755285e-02 -2.31375417e-03 1.53755285e-02 -3.95450238e-02
7.40333344e-03 2.84623972e-03 -4.61814296e-03 2.84623972e-03 3.16471275e-03 7.49827106e-03 -4.61814296e-03 7.49827106e-03 -7.70772947e-03
7.34366626e-03 -8.57340056e-03 -4.75747767e-03 -8.57340056e-03 1.19556300e-02 5.61396196e-03 -4.75747767e-03 5.61396196e-03 -1.63828144e-02
-2.40354217e-03 -5.56393887e-03 -6.53649913e-04 -5.56393887e-03 1.73403256e-03 4.62845375e-04 -6.53649913e-04 4.62845375e-04 9.99987475e-04
-1.87220954e-04 -1.22373021e-04 -5.80003280e-06 -1.22373021e-04 8.72514938e-05 -1.43932320e-05 -5.80003280e-06 -1.43932320e-05 1.31778099e-04
0.00000000e+00 0.00000000e+00 0.00000000e+00 0.00000000e+00 0.00000000e+00 0.00000000e+00 0.00000000e+00 0.00000000e+00 0.00000000e+00
</DataArray>
<DataArray type="Float32" Name="Spatial_displacement" NumberOfComponents="3" format="ascii">
5.80377318e-03 5.09791225e-02 -2.06730478e-02
1.10713374e-02 4.91463393e-02 -1.41194686e-02
1.04145203e-02 5.98847829e-02 -2.21789889e-02
3.92679311e-03 5.79065904e-02 -2.65311785e-02
4.67257947e-03 5.71908243e-02 -3.06376442e-02
1.18478667e-02 5.81502914e-02 -3.03206090e-02
8.61067511e-03 7.24563971e-02 -4.05618325e-02
4.45983559e-03 6.30307347e-02 -3.47008184e-02
1.95724145e-02 4.62779626e-02 -1.10811926e-02
2.14764252e-02 5.85489646e-02 -2.12954655e-02
2.31652372e-02 5.37278987e-02 -3.25067565e-02
3.58319394e-02 7.57381767e-02 -6.42650127e-02
1.93225034e-02 5.08404933e-02 1.05723739e-05
1.93305276e-02 5.34160323e-02 -4.45879996e-05
1.67312957e-02 5.34333140e-02 1.33737922e-05
1.67156197e-02 5.08431420e-02 4.24832106e-05
1.93675421e-02 5.07952422e-02 -4.09781933e-06
1.93553343e-02 5.33937961e-02 -3.27080488e-05
1.67643204e-02 5.33786342e-02 6.96629286e-07
1.67790912e-02 5.07846400e-02 5.36032021e-05
0.00000000e+00 0.00000000e+00 -6.40733615e-02
1.20288786e-02 0.00000000e+00 -6.52668774e-02
1.20181646e-02 1.26341013e-02 -6.17499314e-02
0.00000000e+00 1.24838492e-02 -5.95918894e-02
0.00000000e+00 0.00000000e+00 -8.59142914e-02
1.71184503e-02 0.00000000e+00 -8.62389505e-02
1.73145309e-02 1.15357433e-02 -8.53737146e-02
0.00000000e+00 1.11854896e-02 -8.26832652e-02
2.64343955e-02 0.00000000e+00 -7.11169839e-02
2.31097210e-02 9.60898399e-03 -6.58972859e-02
3.29653211e-02 0.00000000e+00 -8.93682539e-02
3.38481180e-02 1.20317684e-02 -9.06478465e-02
3.94617990e-02 0.00000000e+00 -7.68299028e-02
3.96198295e-02 7.19141401e-03 -7.49263763e-02
4.85439561e-02 0.00000000e+00 -9.57456231e-02
4.76062596e-02 1.07508898e-02 -9.63732302e-02
5.52053787e-02 0.00000000e+00 -8.23875442e-02
5.55300936e-02 7.74760544e-03 -8.46956447e-02
6.13800436e-02 0.00000000e+00 -1.00996971e-01
6.12738356e-02 8.50074552e-03 -1.03911035e-01
6.94568604e-02 0.00000000e+00 -9.01766717e-02
7.05415979e-02 8.76631029e-03 -8.86845589e-02
7.25062117e-02 0.00000000e+00 -1.03524715e-01
7.27825016e-02 7.18482397e-03 -1.08878568e-01
8.11606869e-02 0.00000000e+00 -9.35879499e-02
8.30688402e-02 7.33877905e-03 -9.16303843e-02
8.06456059e-02 0.00000000e+00 -1.04520932e-01
8.38227198e-02 5.64219430e-03 -1.08790457e-01
7.45876320e-03 2.31867805e-02 -5.27309254e-02
0.00000000e+00 2.72643287e-02 -5.14413938e-02
1.70800798e-02 2.50768587e-02 -7.42463171e-02
0.00000000e+00 2.53873989e-02 -7.28444308e-02
2.08542533e-02 2.23056860e-02 -6.46354854e-02
3.62052172e-02 2.57146750e-02 -8.74196067e-02
3.59059349e-02 2.51942631e-02 -8.05576742e-02
4.97356579e-02 2.34274101e-02 -1.09607816e-01
5.63724563e-02 2.85500754e-02 -8.23198855e-02
5.92703708e-02 1.92015432e-02 -1.15468994e-01
7.32058734e-02 2.44583301e-02 -8.45983475e-02
7.36451671e-02 2.21177079e-02 -1.12898916e-01
8.69407728e-02 2.10644603e-02 -8.62277672e-02
8.81171152e-02 1.92850828e-02 -1.12915516e-01
4.59351204e-03 4.01906930e-02 -3.67739722e-02
0.00000000e+00 3.95735763e-02 -4.08196151e-02
1.35591459e-02 3.98236774e-02 -6.39156848e-02
0.00000000e+00 3.77012417e-02 -5.36199138e-02
1.85126923e-02 3.61722857e-02 -5.07184379e-02
3.97979841e-02 4.21852022e-02 -9.31312591e-02
1.63834933e-02 3.12443841e-02 -1.41042441e-01
6.02305830e-02 3.37184519e-02 -1.25050306e-01
3.98797356e-03 4.87229526e-02 -2.94442084e-02
0.00000000e+00 5.07435203e-02 -3.05459686e-02
7.95467012e-03 5.29157892e-02 -4.19176817e-02
0.00000000e+00 5.26376069e-02 -4.27676626e-02
0.00000000e+00 5.49972877e-02 -2.97419559e-02
8.93273950e-03 6.51830435e-02 -4.06095125e-02
0.00000000e+00 6.10450990e-02 -4.49338667e-02
1.12386607e-02 4.86027040e-02 -1.87145434e-02
2.43843105e-02 5.61912954e-02 -5.27980737e-02
2.53749173e-02 6.35085776e-02 -4.67341989e-02
0.00000000e+00 6.33625835e-02 -3.89416888e-02
1.43527230e-02 8.17904621e-02 -6.47350326e-02
0.00000000e+00 8.40267986e-02 -5.69934770e-02
2.79801432e-02 8.83502439e-02 -7.00024888e-02
4.27575819e-02 5.61635979e-02 -9.94014591e-02
6.19826540e-02 7.17084706e-02 -9.25050825e-02
0.00000000e+00 0.00000000e+00 -1.11507349e-01
2.18626484e-02 0.00000000e+00 -1.13014415e-01
2.31672935e-02 1.20343734e-02 -1.10536367e-01
0.00000000e+00 1.11857764e-02 -1.10107586e-01
3.99143137e-02 0.00000000e+00 -1.14731312e-01
4.27558646e-02 1.45772547e-02 -1.14209138e-01
5.40772900e-02 0.00000000e+00 -1.16900578e-01
5.58815934e-02 1.58787388e-02 -1.18969880e-01
6.50318414e-02 0.00000000e+00 -1.20429263e-01
6.46929219e-02 1.42774209e-02 -1.21687129e-01
7.41071030e-02 0.00000000e+00 -1.21105433e-01
7.28674009e-02 1.17990011e-02 -1.23225406e-01
8.17451999e-02 0.00000000e+00 -1.20812885e-01
8.23564604e-02 1.19963717e-02 -1.22415781e-01
2.81095691e-02 2.77137514e-02 -1.09039009e-01
0.00000000e+00 2.38952674e-02 -1.03673138e-01
4.90536056e-02 3.06399614e-02 -1.17136024e-01
6.13770261e-02 2.93170214e-02 -1.25483930e-01
6.72614425e-02 2.56501827e-02 -1.32432342e-01
7.15032071e-02 2.16869526e-02 -1.36584818e-01
7.64199421e-02 2.12280117e-02 -1.35917217e-01
2.94245929e-02 3.65479141e-02 -8.89409035e-02
0.00000000e+00 4.24138159e-02 -8.02552253e-02
5.64512052e-02 3.84206772e-02 -1.20350704e-01
7.00711012e-02 3.56178433e-02 -1.37013376e-01
6.43070489e-02 1.40572526e-02 -1.52341366e-01
7.39820823e-02 3.05310134e-02 -1.40938878e-01
2.86898781e-02 4.81378436e-02 -6.06214814e-02
0.00000000e+00 4.26137969e-02 -7.09925145e-02
6.30654022e-02 5.23221083e-02 -1.12920336e-01
2.63340138e-02 7.76991248e-02 -8.59224200e-02
0.00000000e+00 7.93228149e-02 -8.29411745e-02
3.00326608e-02 1.10203251e-01 -9.57389176e-02
0.00000000e+00 1.08695433e-01 -9.31784064e-02
4.73252945e-02 6.85749799e-02 -9.56730247e-02
6.97544366e-02 9.28973854e-02 -1.01442173e-01
6.86974376e-02 4.85277697e-02 -1.30885556e-01
9.21324939e-02 5.55518195e-02 -1.22939430e-01
3.63682620e-02 4.11400981e-02 -1.65716708e-01
6.14628196e-02 4.33341824e-02 -1.48694515e-01
8.41695368e-02 3.08387373e-02 -1.41432226e-01
9.08787623e-02 3.23378481e-02 -1.41005710e-01
8.46356899e-02 2.56039202e-02 -1.41217709e-01
8.46198201e-02 2.01380495e-02 -1.41208947e-01
9.00735110e-02 2.01386474e-02 -1.41207755e-01
9.00479257e-02 2.56280806e-02 -1.41153723e-01
8.46000016e-02 2.56052036e-02 -1.41216114e-01
8.46274942e-02 2.01567486e-02 -1.41192615e-01
9.00606960e-02 2.01336630e-02 -1.41211540e-01
9.01641324e-02 2.55079009e-02 -1.41157538e-01
0.00000000e+00 0.00000000e+00 -1.41189933e-01
2.34350748e-02 0.00000000e+00 -1.41189933e-01
2.62209252e-02 1.39926672e-02 -1.41189933e-01
0.00000000e+00 1.17000993e-02 -1.41189933e-01
4.32823449e-02 0.00000000e+00 -1.41189933e-01
4.54206169e-02 1.68383047e-02 -1.41189933e-01
5.62915243e-02 0.00000000e+00 -1.41189933e-01
5.88734224e-02 1.79692544e-02 -1.41189933e-01
6.55610934e-02 0.00000000e+00 -1.41189933e-01
6.68682009e-02 1.80425160e-02 -1.41189933e-01
7.46665150e-02 0.00000000e+00 -1.41189933e-01
7.30120912e-02 1.63819939e-02 -1.41189933e-01
8.44378322e-02 0.00000000e+00 -1.41189933e-01
7.94384107e-02 1.84583031e-02 -1.41189933e-01
3.27301845e-02 2.38089822e-02 -1.41189933e-01
0.00000000e+00 2.22008787e-02 -1.41189933e-01
5.50376251e-02 3.02532166e-02 -1.41189933e-01
6.51169866e-02 3.20845470e-02 -1.41189933e-01
7.08429068e-02 2.92700473e-02 -1.41189933e-01
7.15147629e-02 2.50497777e-02 -1.41189933e-01
7.31895417e-02 2.31199972e-02 -1.41189933e-01
4.02347296e-02 5.39527871e-02 -1.41189933e-01
0.00000000e+00 5.78986704e-02 -1.41189933e-01
6.60914034e-02 4.38738018e-02 -1.41189933e-01
7.41182417e-02 3.74991298e-02 -1.41189933e-01
7.41422698e-02 3.07758152e-02 -1.41189933e-01
7.42663518e-02 2.52108593e-02 -1.41538620e-01
7.45469183e-02 2.53751185e-02 -1.41189933e-01
7.48153031e-02 2.10644919e-02 -1.41623393e-01
7.48579875e-02 2.17253584e-02 -1.41189933e-01
7.96904191e-02 3.66218463e-02 -1.44440025e-01
8.13784748e-02 3.81506756e-02 -1.41189933e-01
8.10717642e-02 4.86617722e-02 -1.41189933e-01
7.94285536e-02 3.04904021e-02 -1.40993506e-01
7.94648156e-02 3.06396894e-02 -1.41189933e-01
7.92207569e-02 2.56319698e-02 -1.41197562e-01
7.92649314e-02 2.55591851e-02 -1.41189933e-01
7.92035758e-02 2.05339678e-02 -1.41212672e-01
7.91628659e-02 2.03632116e-02 -1.41189933e-01
0.00000000e+00 2.86091994e-02 -1.41189933e-01
5.33852465e-02 3.67883034e-02 -1.41189933e-01
3.86564955e-02 8.95434171e-02 -1.41189933e-01
0.00000000e+00 9.11755264e-02 -1.41189933e-01
8.45450908e-02 2.55911462e-02 -1.41189933e-01
8.44947174e-02 3.09984591e-02 -1.41189933e-01
8.46523941e-02 2.01908946e-02 -1.41189933e-01
4.15116921e-02 1.16069421e-01 -1.41189933e-01
0.00000000e+00 1.20649293e-01 -1.41189933e-01
5.69553375e-02 7.05754608e-02 -1.41189933e-01
8.58240798e-02 9.04197842e-02 -1.41189933e-01
7.65793100e-02 4.28717397e-02 -1.41189933e-01
9.77949426e-02 5.08604795e-02 -1.41189933e-01
9.14939716e-02 3.15912962e-02 -1.41189933e-01
9.01607350e-02 2.54241042e-02 -1.41189933e-01
9.00438204e-02 2.01581120e-02 -1.41189933e-01
</DataArray>
<DataArray type="Float32" Name="Spatial_acceleration" NumberOfComponents="3" format="ascii">
3.48051373e-07 1.30767626e-06 -7.34647131e-07
5.27938198e-07 1.29449370e-06 -7.28925045e-07
5.06679214e-07 1.54153508e-06 -1.19431809e-06
3.20196136e-07 1.55504540e-06 -1.06620791e-06
2.10126245e-07 1.53315068e-06 -1.19924539e-06
4.95184054e-07 1.43114721e-06 -1.23559857e-06
4.44730119e-07 1.95423763e-06 -1.48073832e-06
2.98659018e-07 1.82565054e-06 -1.50934852e-06
7.41322822e-07 1.15185969e-06 -5.18798799e-07
8.21073854e-07 1.32886566e-06 -9.71476197e-07
5.76655054e-07 1.74331672e-06 -1.48010258e-06
9.64641572e-07 1.50040785e-06 -1.31098432e-06
1.61252913e-07 9.34975844e-07 -2.82729673e-07
7.35342496e-07 -3.41633950e-07 -1.47526464e-07
2.01354425e-07 2.99878423e-07 4.64931134e-07
5.42024793e-07 1.66783735e-07 -5.43748342e-07
2.47932491e-07 -5.65700532e-07 -1.72483112e-06
-5.33751518e-07 -2.39610671e-07 5.91509036e-07
6.43302997e-07 -7.42137445e-07 -5.88310229e-07
3.76261767e-07 3.56923778e-07 1.12322221e-06
0.00000000e+00 0.00000000e+00 -1.49536129e-06
8.90096032e-08 0.00000000e+00 -1.33164724e-06
2.53637637e-07 1.83790917e-07 -1.27474470e-06
0.00000000e+00 1.00751720e-07 -1.31607055e-06
0.00000000e+00 0.00000000e+00 -1.45339959e-06
2.70148121e-07 0.00000000e+00 -1.60789489e-06
2.76267514e-07 2.96870866e-07 -1.62410731e-06
0.00000000e+00 2.36113863e-07 -1.57769523e-06
4.96457005e-07 0.00000000e+00 -1.20417280e-06
4.39047795e-07 1.57654284e-07 -1.28809609e-06
4.48614344e-07 0.00000000e+00 -1.86475120e-06
4.39047795e-07 2.32815736e-07 -1.68546035e-06
5.98867700e-07 0.00000000e+00 -1.30526223e-06
6.37491553e-07 2.20100077e-07 -1.28142040e-06
7.51276787e-07 0.00000000e+00 -1.79163612e-06
7.44462000e-07 1.93332625e-07 -1.61329899e-06
9.84688540e-07 0.00000000e+00 -1.21243795e-06
1.10582505e-06 3.00029910e-07 -1.37774146e-06
1.08462575e-06 0.00000000e+00 -1.56434373e-06
1.05293589e-06 2.28961312e-07 -1.60153706e-06
1.32016339e-06 0.00000000e+00 -1.09577172e-06
1.31473939e-06 3.47745925e-07 -1.18684773e-06
1.33124990e-06 0.00000000e+00 -1.56211854e-06
1.29306318e-06 1.66296957e-07 -1.68228144e-06
1.55053533e-06 0.00000000e+00 -1.05730692e-06
1.69173870e-06 3.62028686e-07 -1.20925904e-06
1.72253453e-06 0.00000000e+00 -1.46802267e-06
1.65879726e-06 3.25004265e-07 -1.60535171e-06
2.03847890e-07 5.90682021e-07 -1.33387243e-06
0.00000000e+00 6.83784492e-07 -1.19400022e-06
2.34444940e-07 5.16136481e-07 -1.79688129e-06
0.00000000e+00 5.67674647e-07 -2.01733906e-06
4.91732635e-07 6.17935541e-07 -1.14840554e-06
4.66267267e-07 5.36402069e-07 -1.65939332e-06
7.68025700e-07 5.55419945e-07 -1.15254727e-06
7.41186568e-07 5.58398995e-07 -1.68791269e-06
9.81671064e-07 5.12480710e-07 -1.31924946e-06
8.23211678e-07 5.19307434e-07 -1.59047443e-06
1.10887481e-06 6.85652083e-07 -1.19717913e-06
1.17802620e-06 7.12633152e-07 -1.70898431e-06
1.40498082e-06 9.96629410e-07 -1.15712487e-06
1.17238358e-06 6.08563425e-07 -1.73950195e-06
2.13168917e-07 8.11349764e-07 -1.32406319e-06
0.00000000e+00 7.32898684e-07 -1.12628936e-06
3.53994807e-07 8.25564030e-07 -1.59926640e-06
0.00000000e+00 8.78572450e-07 -2.00430554e-06
5.03222168e-07 6.75678223e-07 -1.14568070e-06
6.38198856e-07 8.62089792e-07 -1.65328981e-06
3.23136646e-07 7.15335204e-07 -2.11397810e-06
7.68767450e-07 9.03871353e-07 -2.09469272e-06
3.84285329e-07 1.17728825e-06 -1.20290122e-06
0.00000000e+00 1.20027858e-06 -1.14663442e-06
4.46372553e-07 1.26186342e-06 -1.42394174e-06
0.00000000e+00 1.37675795e-06 -1.86347961e-06
0.00000000e+00 1.43121179e-06 -1.23373661e-06
2.73886172e-07 1.71915690e-06 -1.87101818e-06
0.00000000e+00 1.58684952e-06 -1.91593176e-06
7.13984150e-07 1.15807848e-06 -1.13614396e-06
6.78459799e-07 1.16030378e-06 -1.39236454e-06
5.79611481e-07 1.64028802e-06 -1.58182786e-06
0.00000000e+00 1.72162049e-06 -1.69499708e-06
2.68856695e-07 2.02417368e-06 -1.91720324e-06
0.00000000e+00 2.01940543e-06 -1.95693974e-06
3.45706923e-07 1.98793418e-06 -1.76715844e-06
2.88433512e-07 1.61064997e-06 -1.42330600e-06
8.53962376e-07 1.36057542e-06 -1.64710150e-06
0.00000000e+00 0.00000000e+00 -2.36892697e-06
1.41081713e-07 0.00000000e+00 -2.20298762e-06
2.06092992e-07 2.71906458e-07 -2.19535832e-06
0.00000000e+00 1.59740452e-07 -2.19281515e-06
5.67480924e-07 0.00000000e+00 -2.00589488e-06
5.29825684e-07 3.33984701e-07 -2.10793814e-06
8.28067471e-07 0.00000000e+00 -1.98427824e-06
8.43246767e-07 3.03387651e-07 -2.07678477e-06
1.07789037e-06 0.00000000e+00 -2.04690286e-06
9.39776498e-07 2.10364661e-07 -2.05612173e-06
1.39429176e-06 0.00000000e+00 -2.14131660e-06
1.31118293e-06 2.23875048e-07 -2.00112663e-06
1.35991968e-06 0.00000000e+00 -2.41851808e-06
1.54844918e-06 2.61386219e-07 -2.04785670e-06
2.94208519e-07 4.85022838e-07 -2.01988223e-06
0.00000000e+00 4.95354357e-07 -2.02814726e-06
5.96920643e-07 5.78860408e-07 -2.01479588e-06
8.39849292e-07 6.04430852e-07 -2.17501315e-06
9.82375354e-07 5.41687029e-07 -2.19290587e-06
8.95871040e-07 5.23779136e-07 -2.13792600e-06
1.45128035e-06 7.36660411e-07 -2.22015387e-06
2.72538927e-07 9.86099280e-07 -2.34561503e-06
0.00000000e+00 1.01894807e-06 -2.39732526e-06
4.98029920e-07 8.80665254e-07 -2.03111449e-06
9.65515824e-07 5.82589053e-07 -2.14131683e-06
1.14357465e-06 5.09341533e-07 -2.92396544e-06
1.10524502e-06 7.74892158e-07 -2.66189568e-06
3.61919405e-07 1.29048033e-06 -2.37083441e-06
0.00000000e+00 1.25545932e-06 -2.51854794e-06
5.50349569e-07 9.17434704e-07 -2.01161697e-06
2.26762566e-07 1.75539651e-06 -2.26762563e-06
0.00000000e+00 1.83582301e-06 -2.39181509e-06
1.87079110e-07 1.98123848e-06 -2.31297804e-06
0.00000000e+00 1.87555952e-06 -2.15848286e-06
4.94480105e-07 1.73905494e-06 -2.02941897e-06
7.38302845e-07 1.96909900e-06 -1.99254350e-06
6.98645920e-07 1.34134291e-06 -2.19917297e-06
1.40508018e-06 1.48407617e-06 -2.07519520e-06
-5.86112321e-07 9.58879809e-07 -3.56944406e-06
7.51694017e-07 8.26617054e-07 -3.02600847e-06
1.19491415e-06 7.83662017e-07 -2.55211194e-06
1.30229523e-06 7.11123164e-07 -2.23096208e-06
7.87952956e-07 7.88046123e-07 -1.45973274e-06
7.60103262e-07 1.91571814e-07 -2.90612365e-06
1.20160973e-06 9.26847235e-07 -1.92600737e-06
8.74030093e-07 1.71333554e-07 -3.08596577e-06
1.39424003e-06 4.87609725e-07 -2.46625655e-06
1.16054218e-06 6.55280246e-07 -2.14761826e-06
1.12228588e-06 1.88996395e-07 -2.68328927e-06
1.26785699e-06 1.05741287e-06 -2.35672383e-06
0.00000000e+00 0.00000000e+00 -2.45570595e-06
3.25173147e-07 0.00000000e+00 -2.45570595e-06
2.65161191e-07 2.59722270e-07 -2.45570595e-06
0.00000000e+00 3.04857878e-07 -2.45570595e-06
5.95569588e-07 0.00000000e+00 -2.45570595e-06
5.83966539e-07 3.26633455e-07 -2.45570595e-06
7.27812449e-07 0.00000000e+00 -2.45570595e-06
8.14835232e-07 3.62555170e-07 -2.45570595e-06
1.15553541e-06 0.00000000e+00 -2.45570595e-06
1.11064310e-06 3.44117467e-07 -2.45570595e-06
1.34563447e-06 0.00000000e+00 -2.45570595e-06
1.26818816e-06 3.37918607e-07 -2.45570595e-06
1.36516985e-06 0.00000000e+00 -2.45570595e-06
1.38759617e-06 4.36782841e-07 -2.45570595e-06
3.56515244e-07 5.89052831e-07 -2.45570595e-06
0.00000000e+00 5.05765286e-07 -2.45570595e-06
6.42538055e-07 6.12050314e-07 -2.45570595e-06
8.86917121e-07 7.07626327e-07 -2.45570595e-06
9.53316658e-07 8.44001761e-07 -2.45570595e-06
1.03803472e-06 4.69843542e-07 -2.45570595e-06
9.79423476e-07 5.44269881e-07 -2.45570595e-06
1.24375021e-07 6.44842771e-07 -2.45570595e-06
0.00000000e+00 5.93562902e-07 -2.45570595e-06
6.00073065e-07 6.95572965e-07 -2.45570595e-06
1.01153057e-06 7.39256507e-07 -2.45570595e-06
9.31104012e-07 7.16884927e-07 -2.45570595e-06
1.32830939e-06 4.57048401e-07 -2.34969457e-06
8.53935887e-07 7.73509328e-07 -2.45570595e-06
8.95341202e-07 8.72135161e-07 -2.38736470e-06
9.77516152e-07 5.44230147e-07 -2.45570595e-06
8.47180672e-07 7.64846789e-07 -2.45571141e-06
9.89516593e-07 8.57035332e-07 -2.45570595e-06
1.22515360e-06 9.06447553e-07 -2.45570595e-06
1.05301535e-06 7.97059784e-07 -2.24494943e-06
1.03018021e-06 8.10623192e-07 -2.45570595e-06
8.00470502e-07 6.13172858e-07 -2.59085505e-06
1.13146689e-06 5.13478483e-07 -2.45570595e-06
1.27379099e-06 5.79516097e-07 -2.57382794e-06
6.98248527e-07 8.07126355e-07 -2.45570595e-06
0.00000000e+00 1.60061813e-06 -2.45570595e-06
-1.41123934e-07 1.67066105e-06 -2.45570595e-06
2.39902079e-07 1.58948376e-06 -2.45570595e-06
0.00000000e+00 1.81134544e-06 -2.45570595e-06
1.06827417e-06 8.12451049e-07 -2.45570595e-06
1.13598503e-06 6.03993726e-07 -2.45570595e-06
1.10006329e-06 3.57627869e-07 -2.45570595e-06
3.28342111e-07 2.00056024e-06 -2.45570595e-06
0.00000000e+00 1.70704720e-06 -2.45570595e-06
7.84158715e-07 1.78798041e-06 -2.45570595e-06
7.91390733e-07 1.79815288e-06 -2.45570595e-06
4.50849541e-07 1.18978812e-06 -2.45570595e-06
1.44612784e-06 1.54749546e-06 -2.45570595e-06
1.29508976e-06 4.81923394e-07 -2.45570595e-06
8.23656706e-07 1.38282772e-07 -2.45570595e-06
1.07542678e-06 9.90937110e-07 -2.45570595e-06
</DataArray>
<DataArray type="Float32" Name="Spatial_velocity" NumberOfComponents="3" format="ascii">
5.50320146e-05 3.63003550e-04 -1.66524362e-04
9.54844509e-05 3.48718197e-04 -1.24138111e-04
9.59993704e-05 4.39481140e-04 -1.91910687e-04
4.31697226e-05 4.24146041e-04 -2.18186600e-04
4.43941171e-05 4.19261865e-04 -2.53076258e-04
1.09214358e-04 4.20893921e-04 -2.48299883e-04
9.10998933e-05 5.41348534e-04 -3.35094839e-04
4.94501874e-05 4.80813382e-04 -3.05264868e-04
1.74654793e-04 3.22123902e-04 -1.03618026e-04
1.90513209e-04 4.31290304e-04 -1.97566900e-04
1.86663237e-04 4.04922350e-04 -2.90066091e-04
2.64522096e-04 5.16618835e-04 -4.46223916e-04
1.70736370e-04 3.29235889e-04 8.88433476e-07
1.70642394e-04 3.37250502e-04 6.49097387e-07
1.63014309e-04 3.37307574e-04 -2.72149896e-06
1.63041637e-04 3.29088682e-04 2.25098830e-07
1.72566070e-04 3.31588642e-04 3.09224038e-06
1.72853368e-04 3.39367107e-04 -1.24986161e-06
1.64594283e-04 3.39193968e-04 -1.24175028e-06
1.64786950e-04 3.31747433e-04 -1.63882203e-06
0.00000000e+00 0.00000000e+00 -4.28932690e-04
8.13381921e-05 0.00000000e+00 -4.31964669e-04
8.35062019e-05 8.78896026e-05 -4.17504780e-04
0.00000000e+00 8.55562466e-05 -4.04691644e-04
0.00000000e+00 0.00000000e+00 -5.75047859e-04
1.11753456e-04 0.00000000e+00 -5.77519648e-04
1.13696187e-04 8.52943413e-05 -5.68136631e-04
0.00000000e+00 8.07603355e-05 -5.55446721e-04
1.79101349e-04 0.00000000e+00 -4.60898387e-04
1.57576986e-04 7.00369419e-05 -4.41541109e-04
2.16034256e-04 0.00000000e+00 -5.95672929e-04
2.21478069e-04 8.85451664e-05 -5.93453413e-04
2.65762734e-04 0.00000000e+00 -4.93693515e-04
2.67158553e-04 5.69599215e-05 -4.86533536e-04
3.21061380e-04 0.00000000e+00 -6.26483641e-04
3.11641081e-04 7.76489178e-05 -6.25931309e-04
3.70318536e-04 0.00000000e+00 -5.23430528e-04
3.75351752e-04 6.05570058e-05 -5.34472230e-04
4.09497588e-04 0.00000000e+00 -6.51780225e-04
4.06538282e-04 6.22730804e-05 -6.68511260e-04
4.75391280e-04 0.00000000e+00 -5.63873851e-04
4.79737733e-04 6.67082713e-05 -5.54958649e-04
4.91858518e-04 0.00000000e+00 -6.67891989e-04
4.92104911e-04 5.59942309e-05 -6.98606833e-04
5.67972602e-04 0.00000000e+00 -5.81375498e-04
5.73437894e-04 6.26144756e-05 -5.71254815e-04
5.54685015e-04 0.00000000e+00 -6.73183880e-04
5.77663712e-04 5.01630020e-05 -6.98261545e-04
5.51987832e-05 1.61753953e-04 -3.72930459e-04
0.00000000e+00 1.86114179e-04 -3.67297878e-04
1.12144269e-04 1.75677837e-04 -5.16466505e-04
0.00000000e+00 1.77001813e-04 -5.10798476e-04
1.48870531e-04 1.60083524e-04 -4.22002660e-04
2.35738495e-04 1.82908145e-04 -5.83435700e-04
2.48332886e-04 1.74924746e-04 -5.11882536e-04
3.26674839e-04 1.69179140e-04 -7.00354227e-04
3.73225106e-04 1.96060209e-04 -5.32658189e-04
3.92338756e-04 1.46076462e-04 -7.35707523e-04
4.84933931e-04 1.78448900e-04 -5.29891811e-04
4.92203864e-04 1.64770070e-04 -7.28954212e-04
5.81435452e-04 1.73817098e-04 -5.41237649e-04
5.88741037e-04 1.56903508e-04 -7.29350781e-04
4.12141308e-05 2.82680237e-04 -2.87566800e-04
0.00000000e+00 2.74954451e-04 -2.97601277e-04
1.02700680e-04 2.75103928e-04 -4.51269967e-04
0.00000000e+00 2.71863653e-04 -4.26507933e-04
1.31329114e-04 2.45467760e-04 -3.57417157e-04
2.66596529e-04 2.88684794e-04 -6.05490990e-04
1.17097174e-04 2.26288190e-04 -8.93527176e-04
3.84946179e-04 2.46038515e-04 -8.09380028e-04
3.86973552e-05 3.42863437e-04 -2.40253838e-04
0.00000000e+00 3.56539764e-04 -2.38741530e-04
7.51930856e-05 3.83201608e-04 -3.30586336e-04
0.00000000e+00 3.91453097e-04 -3.60489386e-04
0.00000000e+00 4.06261155e-04 -2.56167579e-04
7.53080021e-05 4.92461142e-04 -3.62246705e-04
0.00000000e+00 4.62902273e-04 -3.81941383e-04
1.09050881e-04 3.42100917e-04 -1.71028412e-04
1.92740044e-04 4.02853417e-04 -4.04408085e-04
1.89490878e-04 4.69640072e-04 -3.84901912e-04
0.00000000e+00 4.82818985e-04 -3.30672221e-04
1.08009714e-04 5.93448756e-04 -4.92654450e-04
0.00000000e+00 6.21165382e-04 -4.64787474e-04
1.90789797e-04 6.20231789e-04 -5.04111464e-04
2.55648833e-04 4.28903732e-04 -6.20730454e-04
3.92053887e-04 4.95843298e-04 -6.02176238e-04
0.00000000e+00 0.00000000e+00 -7.40739517e-04
1.40431657e-04 0.00000000e+00 -7.47055223e-04
1.48136853e-04 8.83533139e-05 -7.39396433e-04
0.00000000e+00 8.18330300e-05 -7.33749883e-04
2.57359294e-04 0.00000000e+00 -7.55193469e-04
2.75630533e-04 1.04240033e-04 -7.58942973e-04
3.53100331e-04 0.00000000e+00 -7.69206556e-04
3.65185377e-04 1.10601082e-04 -7.77214649e-04
4.34749527e-04 0.00000000e+00 -7.88759440e-04
4.28879226e-04 1.00410922e-04 -7.92712439e-04
5.01808012e-04 0.00000000e+00 -7.94024323e-04
4.91273706e-04 8.67488707e-05 -8.05158284e-04
5.56038925e-04 0.00000000e+00 -7.93498766e-04
5.59319276e-04 9.19385056e-05 -8.00744689e-04
1.74885412e-04 1.93918575e-04 -7.21111253e-04
0.00000000e+00 1.75138266e-04 -7.04365084e-04
3.11575219e-04 2.14659653e-04 -7.62721000e-04
3.97299096e-04 2.09417340e-04 -8.19455483e-04
4.43764235e-04 1.85681463e-04 -8.60949978e-04
4.75034059e-04 1.59839838e-04 -8.90069874e-04
5.12483821e-04 1.62441836e-04 -8.87060654e-04
1.79750190e-04 2.66596267e-04 -6.47080073e-04
0.00000000e+00 3.01345513e-04 -6.00250729e-04
3.55888857e-04 2.73646321e-04 -7.84532109e-04
4.54763678e-04 2.55383289e-04 -8.94663855e-04
4.21288831e-04 1.17289994e-04 -1.00399333e-03
4.86724050e-04 2.24868621e-04 -9.29818256e-04
1.98168142e-04 3.72565875e-04 -4.94407606e-04
0.00000000e+00 3.41040839e-04 -5.74755250e-04
3.92881309e-04 3.51724739e-04 -7.30916800e-04
1.58214491e-04 5.69394440e-04 -6.21851359e-04
0.00000000e+00 5.79264597e-04 -6.29299378e-04
1.86119913e-04 7.51936808e-04 -6.99570403e-04
0.00000000e+00 7.45015161e-04 -6.61830825e-04
2.74342368e-04 5.10855811e-04 -6.27526839e-04
4.27545077e-04 6.45289838e-04 -6.91005844e-04
4.23559366e-04 3.55669996e-04 -8.46461568e-04
5.95719612e-04 4.10372420e-04 -7.84406730e-04
1.64049270e-04 3.09157855e-04 -1.14257971e-03
3.59301805e-04 3.27010726e-04 -9.82567319e-04
5.49084856e-04 2.24558811e-04 -9.30648006e-04
5.79612213e-04 2.24357733e-04 -9.30501032e-04
5.49681776e-04 1.93638480e-04 -9.32884403e-04
5.49667398e-04 1.62914381e-04 -9.31498245e-04
5.80039690e-04 1.62367418e-04 -9.32213035e-04
5.80578519e-04 1.93625281e-04 -9.31581191e-04
5.49408956e-04 1.93446162e-04 -9.31957853e-04
5.49180608e-04 1.62548546e-04 -9.32157622e-04
5.80263732e-04 1.62659184e-04 -9.31680901e-04
5.80052903e-04 1.93177650e-04 -9.32254887e-04
0.00000000e+00 0.00000000e+00 -9.31854360e-04
1.50076710e-04 0.00000000e+00 -9.31854360e-04
1.65066900e-04 9.81011472e-05 -9.31854360e-04
0.00000000e+00 8.69427386e-05 -9.31854360e-04
2.78334337e-04 0.00000000e+00 -9.31854360e-04
2.90279044e-04 1.15534880e-04 -9.31854360e-04
3.67594010e-04 0.00000000e+00 -9.31854360e-04
3.84646060e-04 1.25296530e-04 -9.31854360e-04
4.38360759e-04 0.00000000e+00 -9.31854360e-04
4.44787700e-04 1.26056140e-04 -9.31854360e-04
5.04457043e-04 0.00000000e+00 -9.31854360e-04
4.93561674e-04 1.15359318e-04 -9.31854360e-04
5.71173616e-04 0.00000000e+00 -9.31854360e-04
5.35368279e-04 1.32342291e-04 -9.31854360e-04
2.03981355e-04 1.76505870e-04 -9.31854360e-04
0.00000000e+00 1.62790180e-04 -9.31854360e-04
3.50962684e-04 2.14803455e-04 -9.31854360e-04
4.22213954e-04 2.26236123e-04 -9.31854360e-04
4.66769561e-04 2.10184648e-04 -9.31854360e-04
4.73466993e-04 1.86216537e-04 -9.31854360e-04
4.88928228e-04 1.77236521e-04 -9.31854360e-04
2.31797603e-04 3.45015200e-04 -9.31854360e-04
0.00000000e+00 3.60976497e-04 -9.31854360e-04
4.07110434e-04 3.00380430e-04 -9.31854360e-04
4.87930927e-04 2.69409386e-04 -9.31854360e-04
4.87749203e-04 2.26490403e-04 -9.31854360e-04
4.87070705e-04 1.92659325e-04 -9.33439936e-04
4.88495047e-04 1.92954496e-04 -9.31854360e-04
4.91490122e-04 1.65704769e-04 -9.35733260e-04
4.93157655e-04 1.70318744e-04 -9.31854360e-04
5.17285778e-04 2.60707398e-04 -9.51230351e-04
5.32890845e-04 2.74230086e-04 -9.31854360e-04
5.15111547e-04 3.41846375e-04 -9.31854360e-04
5.18626301e-04 2.24335687e-04 -9.31872462e-04
5.19463152e-04 2.24704781e-04 -9.31854360e-04
5.18876011e-04 1.93744432e-04 -9.31969378e-04
5.19089692e-04 1.93379863e-04 -9.31854360e-04
5.18329442e-04 1.62660726e-04 -9.31760937e-04
5.17933280e-04 1.62239332e-04 -9.31854360e-04
0.00000000e+00 3.05661233e-04 -9.31854360e-04
2.45501200e-04 3.44951957e-04 -9.31854360e-04
2.12779123e-04 6.21536863e-04 -9.31854360e-04
0.00000000e+00 6.44501415e-04 -9.31854360e-04
5.49572636e-04 1.93524989e-04 -9.31854360e-04
5.50544763e-04 2.23495634e-04 -9.31854360e-04
5.49632125e-04 1.62665092e-04 -9.31854360e-04
2.25075200e-04 7.93969200e-04 -9.31854360e-04
0.00000000e+00 7.81641516e-04 -9.31854360e-04
3.39294551e-04 5.30500081e-04 -9.31854360e-04
5.18306275e-04 6.45416032e-04 -9.31854360e-04
4.62759897e-04 3.02234199e-04 -9.31854360e-04
6.27937785e-04 3.81286402e-04 -9.31854360e-04
5.80101099e-04 2.23613286e-04 -9.31854360e-04
5.80489927e-04 1.93475877e-04 -9.31854360e-04
5.79818035e-04 1.62241471e-04 -9.31854360e-04
</DataArray>
<DataArray type="Float32" Name="Reaction_force" NumberOfComponents="3" format="ascii">
0.00000000e+00 0.00000000e+00 0.00000000e+00
0.00000000e+00 0.00000000e+00 0.00000000e+00
0.00000000e+00 0.00000000e+00 0.00000000e+00
0.00000000e+00 0.00000000e+00 0.00000000e+00
0.00000000e+00 0.00000000e+00 0.00000000e+00
0.00000000e+00 0.00000000e+00 0.00000000e+00
0.00000000e+00 0.00000000e+00 0.00000000e+00
0.00000000e+00 0.00000000e+00 0.00000000e+00
0.00000000e+00 0.00000000e+00 0.00000000e+00
0.00000000e+00 0.00000000e+00 0.00000000e+00
0.00000000e+00 0.00000000e+00 0.00000000e+00
0.00000000e+00 0.00000000e+00 0.00000000e+00
0.00000000e+00 0.00000000e+00 0.00000000e+00
0.00000000e+00 0.00000000e+00 0.00000000e+00
0.00000000e+00 0.00000000e+00 0.00000000e+00
0.00000000e+00 0.00000000e+00 0.00000000e+00
0.00000000e+00 0.00000000e+00 0.00000000e+00
0.00000000e+00 0.00000000e+00 0.00000000e+00
0.00000000e+00 0.00000000e+00 0.00000000e+00
0.00000000e+00 0.00000000e+00 0.00000000e+00
-1.62499249e-01 -3.86421084e-01 0.00000000e+00
0.00000000e+00 4.96145934e-01 0.00000000e+00
0.00000000e+00 0.00000000e+00 0.00000000e+00
9.65447783e-01 0.00000000e+00 0.00000000e+00
-2.09690243e-01 1.42843270e+00 0.00000000e+00
0.00000000e+00 2.62355947e+00 0.00000000e+00
0.00000000e+00 0.00000000e+00 0.00000000e+00
1.11051679e-01 0.00000000e+00 0.00000000e+00
0.00000000e+00 1.32150030e+00 0.00000000e+00
0.00000000e+00 0.00000000e+00 0.00000000e+00
0.00000000e+00 2.62363410e+00 0.00000000e+00
0.00000000e+00 0.00000000e+00 0.00000000e+00
0.00000000e+00 2.49021530e+00 0.00000000e+00
0.00000000e+00 0.00000000e+00 0.00000000e+00
0.00000000e+00 2.13726521e+00 0.00000000e+00
0.00000000e+00 0.00000000e+00 0.00000000e+00
0.00000000e+00 4.09037209e+00 0.00000000e+00
0.00000000e+00 0.00000000e+00 0.00000000e+00
0.00000000e+00 1.08979535e+00 0.00000000e+00
0.00000000e+00 0.00000000e+00 0.00000000e+00
0.00000000e+00 3.48628330e+00 0.00000000e+00
0.00000000e+00 0.00000000e+00 0.00000000e+00
0.00000000e+00 3.60572249e-01 0.00000000e+00
0.00000000e+00 0.00000000e+00 0.00000000e+00
0.00000000e+00 1.80907273e+00 0.00000000e+00
0.00000000e+00 0.00000000e+00 0.00000000e+00
0.00000000e+00 5.45530260e-01 0.00000000e+00
0.00000000e+00 0.00000000e+00 0.00000000e+00
0.00000000e+00 0.00000000e+00 0.00000000e+00
1.39023149e+00 0.00000000e+00 0.00000000e+00
0.00000000e+00 0.00000000e+00 0.00000000e+00
4.72456872e-01 0.00000000e+00 0.00000000e+00
0.00000000e+00 0.00000000e+00 0.00000000e+00
0.00000000e+00 0.00000000e+00 0.00000000e+00
0.00000000e+00 0.00000000e+00 0.00000000e+00
0.00000000e+00 0.00000000e+00 0.00000000e+00
0.00000000e+00 0.00000000e+00 0.00000000e+00
0.00000000e+00 0.00000000e+00 0.00000000e+00
0.00000000e+00 0.00000000e+00 0.00000000e+00
0.00000000e+00 0.00000000e+00 0.00000000e+00
0.00000000e+00 0.00000000e+00 0.00000000e+00
0.00000000e+00 0.00000000e+00 0.00000000e+00
0.00000000e+00 0.00000000e+00 0.00000000e+00
9.61364806e-01 0.00000000e+00 0.00000000e+00
0.00000000e+00 0.00000000e+00 0.00000000e+00
1.33096445e+00 0.00000000e+00 0.00000000e+00
0.00000000e+00 0.00000000e+00 0.00000000e+00
0.00000000e+00 0.00000000e+00 0.00000000e+00
0.00000000e+00 0.00000000e+00 0.00000000e+00
0.00000000e+00 0.00000000e+00 0.00000000e+00
0.00000000e+00 0.00000000e+00 0.00000000e+00
-2.64665306e-01 0.00000000e+00 0.00000000e+00
0.00000000e+00 0.00000000e+00 0.00000000e+00
3.96865517e-01 0.00000000e+00 0.00000000e+00
4.59430069e-01 0.00000000e+00 0.00000000e+00
0.00000000e+00 0.00000000e+00 0.00000000e+00
6.46583557e-01 0.00000000e+00 0.00000000e+00
0.00000000e+00 0.00000000e+00 0.00000000e+00
0.00000000e+00 0.00000000e+00 0.00000000e+00
0.00000000e+00 0.00000000e+00 0.00000000e+00
7.24676728e-01 0.00000000e+00 0.00000000e+00
0.00000000e+00 0.00000000e+00 0.00000000e+00
1.59457445e+00 0.00000000e+00 0.00000000e+00
0.00000000e+00 0.00000000e+00 0.00000000e+00
0.00000000e+00 0.00000000e+00 0.00000000e+00
0.00000000e+00 0.00000000e+00 0.00000000e+00
-2.65785456e-01 2.49780703e+00 0.00000000e+00
0.00000000e+00 3.80362511e+00 0.00000000e+00
0.00000000e+00 0.00000000e+00 0.00000000e+00
-2.38646522e-01 0.00000000e+00 0.00000000e+00
0.00000000e+00 1.62229311e+00 0.00000000e+00
0.00000000e+00 0.00000000e+00 0.00000000e+00
0.00000000e+00 -7.19866157e-02 0.00000000e+00
0.00000000e+00 0.00000000e+00 0.00000000e+00
0.00000000e+00 -1.48535419e+00 0.00000000e+00
0.00000000e+00 0.00000000e+00 0.00000000e+00
0.00000000e+00 -3.21050334e+00 0.00000000e+00
0.00000000e+00 0.00000000e+00 0.00000000e+00
0.00000000e+00 -2.05352235e+00 0.00000000e+00
0.00000000e+00 0.00000000e+00 0.00000000e+00
0.00000000e+00 0.00000000e+00 0.00000000e+00
9.22671080e-01 0.00000000e+00 0.00000000e+00
0.00000000e+00 0.00000000e+00 0.00000000e+00
0.00000000e+00 0.00000000e+00 0.00000000e+00
0.00000000e+00 0.00000000e+00 0.00000000e+00
0.00000000e+00 0.00000000e+00 0.00000000e+00
0.00000000e+00 0.00000000e+00 0.00000000e+00
0.00000000e+00 0.00000000e+00 0.00000000e+00
-1.44958305e+00 0.00000000e+00 0.00000000e+00
0.00000000e+00 0.00000000e+00 0.00000000e+00
0.00000000e+00 0.00000000e+00 0.00000000e+00
0.00000000e+00 0.00000000e+00 0.00000000e+00
0.00000000e+00 0.00000000e+00 0.00000000e+00
0.00000000e+00 0.00000000e+00 0.00000000e+00
1.00408137e+00 0.00000000e+00 0.00000000e+00
0.00000000e+00 0.00000000e+00 0.00000000e+00
0.00000000e+00 0.00000000e+00 0.00000000e+00
2.20042419e+00 0.00000000e+00 0.00000000e+00
0.00000000e+00 0.00000000e+00 0.00000000e+00
7.78579831e-01 0.00000000e+00 0.00000000e+00
0.00000000e+00 0.00000000e+00 0.00000000e+00
0.00000000e+00 0.00000000e+00 0.00000000e+00
0.00000000e+00 0.00000000e+00 0.00000000e+00
0.00000000e+00 0.00000000e+00 0.00000000e+00
0.00000000e+00 0.00000000e+00 0.00000000e+00
0.00000000e+00 0.00000000e+00 0.00000000e+00
0.00000000e+00 0.00000000e+00 0.00000000e+00
0.00000000e+00 0.00000000e+00 0.00000000e+00
0.00000000e+00 0.00000000e+00 0.00000000e+00
0.00000000e+00 0.00000000e+00 0.00000000e+00
0.00000000e+00 0.00000000e+00 0.00000000e+00
0.00000000e+00 0.00000000e+00 0.00000000e+00
0.00000000e+00 0.00000000e+00 0.00000000e+00
0.00000000e+00 0.00000000e+00 0.00000000e+00
0.00000000e+00 0.00000000e+00 0.00000000e+00
0.00000000e+00 0.00000000e+00 0.00000000e+00
-8.50357935e-02 1.42117536e+00 -9.13980293e+00
0.00000000e+00 2.26962900e+00 -1.81548653e+01
0.00000000e+00 0.00000000e+00 -3.53440247e+01
-4.35064912e-01 0.00000000e+00 -1.81892242e+01
0.00000000e+00 7.24891663e-01 -1.74717159e+01
0.00000000e+00 0.00000000e+00 -3.34594421e+01
0.00000000e+00 -6.54359698e-01 -1.65378838e+01
0.00000000e+00 0.00000000e+00 -3.04872284e+01
0.00000000e+00 -1.17758083e+00 -1.57542658e+01
0.00000000e+00 0.00000000e+00 -2.75065231e+01
0.00000000e+00 -1.87378812e+00 -1.44227648e+01
0.00000000e+00 0.00000000e+00 -2.58883991e+01
0.00000000e+00 -1.57819116e+00 -6.95642900e+00
0.00000000e+00 0.00000000e+00 -1.36871290e+01
0.00000000e+00 0.00000000e+00 -3.69930115e+01
1.39398634e+00 0.00000000e+00 -2.08610020e+01
0.00000000e+00 0.00000000e+00 -2.86368351e+01
0.00000000e+00 0.00000000e+00 -2.41848087e+01
0.00000000e+00 0.00000000e+00 -1.84903545e+01
0.00000000e+00 0.00000000e+00 -1.81273174e+01
0.00000000e+00 0.00000000e+00 -1.17878370e+01
0.00000000e+00 0.00000000e+00 -2.25889702e+01
-4.05693680e-01 0.00000000e+00 -1.35339832e+01
0.00000000e+00 0.00000000e+00 -2.21545715e+01
0.00000000e+00 0.00000000e+00 -1.57710981e+01
0.00000000e+00 0.00000000e+00 -7.32912111e+00
0.00000000e+00 0.00000000e+00 0.00000000e+00
0.00000000e+00 0.00000000e+00 -8.16329384e+00
0.00000000e+00 0.00000000e+00 0.00000000e+00
0.00000000e+00 0.00000000e+00 -4.32630348e+00
0.00000000e+00 0.00000000e+00 0.00000000e+00
0.00000000e+00 0.00000000e+00 -5.18232155e+00
0.00000000e+00 0.00000000e+00 -8.54890728e+00
0.00000000e+00 0.00000000e+00 0.00000000e+00
0.00000000e+00 0.00000000e+00 4.46502113e+00
0.00000000e+00 0.00000000e+00 0.00000000e+00
0.00000000e+00 0.00000000e+00 4.85634375e+00
0.00000000e+00 0.00000000e+00 0.00000000e+00
0.00000000e+00 0.00000000e+00 3.01663661e+00
1.12441170e+00 0.00000000e+00 -1.41845932e+01
0.00000000e+00 0.00000000e+00 -1.35724964e+01
0.00000000e+00 0.00000000e+00 -2.79648361e+01
1.94688261e+00 0.00000000e+00 -2.01479626e+01
0.00000000e+00 0.00000000e+00 1.89034379e+00
0.00000000e+00 0.00000000e+00 -5.69772768e+00
0.00000000e+00 0.00000000e+00 -8.40982199e-01
0.00000000e+00 0.00000000e+00 -1.64114246e+01
-1.22837201e-01 0.00000000e+00 -7.24219513e+00
0.00000000e+00 0.00000000e+00 -1.56575632e+01
0.00000000e+00 0.00000000e+00 -1.62101021e+01
0.00000000e+00 0.00000000e+00 -1.04613848e+01
0.00000000e+00 0.00000000e+00 -1.07985086e+01
0.00000000e+00 0.00000000e+00 -6.22317791e+00
0.00000000e+00 0.00000000e+00 1.04660249e+00
0.00000000e+00 0.00000000e+00 -2.16290444e-01
</DataArray>
<DataArray type="Float32" Name="Equivalent_plastic_strain" format="ascii">
9.44854133e-03
1.19853302e-02
1.53302965e-02
1.02896143e-02
9.06821161e-03
1.65961348e-02
2.51283506e-02
1.65899859e-02
1.48188360e-02
2.60667969e-02
3.33503832e-02
3.89283337e-02
0.00000000e+00
0.00000000e+00
0.00000000e+00
0.00000000e+00
0.00000000e+00
0.00000000e+00
0.00000000e+00
0.00000000e+00
2.11274121e-02
2.08055489e-02
2.08210887e-02
2.09239656e-02
2.36637508e-02
2.36310563e-02
2.46228289e-02
2.53080418e-02
2.00711028e-02
2.11045584e-02
2.21253866e-02
2.37004030e-02
1.94997415e-02
2.20081992e-02
2.01086346e-02
2.15888694e-02
1.84994568e-02
2.37409321e-02
1.81116434e-02
1.85202928e-02
1.65549824e-02
2.19580419e-02
1.49082839e-02
1.76763177e-02
1.46719776e-02
1.93507853e-02
1.28486687e-02
1.60212575e-02
2.09149390e-02
1.94813889e-02
2.83464920e-02
2.65191603e-02
2.32661212e-02
2.59968310e-02
3.32776196e-02
2.17494019e-02
3.31434114e-02
2.23233458e-02
2.97934692e-02
2.48975880e-02
2.65753139e-02
2.41576554e-02
1.94184040e-02
1.51367506e-02
2.77066316e-02
2.27365750e-02
3.30360411e-02
3.45156342e-02
3.27582210e-02
7.35676227e-03
1.17353981e-02
1.12206975e-02
1.79076736e-02
1.73643744e-02
1.03699181e-02
2.64906290e-02
2.51481934e-02
1.76456794e-02
3.97361424e-02
3.25378854e-02
1.40395090e-02
2.81180618e-02
2.89807422e-02
3.62045215e-02
3.69772383e-02
3.10188085e-02
2.79857321e-02
2.73479884e-02
2.87125674e-02
2.97327298e-02
2.56431825e-02
2.57893596e-02
2.28621098e-02
2.19698278e-02
1.99221624e-02
1.82231849e-02
1.78615469e-02
1.62111252e-02
1.73920384e-02
1.62648757e-02
3.36974512e-02
3.63977645e-02
2.59356576e-02
1.61395047e-02
1.19284710e-02
1.13465022e-02
1.16359120e-02
3.74727218e-02
4.08169739e-02
2.53542038e-02
9.93238731e-03
1.32316556e-02
3.00541983e-04
4.45603235e-02
4.53665672e-02
3.78495753e-02
4.90112876e-02
4.85469075e-02
4.54596411e-02
4.50702831e-02
4.37317146e-02
4.07806113e-02
2.03361067e-02
2.14426559e-02
3.38720111e-03
8.23600683e-03
5.69357561e-03
2.86468483e-03
0.00000000e+00
0.00000000e+00
0.00000000e+00
0.00000000e+00
-5.94485478e-05
0.00000000e+00
0.00000000e+00
5.75513695e-05
2.99922284e-02
2.88632596e-02
3.06507139e-02
3.19124125e-02
2.67982334e-02
2.69103427e-02
2.42902469e-02
2.23850966e-02
2.15924308e-02
1.91119071e-02
2.05562403e-02
1.70822318e-02
2.16900446e-02
1.76358670e-02
3.55673758e-02
4.12297193e-02
2.54262835e-02
1.56945258e-02
8.72551941e-03
4.96922707e-03
4.76759369e-03
5.21909837e-02
6.14781976e-02
2.10056646e-02
4.94398974e-03
-7.18627126e-05
1.09071475e-03
-1.52018369e-04
1.57098578e-03
4.04640719e-04
9.45985829e-03
-2.38951214e-03
2.03976315e-02
-1.45358621e-05
3.96718063e-04
-1.66488767e-05
-5.21576708e-05
7.98343262e-06
2.40107518e-04
7.97248036e-02
8.42586532e-02
5.67312328e-02
6.35578446e-02
-6.92271908e-05
7.22814557e-04
0.00000000e+00
5.14419638e-02
5.29537648e-02
4.14930526e-02
4.11350690e-02
9.80202621e-03
1.70326033e-02
1.76404018e-03
1.69788138e-04
0.00000000e+00
</DataArray>
<DataArray type="Float32" Name="Stress_Mises" format="ascii">
2.60681708e+01
3.03124791e+01
3.35899716e+01
2.80109510e+01
2.04502698e+01
3.05172582e+01
3.77691073e+01
2.95432787e+01
3.68897624e+01
6.71832256e+01
7.83839124e+01
7.32009754e+01
1.47465742e+00
2.29386622e+00
1.53404266e+00
2.03159148e+00
8.72361064e-01
1.05890214e+00
1.06282437e+00
9.61522162e-01
2.98117867e+01
2.97174892e+01
2.88319740e+01
3.00916100e+01
2.85465784e+01
3.02994823e+01
2.95198861e+01
3.12615275e+01
2.82333722e+01
2.74280443e+01
2.92901015e+01
3.12987111e+01
2.67586799e+01
2.65113607e+01
2.83075323e+01
3.10220017e+01
2.45179636e+01
3.12150126e+01
2.84492950e+01
2.48330526e+01
2.14239392e+01
2.77668230e+01
2.36146071e+01
2.67083375e+01
1.71502171e+01
2.02550260e+01
1.91460571e+01
2.23226135e+01
2.76357298e+01
2.73587461e+01
3.59686744e+01
3.08298616e+01
3.25728463e+01
3.18955657e+01
6.62198120e+01
2.91195315e+01
5.61467962e+01
4.64319324e+01
4.47938128e+01
4.94150763e+01
3.44737349e+01
4.72773685e+01
3.28039079e+01
2.11689668e+01
3.15475699e+01
2.18699775e+01
8.32971087e+01
5.17700218e+01
5.58237648e+01
3.60715389e+01
2.16893121e+01
2.12189538e+01
2.74395924e+01
1.93190188e+01
2.04373257e+01
2.64735331e+01
2.36919811e+01
4.97643461e+01
9.23579597e+01
4.30010656e+01
3.07044964e+01
3.54029069e+01
3.38197756e+01
4.26100178e+01
7.32437127e+01
4.58290272e+01
3.08146200e+01
3.16084433e+01
3.13352566e+01
3.07997785e+01
3.34517155e+01
3.27262886e+01
3.32149191e+01
3.36976385e+01
3.14307451e+01
3.05451465e+01
2.88794651e+01
2.79216144e+01
2.85283375e+01
2.96100259e+01
3.93072097e+01
3.58393370e+01
3.15995648e+01
2.41407210e+01
2.48181697e+01
3.09406441e+01
3.53354232e+01
4.44726528e+01
5.60843646e+01
2.92447708e+01
1.88429919e+01
3.98996010e+01
2.56257668e+01
4.29098191e+01
3.85323359e+01
9.28935165e+01
5.02822994e+01
3.85441756e+01
3.39508512e+01
2.87863297e+01
5.46428685e+01
4.08634834e+01
3.56558298e+01
2.80617120e+01
1.96780930e+01
1.98493767e+01
3.02150464e+01
2.70881278e+01
3.58071876e+00
1.24528694e+00
3.17556953e+00
4.49492884e+00
1.25025773e+01
7.08426595e+00
5.04831314e+00
1.72654791e+01
3.15319061e+01
3.14229412e+01
3.35891991e+01
3.19547968e+01
3.36220322e+01
3.46974573e+01
3.53580408e+01
3.40446167e+01
3.40996609e+01
3.44231100e+01
3.34171047e+01
3.29303851e+01
3.81265526e+01
3.68824158e+01
3.09031973e+01
3.67602596e+01
2.94218724e+01
2.76091852e+01
2.02822289e+01
1.66842909e+01
2.15822384e+01
8.49196663e+01
9.74451675e+01
3.22436099e+01
1.85363629e+01
1.62856686e+01
2.79455271e+01
2.40651515e+01
3.17586756e+01
2.81007872e+01
3.51001167e+01
2.64429131e+01
5.45776672e+01
2.39592406e+01
1.86921714e+01
2.02873986e+01
1.46809772e+01
2.51255226e+01
2.08000927e+01
8.65983200e+01
1.06495438e+02
3.46742255e+01
4.64827175e+01
1.07537203e+01
1.90662127e+01
8.20568419e+00
3.58503914e+01
3.05860996e+01
3.65497522e+01
4.18571329e+01
3.25310068e+01
3.45815325e+01
2.18874273e+01
2.12038202e+01
6.52639627e+00
</DataArray>
<DataArray type="Float32" Name="Stress_Max_Principal" format="ascii">
6.11778872e+00
5.82911807e+00
9.88027394e-01
3.33999515e+00
1.97322446e+01
2.02730221e+01
-8.14780772e-01
3.41229522e+00
-6.24157310e-01
-2.87101345e+01
-2.95992219e+01
-2.89368844e+01
7.41950765e-01
1.33294851e+00
5.08174658e-01
1.16452360e+00
6.40545964e-01
7.63669968e-01
7.28659391e-01
7.06601858e-01
5.75748920e-01
8.66754770e-01
2.67785136e+00
8.05373609e-01
2.90105170e+00
1.05207665e+00
1.67816456e+00
3.28844458e-01
3.51310848e+00
4.58116916e+00
1.68518442e+00
-1.55428283e-01
5.18091726e+00
5.68911393e+00
2.90886967e+00
4.23541825e-01
7.21930309e+00
1.51028499e+00
3.03173026e+00
6.39294484e+00
9.15380478e+00
3.65481961e+00
6.59654494e+00
4.77390549e+00
1.26103954e+01
9.82662398e+00
1.12307143e+01
8.73566037e+00
5.38055535e+00
5.44035006e+00
-3.70749676e+00
4.86201718e-02
4.68294014e+00
-1.63598772e-01
-2.73116995e+01
4.17025239e+00
-2.01351705e+01
-9.61341519e+00
-1.16315711e+01
-1.46846291e+01
-2.85237104e+00
-1.35534477e+01
2.24525527e+00
1.17374541e+01
1.77230413e+00
8.46696162e+00
-3.37320976e+01
-1.32463876e+01
1.71804314e+01
3.66033472e+01
1.00451734e+01
1.02501540e+01
2.77174088e+01
2.31760348e+01
1.00846009e+01
5.71816978e+00
8.83677623e+00
-1.02518033e+01
-4.64165401e+01
-5.59387417e+00
2.10874033e+00
1.50552940e+01
9.09900188e-01
-4.12895006e+00
-2.41168925e+01
-2.07473596e+00
2.12755460e+00
7.22745836e-01
1.35750421e+00
2.09698470e+00
-1.70509353e+00
1.11243445e-02
-1.07468602e+00
-4.81816872e-01
6.86414033e-01
2.04533634e+00
2.94039467e+00
3.94429058e+00
3.89081979e+00
3.32295990e+00
3.10688396e+00
-1.45824802e+00
3.70543736e+00
8.09432781e+00
8.75474661e+00
5.27908076e+00
4.18224017e+00
-7.22373939e+00
-1.63969012e+01
5.55524076e+00
1.78796039e+01
1.18911619e+01
3.13747402e+01
-6.69798312e+00
-2.86887296e+00
-3.78445244e+01
-1.55332325e+00
3.19657671e+00
-5.06922007e-01
1.55086231e+00
-1.59967809e+01
-2.58557230e+00
2.49145016e+01
1.17985416e+01
6.45936661e+01
4.96958160e+01
2.20001547e+01
2.83861036e+01
2.15993285e+00
4.28033412e-01
1.68559432e+00
2.72214818e+00
9.03011289e+00
1.73944603e+00
1.35865420e+00
7.87803161e+00
1.56546354e+00
8.31878453e-01
2.38822997e-01
1.91472673e+00
-1.79416418e+00
-1.03649423e+00
-1.54286093e+00
-2.09218264e-03
2.65594482e-01
2.83259564e-01
4.74656805e-01
2.08793071e+00
-1.64267719e+00
-3.04630160e-01
3.93620002e+00
-1.46301079e+00
4.89865452e+00
7.11742926e+00
1.23381989e+01
1.68244474e+01
1.62304449e+01
-4.32056360e+01
-5.47095909e+01
7.92460569e+00
3.43562860e+01
2.79615059e+01
1.98147511e+01
2.17197752e+01
1.11857367e+01
1.47864585e+01
1.32032299e+01
5.08216162e+01
-1.35587940e+01
2.35258636e+01
1.65944293e+01
1.52077695e+01
1.10308143e+01
1.06284578e+01
7.13806105e+00
-4.25616493e+01
-6.28894577e+01
-1.71509091e+00
-1.03221840e+01
7.01012889e+00
2.26978563e+01
2.61197245e+00
-1.40491486e-01
2.04790902e+00
-7.46837616e-01
-4.22243214e+00
3.10973013e+01
3.27457705e+01
2.23050232e+01
8.55151176e+00
6.20601714e-01
</DataArray>
<DataArray type="Float32" Name="Stress_Mid_Principal" format="ascii">
1.21889874e+00
-2.32750015e+00
-4.34512401e+00
1.01140702e+00
1.34311606e+01
1.14562775e+01
-1.13299892e+01
-1.60186017e+00
-7.16930318e+00
-3.22074003e+01
-4.11013400e+01
-4.25088968e+01
-1.91112279e-01
-5.17572865e-01
2.29224335e-01
-4.63332012e-01
-1.08768959e-02
-5.13625741e-02
4.63832431e-02
-5.30742183e-02
-7.98897743e-02
-2.32690558e-01
-4.37339119e-01
-6.97046235e-01
-3.56314421e-01
-1.55932643e+00
-7.07997952e-01
-2.42874652e+00
-3.40829015e-01
3.63582820e-02
-3.73524345e-01
-1.72245884e+00
3.85856450e-01
8.68831679e-01
2.09539071e-01
-1.64517896e+00
2.17023414e+00
-3.43851414e+00
-1.08034343e-01
2.99009655e+00
5.72100566e+00
3.47182095e-01
4.77562802e+00
1.25289869e+00
9.64870548e+00
7.13458705e+00
7.97035015e+00
4.90916312e+00
-1.10973886e+00
-6.80334568e-01
-5.92714223e+00
-1.02108872e+00
1.10888529e+00
-2.75799491e+00
-3.16207970e+01
1.52686613e-01
-2.41751316e+01
-1.35510881e+01
-1.33787940e+01
-1.77679296e+01
-4.53629207e+00
-1.53069749e+01
-6.14748625e+00
5.96397856e+00
-1.84359741e+00
6.49184084e+00
-4.83069925e+01
-2.12571013e+01
-1.32309895e+01
1.95257504e+01
6.32432600e+00
5.12838054e+00
1.62057861e+01
1.62443710e+01
6.94866940e+00
1.29128924e+00
2.75572085e+00
-1.57553502e+01
-5.62285919e+01
-1.27522193e+01
-2.69772363e+00
6.06206226e+00
-6.29562330e+00
-1.51139555e+01
-3.50009184e+01
-1.59948116e+01
-3.75004596e+00
-3.57984582e+00
-3.74197733e+00
-3.62435899e+00
-4.18250424e+00
-4.76643312e+00
-4.30723008e+00
-5.72891264e+00
-2.93095943e+00
-2.56107809e+00
-8.71359199e-01
4.14237940e-01
-1.07440591e+00
-1.61299893e+00
-6.90415561e+00
-8.23777103e+00
-2.77974868e+00
2.36303070e+00
3.02795040e+00
-2.13637541e+00
-7.95937395e+00
-1.67067177e+01
-2.74210027e+01
-1.28136422e+00
9.41250663e+00
-3.49432969e+00
1.17153905e+01
-1.31143293e+01
-9.81097913e+00
-6.14584942e+01
-1.08430849e+01
-2.86719155e+00
-5.34828734e+00
9.12292480e-01
-2.37170169e+01
-1.34237057e+01
8.31679630e+00
2.10744548e+00
4.58822174e+01
3.18308277e+01
-5.03516740e+00
1.11907031e+01
-1.30713820e+00
-1.04673743e-01
-3.86933118e-01
-1.22223198e+00
-6.10127604e-01
-3.88235529e-01
-2.17318490e-01
3.41219664e+00
-4.44889164e+00
-3.37487423e+00
-6.65598160e+00
-5.61161172e+00
-4.42580521e+00
-7.24957805e+00
-7.85031021e+00
-7.14880693e+00
-7.55959725e+00
-7.65770534e+00
-6.50699735e+00
-6.35616350e+00
-1.26115723e+01
-1.07231603e+01
-4.98695946e+00
-1.04233377e+01
-3.99781780e+00
-2.19313928e+00
6.97512169e+00
1.25716903e+01
7.21204853e+00
-4.92047119e+01
-6.01155167e+01
-1.95686531e+00
2.46921787e+01
1.65743586e+01
-3.08472263e+00
9.07229042e+00
-1.09331989e+00
5.44528174e+00
-6.85159999e+00
3.37503967e+01
-2.01768208e+01
6.46281918e+00
6.37527917e+00
1.49426639e+00
4.31111524e+00
5.74734193e+00
3.88402954e+00
-5.44794807e+01
-6.77188721e+01
-5.70824893e+00
-1.78520446e+01
3.00486772e+00
1.24231804e+01
-2.39385980e+00
-9.71336985e+00
-3.10289860e+00
-7.09329319e+00
-1.59026268e+01
1.36103802e+01
8.91247654e+00
1.37272396e+01
4.93806168e+00
-2.90111620e-02
</DataArray>
<DataArray type="Float32" Name="Stress_Min_Principal" format="ascii">
-2.20293946e+01
-2.74265544e+01
-3.47659740e+01
-2.57433457e+01
-2.21153820e+00
-1.18283236e+01
-4.26434237e+01
-2.80507295e+01
-4.03326774e+01
-9.75726089e+01
-1.13040876e+02
-1.07964632e+02
-9.56026465e-01
-1.22055882e+00
-1.14259499e+00
-1.10643241e+00
-3.50560069e-01
-4.33191061e-01
-4.95920837e-01
-3.74445200e-01
-2.95584040e+01
-2.93848324e+01
-2.75427592e+01
-2.99973078e+01
-2.71342173e+01
-3.04664168e+01
-2.89577012e+01
-3.22078583e+01
-2.64453099e+01
-2.48150585e+01
-2.85796170e+01
-3.21970156e+01
-2.36377485e+01
-2.28687038e+01
-2.66406364e+01
-3.15524672e+01
-1.94296792e+01
-3.18616755e+01
-2.68554420e+01
-1.99561938e+01
-1.37723964e+01
-2.56050324e+01
-1.78520790e+01
-2.35152357e+01
-5.82691262e+00
-1.16354383e+01
-9.33235553e+00
-1.52362605e+01
-2.48602024e+01
-2.44562221e+01
-4.07249467e+01
-3.13015494e+01
-2.91485315e+01
-3.32456136e+01
-9.54795837e+01
-2.66605863e+01
-7.81885109e+01
-5.78252655e+01
-5.72724733e+01
-6.55679073e+01
-3.81371202e+01
-6.16824284e+01
-3.37929205e+01
-1.16663083e+01
-3.13151384e+01
-1.43140242e+01
-1.23313808e+02
-6.84741310e+01
-4.72457199e+01
-1.83714294e+00
-1.31974708e+01
-1.29712989e+01
-1.38941320e+00
2.65598416e+00
-1.16915715e+01
-2.25750574e+01
-1.72216903e+01
-6.23626022e+01
-1.43253090e+02
-5.14731822e+01
-3.07141199e+01
-2.19967170e+01
-3.59262443e+01
-5.10350120e+01
-1.01897558e+02
-5.26934319e+01
-3.12017994e+01
-3.28013806e+01
-3.22101951e+01
-3.11547973e+01
-3.63264041e+01
-3.48308921e+01
-3.57802877e+01
-3.64852767e+01
-3.23855395e+01
-3.05279927e+01
-2.76465669e+01
-2.55537685e+01
-2.67933149e+01
-2.84195135e+01
-3.95800614e+01
-4.01067991e+01
-3.04444113e+01
-1.83431931e+01
-1.83229444e+01
-2.85095954e+01
-3.53896906e+01
-5.56270432e+01
-7.67912254e+01
-2.63338504e+01
-3.27030212e+00
-3.34106674e+01
3.16314363e+00
-5.22800364e+01
-4.40668914e+01
-1.40265808e+02
-5.40969098e+01
-3.69912119e+01
-3.65959944e+01
-2.75483832e+01
-7.40047055e+01
-4.77543726e+01
-1.50140409e+01
-1.97085564e+01
4.40737724e+01
2.83283157e+01
-1.04763616e+01
-2.44168441e+00
-1.52452862e+00
-9.94999409e-01
-1.97034752e+00
-2.17164779e+00
-4.27471881e+00
-5.91661286e+00
-4.28448403e+00
-1.10959622e+01
-3.25404549e+01
-3.24731293e+01
-3.62230587e+01
-3.31297121e+01
-3.66493435e+01
-3.83412600e+01
-3.96145344e+01
-3.70328708e+01
-3.70652323e+01
-3.73656340e+01
-3.58817120e+01
-3.41950293e+01
-4.40513229e+01
-4.11646385e+01
-3.04036632e+01
-4.16984191e+01
-2.78791397e+01
-2.38923612e+01
-9.72777002e+00
-1.10431719e+00
-8.04341412e+00
-1.30904652e+02
-1.54745193e+02
-2.78088144e+01
1.36791403e+01
9.55964530e+00
-1.10183589e+01
-5.67950404e+00
-2.41355028e+01
-1.60664454e+01
-2.59377031e+01
2.07291541e+01
-7.11437073e+01
-3.78238034e+00
-3.18370007e+00
-7.65291691e+00
-5.73835638e+00
-1.65740566e+01
-1.48444519e+01
-1.34501617e+02
-1.71717438e+02
-3.81839326e+01
-6.00928783e+01
-4.74485886e+00
1.28242588e+00
-6.72985125e+00
-3.96907396e+01
-3.07865639e+01
-3.95221815e+01
-5.06396236e+01
-4.99825096e+00
-6.63449478e+00
-2.14844275e+00
-1.41650805e+01
-6.20630836e+00
</DataArray>
<DataArray type="Float32" Name="Stress_Pressure" format="ascii">
4.89756895e+00
7.97497907e+00
1.27076902e+01
7.13064814e+00
-1.03172893e+01
-6.63365882e+00
1.82627312e+01
8.74676454e+00
1.60420465e+01
5.28300476e+01
6.12471485e+01
5.98034716e+01
1.35062654e-01
1.35061067e-01
1.35065351e-01
1.35080270e-01
-9.30363387e-02
-9.30387825e-02
-9.30406079e-02
-9.30274725e-02
9.68751502e+00
9.58358979e+00
8.43408217e+00
9.96299332e+00
8.19649339e+00
1.03245556e+01
9.32917812e+00
1.14359196e+01
7.75767680e+00
6.73251025e+00
9.08931893e+00
1.13583009e+01
6.02365847e+00
5.43691933e+00
7.84074271e+00
1.09247015e+01
3.34671420e+00
1.12633013e+01
7.97724879e+00
3.52438410e+00
-3.67471218e-01
7.20101038e+00
2.15996865e+00
5.82947718e+00
-5.47739619e+00
-1.77525759e+00
-3.28956938e+00
5.30479029e-01
6.86312865e+00
6.56540234e+00
1.67865283e+01
1.07580060e+01
7.78556882e+00
1.20557357e+01
5.14706932e+01
7.44588235e+00
4.08329368e+01
2.69965894e+01
2.74276128e+01
3.26734886e+01
1.51752610e+01
3.01809492e+01
1.25650508e+01
-2.01170814e+00
1.04621439e+01
-2.14926243e-01
6.84509649e+01
3.43258729e+01
1.44320927e+01
-1.80973173e+01
-1.05734307e+00
-8.02411854e-01
-1.41779272e+01
-1.40254631e+01
-1.78056645e+00
5.18853273e+00
1.87639761e+00
2.94565865e+01
8.19660721e+01
2.32730923e+01
1.04343671e+01
2.93120384e-01
1.37706556e+01
2.34259728e+01
5.36717885e+01
2.35876591e+01
1.09414306e+01
1.18861604e+01
1.15315559e+01
1.08940572e+01
1.40713336e+01
1.31954002e+01
1.37207341e+01
1.42320022e+01
1.15433620e+01
1.03479116e+01
8.52584356e+00
7.06507979e+00
7.99230003e+00
8.90318394e+00
1.44591111e+01
1.66009393e+01
9.83957446e+00
2.62861192e+00
2.18008267e+00
8.45563014e+00
1.30556086e+01
2.65191668e+01
4.02030436e+01
7.35332473e+00
-8.00726949e+00
8.33794594e+00
-1.54177579e+01
2.40307836e+01
1.89155811e+01
7.98562737e+01
2.21644390e+01
1.22206092e+01
1.41504016e+01
8.36174250e+00
3.79061658e+01
2.12545507e+01
-6.07241964e+00
1.93418980e+00
-5.15165520e+01
-3.66183205e+01
-2.16287513e+00
-1.23783743e+01
2.23911345e-01
2.23879904e-01
2.23895445e-01
2.23910481e-01
-1.38175558e+00
1.52180077e+00
1.04771610e+00
-6.47551765e-02
1.18079615e+01
1.16720419e+01
1.42134058e+01
1.22755326e+01
1.42897711e+01
1.55424446e+01
1.63359013e+01
1.47279234e+01
1.47864118e+01
1.49133605e+01
1.39713502e+01
1.28210874e+01
1.94351921e+01
1.73974767e+01
1.04848080e+01
1.78615897e+01
8.99276781e+00
6.32269037e+00
-3.19518363e+00
-9.43060708e+00
-5.13302660e+00
7.44383316e+01
8.98567657e+01
7.28035863e+00
-2.42425354e+01
-1.80318366e+01
-1.90389007e+00
-8.37085426e+00
4.68102876e+00
-1.38843185e+00
6.52869105e+00
-3.51003890e+01
3.49597740e+01
-8.73543437e+00
-6.59533596e+00
-3.01637304e+00
-3.20119095e+00
6.60856962e-02
1.27412053e+00
7.71809158e+01
1.00775261e+02
1.52024243e+01
2.94223680e+01
-1.75671250e+00
-1.21344878e+01
2.17057949e+00
1.65148673e+01
1.06138515e+01
1.57874365e+01
2.35882280e+01
-1.32364769e+01
-1.16745834e+01
-1.12946065e+01
2.25169003e-01
1.87157261e+00
</DataArray>
<DataArray type="Float32" Name="Stress_Tresca" format="ascii">
2.81471834e+01
3.32556729e+01
3.57540016e+01
2.90833402e+01
2.19437829e+01
3.21013453e+01
4.18286433e+01
3.14630241e+01
3.97085204e+01
6.88624725e+01
8.34416542e+01
7.90277500e+01
1.69797724e+00
2.55350733e+00
1.65076965e+00
2.27095604e+00
9.91106033e-01
1.19686103e+00
1.22458029e+00
1.08104706e+00
3.01341534e+01
3.02515869e+01
3.02206109e+01
3.08026819e+01
3.00352688e+01
3.15184941e+01
3.06358657e+01
3.25367026e+01
2.99584188e+01
2.93962276e+01
3.02648015e+01
3.20415874e+01
2.88186660e+01
2.85578177e+01
2.95495067e+01
3.19760091e+01
2.66489825e+01
3.33719609e+01
2.98871727e+01
2.63491386e+01
2.29262013e+01
2.92598519e+01
2.44486241e+01
2.82891412e+01
1.84373083e+01
2.14620624e+01
2.05630698e+01
2.39719210e+01
3.02407579e+01
2.98965721e+01
3.70174494e+01
3.13501701e+01
3.38314719e+01
3.30820143e+01
6.81678841e+01
3.08308390e+01
5.80533419e+01
4.82118500e+01
4.56409016e+01
5.08832779e+01
3.52847481e+01
4.81289806e+01
3.60381756e+01
2.34037623e+01
3.30874428e+01
2.27809861e+01
8.95817089e+01
5.52277443e+01
6.44261475e+01
3.84404895e+01
2.32426439e+01
2.32214532e+01
2.91068214e+01
2.05200510e+01
2.17761726e+01
2.82932276e+01
2.60584664e+01
5.21107988e+01
9.68365479e+01
4.58793079e+01
3.28228607e+01
3.70520101e+01
3.68361435e+01
4.69060612e+01
7.77806625e+01
5.06186975e+01
3.33293533e+01
3.35241270e+01
3.35676987e+01
3.32517815e+01
3.46213107e+01
3.48420167e+01
3.47056017e+01
3.60034599e+01
3.30719538e+01
3.25733290e+01
3.05869613e+01
2.94980593e+01
3.06841335e+01
3.17424731e+01
4.26869457e+01
3.86485505e+01
3.41498485e+01
2.64375207e+01
2.70776912e+01
3.37886761e+01
3.95719312e+01
4.84033041e+01
6.03943240e+01
3.18890910e+01
2.11499062e+01
4.53018303e+01
2.82115963e+01
4.55820532e+01
4.11980178e+01
1.02421284e+02
5.25435867e+01
4.01877880e+01
3.60890722e+01
2.90992446e+01
5.80079260e+01
4.51688004e+01
3.99285421e+01
3.15070975e+01
2.05198936e+01
2.13675003e+01
3.24765162e+01
3.08277880e+01
3.68446159e+00
1.42303276e+00
3.65594196e+00
4.89379597e+00
1.33048316e+01
7.65605895e+00
5.64313841e+00
1.89739933e+01
3.41059189e+01
3.33050079e+01
3.64618816e+01
3.50444393e+01
3.48551788e+01
3.73047657e+01
3.80716743e+01
3.70307789e+01
3.73308277e+01
3.76488938e+01
3.63563690e+01
3.62829599e+01
4.24086456e+01
4.08600082e+01
3.43398633e+01
4.02354088e+01
3.27777941e+01
3.10097907e+01
2.20659685e+01
1.79287643e+01
2.42738590e+01
8.76990166e+01
1.00035599e+02
3.57334194e+01
2.06771455e+01
1.84018612e+01
3.08331099e+01
2.73992794e+01
3.53212395e+01
3.08529053e+01
3.91409321e+01
3.00924625e+01
5.75849152e+01
2.73082441e+01
1.97781296e+01
2.28606865e+01
1.67691705e+01
2.72025137e+01
2.19825130e+01
9.19399719e+01
1.08827980e+02
3.64688422e+01
4.97706947e+01
1.17549878e+01
2.14154301e+01
9.34182358e+00
3.95502472e+01
3.28344727e+01
3.87753439e+01
4.64171925e+01
3.60955524e+01
3.93802643e+01
2.44534655e+01
2.27165923e+01
6.82691002e+00
</DataArray>
<DataArray type="Float32" Name="Stress_Third_Invariant" format="ascii">
-2.49203331e+01
-2.60414053e+01
-3.15469653e+01
-2.77325509e+01
-1.28526896e+01
-1.78887979e+01
-3.38848319e+01
-2.73570611e+01
-3.54915267e+01
-6.69746933e+01
-7.62545217e+01
-7.02532845e+01
6.80164680e-01
1.98493558e+00
-1.46280277e+00
1.75910527e+00
6.98438406e-01
8.82784545e-01
6.17797077e-01
8.27060938e-01
-2.97954235e+01
-2.96705742e+01
-2.83147407e+01
-2.99707255e+01
-2.81230698e+01
-3.00380235e+01
-2.92873349e+01
-3.09481816e+01
-2.76194963e+01
-2.64926573e+01
-2.91256104e+01
-3.11762942e+01
-2.57198272e+01
-2.53860190e+01
-2.79815502e+01
-3.07789371e+01
-2.33031840e+01
-3.02414103e+01
-2.80499787e+01
-2.42683220e+01
-2.07687335e+01
-2.72782282e+01
-2.33827755e+01
-2.61620971e+01
-1.65572028e+01
-1.98326592e+01
-1.84930034e+01
-2.15099101e+01
-2.55951338e+01
-2.57345486e+01
-3.57846937e+01
-3.07861824e+01
-2.80072682e+01
-3.15599680e+01
-6.55888565e+01
-2.81854323e+01
-5.58051558e+01
-4.58553116e+01
-4.47141571e+01
-4.91941433e+01
-3.43807573e+01
-4.72018394e+01
-2.96152058e+01
-1.85370844e+01
-3.02794822e+01
-2.16383824e+01
-8.02145557e+01
-5.00767368e+01
-2.56217651e+01
-1.05312932e+01
-2.07320708e+01
-1.93968031e+01
-9.66508373e+00
-9.62368059e+00
-1.97226766e+01
-2.48903958e+01
-2.15090152e+01
-4.84972601e+01
-9.10621452e+01
-3.82312182e+01
-2.98357897e+01
-2.19577699e+01
-3.20032616e+01
-3.87285218e+01
-7.00956341e+01
-3.06052586e+01
-2.95110683e+01
-3.08901739e+01
-3.03653812e+01
-2.95427632e+01
-3.32436490e+01
-3.18935945e+01
-3.28352151e+01
-3.27271016e+01
-3.09226513e+01
-2.97043960e+01
-2.82760110e+01
-2.73464501e+01
-2.75279169e+01
-2.85770519e+01
-3.21744246e+01
-3.38508559e+01
-2.87364243e+01
-2.23025061e+01
-2.28012332e+01
-2.76255678e+01
-2.87866952e+01
-4.19385907e+01
-5.19990768e+01
-2.66113811e+01
-8.08621166e+00
-3.21287575e+01
1.39513265e+01
-4.12144585e+01
-3.58203793e+01
-8.57409782e+01
-4.00589380e+01
-3.18977718e+01
-3.30873463e+01
-2.87672148e+01
-5.31048706e+01
-3.73322215e+01
-1.89507838e+01
-2.21900626e+01
1.94898148e+01
1.91355247e+01
2.87684722e+01
2.05750195e+00
3.56582618e+00
-9.31782722e-01
1.94341350e+00
4.26048136e+00
6.01838994e+00
-3.89261742e+00
-4.41716564e+00
-1.55631990e+01
-3.02006969e+01
-3.07495451e+01
-3.17956452e+01
-2.98547564e+01
-3.33727427e+01
-3.31372037e+01
-3.40045757e+01
-3.22202415e+01
-3.19798717e+01
-3.20687733e+01
-3.17132225e+01
-3.01563587e+01
-3.42979851e+01
-3.28238983e+01
-2.75715061e+01
-3.35197010e+01
-2.55239366e+01
-2.33357985e+01
-1.35021833e+01
-1.29460803e+01
-1.35298629e+01
-8.42532425e+01
-9.71069107e+01
-2.68184401e+01
6.75054431e-01
1.02973033e+01
2.41851773e+01
-1.12466221e+01
-1.72535658e+01
-1.85282640e+01
1.09821129e+00
2.46567154e+00
-5.36638031e+01
1.72278481e+01
1.83224932e+00
5.10817587e+00
-6.14896262e+00
-2.40047255e+01
-1.92701321e+01
-8.47238235e+01
-1.06248642e+02
-3.40582644e+01
-4.50220585e+01
-4.62977433e+00
-1.42949645e+00
-7.39930868e-01
-3.23363314e+01
-2.95866489e+01
-3.26603049e+01
-3.77474871e+01
-8.94236946e+00
2.21739788e+01
-1.31779718e+01
-2.02757668e+01
-6.45305872e+00
</DataArray>
<DataArray type="Float32" Name="Logarithmic_strain_Max_Principal" format="ascii">
7.33407168e-03
9.54491273e-03
1.10484948e-02
7.12357939e-03
7.99841376e-03
1.32391663e-02
2.14911462e-02
1.24774012e-02
1.12440900e-02
1.63247096e-02
2.60257137e-02
3.15859504e-02
1.93079636e-05
3.35246568e-05
1.37539064e-05
2.97950346e-05
1.44359065e-05
1.70123913e-05
1.67969611e-05
1.54326590e-05
1.29885962e-02
1.30921828e-02
1.44349170e-02
1.34436369e-02
1.69963706e-02
1.65602695e-02
1.67442558e-02
1.72544126e-02
1.45431126e-02
1.58530981e-02
1.51369839e-02
1.57541091e-02
1.51361681e-02
1.66882556e-02
1.38820915e-02
1.41516940e-02
1.45932718e-02
1.74555351e-02
1.25929937e-02
1.33146917e-02
1.21974421e-02
1.53383855e-02
1.01358816e-02
1.26283786e-02
1.12500316e-02
1.36478017e-02
9.80095612e-03
1.20158624e-02
1.66052870e-02
1.54184077e-02
1.89315763e-02
1.72782640e-02
1.60242090e-02
1.75016982e-02
2.31545035e-02
1.57836407e-02
2.19001360e-02
1.60119144e-02
1.87376305e-02
1.62507286e-02
1.61354020e-02
1.54036446e-02
1.60724361e-02
1.29744611e-02
2.02795821e-02
1.48011695e-02
2.61335354e-02
2.59234842e-02
3.98405977e-02
1.45709297e-02
9.10776661e-03
9.39374999e-03
1.44999381e-02
1.38971986e-02
8.06646910e-03
1.88742803e-02
1.96411144e-02
1.36704149e-02
2.74228714e-02
2.35665176e-02
1.07463161e-02
2.15721959e-02
2.20878376e-02
2.85773431e-02
2.89687173e-02
2.72722480e-02
2.16859505e-02
2.01212103e-02
2.16222543e-02
2.29567289e-02
1.71244745e-02
1.89052948e-02
1.55509696e-02
1.60142492e-02
1.40142909e-02
1.32976982e-02
1.25381716e-02
1.15523654e-02
1.26001597e-02
1.19481885e-02
2.64802636e-02
2.73455759e-02
2.04299160e-02
1.29811356e-02
9.93419498e-03
9.66599405e-03
1.01668475e-02
2.97893196e-02
3.16554351e-02
2.17217139e-02
1.04675102e-02
1.60632320e-02
4.66375209e-03
3.28313592e-02
3.45375643e-02
3.16497525e-02
3.34061142e-02
3.26269600e-02
3.24755600e-02
2.77788918e-02
3.02728908e-02
3.25862891e-02
2.04316378e-02
2.03557627e-02
2.22251173e-02
1.65816285e-02
1.05502889e-02
9.04556267e-03
5.41508380e-05
1.28087459e-05
4.30730652e-05
6.80978119e-05
1.89779664e-04
6.02929395e-05
4.50987663e-05
2.53741705e-04
2.33439375e-02
2.11124420e-02
2.43536779e-02
2.60348236e-02
1.79572497e-02
2.01262566e-02
1.79337617e-02
1.71817937e-02
1.70843331e-02
1.53320695e-02
1.56709845e-02
1.35680549e-02
1.75890755e-02
1.46722137e-02
2.91780205e-02
3.06161279e-02
2.23790756e-02
1.37451638e-02
7.99782749e-03
5.64509252e-03
5.92258165e-03
3.47685311e-02
3.87254804e-02
1.77687410e-02
5.78860700e-03
1.46197697e-03
2.10417081e-03
6.96178649e-04
2.16374654e-03
9.20253340e-04
1.22658587e-02
2.97794305e-03
1.43301785e-02
9.18347515e-04
6.69025603e-04
3.20230665e-04
2.32062961e-04
2.95765640e-04
3.49202906e-04
5.31307310e-02
5.31815104e-02
4.18277420e-02
4.55840044e-02
1.34793667e-04
2.46500208e-03
8.83858593e-05
4.08536177e-02
3.75290364e-02
2.72364235e-02
3.37338354e-02
1.42708491e-02
1.76950130e-02
3.89041327e-03
3.28878741e-04
3.65760643e-05
</DataArray>
<DataArray type="Float32" Name="Logarithmic_strain_Min_Principal" format="ascii">
-9.89634288e-03
-1.24401975e-02
-1.63782884e-02
-1.10486918e-02
-1.06697016e-02
-1.77154147e-02
-2.60964460e-02
-1.66702492e-02
-1.63368522e-02
-2.84897564e-02
-3.69528967e-02
-4.22022920e-02
-2.11286269e-05
-2.76667506e-05
-2.55555206e-05
-2.47689295e-05
-9.70147266e-06
-1.15844605e-05
-1.27021058e-05
-1.07964115e-05
-2.17810497e-02
-2.14591376e-02
-2.13563317e-02
-2.16004583e-02
-2.40551168e-02
-2.41058338e-02
-2.51879857e-02
-2.58663059e-02
-2.05293139e-02
-2.14850877e-02
-2.26722336e-02
-2.44622678e-02
-1.96509943e-02
-2.24324390e-02
-2.06369027e-02
-2.23936352e-02
-1.86280101e-02
-2.43171228e-02
-1.86552531e-02
-1.90433189e-02
-1.68420970e-02
-2.24781088e-02
-1.53779632e-02
-1.82320123e-02
-1.47535647e-02
-1.96333192e-02
-1.30906226e-02
-1.63998059e-02
-2.11022375e-02
-1.97494212e-02
-2.94002334e-02
-2.73199058e-02
-2.53336722e-02
-2.70217583e-02
-3.70076388e-02
-2.25257605e-02
-3.48342527e-02
-2.43932176e-02
-3.09572848e-02
-2.63735242e-02
-2.74163540e-02
-2.55492702e-02
-2.00139493e-02
-1.52332739e-02
-2.85877679e-02
-2.37203529e-02
-3.80917387e-02
-3.62237550e-02
-4.04474027e-02
-1.62910207e-02
-1.24381046e-02
-1.11482136e-02
-2.01290810e-02
-1.92928629e-02
-1.07883847e-02
-2.64474168e-02
-2.51283699e-02
-2.02245680e-02
-4.35150350e-02
-3.49898335e-02
-1.48222577e-02
-2.90540732e-02
-2.99041066e-02
-3.78544787e-02
-4.18458382e-02
-3.30443097e-02
-2.80012675e-02
-2.76350207e-02
-2.89837050e-02
-2.97953496e-02
-2.63073421e-02
-2.62066936e-02
-2.35511917e-02
-2.25346771e-02
-2.05333596e-02
-1.88001227e-02
-1.83834583e-02
-1.68486635e-02
-1.79194147e-02
-1.70129060e-02
-3.40273862e-02
-3.68166072e-02
-2.62189303e-02
-1.63852047e-02
-1.25060639e-02
-1.21253940e-02
-1.24134494e-02
-3.80506596e-02
-4.13983744e-02
-2.58316084e-02
-1.02344999e-02
-1.81935709e-02
-3.00703190e-03
-4.51045465e-02
-4.53528892e-02
-4.22149338e-02
-5.04644960e-02
-4.95458040e-02
-4.67628166e-02
-4.59623374e-02
-4.58946358e-02
-4.20896467e-02
-2.30663226e-02
-2.24360293e-02
-1.60549544e-02
-1.19825276e-02
-5.63892145e-03
-7.81937498e-03
-3.43108368e-05
-2.13403291e-05
-4.49128238e-05
-4.93656989e-05
-1.29550592e-04
-1.23531759e-04
-9.05106062e-05
-3.52998604e-04
-2.99430843e-02
-2.91841058e-02
-3.04818894e-02
-3.15055326e-02
-2.74614021e-02
-2.72121080e-02
-2.47552423e-02
-2.27283360e-02
-2.18592277e-02
-1.94606362e-02
-2.09895195e-02
-1.75842787e-02
-2.20617652e-02
-1.81239219e-02
-3.55841881e-02
-4.16316837e-02
-2.48140800e-02
-1.57058041e-02
-8.95443372e-03
-4.90423368e-03
-4.69878991e-03
-5.57387862e-02
-6.51670024e-02
-2.18277009e-02
-5.21255191e-03
-6.60590449e-04
-1.36216980e-03
-5.50782963e-04
-2.40244088e-03
-1.42900029e-03
-9.55866324e-03
-2.28312355e-03
-2.27620080e-02
-7.18839724e-04
-5.70301430e-04
-2.13312411e-04
-1.67530658e-04
-4.32727509e-04
-6.17166486e-04
-8.37636739e-02
-8.87249932e-02
-5.74455882e-02
-6.47575185e-02
-1.07253865e-04
-1.23998315e-03
-1.35337097e-04
-5.15905507e-02
-5.35595194e-02
-4.19346001e-02
-4.17660605e-02
-1.43174399e-02
-1.54400850e-02
-4.32815170e-03
-5.37674394e-04
-1.27167019e-04
</DataArray>
<DataArray type="Float32" Name="Plastic_strain_Max_Principal" format="ascii">
7.12830765e-03
9.33356053e-03
1.08685889e-02
6.95870130e-03
7.10395828e-03
1.31829112e-02
2.11758483e-02
1.28294706e-02
1.10935827e-02
1.65594560e-02
2.62979002e-02
3.15763699e-02
0.00000000e+00
0.00000000e+00
0.00000000e+00
0.00000000e+00
0.00000000e+00
0.00000000e+00
0.00000000e+00
0.00000000e+00
1.28646959e-02
1.29507785e-02
1.42797180e-02
1.33032287e-02
1.68219199e-02
1.64136861e-02
1.65846043e-02
1.71098220e-02
1.43631457e-02
1.56570819e-02
1.49771369e-02
1.56351926e-02
1.49408879e-02
1.64408933e-02
1.37064336e-02
1.40098422e-02
1.43561191e-02
1.72673502e-02
1.24295277e-02
1.30908679e-02
1.19495182e-02
1.51555118e-02
9.94371995e-03
1.24267434e-02
1.09798876e-02
1.34080495e-02
9.56113450e-03
1.17714910e-02
1.63726937e-02
1.52182167e-02
1.88656109e-02
1.71553756e-02
1.58892887e-02
1.73526098e-02
2.33028866e-02
1.59347864e-02
2.19933325e-02
1.59722535e-02
1.87782124e-02
1.62816967e-02
1.60717424e-02
1.54370214e-02
1.58730253e-02
1.27105641e-02
2.00747576e-02
1.45796952e-02
2.62757614e-02
2.62980908e-02
3.89130302e-02
1.61248387e-02
8.87224045e-03
9.15157946e-03
1.31724931e-02
1.27297627e-02
7.85326562e-03
1.91689736e-02
1.96770369e-02
1.36279094e-02
2.79613715e-02
2.33809756e-02
1.05759189e-02
2.11165091e-02
2.18717642e-02
2.83588539e-02
2.90819239e-02
2.69383310e-02
2.14995155e-02
1.99623825e-02
2.14395127e-02
2.27698111e-02
1.70053821e-02
1.87454675e-02
1.54153029e-02
1.58697031e-02
1.38652232e-02
1.31253303e-02
1.23761240e-02
1.13585256e-02
1.24242404e-02
1.17453441e-02
2.63235134e-02
2.71496554e-02
2.02781043e-02
1.27317294e-02
9.72147772e-03
9.44811948e-03
9.91528993e-03
2.97151462e-02
3.17877531e-02
2.14752775e-02
1.01300018e-02
1.52215166e-02
4.48637110e-03
3.31129977e-02
3.47912312e-02
3.16756377e-02
3.32841650e-02
3.24084279e-02
3.21748927e-02
2.75761355e-02
3.04170274e-02
3.22886766e-02
2.03958582e-02
2.00124953e-02
2.07906850e-02
1.53522827e-02
1.03276039e-02
7.24576051e-03
0.00000000e+00
0.00000000e+00
0.00000000e+00
0.00000000e+00
3.30893632e-05
0.00000000e+00
0.00000000e+00
6.83971302e-05
2.31612325e-02
2.09350716e-02
2.41967863e-02
2.58382810e-02
1.78262545e-02
1.99816888e-02
1.77882658e-02
1.70167270e-02
1.69002721e-02
1.51660875e-02
1.54981860e-02
1.33839750e-02
1.74051002e-02
1.45038343e-02
2.88839638e-02
3.03717125e-02
2.21474320e-02
1.34969940e-02
7.72960298e-03
5.34487877e-03
5.58966957e-03
3.51970177e-02
3.93426754e-02
1.74568916e-02
5.56678104e-03
1.02067953e-03
1.65528232e-03
3.73141361e-04
1.84655937e-03
6.39004051e-04
1.19602536e-02
3.64347687e-03
1.45792440e-02
4.66339580e-04
3.57830438e-04
1.32137389e-05
4.08796529e-05
5.78999316e-05
1.75865236e-04
5.33254817e-02
5.40631637e-02
4.17086507e-02
4.54226416e-02
5.78837353e-05
2.09476757e-03
0.00000000e+00
4.05860636e-02
3.72651890e-02
2.78854435e-02
3.32694640e-02
1.03302822e-02
1.82648082e-02
3.52141904e-03
1.32010347e-04
0.00000000e+00
</DataArray>
<DataArray type="Float32" Name="Plastic_strain_Min_Principal" format="ascii">
-9.43380827e-03
-1.18961330e-02
-1.57035294e-02
-1.05233400e-02
-9.45173063e-03
-1.79655479e-02
-2.50667376e-02
-1.69641629e-02
-1.55462720e-02
-2.68259244e-02
-3.50600258e-02
-4.01451215e-02
0.00000000e+00
0.00000000e+00
0.00000000e+00
0.00000000e+00
0.00000000e+00
0.00000000e+00
0.00000000e+00
0.00000000e+00
-2.11971933e-02
-2.08609169e-02
-2.08193350e-02
-2.09942358e-02
-2.35126168e-02
-2.35048821e-02
-2.46101171e-02
-2.52356371e-02
-2.00023693e-02
-2.09817255e-02
-2.20884946e-02
-2.38213846e-02
-1.91828045e-02
-2.19394518e-02
-2.00918084e-02
-2.17768385e-02
-1.82117904e-02
-2.36776893e-02
-1.81216905e-02
-1.86324751e-02
-1.65150063e-02
-2.19667247e-02
-1.49964355e-02
-1.77384090e-02
-1.45678176e-02
-1.93668474e-02
-1.28601254e-02
-1.60497085e-02
-2.06014067e-02
-1.92684177e-02
-2.86153576e-02
-2.67223828e-02
-2.47489592e-02
-2.62264174e-02
-3.50039661e-02
-2.25553318e-02
-3.33479801e-02
-2.33424257e-02
-2.99382983e-02
-2.51371367e-02
-2.67373826e-02
-2.43916856e-02
-1.93478722e-02
-1.49719869e-02
-2.79825402e-02
-2.33953730e-02
-3.59954778e-02
-3.55514877e-02
-4.27135564e-02
-1.58901022e-02
-1.21199454e-02
-1.08434735e-02
-1.82395647e-02
-1.76731993e-02
-1.05083719e-02
-2.69453919e-02
-2.52959004e-02
-1.90744791e-02
-4.12030797e-02
-3.38556912e-02
-1.42586888e-02
-2.87042256e-02
-2.92104809e-02
-3.67903747e-02
-4.03535627e-02
-3.20525151e-02
-2.73941802e-02
-2.70018405e-02
-2.83349277e-02
-2.91895568e-02
-2.55972822e-02
-2.55072250e-02
-2.28356845e-02
-2.18238430e-02
-1.98852443e-02
-1.81966049e-02
-1.78335072e-02
-1.63285999e-02
-1.73830977e-02
-1.64451329e-02
-3.33583620e-02
-3.60403368e-02
-2.56361605e-02
-1.59672765e-02
-1.21787918e-02
-1.15649326e-02
-1.17483752e-02
-3.70996737e-02
-3.99899085e-02
-2.53037860e-02
-1.01353195e-02
-1.78087093e-02
-3.08477000e-03
-4.49424814e-02
-4.51586358e-02
-3.98176825e-02
-4.94890107e-02
-4.88337241e-02
-4.57267696e-02
-4.53081783e-02
-4.43931399e-02
-4.11096746e-02
-2.32964561e-02
-2.19594082e-02
-1.74859837e-02
-1.23475865e-02
-5.43481795e-03
-6.45339596e-03
0.00000000e+00
0.00000000e+00
0.00000000e+00
0.00000000e+00
-5.02824145e-05
0.00000000e+00
0.00000000e+00
-9.17287349e-05
-2.93167625e-02
-2.85324436e-02
-2.97990786e-02
-3.08664143e-02
-2.67288685e-02
-2.64692320e-02
-2.39806883e-02
-2.19961866e-02
-2.11134423e-02
-1.87324286e-02
-2.02665348e-02
-1.69150764e-02
-2.11763214e-02
-1.73448911e-02
-3.48828388e-02
-4.06740494e-02
-2.42436184e-02
-1.52093146e-02
-8.69054161e-03
-4.79427760e-03
-4.46919212e-03
-5.31455856e-02
-6.19687214e-02
-2.12427794e-02
-5.63637074e-03
-7.23668162e-04
-1.08297105e-03
-4.09400404e-04
-1.88092148e-03
-1.03696578e-03
-9.17213480e-03
-3.26606701e-03
-2.22694166e-02
-5.37667055e-04
-4.14761393e-04
-1.46164362e-05
-3.27659884e-05
-5.34046194e-05
-2.80072476e-04
-8.00895840e-02
-8.48827735e-02
-5.66751684e-02
-6.32441472e-02
-4.36900772e-05
-1.12783219e-03
0.00000000e+00
-5.05216178e-02
-5.27135618e-02
-4.28258888e-02
-4.04875334e-02
-9.14053875e-03
-1.69685534e-02
-4.14902394e-03
-2.00418901e-04
0.00000000e+00
</DataArray>
</PointData>
<Cells>
<DataArray type="Int32" Name="connectivity" format="ascii">
0 1 2 3 4 5 6 7
1 8 9 2 5 10 11 6
12 13 14 15 16 17 18 19
20 21 22 23 24 25 26 27
21 28 29 22 25 30 31 26
28 32 33 29 30 34 35 31
32 36 37 33 34 38 39 35
36 40 41 37 38 42 43 39
40 44 45 41 42 46 47 43
23 22 48 49 27 26 50 51
22 29 52 48 26 31 53 50
29 33 54 52 31 35 55 53
33 37 56 54 35 39 57 55
37 41 58 56 39 43 59 57
41 45 60 58 43 47 61 59
49 48 62 63 51 50 64 65
48 52 66 62 50 53 67 64
52 54 68 66 53 55 69 67
63 62 70 71 65 64 72 73
71 70 4 74 73 72 75 76
70 77 5 4 72 78 79 75
74 4 7 80 76 75 81 82
4 5 6 7 75 79 83 81
5 10 11 6 79 84 85 83
24 25 26 27 86 87 88 89
25 30 31 26 87 90 91 88
30 34 35 31 90 92 93 91
34 38 39 35 92 94 95 93
38 42 43 39 94 96 97 95
42 46 47 43 96 98 99 97
27 26 50 51 89 88 100 101
26 31 53 50 88 91 102 100
31 35 55 53 91 93 103 102
35 39 57 55 93 95 104 103
39 43 59 57 95 97 105 104
43 47 61 59 97 99 106 105
51 50 64 65 101 100 107 108
50 53 67 64 100 102 109 107
53 55 69 67 102 103 110 109
55 57 111 69 103 104 112 110
65 64 72 73 108 107 113 114
64 67 78 72 107 109 115 113
73 72 75 76 114 113 116 117
76 75 81 82 117 116 118 119
75 79 83 81 116 120 121 118
79 84 85 83 120 122 123 121
84 124 125 85 122 126 127 123
128 129 130 131 132 133 134 135
86 87 88 89 136 137 138 139
87 90 91 88 137 140 141 138
90 92 93 91 140 142 143 141
92 94 95 93 142 144 145 143
94 96 97 95 144 146 147 145
96 98 99 97 146 148 149 147
89 88 100 101 139 138 150 151
88 91 102 100 138 141 152 150
91 93 103 102 141 143 153 152
93 95 104 103 143 145 154 153
95 97 105 104 145 147 155 154
97 99 106 105 147 149 156 155
101 100 107 108 151 150 157 158
100 102 109 107 150 152 159 157
102 103 110 109 152 153 160 159
103 104 112 110 153 154 161 160
104 105 162 112 154 155 163 161
105 106 164 162 155 156 165 163
109 110 166 115 159 160 167 168
110 112 169 166 160 161 170 167
112 162 171 169 161 163 172 170
162 164 173 171 163 165 174 172
114 113 116 117 175 176 177 178
169 171 132 126 170 172 179 180
171 173 133 132 172 174 181 179
117 116 118 119 178 177 182 183
116 120 121 118 177 184 185 182
120 122 123 121 184 186 187 185
122 126 127 123 186 180 188 187
126 132 135 127 180 179 189 188
132 133 134 135 179 181 190 189
</DataArray>
<DataArray type="Int32" Name="offsets" format="ascii">
8
16
24
32
40
48
56
64
72
80
88
96
104
112
120
128
136
144
152
160
168
176
184
192
200
208
216
224
232
240
248
256
264
272
280
288
296
304
312
320
328
336
344
352
360
368
376
384
392
400
408
416
424
432
440
448
456
464
472
480
488
496
504
512
520
528
536
544
552
560
568
576
584
592
600
608
616
624
632
</DataArray>
<DataArray type="UInt8" Name="types" format="ascii">
12
12
12
12
12
12
12
12
12
12
12
12
12
12
12
12
12
12
12
12
12
12
12
12
12
12
12
12
12
12
12
12
12
12
12
12
12
12
12
12
12
12
12
12
12
12
12
12
12
12
12
12
12
12
12
12
12
12
12
12
12
12
12
12
12
12
12
12
12
12
12
12
12
12
12
12
12
12
12
</DataArray>
</Cells>
</Piece>
</UnstructuredGrid>
</VTKFile>
