<VTKFile type="UnstructuredGrid" version="0.1" byte_order="LittleEndian">
<UnstructuredGrid>
<Piece NumberOfPoints="173" NumberOfCells="80">
<Points>
<DataArray type="Float64" NumberOfComponents="3" format="ascii">
 0.00000000e+00  0.00000000e+00  0.00000000e+00
 1.04629421e+00  0.00000000e+00  0.00000000e+00
 1.04936814e+00  1.08259523e+00  0.00000000e+00
 0.00000000e+00  1.07967114e+00  0.00000000e+00
 0.00000000e+00  0.00000000e+00  9.02412593e-01
 1.04542780e+00  0.00000000e+00  8.98726404e-01
 1.04642665e+00  1.07709455e+00  9.03392434e-01
 0.00000000e+00  1.07596612e+00  9.05155063e-01
 2.09693217e+00  0.00000000e+00  0.00000000e+00
 2.09819484e+00  1.08857000e+00  0.00000000e+00
 2.09447598e+00  0.00000000e+00  8.92273188e-01
 2.09690642e+00  1.08047855e+00  8.97609234e-01
 3.14869833e+00  0.00000000e+00  0.00000000e+00
 3.15356493e+00  1.09703481e+00  0.00000000e+00
 3.15452194e+00  0.00000000e+00  8.86535525e-01
 3.14863753e+00  1.08339024e+00  8.86963964e-01
 4.21734333e+00  0.00000000e+00  0.00000000e+00
 4.20440912e+00  1.10316122e+00  0.00000000e+00
 4.22146225e+00  0.00000000e+00  8.78001451e-01
 4.20695591e+00  1.08374071e+00  8.81073534e-01
 5.28350258e+00  0.00000000e+00  0.00000000e+00
 5.26832628e+00  1.11035049e+00  0.00000000e+00
 5.28976679e+00  0.00000000e+00  8.69740605e-01
 5.27836132e+00  1.08675778e+00  8.75082612e-01
 6.35768509e+00  0.00000000e+00  0.00000000e+00
 6.31502676e+00  1.13678682e+00  0.00000000e+00
 6.35423326e+00  0.00000000e+00  8.68640840e-01
 6.34372902e+00  1.11178327e+00  8.63047838e-01
 1.05365396e+00  2.14800668e+00  0.00000000e+00
 0.00000000e+00  2.14562249e+00  0.00000000e+00
 1.04943240e+00  2.14323020e+00  9.15042162e-01
 0.00000000e+00  2.13953733e+00  9.15858507e-01
 2.10664392e+00  2.16044807e+00  0.00000000e+00
 2.09792542e+00  2.15035510e+00  9.13685083e-01
 3.14986563e+00  2.17130828e+00  0.00000000e+00
 3.14304352e+00  2.15868759e+00  9.22272682e-01
 4.18591261e+00  2.19333506e+00  0.00000000e+00
 4.18881273e+00  2.15754771e+00  9.19289112e-01
 5.20974207e+00  2.19399405e+00  0.00000000e+00
 5.22633600e+00  2.16262817e+00  9.24054503e-01
 6.24399376e+00  2.23255658e+00  0.00000000e+00
 6.27151537e+00  2.19826174e+00  9.24406946e-01
 1.05726016e+00  3.18886638e+00  0.00000000e+00
 0.00000000e+00  3.18548727e+00  0.00000000e+00
 1.05152738e+00  3.19007039e+00  9.30001438e-01
 0.00000000e+00  3.18809390e+00  9.31363523e-01
 2.11519122e+00  3.19142270e+00  0.00000000e+00
 2.10505462e+00  3.19262266e+00  9.44310546e-01
 3.14724231e+00  3.20033026e+00  0.00000000e+00
 3.14042735e+00  3.19753575e+00  9.83823359e-01
 4.15408278e+00  3.20731211e+00  0.00000000e+00
 4.14522409e+00  3.19564319e+00  1.00650895e+00
 5.17035961e+00  3.19950032e+00  0.00000000e+00
 5.17249012e+00  3.17732596e+00  1.01572013e+00
 6.17288399e+00  3.24057746e+00  0.00000000e+00
 6.17999744e+00  3.23738408e+00  1.00493908e+00
 1.05985141e+00  4.21128845e+00  0.00000000e+00
 0.00000000e+00  4.21601963e+00  0.00000000e+00
 1.05236661e+00  4.21396160e+00  9.39006567e-01
 0.00000000e+00  4.21961403e+00  9.37160015e-01
 2.11462665e+00  4.20695400e+00  0.00000000e+00
 2.10248089e+00  4.20281267e+00  9.57019389e-01
 3.14225960e+00  4.20015669e+00  0.00000000e+00
 3.13343525e+00  4.19882202e+00  9.91862357e-01
 4.13884068e+00  4.20605373e+00  0.00000000e+00
 4.13845921e+00  4.20604897e+00  9.99960661e-01
 6.13875532e+00  4.20921516e+00  0.00000000e+00
 5.13881254e+00  4.20745611e+00  0.00000000e+00
 6.13887835e+00  4.20924664e+00  9.99726474e-01
 5.13887644e+00  4.20739317e+00  1.00001752e+00
 1.05767465e+00  5.23252773e+00  0.00000000e+00
 0.00000000e+00  5.24295902e+00  0.00000000e+00
 1.05434024e+00  5.24026203e+00  9.36724484e-01
 0.00000000e+00  5.24472475e+00  9.29270029e-01
 2.11260748e+00  5.21439934e+00  0.00000000e+00
 2.09613919e+00  5.21807289e+00  9.50302482e-01
 3.13356662e+00  5.20140362e+00  0.00000000e+00
 3.12670183e+00  5.20581102e+00  9.87511873e-01
 4.13740253e+00  5.20614529e+00  0.00000000e+00
 4.13716459e+00  5.20616007e+00  1.00024390e+00
 5.13724947e+00  5.20756149e+00  0.00000000e+00
 5.13734436e+00  5.20754099e+00  1.00002861e+00
 6.13736820e+00  5.20897436e+00  0.00000000e+00
 6.13738537e+00  5.20890951e+00  1.00000799e+00
 1.06515360e+00  6.26932383e+00  0.00000000e+00
 0.00000000e+00  6.27410936e+00  0.00000000e+00
 1.05858469e+00  6.27074385e+00  9.23231542e-01
 0.00000000e+00  6.28125858e+00  9.16812301e-01
 2.12110472e+00  6.23837662e+00  0.00000000e+00
 2.09952831e+00  6.25817490e+00  9.29062963e-01
 3.13981104e+00  6.21295452e+00  0.00000000e+00
 3.13229728e+00  6.23018360e+00  9.67708588e-01
 4.13701344e+00  6.20678091e+00  0.00000000e+00
 4.13634443e+00  6.20680714e+00  1.00053704e+00
 5.13600588e+00  6.20741415e+00  0.00000000e+00
 5.13611698e+00  6.20750046e+00  9.99966562e-01
 6.13597012e+00  6.20893240e+00  0.00000000e+00
 6.13599682e+00  6.20890427e+00  9.99995112e-01
 0.00000000e+00  0.00000000e+00  1.81272542e+00
 1.04569757e+00  0.00000000e+00  1.80535662e+00
 1.04510403e+00  1.06499648e+00  1.81300974e+00
 0.00000000e+00  1.06579101e+00  1.81387401e+00
 2.10187984e+00  0.00000000e+00  1.79595268e+00
 2.09149408e+00  1.05817688e+00  1.80068243e+00
 3.15801215e+00  0.00000000e+00  1.78394413e+00
 3.15801454e+00  1.05779350e+00  1.78293347e+00
 4.23046684e+00  0.00000000e+00  1.76506925e+00
 4.22465611e+00  1.05820680e+00  1.77697682e+00
 5.30507040e+00  0.00000000e+00  1.75219750e+00
 5.29752636e+00  1.06025624e+00  1.76556385e+00
 6.36459923e+00  0.00000000e+00  1.74690557e+00
 6.37710524e+00  1.06837475e+00  1.75477147e+00
 1.03942502e+00  2.12754655e+00  1.83030212e+00
 0.00000000e+00  2.13427854e+00  1.83540130e+00
 2.08862782e+00  2.12660670e+00  1.82362938e+00
 3.14242506e+00  2.13094759e+00  1.81899881e+00
 4.21421242e+00  2.14635801e+00  1.80045784e+00
 5.28840876e+00  2.14870024e+00  1.80673027e+00
 6.35294867e+00  2.16011310e+00  1.79442441e+00
 1.03472173e+00  3.18497825e+00  1.85921264e+00
 0.00000000e+00  3.18804646e+00  1.86421096e+00
 2.07530951e+00  3.18667936e+00  1.87324452e+00
 3.06703997e+00  3.15969992e+00  2.01103806e+00
 1.03711617e+00  4.23262405e+00  1.88505232e+00
 0.00000000e+00  4.22650766e+00  1.87549758e+00
 2.08203506e+00  4.21213245e+00  1.91549277e+00
 3.10526586e+00  4.17887974e+00  1.96281064e+00
 1.04610181e+00  5.25233126e+00  1.87596166e+00
 0.00000000e+00  5.26020288e+00  1.86854935e+00
 2.07670498e+00  5.23956776e+00  1.89855075e+00
 3.12984705e+00  5.22152185e+00  1.92171848e+00
 1.04071867e+00  6.29678917e+00  1.84461534e+00
 0.00000000e+00  6.29576969e+00  1.83878219e+00
 2.07843685e+00  6.30326176e+00  1.85349488e+00
 3.14092541e+00  6.28959513e+00  1.85688019e+00
 5.13738108e+00  5.20758629e+00  2.00003386e+00
 6.13738203e+00  5.20892715e+00  2.00003195e+00
 6.13603926e+00  6.20893526e+00  1.99998271e+00
 5.13601160e+00  6.20760059e+00  1.99996555e+00
 0.00000000e+00  0.00000000e+00  2.72094202e+00
 1.05311680e+00  0.00000000e+00  2.71895695e+00
 1.05635226e+00  1.05836987e+00  2.72483540e+00
 0.00000000e+00  1.05612707e+00  2.73008752e+00
 2.11795235e+00  0.00000000e+00  2.70456743e+00
 2.10542846e+00  1.05023372e+00  2.71364450e+00
 3.17548442e+00  0.00000000e+00  2.68875098e+00
 3.17667341e+00  1.04555237e+00  2.69266939e+00
 4.24475145e+00  0.00000000e+00  2.67513108e+00
 4.24776936e+00  1.04726219e+00  2.67016172e+00
 5.31793022e+00  0.00000000e+00  2.65845752e+00
 5.31827927e+00  1.05015957e+00  2.66075444e+00
 6.38569212e+00  0.00000000e+00  2.65322375e+00
 6.38508940e+00  1.05115831e+00  2.65476346e+00
 1.04001606e+00  2.11046457e+00  2.74625373e+00
 0.00000000e+00  2.12553978e+00  2.74970484e+00
 2.10548043e+00  2.11268806e+00  2.72447252e+00
 3.16596460e+00  2.11924076e+00  2.68118310e+00
 4.24266148e+00  2.13165808e+00  2.66994238e+00
 5.31207943e+00  2.12425089e+00  2.67244935e+00
 6.37168026e+00  2.13249254e+00  2.66688800e+00
 1.03599000e+00  3.18895245e+00  2.79113150e+00
 0.00000000e+00  3.18564963e+00  2.78722692e+00
 2.09483933e+00  3.16600227e+00  2.75972652e+00
 1.03654516e+00  4.23415375e+00  2.82434630e+00
 0.00000000e+00  4.24280453e+00  2.81653833e+00
 2.08520365e+00  4.23471832e+00  2.85976267e+00
 1.03744864e+00  5.29088306e+00  2.80988646e+00
 0.00000000e+00  5.28438330e+00  2.80547142e+00
 2.08204174e+00  5.28613663e+00  2.82094097e+00
 3.09971476e+00  4.29084682e+00  3.02201247e+00
 3.12424469e+00  5.27721882e+00  2.79802060e+00
 1.04096448e+00  6.33476973e+00  2.77229142e+00
 0.00000000e+00  6.33924341e+00  2.76072645e+00
</DataArray>
</Points>
<PointData Tensors="Stress_Components,Plastic_strain_components" Vevtors="Spatial_displacement,Reaction_force" Scalars="Equivalent_plastic_strain,Stress_Mises,Stress_Max_Principal,Stress_Mid_Principal,Stress_Min_Principal,Stress_Pressure,Stress_Tresca,Stress_Third_Invariant,Plastic_strain_Max_Principal,Plastic_strain_Min_Principal">
<DataArray type="Float32" Name="Stress_Components" NumberOfComponents="9" format="ascii">
-3.12061858e+00 -1.09317917e-02 -1.21313957e-02 -1.09317917e-02 3.80245626e-01 8.25234316e-03 -1.21313957e-02 8.25234316e-03 -3.27663422e+01
-9.14223224e+00 2.14976870e-01 -5.70216728e-03 2.14976870e-01 -4.83238631e+00 -2.51685917e-01 -5.70216728e-03 -2.51685917e-01 -4.48696375e+01
-4.32930541e+00 4.11156487e-01 -3.63737404e-01 4.11156487e-01 -1.75496989e+00 -3.15948140e-01 -3.63737404e-01 -3.15948140e-01 -3.64533301e+01
-5.59427881e+00 9.02177729e-02 -3.82123768e-01 9.02177729e-02 -3.24530196e+00 1.71413994e-02 -3.82123768e-01 1.71413994e-02 -3.94735260e+01
-1.06011987e+00 -6.72780210e-03 -8.72883201e-02 -6.72780210e-03 2.14102477e+00 -2.21795417e-01 -8.72883201e-02 -2.21795417e-01 -2.86550226e+01
-6.14493477e+00 1.27122715e-01 3.38271633e-01 1.27122715e-01 -2.34318799e+00 -5.59274353e-01 3.38271633e-01 -5.59274353e-01 -3.89554653e+01
-2.87482779e+00 3.03771771e-01 -1.42524801e-01 3.03771771e-01 -3.29133481e-01 -3.21430844e-01 -1.42524801e-01 -3.21430844e-01 -3.33443573e+01
-4.67278981e+00 9.80892908e-02 -2.75898110e-01 9.80892908e-02 -2.11137187e+00 1.83290575e-01 -2.75898110e-01 1.83290575e-01 -3.72218735e+01
-1.17382478e+01 1.86970808e-01 -1.74751813e-02 1.86970808e-01 -6.73821259e+00 -4.49903756e-01 -1.74751813e-02 -4.49903756e-01 -4.96742764e+01
-1.28487420e+01 9.11241844e-01 -6.28901180e-01 9.11241844e-01 -8.63954484e+00 -4.70990716e-01 -6.28901180e-01 -4.70990716e-01 -5.29734166e+01
-7.64372861e+00 1.44382823e-01 3.96361515e-01 1.44382823e-01 -4.31208497e+00 -6.94746040e-02 3.96361515e-01 -6.94746040e-02 -4.28151236e+01
-7.23174359e+00 2.57356140e-01 -7.64373044e-01 2.57356140e-01 -3.70324504e+00 -1.13330429e+00 -7.64373044e-01 -1.13330429e+00 -4.15635840e+01
-1.46210237e+01 5.52098155e-01 -7.03425035e-02 5.52098155e-01 -9.70817721e+00 4.16998729e-01 -7.03425035e-02 4.16998729e-01 -5.60707359e+01
-2.10752685e+01 5.96146360e-01 -1.28765546e+00 5.96146360e-01 -1.48488913e+01 -1.19820675e+00 -1.28765546e+00 -1.19820675e+00 -6.84322038e+01
-6.77102971e+00 -5.07598281e-01 -6.25289738e-01 -5.07598281e-01 -4.87047368e+00 -5.85318692e-02 -6.25289738e-01 -5.85318692e-02 -4.25571835e+01
-1.26096849e+01 -4.38060392e-01 -3.88411511e-01 -4.38060392e-01 -7.95140761e+00 -9.13479356e-01 -3.88411511e-01 -9.13479356e-01 -5.18831218e+01
-1.91665201e+01 -1.42986792e+00 -1.03893027e-01 -1.42986792e+00 -1.49658346e+01 1.34332300e-01 -1.03893027e-01 1.34332300e-01 -6.67125816e+01
-3.03743846e+01 -1.34953061e+00 -2.48311047e+00 -1.34953061e+00 -1.90595425e+01 -1.78493138e-01 -2.48311047e+00 -1.78493138e-01 -8.22197278e+01
-8.37233067e+00 -1.35059839e+00 -3.00160339e-01 -1.35059839e+00 -7.21469212e+00 -1.12345675e-01 -3.00160339e-01 -1.12345675e-01 -4.68010237e+01
2.86903620e-01 -1.00155455e+00 -5.47534759e-01 -1.00155455e+00 1.59544897e+00 2.87547388e-01 -5.47534759e-01 2.87547388e-01 -2.79076005e+01
-1.94934717e+01 -4.46702972e-01 -2.15084739e-01 -4.46702972e-01 -1.32032137e+01 1.15996969e+00 -2.15084739e-01 1.15996969e+00 -6.49783745e+01
-1.23932106e+01 -3.08553021e+00 -2.09617459e+00 -3.08553021e+00 -6.80897641e+00 4.76973817e-01 -2.09617459e+00 4.76973817e-01 -4.95872498e+01
-1.31095839e+00 -5.07043507e-01 -2.48146102e-01 -5.07043507e-01 -2.66608775e-01 1.20924481e+00 -2.48146102e-01 1.20924481e+00 -3.16381454e+01
3.88334087e+00 -1.76349919e+00 -2.86269343e-01 -1.76349919e+00 4.20564070e+00 2.70061594e-01 -2.86269343e-01 2.70061594e-01 -2.10481765e+01
-4.76334572e+01 -4.67947149e+00 -2.20954910e-01 -4.67947149e+00 -3.50281067e+01 5.15101194e-01 -2.20954910e-01 5.15101194e-01 -1.18067780e+02
-6.43036060e+01 -5.20300615e+00 -3.00406420e+00 -5.20300615e+00 -3.88695107e+01 5.30096745e+00 -3.00406420e+00 5.30096745e+00 -1.36523632e+02
-2.68102834e+01 -5.65424219e-01 -1.82700479e+00 -5.65424219e-01 -1.84934989e+01 2.83698830e+00 -1.82700479e+00 2.83698830e+00 -7.80707941e+01
-2.49863815e+01 -1.76878449e+00 -1.16425178e+00 -1.76878449e+00 -1.83395059e+01 2.89445360e+00 -1.16425178e+00 2.89445360e+00 -7.55682702e+01
-1.58525801e+00 8.50007556e-01 -5.17140478e-01 8.50007556e-01 -3.63003254e+00 -4.03266222e-01 -5.17140478e-01 -4.03266222e-01 -3.55032787e+01
8.72941017e-02 1.94489583e-01 -4.95784029e-01 1.94489583e-01 -1.91838312e+00 5.74819511e-03 -4.95784029e-01 5.74819511e-03 -3.18757164e+01
-1.44143593e+00 5.19805290e-01 3.27771078e-02 5.19805290e-01 -1.71547538e+00 -7.29505947e-01 3.27771078e-02 -7.29505947e-01 -3.33804650e+01
1.64002419e+00 1.84127335e-01 8.16374416e-01 1.84127335e-01 1.11806583e+00 5.25322799e-02 8.16374416e-01 5.25322799e-02 -2.69910854e+01
-6.34831715e+00 2.63151130e+00 -8.64571817e-01 2.63151130e+00 -8.98253751e+00 -1.16730600e+00 -8.64571817e-01 -1.16730600e+00 -4.60012951e+01
-4.57369262e+00 2.03031189e+00 1.78061160e+00 2.03031189e+00 -5.49400940e+00 -3.29558864e-01 1.78061160e+00 -3.29558864e-01 -3.98776534e+01
2.01511750e+01 1.34565730e+00 -1.62184533e+00 1.34565730e+00 1.85309558e+01 -5.23781955e-01 -1.62184533e+00 -5.23781955e-01 1.07288384e+01
5.79995905e+00 1.64851359e+00 3.79141512e+00 1.64851359e+00 6.91430793e+00 -2.90073046e-01 3.79141512e+00 -2.90073046e-01 -1.68308885e+01
3.02465878e+01 -8.22545066e-01 -4.60059981e+00 -8.22545066e-01 2.47158217e+01 -1.88496843e-01 -4.60059981e+00 -1.88496843e-01 2.84316479e+01
-1.50017503e+01 -6.84280111e+00 8.71739455e+00 -6.84280111e+00 -1.13619698e+01 5.30346897e-01 8.71739455e+00 5.30346897e-01 -5.31432638e+01
2.95216849e+01 1.05986606e+00 -3.90344574e+00 1.05986606e+00 2.85896314e+01 2.48352777e-01 -3.90344574e+00 2.48352777e-01 3.04438472e+01
-3.84131082e+00 -5.00784886e+00 9.31061510e+00 -5.00784886e+00 -9.05785767e+00 2.55341575e+00 9.31061510e+00 2.55341575e+00 -3.60559926e+01
1.71986818e+01 -5.03410625e+00 -6.94109035e+00 -5.03410625e+00 5.91016579e+00 1.82577473e+00 -6.94109035e+00 1.82577473e+00 -3.87053299e+00
-4.17154058e+01 -1.19205400e+01 1.21988980e+01 -1.19205400e+01 -3.29626757e+01 5.82954709e+00 1.21988980e+01 5.82954709e+00 -1.00675730e+02
-5.77403903e-02 6.25238806e-01 1.69316337e-01 6.25238806e-01 -9.18663549e+00 -8.25521819e-01 1.69316337e-01 -8.25521819e-01 -3.87096310e+01
7.18982863e+00 2.66422614e-01 2.88204029e-01 2.66422614e-01 2.66086960e+00 1.89531874e-03 2.88204029e-01 1.89531874e-03 -1.89345603e+01
2.78337599e+00 1.01648223e-01 1.00718621e+00 1.01648223e-01 -4.03090823e+00 -6.29838910e-01 1.00718621e+00 -6.29838910e-01 -3.05528504e+01
7.35166383e+00 9.37613701e-02 8.24114963e-01 9.37613701e-02 4.46125650e+00 -3.13656777e-01 8.24114963e-01 -3.13656777e-01 -1.69716587e+01
1.72426341e+01 -1.74385525e-01 -7.74180330e-02 -1.74385525e-01 9.71267027e+00 -1.12183419e+00 -7.74180330e-02 -1.12183419e+00 -1.83969021e-01
1.55379117e+01 -1.61500446e-01 1.05902833e+00 -1.61500446e-01 5.29172260e+00 1.58227281e+00 1.05902833e+00 1.58227281e+00 -6.94311345e+00
3.01343803e+01 -3.91505865e-01 9.84017588e-02 -3.91505865e-01 2.83562436e+01 -2.33078711e+00 9.84017588e-02 -2.33078711e+00 3.20046816e+01
2.90554869e+01 -1.82059942e+00 -3.23658437e-01 -1.82059942e+00 2.62403879e+01 2.87960632e+00 -3.23658437e-01 2.87960632e+00 3.11180528e+01
2.34510336e+01 -2.63706206e+00 -2.47505983e-01 -2.63706206e+00 2.17024769e+01 -2.51890731e+00 -2.47505983e-01 -2.51890731e+00 2.92191378e+01
3.22180208e+01 6.66473389e-01 -1.03517636e+01 6.66473389e-01 3.32452106e+01 3.79896575e+00 -1.03517636e+01 3.79896575e+00 5.21289430e+01
3.35865949e+01 -1.00046021e+00 3.48559860e+00 -1.00046021e+00 3.47152462e+01 -4.11088144e-01 3.48559860e+00 -4.11088144e-01 3.44696821e+01
2.69693448e+01 4.92838772e+00 -9.67895095e+00 4.92838772e+00 3.54102704e+01 -1.12415061e+00 -9.67895095e+00 -1.12415061e+00 4.45662662e+01
1.83671394e+01 3.38419425e+00 -5.36373854e-01 3.38419425e+00 8.24483681e+00 1.46925026e+00 -5.36373854e-01 1.46925026e+00 3.03862855e+01
4.37852001e+01 1.02974286e+01 -5.35573924e+00 1.02974286e+01 3.20421314e+01 -1.62207139e+00 -5.35573924e+00 -1.62207139e+00 6.04753904e+01
2.91497715e+00 -7.99855329e-01 2.03116583e-01 -7.99855329e-01 -8.49434409e+00 -1.19656704e+00 2.03116583e-01 -1.19656704e+00 -3.39150958e+01
2.75324833e+00 -8.21214527e-01 2.62399472e-01 -8.21214527e-01 -5.06151462e+00 -4.83936295e-02 2.62399472e-01 -4.83936295e-02 -3.14407024e+01
8.78345391e+00 -1.16414823e+00 1.34101950e+00 -1.16414823e+00 2.24553454e+00 3.93046122e-02 1.34101950e+00 3.93046122e-02 -1.67787202e+01
5.66394401e+00 -6.50472432e-01 2.54296184e-01 -6.50472432e-01 7.00204283e-01 -1.29881417e-01 2.54296184e-01 -1.29881417e-01 -2.26430322e+01
1.63574165e+01 -2.26428921e+00 -9.53415320e-01 -2.26428921e+00 1.09486190e+01 -2.17348496e+00 -9.53415320e-01 -2.17348496e+00 8.84045601e-01
1.84666610e+01 -1.03435738e+00 -7.96792947e-01 -1.03435738e+00 1.37129185e+01 2.86057980e+00 -7.96792947e-01 2.86057980e+00 7.20353425e+00
1.97081280e+01 -1.11689195e-01 5.43287443e-01 -1.11689195e-01 2.52708757e+01 -2.75012463e+00 5.43287443e-01 -2.75012463e+00 1.99148200e+01
2.83444384e+01 7.12563942e-01 -5.03785471e-01 7.12563942e-01 3.32467469e+01 -2.05920911e+00 -5.03785471e-01 -2.05920911e+00 3.36971102e+01
2.14250819e+01 1.37275785e+00 7.80975101e-01 1.37275785e+00 2.51761818e+01 -2.17882487e+00 7.80975101e-01 -2.17882487e+00 2.58689027e+01
1.40780220e+01 3.19996294e+00 2.99152583e-01 3.19996294e+00 1.07171315e+01 2.25605329e+00 2.99152583e-01 2.25605329e+00 4.06838787e+00
-1.06318976e+01 -7.64645123e+00 1.57455370e-01 -7.64645123e+00 -3.15635266e+01 1.44315800e+00 1.57455370e-01 1.44315800e+00 -1.49616630e+01
1.31200686e+01 2.41863354e+00 -7.70065486e-01 2.41863354e+00 1.88876075e+01 9.05612323e-01 -7.70065486e-01 9.05612323e-01 1.52016354e+01
7.60568142e-01 -5.89496374e+00 1.36334693e+00 -5.89496374e+00 -2.09397135e+01 -1.84678382e+00 1.36334693e+00 -1.84678382e+00 -5.04011822e+00
2.29838514e+00 -2.67921456e+00 -2.55512301e+00 -2.67921456e+00 8.99598996e+00 -7.67489195e-01 -2.55512301e+00 -7.67489195e-01 -3.07613111e+00
4.08089997e+00 -2.19736340e+00 1.11638960e+00 -2.19736340e+00 -5.03611851e+00 -4.16093651e-01 1.11638960e+00 -4.16093651e-01 -2.91487894e+01
1.69404268e+00 -1.53418380e+00 4.59979638e-01 -1.53418380e+00 -6.52472687e+00 -1.54594705e-02 4.59979638e-01 -1.54594705e-02 -3.40057749e+01
1.03145071e+01 -1.35656618e+00 8.25979557e-01 -1.35656618e+00 6.23009819e+00 2.73049884e-01 8.25979557e-01 2.73049884e-01 -1.13516011e+01
4.81819189e+00 -7.47129627e-01 -6.33355230e-05 -7.47129627e-01 -1.46739960e+00 7.86828533e-01 -6.33355230e-05 7.86828533e-01 -2.55275091e+01
1.55904889e+01 -2.23952940e+00 3.92961419e-01 -2.23952940e+00 1.00023142e+01 -2.58505680e+00 3.92961419e-01 -2.58505680e+00 -5.02859592e-01
9.83489931e+00 -2.32395138e+00 -7.23215131e-01 -2.32395138e+00 5.86820565e+00 2.64964215e+00 -7.23215131e-01 2.64964215e+00 -1.12371368e+01
1.52381864e+01 2.21268150e+00 2.80803905e+00 2.21268150e+00 1.39677196e+01 -1.62808232e+00 2.80803905e+00 -1.62808232e+00 1.96863699e+00
1.55421575e+01 -1.89057591e+00 -1.43656911e+00 -1.89057591e+00 1.32390060e+01 3.29364801e+00 -1.43656911e+00 3.29364801e+00 3.54734166e+00
1.37124531e+01 2.79488575e+00 -2.74370614e-01 2.79488575e+00 1.88134053e+01 -1.93142954e+00 -2.74370614e-01 -1.93142954e+00 2.02027236e+01
1.35499082e+01 3.04966906e+00 3.35886857e+00 3.04966906e+00 8.38549423e+00 -9.70528841e-01 3.35886857e+00 -9.70528841e-01 9.60781014e+00
-2.34160841e-01 7.49349892e-01 -3.51614790e-01 7.49349892e-01 2.53919125e+00 1.73431700e+00 -3.51614790e-01 1.73431700e+00 4.44865239e+00
3.38753171e+00 6.09006643e-01 -8.19505566e-01 6.09006643e-01 1.00286382e+00 -6.85950232e-01 -8.19505566e-01 -6.85950232e-01 2.74598587e-01
2.93037808e+00 4.25653383e-01 -1.35560417e+00 4.25653383e-01 -7.92128730e+00 3.56611922e-01 -1.35560417e+00 3.56611922e-01 -1.75586253e+00
9.73579665e-01 -1.14076302e+00 9.99008199e-01 -1.14076302e+00 -5.58429269e+00 -2.34835550e-01 9.99008199e-01 -2.34835550e-01 -2.33267019e-01
-2.24314852e+01 -2.86476646e+00 1.38326776e+00 -2.86476646e+00 -3.35291395e+01 -1.49089509e+00 1.38326776e+00 -1.49089509e+00 -8.90149422e+01
-2.00340214e+01 -1.29286838e+00 1.65371203e+00 -1.29286838e+00 -3.52171249e+01 -3.82605791e-02 1.65371203e+00 -3.82605791e-02 -8.77851257e+01
-1.01059045e+01 -1.58584114e+00 1.54525340e-02 -1.58584114e+00 -1.70306816e+01 -1.04696823e+00 1.54525340e-02 -1.04696823e+00 -5.86170769e+01
-2.07109079e+01 -1.53961390e+00 2.25634813e-01 -1.53961390e+00 -3.14566069e+01 9.52936292e-01 2.25634813e-01 9.52936292e-01 -8.53940620e+01
-3.21466212e+01 -6.88792849e+00 5.98605132e+00 -6.88792849e+00 -4.16557884e+01 -5.81660128e+00 5.98605132e+00 -5.81660128e+00 -1.06491375e+02
-1.72046697e+01 -4.44517598e+00 3.32082748e-01 -4.44517598e+00 -1.75074320e+01 2.18724847e-01 3.32082748e-01 2.18724847e-01 -6.66600304e+01
5.48604965e-01 2.58742094e-01 5.44876754e+00 2.58742094e-01 1.40140219e+01 -2.84897345e+00 5.44876754e+00 -2.84897345e+00 -1.28178062e+01
-3.91017291e+01 -9.56543517e+00 3.04491123e-01 -9.56543517e+00 -3.37050635e+01 1.27462894e+01 3.04491123e-01 1.27462894e+01 -1.03224283e+02
2.59482479e+01 3.33952154e+00 -1.23842166e+00 3.33952154e+00 3.56488018e+01 -5.94788480e+00 -1.23842166e+00 -5.94788480e+00 4.82620523e+01
-1.54129164e+01 -1.01776495e+01 2.13602018e+00 -1.01776495e+01 -1.51600909e+01 8.91884661e+00 2.13602018e+00 8.91884661e+00 -1.84872814e+01
-5.25684796e+00 -9.26237822e-01 1.31707895e+00 -9.26237822e-01 2.23660827e+00 1.79891288e+00 1.31707895e+00 1.79891288e+00 5.36115152e+00
-3.52234936e+00 -6.60319726e-01 6.64072325e-01 -6.60319726e-01 2.82488992e+00 -2.58387168e+00 6.64072325e-01 -2.58387168e+00 3.60139562e+00
-1.91514242e+00 2.49984360e+00 -5.91486216e-01 2.49984360e+00 -2.17628789e+00 5.59982359e-01 -5.91486216e-01 5.59982359e-01 -6.26564085e-01
-4.08343780e+00 3.17522928e-01 -2.02130854e-01 3.17522928e-01 6.88351616e-01 1.40717888e+00 -2.02130854e-01 1.40717888e+00 5.16902525e-01
-1.64277124e+00 3.14388191e-03 -1.96326632e-01 3.14388191e-03 1.16627216e+00 -3.88807833e-01 -1.96326632e-01 -3.88807833e-01 -3.03914428e+01
-2.40544572e-01 8.70455969e-02 4.34626319e-01 8.70455969e-02 1.51299113e+00 -3.96653553e-01 4.34626319e-01 -3.96653553e-01 -2.85560837e+01
2.77833600e+00 -1.78863687e-01 -3.67449955e-02 -1.78863687e-01 4.76848336e+00 2.15992270e-01 -3.67449955e-02 2.15992270e-01 -2.17468411e+01
-2.12526464e+00 6.35401951e-03 -2.44602215e-01 6.35401951e-03 8.58393490e-01 2.05238573e-01 -2.44602215e-01 2.05238573e-01 -3.12059798e+01
5.23187056e+00 -7.83482328e-01 4.61882524e-01 -7.83482328e-01 5.21251851e+00 3.23261250e-01 4.61882524e-01 3.23261250e-01 -1.86851702e+01
3.86776993e+00 -3.73877021e-01 -3.61224573e-01 -3.73877021e-01 4.99167947e+00 -7.84580642e-01 -3.61224573e-01 -7.84580642e-01 -2.02449533e+01
2.94879460e+00 -4.52622566e-02 -3.55859503e-01 -4.52622566e-02 2.68590593e+00 7.33624231e-02 -3.55859503e-01 7.33624231e-02 -2.38999918e+01
6.87832683e+00 -3.10034144e-01 -5.62747728e-01 -3.10034144e-01 6.30221999e+00 -4.21864524e-01 -5.62747728e-01 -4.21864524e-01 -1.57159728e+01
4.17442834e+00 -2.84008149e-01 7.31343850e-02 -2.84008149e-01 2.62965846e+00 -1.82091911e-01 7.31343850e-02 -1.82091911e-01 -2.26220921e+01
5.57393038e+00 -5.39493817e-01 -2.64384656e-01 -5.39493817e-01 5.33368230e+00 7.42706784e-01 -2.64384656e-01 7.42706784e-01 -1.81152850e+01
1.07406583e+01 -4.95523721e-01 3.26721380e-02 -4.95523721e-01 9.55136319e+00 5.54072406e-01 3.26721380e-02 5.54072406e-01 -7.98586130e+00
4.90264827e+00 -4.20636017e-01 -3.04588610e-02 -4.20636017e-01 3.89580470e+00 6.21108838e-01 -3.04588610e-02 6.21108838e-01 -2.04809210e+01
8.37396359e+00 4.16243121e-01 -2.83504345e-01 4.16243121e-01 9.23696089e+00 1.67843270e+00 -2.83504345e-01 1.67843270e+00 -1.07349520e+01
4.25447166e+00 2.61577144e-01 -1.00105465e+00 2.61577144e-01 3.53734100e+00 1.06676729e+00 -1.00105465e+00 1.06676729e+00 -2.13991011e+01
5.89556007e+00 -4.29156939e-01 2.57305125e-01 -4.29156939e-01 7.05716342e+00 -7.71620551e-01 2.57305125e-01 -7.71620551e-01 -1.59082029e+01
-1.32448387e+00 -5.09745039e-01 1.32379737e+00 -5.09745039e-01 9.71495375e-01 3.62433000e-02 1.32379737e+00 3.62433000e-02 -3.01522591e+01
-9.11037803e+00 -1.68392969e-01 -4.69372679e-01 -1.68392969e-01 -5.29315368e+00 -7.50093652e-02 -4.69372679e-01 -7.50093652e-02 -4.86496365e+01
-6.40451808e+01 -9.14282705e+00 1.86098219e+01 -9.14282705e+00 -6.51727760e+01 6.75519204e-01 1.86098219e+01 6.75519204e-01 -1.48633345e+02
-4.44216948e+01 -7.04511009e-01 6.99709989e-01 -7.04511009e-01 -4.00833740e+01 2.50918600e+00 6.99709989e-01 2.50918600e+00 -1.21205889e+02
-4.08282487e+01 -1.50756853e+00 2.59577096e+00 -1.50756853e+00 -3.39170885e+01 5.07098281e+00 2.59577096e+00 5.07098281e+00 -1.09422485e+02
-4.76469460e+01 -4.45470834e+00 2.33264250e+00 -4.45470834e+00 -3.68693905e+01 6.54154593e+00 2.33264250e+00 6.54154593e+00 -1.18598827e+02
1.44506307e+01 -4.41209166e-02 7.61052772e-01 -4.41209166e-02 1.58448588e+01 -9.46112420e-01 7.61052772e-01 -9.46112420e-01 2.59849226e+00
1.16937374e+01 -2.42224590e-01 9.71542940e-01 -2.42224590e-01 1.14823800e+01 8.34111460e-02 9.71542940e-01 8.34111460e-02 -4.83229113e+00
-3.69253053e+01 -2.06944408e+00 5.91953226e+00 -2.06944408e+00 -3.22073067e+01 1.31756959e+01 5.91953226e+00 1.31756959e+01 -8.77237593e+01
6.14950390e+01 6.29176831e+00 -1.49724746e+01 6.29176831e+00 6.08515587e+01 -6.62435666e+00 -1.49724746e+01 -6.62435666e+00 9.22211456e+01
1.54299140e+01 -4.46408544e-01 1.85461423e+00 -4.46408544e-01 1.36109781e+01 5.38150396e-01 1.85461423e+00 5.38150396e-01 2.39587176e+00
1.61020606e+01 8.48985344e-01 1.45400733e-01 8.48985344e-01 1.59161829e+01 4.68934541e-01 1.45400733e-01 4.68934541e-01 4.62318733e+00
3.18797543e+01 -1.56267403e+00 -4.17931523e-01 -1.56267403e+00 3.01990373e+01 -1.08440409e+00 -4.17931523e-01 -1.08440409e+00 3.40253504e+01
2.57638226e+01 -5.78513766e-01 -4.56433487e+00 -5.78513766e-01 2.72202746e+01 -1.72302604e-01 -4.56433487e+00 -1.72302604e-01 2.77827965e+01
1.77380376e+01 7.56466538e-02 1.75880490e-01 7.56466538e-02 1.48452216e+01 3.19442777e-02 1.75880490e-01 3.19442777e-02 5.41832554e+00
1.10621051e+01 -6.89280633e-01 4.79205549e-01 -6.89280633e-01 9.00517678e+00 4.13854139e-01 4.79205549e-01 4.13854139e-01 -8.15684271e+00
5.87364739e+00 -2.81883096e+00 8.99288909e-01 -2.81883096e+00 5.02700931e+00 2.49047366e+00 8.99288909e-01 2.49047366e+00 -1.57464748e+01
-2.23208382e+01 -2.03506768e+00 -1.33742942e-01 -2.03506768e+00 -2.02981518e+01 6.34540218e+00 -1.33742942e-01 6.34540218e+00 -7.84775735e+01
-3.11711001e+00 -9.11265999e-01 3.41278948e-02 -9.11265999e-01 -3.77787316e+00 -7.72045841e-02 3.41278948e-02 -7.72045841e-02 -3.75350266e+01
-5.51038361e+00 -6.37209147e-01 -3.04392040e-01 -6.37209147e-01 -8.82714081e+00 1.54941279e+00 -3.04392040e-01 1.54941279e+00 -4.52851334e+01
-1.29591503e+01 -4.29041378e-01 1.42896926e+00 -4.29041378e-01 -6.33341932e+00 -2.88081390e+00 1.42896926e+00 -2.88081390e+00 -5.02213268e+01
-9.10301170e+01 -4.31637526e+00 -6.65915871e+00 -4.31637526e+00 -8.55020618e+01 4.88498235e+00 -6.65915871e+00 4.88498235e+00 -2.20889153e+02
-2.34679345e-01 -5.95512271e-01 -2.75076635e-01 -5.95512271e-01 3.28068692e-01 2.69832194e-01 -2.75076635e-01 2.69832194e-01 -4.79917273e-01
-4.31236971e-01 -3.95011883e-02 -9.18677747e-02 -3.95011883e-02 -1.22560248e-01 -2.28391808e-01 -9.18677747e-02 -2.28391808e-01 1.67416066e-01
6.94715649e-01 -1.66478224e-01 -1.28706552e-01 -1.66478224e-01 -1.08744688e-01 5.73818829e-01 -1.28706552e-01 5.73818829e-01 -9.72423762e-01
3.66545945e-01 -7.22702086e-01 3.87878120e-02 -7.22702086e-01 -1.82815636e-01 -5.16771704e-01 3.87878120e-02 -5.16771704e-01 -5.70294008e-01
1.46194553e+00 4.02601752e-02 1.42550740e-01 4.02601752e-02 2.23429751e+00 -4.13180655e-03 1.42550740e-01 -4.13180655e-03 -2.60251322e+01
2.20729872e+00 4.68594760e-01 1.85371796e-02 4.68594760e-01 2.18471861e+00 2.68399373e-01 1.85371796e-02 2.68399373e-01 -2.52160238e+01
6.66217190e+00 -1.84376800e-01 1.75991915e-02 -1.84376800e-01 7.25093868e+00 4.51134296e-01 1.75991915e-02 4.51134296e-01 -1.49159284e+01
2.00240028e+00 1.84842158e-01 1.25559379e-01 1.84842158e-01 3.40659350e+00 -1.95408862e-01 1.25559379e-01 -1.95408862e-01 -2.41277335e+01
7.24263763e+00 -7.94256039e-01 1.63713196e-01 -7.94256039e-01 6.53717768e+00 -6.91117318e-02 1.63713196e-01 -6.91117318e-02 -1.50759495e+01
6.03669429e+00 -4.85231076e-01 8.28649846e-01 -4.85231076e-01 6.03650171e+00 8.88455483e-01 8.28649846e-01 8.88455483e-01 -1.67227978e+01
6.49963886e+00 1.25655787e-01 2.86308754e-01 1.25655787e-01 5.56664586e+00 6.38963234e-01 2.86308754e-01 6.38963234e-01 -1.68577819e+01
1.14141307e+01 -4.02144282e-02 5.36814351e-02 -4.02144282e-02 1.00089946e+01 -6.98351562e-02 5.36814351e-02 -6.98351562e-02 -6.83159010e+00
9.07463752e+00 8.71477183e-02 -1.85938681e-01 8.71477183e-02 7.17901385e+00 4.91942644e-01 -1.85938681e-01 4.91942644e-01 -1.22978106e+01
6.01361215e+00 -2.69515160e-03 -4.71649925e-01 -2.69515160e-03 3.93467677e+00 1.30858525e-01 -4.71649925e-01 1.30858525e-01 -1.91482412e+01
1.23425797e+01 -1.97001269e-01 -4.36556572e-02 -1.97001269e-01 1.08102430e+01 4.07364648e-02 -4.36556572e-02 4.07364648e-02 -4.87758106e+00
1.01459224e+01 6.20467048e-02 -3.09950768e-01 6.20467048e-02 7.58929121e+00 1.03155744e-01 -3.09950768e-01 1.03155744e-01 -1.07195673e+01
1.26203179e+01 -9.02815289e-02 -1.33352347e-01 -9.02815289e-02 1.19590945e+01 -2.54630506e-01 -1.33352347e-01 -2.54630506e-01 -3.29078436e+00
1.77420342e+01 3.53519984e-01 -4.30215886e-01 3.53519984e-01 1.57636842e+01 7.65483137e-02 -4.30215886e-01 7.65483137e-02 6.20827913e+00
2.42725539e+00 -7.46120486e-01 1.32660274e+00 -7.46120486e-01 4.69361085e+00 1.30134635e-02 1.32660274e+00 1.30134635e-02 -2.18008356e+01
3.78368258e+00 -1.06143926e+00 8.54626562e-01 -1.06143926e+00 7.04409504e+00 -2.50843371e-01 8.54626562e-01 -2.50843371e-01 -1.79642980e+01
1.77310886e+01 3.00174503e+00 4.34953827e+00 3.00174503e+00 1.61991709e+01 3.60803387e+00 4.34953827e+00 3.60803387e+00 -3.58587674e-01
-8.35025650e+01 -7.26456308e+00 -1.83889988e+01 -7.26456308e+00 -8.44519562e+01 -2.15438857e+00 -1.83889988e+01 -2.15438857e+00 -1.90414249e+02
-5.32367468e+01 -1.38020115e+00 -4.00143760e+00 -1.38020115e+00 -4.84825611e+01 1.06658445e+00 -4.00143760e+00 1.06658445e+00 -1.39560921e+02
-3.55246840e+01 -1.74623281e+00 -1.55885693e-01 -1.74623281e+00 -3.09375162e+01 1.59716436e+00 -1.55885693e-01 1.59716436e+00 -1.01642193e+02
-3.05851126e+01 -2.84735906e+00 -7.71870300e-01 -2.84735906e+00 -2.13585887e+01 3.50469992e-01 -7.71870300e-01 3.50469992e-01 -8.52859612e+01
3.54632684e+00 1.35309196e-01 2.65523475e+00 1.35309196e-01 6.09644069e+00 5.76430321e-01 2.65523475e+00 5.76430321e-01 -1.88717277e+01
1.29252236e+01 5.69383753e-02 1.09325132e+00 5.69383753e-02 1.39037523e+01 -2.39079786e-01 1.09325132e+00 -2.39079786e-01 -8.38067532e-01
-1.13242790e+02 -1.24265883e+01 8.91612050e+00 -1.24265883e+01 -1.03396810e+02 -1.58963001e+01 8.91612050e+00 -1.58963001e+01 -2.36371128e+02
2.47372956e+01 -6.19401932e-02 -2.44343609e+00 -6.19401932e-02 2.47868342e+01 2.10837909e-01 -2.44343609e+00 2.10837909e-01 2.27783788e+01
1.40560061e+01 -3.79477330e-01 1.19532146e+00 -3.79477330e-01 1.42717119e+01 6.60404686e-01 1.19532146e+00 6.60404686e-01 9.99005795e-01
-6.11695340e+01 2.07213624e+00 6.06092398e+00 2.07213624e+00 -5.72666828e+01 1.98051013e+01 6.06092398e+00 1.98051013e+01 -1.36605632e+02
1.63538320e+01 6.03061849e-02 8.60637087e-01 6.03061849e-02 1.69654683e+01 -3.26146904e-01 8.60637087e-01 -3.26146904e-01 5.98241162e+00
1.47629168e+01 -6.08946327e-02 7.17425989e-02 -6.08946327e-02 1.46623648e+01 2.54231818e-01 7.17425989e-02 2.54231818e-01 1.86834013e+00
2.34892957e+01 -2.45913877e+00 3.25335978e+00 -2.45913877e+00 2.60610591e+01 1.20472687e-01 3.25335978e+00 1.20472687e-01 1.90754640e+01
4.96606712e+01 1.45426571e-01 1.20075798e+01 1.45426571e-01 5.30706978e+01 2.78259039e+00 1.20075798e+01 2.78259039e+00 9.71345291e+01
-7.52742774e+01 9.09137774e+00 -2.81210949e+01 9.09137774e+00 -7.98365451e+01 -1.79652047e+00 -2.81210949e+01 -1.79652047e+00 -1.76204559e+02
1.22859106e+01 -2.84478895e-01 3.62828489e-01 -2.84478895e-01 1.09136019e+01 4.46570121e-01 3.62828489e-01 4.46570121e-01 -5.32668400e+00
4.34044456e+00 -4.35941160e-01 -3.10844123e-01 -4.35941160e-01 6.35705757e+00 7.66851552e-01 -3.10844123e-01 7.66851552e-01 -1.84358597e+01
</DataArray>
<DataArray type="Float32" Name="Logarithmic_strain_components" NumberOfComponents="9" format="ascii">
4.51770276e-02 -1.43251964e-06 1.60720333e-06 -1.43251964e-06 7.65816122e-02 -1.53160800e-05 1.60720333e-06 -1.53160800e-05 -1.02772743e-01
4.70910259e-02 2.92757619e-03 5.00620649e-06 2.92757619e-03 7.91283920e-02 -8.24578368e-04 5.00620649e-06 -8.24578368e-04 -1.07053619e-01
4.81525054e-02 7.65006011e-03 -5.08526608e-03 7.65006011e-03 7.16081187e-02 -2.77433550e-03 -5.08526608e-03 -2.77433550e-03 -1.01341939e-01
4.79170009e-02 2.72471295e-03 -3.43541650e-03 2.72471295e-03 7.00181127e-02 3.89783236e-06 -3.43541650e-03 3.89783236e-06 -9.99641679e-02
4.41141929e-02 4.24387781e-06 3.00991349e-03 4.24387781e-06 7.29159117e-02 -4.01278352e-03 3.00991349e-03 -4.01278352e-03 -9.86659639e-02
4.63013668e-02 9.63260871e-04 5.14808949e-03 9.63260871e-04 7.44105782e-02 -5.88369661e-03 5.14808949e-03 -5.88369661e-03 -1.02197018e-01
4.71710069e-02 4.02900495e-03 7.75317537e-04 4.02900495e-03 6.90606348e-02 -6.15338297e-03 7.75317537e-04 -6.15338297e-03 -9.82741145e-02
4.61322833e-02 1.05308206e-03 9.08636641e-04 1.05308206e-03 6.81921858e-02 -1.97733360e-03 9.08636641e-04 -1.97733360e-03 -9.67836026e-02
4.97482549e-02 1.19830889e-03 7.42703287e-06 1.19830889e-03 8.46816264e-02 -2.33350322e-03 7.42703287e-06 -2.33350322e-03 -1.14205100e-01
5.04463846e-02 1.12907697e-02 -7.44287786e-03 1.12907697e-02 7.68502336e-02 -1.17431043e-03 -7.44287786e-03 -1.17431043e-03 -1.08408023e-01
5.19950194e-02 2.30093033e-03 5.92321367e-03 2.30093033e-03 7.63101503e-02 -4.41609685e-03 5.92321367e-03 -4.41609685e-03 -1.08886885e-01
5.02122948e-02 4.59521651e-03 -2.25774400e-03 4.59521651e-03 7.29786474e-02 -1.22228341e-02 -2.25774400e-03 -1.22228341e-02 -1.04454086e-01
5.55540714e-02 4.58073127e-03 -1.31328343e-05 4.58073127e-03 8.98103677e-02 5.46257873e-03 -1.31328343e-05 5.46257873e-03 -1.23900142e-01
5.34613803e-02 7.28247879e-03 -1.24639187e-02 7.28247879e-03 8.38948730e-02 -4.59874666e-03 -1.24639187e-02 -4.59874666e-03 -1.17957084e-01
5.94709236e-02 -5.54520462e-03 4.58902898e-04 -5.54520462e-03 7.80281704e-02 -3.62498703e-03 4.58902898e-04 -3.62498703e-03 -1.16775511e-01
5.49805467e-02 -3.97892058e-03 1.76622102e-03 -3.97892058e-03 7.78275412e-02 -7.18642320e-03 1.76622102e-03 -7.18642320e-03 -1.12940735e-01
6.19072560e-02 -1.21626444e-02 2.36349842e-05 -1.21626444e-02 9.48891193e-02 3.83222755e-03 2.36349842e-05 3.83222755e-03 -1.34183839e-01
5.54054659e-02 -8.82357464e-03 -1.75668802e-02 -8.82357464e-03 9.19146817e-02 2.29794387e-03 -1.75668802e-02 2.29794387e-03 -1.27267638e-01
6.58129863e-02 -1.35727744e-02 3.43727373e-03 -1.35727744e-02 8.06771852e-02 -3.37834572e-03 3.43727373e-03 -3.37834572e-03 -1.24512648e-01
6.31612577e-02 -1.39663293e-02 2.37176276e-03 -1.39663293e-02 7.61216348e-02 2.48421484e-03 2.37176276e-03 2.48421484e-03 -1.17638774e-01
6.51066657e-02 -1.41798733e-02 5.62829409e-05 -1.41798733e-02 1.01946045e-01 5.78301307e-03 5.62829409e-05 5.78301307e-03 -1.42955050e-01
5.70868766e-02 -1.96347821e-02 -2.12090416e-02 -1.96347821e-02 9.51856542e-02 9.13752359e-03 -2.12090416e-02 9.13752359e-03 -1.30398888e-01
6.69760127e-02 -1.06658670e-02 6.10117812e-03 -1.06658670e-02 8.57176781e-02 4.67323366e-03 6.10117812e-03 4.67323366e-03 -1.29059650e-01
6.73175282e-02 -1.69980848e-02 7.36576098e-03 -1.69980848e-02 7.89319044e-02 2.37688606e-03 7.36576098e-03 2.37688606e-03 -1.23205653e-01
6.05379008e-02 -3.99911329e-02 -4.22031444e-05 -3.99911329e-02 1.17145002e-01 -3.34116025e-03 -4.22031444e-05 -3.34116025e-03 -1.54796109e-01
5.04814889e-02 -3.06687066e-02 -2.17017392e-02 -3.06687066e-02 1.13351762e-01 2.66821841e-02 -2.17017392e-02 2.66821841e-02 -1.43488728e-01
5.91044426e-02 -9.77666909e-03 -6.24774024e-03 -9.77666909e-03 1.02730390e-01 1.95485563e-03 -6.24774024e-03 1.95485563e-03 -1.39331281e-01
6.24531964e-02 -1.67337691e-02 2.95402948e-04 -1.67337691e-02 9.27179102e-02 1.36123276e-02 2.95402948e-04 1.36123276e-02 -1.32469408e-01
5.22475680e-02 1.07919187e-02 -4.49971110e-03 1.07919187e-02 5.20761423e-02 -3.97096982e-03 -4.49971110e-03 -3.97096982e-03 -8.84270146e-02
5.22694308e-02 2.26438663e-03 -5.76522457e-03 2.26438663e-03 5.15490044e-02 8.85343616e-06 -5.76522457e-03 8.85343616e-06 -8.78957286e-02
4.83510336e-02 7.63581891e-03 4.84904207e-03 7.63581891e-03 5.55272014e-02 -7.92208622e-03 4.84904207e-03 -7.92208622e-03 -8.79733302e-02
4.78777597e-02 3.49059858e-03 8.87085753e-03 3.49059858e-03 5.41699091e-02 -9.10943258e-04 8.87085753e-03 -9.10943258e-04 -8.62238519e-02
4.96636825e-02 1.91933648e-02 -9.47800744e-03 1.91933648e-02 5.27912658e-02 -8.17426643e-03 -9.47800744e-03 -8.17426643e-03 -8.71870387e-02
4.80069639e-02 1.13625700e-02 9.52049321e-03 1.13625700e-02 5.68759865e-02 -4.51352953e-03 9.52049321e-03 -4.51352953e-03 -8.94379932e-02
4.11035772e-02 1.26225866e-02 -1.19541790e-02 1.26225866e-02 5.26507562e-02 -6.48588059e-03 -1.19541790e-02 -6.48588059e-03 -7.84266405e-02
4.61902060e-02 -7.25109795e-05 3.28238665e-02 -7.25109795e-05 5.97535861e-02 1.17736037e-04 3.28238665e-02 1.17736037e-04 -8.97902836e-02
3.58504346e-02 -1.34930951e-02 -3.38341659e-02 -1.34930951e-02 5.69185945e-02 2.58243247e-03 -3.38341659e-02 2.58243247e-03 -7.76350778e-02
4.55574418e-02 -2.38218227e-02 3.34282705e-02 -2.38218227e-02 6.43125077e-02 9.67875492e-03 3.34282705e-02 9.67875492e-03 -9.14240256e-02
3.65508455e-02 -2.88657314e-02 -2.96073831e-02 -2.88657314e-02 5.06468937e-02 1.56026890e-02 -2.96073831e-02 1.56026890e-02 -7.15143941e-02
4.71887477e-02 -3.21019416e-02 4.46949241e-02 -3.21019416e-02 5.89487959e-02 3.02018534e-02 4.46949241e-02 3.02018534e-02 -8.63797429e-02
3.84492585e-02 -3.23039563e-02 -3.21361516e-02 -3.23039563e-02 5.35013862e-02 2.60272780e-02 -3.21361516e-02 2.60272780e-02 -7.62700513e-02
4.76159652e-02 -4.38590050e-02 4.18182736e-02 -4.38590050e-02 6.87586404e-02 3.88240200e-02 4.18182736e-02 3.88240200e-02 -9.63947773e-02
5.55137377e-02 5.81853371e-03 1.17918907e-03 5.81853371e-03 3.06323953e-02 -5.41197800e-03 1.17918907e-03 -5.41197800e-03 -7.31374919e-02
5.39677646e-02 3.26868368e-03 2.51145568e-03 3.26868368e-03 3.28509947e-02 -7.44956560e-06 2.51145568e-03 -7.44956560e-06 -7.30502047e-02
5.13031511e-02 3.63403765e-03 1.10222750e-02 3.63403765e-03 3.47726997e-02 -3.73234307e-03 1.10222750e-02 -3.73234307e-03 -7.28483237e-02
4.84727761e-02 1.90390780e-03 1.26664398e-02 1.90390780e-03 3.74159128e-02 -1.48304310e-03 1.26664398e-02 -1.48304310e-03 -7.22750071e-02
4.45401985e-02 9.47283255e-03 1.21395866e-03 9.47283255e-03 2.35176538e-02 -9.68917971e-03 1.21395866e-03 -9.68917971e-03 -5.67511125e-02
4.58930517e-02 5.83918653e-03 2.10160465e-02 5.83918653e-03 2.79182930e-02 9.68740915e-03 2.10160465e-02 9.68740915e-03 -6.25176081e-02
1.64252534e-02 4.23918304e-03 -2.74326291e-03 4.23918304e-03 1.14886368e-02 -6.72522455e-03 -2.74326291e-03 -6.72522455e-03 -1.92912964e-02
1.44504189e-02 -1.36553378e-03 2.12801283e-02 -1.36553378e-03 8.65562710e-03 6.13905489e-03 2.12801283e-02 6.13905489e-03 -1.21926369e-02
4.41774307e-03 -2.39657369e-02 -1.18398595e-02 -2.39657369e-02 3.15236502e-03 -8.92297768e-03 -1.18398595e-02 -8.92297768e-03 6.56895883e-04
-7.40767069e-04 -3.84465925e-02 4.48886193e-02 -3.84465925e-02 1.43413942e-02 8.43647101e-03 4.48886193e-02 8.43647101e-03 -5.05600283e-03
1.43062401e-04 -1.20213905e-02 -2.22276505e-02 -1.20213905e-02 -4.83987057e-04 2.12095255e-03 -2.22276505e-02 2.12095255e-03 8.06032944e-03
4.88062700e-04 -1.35409428e-02 3.31636729e-02 -1.35409428e-02 5.73700030e-03 -4.05878884e-03 3.31636729e-02 -4.05878884e-03 3.33304280e-03
6.87873829e-03 -1.09751169e-02 -3.28869896e-03 -1.09751169e-02 -8.10338673e-03 7.24570011e-03 -3.28869896e-03 7.24570011e-03 7.82367901e-03
5.43904351e-03 -6.18720427e-03 3.40153812e-02 -6.18720427e-03 1.68305915e-03 -6.45922194e-03 3.40153812e-02 -6.45922194e-03 1.38856610e-03
5.48859164e-02 -4.25380640e-03 2.61418632e-03 -4.25380640e-03 2.07127403e-02 -7.06258172e-03 2.61418632e-03 -7.06258172e-03 -6.39142003e-02
5.52473944e-02 -4.61197575e-03 3.49896296e-03 -4.61197575e-03 2.53770826e-02 7.31237014e-06 3.49896296e-03 7.31237014e-06 -6.81562945e-02
4.87404298e-02 -6.98648815e-03 1.38866571e-02 -6.98648815e-03 2.35265365e-02 -2.28587654e-04 1.38866571e-02 -2.28587654e-04 -6.05812552e-02
5.02338819e-02 -5.48893737e-03 3.97968886e-03 -5.48893737e-03 2.71033235e-02 1.98121741e-03 3.97968886e-03 1.98121741e-03 -6.51572850e-02
4.07147333e-02 -6.70070911e-03 -4.12598648e-03 -6.70070911e-03 1.17699064e-02 -1.16647549e-02 -4.12598648e-03 -1.16647549e-02 -4.36187936e-02
3.96985761e-02 -1.18691379e-02 5.57514140e-03 -1.18691379e-02 1.25239714e-02 1.18802819e-02 5.57514140e-03 1.18802819e-02 -4.28738818e-02
1.19228700e-02 -7.22060175e-03 -1.37711840e-03 -7.22060175e-03 4.37731389e-04 -8.73747352e-03 -1.37711840e-03 -8.73747352e-03 -8.29149183e-03
2.01598159e-02 -6.88203977e-03 -5.58538642e-03 -6.88203977e-03 2.21827806e-03 1.15815372e-02 -5.58538642e-03 1.15815372e-02 -1.68341564e-02
-1.06846684e-03 -1.65497767e-03 -1.45208848e-06 -1.65497767e-03 8.40883406e-04 -3.91581076e-04 -1.45208848e-06 -3.91581076e-04 1.15823269e-03
1.44908377e-03 2.13935968e-03 -1.96724021e-03 2.13935968e-03 1.51836372e-03 5.06733790e-03 -1.96724021e-03 5.06733790e-03 -2.06507344e-03
5.83764407e-03 -1.57901592e-02 4.16043895e-05 -1.57901592e-02 -1.03035592e-02 1.15415423e-04 4.16043895e-05 1.15415423e-04 5.43335734e-03
-5.59980007e-04 -9.94999617e-03 -4.98573524e-05 -9.94999617e-03 2.01385185e-03 3.73487104e-05 -4.98573524e-05 3.73487104e-05 -6.03204574e-04
5.47771402e-03 -1.92390714e-02 -2.35268078e-03 -1.92390714e-02 -9.32553551e-03 -1.17807955e-04 -2.35268078e-03 -1.17807955e-04 4.90173959e-03
-2.87213011e-03 -1.06751921e-02 -5.29617633e-03 -1.06751921e-02 6.78782309e-03 -5.91141579e-05 -5.29617633e-03 -5.91141579e-05 -3.12360419e-03
5.29660946e-02 -1.14060179e-02 7.49322411e-03 -1.14060179e-02 2.68359631e-02 -3.10748757e-03 7.49322411e-03 -3.10748757e-03 -6.73941895e-02
5.66386562e-02 -1.01343454e-02 1.70538516e-03 -1.01343454e-02 2.92600282e-02 8.74198122e-06 1.70538516e-03 8.74198122e-06 -7.26880059e-02
4.72879149e-02 -1.00289073e-02 1.07981509e-03 -1.00289073e-02 2.84958433e-02 5.64691621e-03 1.07981509e-03 5.64691621e-03 -6.35056677e-02
5.20690009e-02 -4.33011237e-03 -2.53667505e-03 -4.33011237e-03 2.95543130e-02 7.95858935e-03 -2.53667505e-03 7.95858935e-03 -6.88622240e-02
3.96824069e-02 -1.22323050e-02 3.52066389e-03 -1.22323050e-02 1.81549073e-02 -1.58328691e-02 3.52066389e-03 -1.58328691e-02 -4.83829258e-02
3.54549547e-02 -1.83835437e-02 -2.81370155e-03 -1.83835437e-02 2.73049234e-02 9.35985075e-03 -2.81370155e-03 9.35985075e-03 -5.16927070e-02
1.18624709e-02 -5.36413374e-03 4.38573339e-03 -5.36413374e-03 5.93129598e-03 -6.81038282e-03 4.38573339e-03 -6.81038282e-03 -1.30548335e-02
2.28506982e-02 -8.45870911e-03 -4.51669243e-03 -8.45870911e-03 1.51404346e-02 2.65427157e-02 -4.51669243e-03 2.65427157e-02 -3.09186019e-02
1.32665457e-03 2.16849504e-03 1.80128814e-05 2.16849504e-03 -1.45580216e-04 -2.41654972e-04 1.80128814e-05 -2.41654972e-04 -2.67696818e-04
3.62218331e-03 -1.86936466e-04 3.39134524e-04 -1.86936466e-04 -1.29664192e-03 6.04109147e-03 3.39134524e-04 6.04109147e-03 -1.42170578e-03
1.01609145e-05 1.07723172e-05 -2.10929734e-05 1.07723172e-05 6.43728185e-06 9.49914429e-05 -2.10929734e-05 9.49914429e-05 5.52960134e-05
6.33798940e-05 2.42965063e-05 -4.06359017e-05 2.42965063e-05 1.21205667e-06 -1.51521552e-05 -4.06359017e-05 -1.51521552e-05 -9.95445712e-06
9.68799213e-05 2.00912800e-05 -6.46479748e-05 2.00912800e-05 -1.63388020e-04 1.66473164e-05 -6.46479748e-05 1.66473164e-05 -1.50590677e-05
4.25295411e-05 -5.41716169e-05 4.79915002e-05 -5.41716169e-05 -1.14853633e-04 -1.08836405e-05 4.79915002e-05 -1.08836405e-05 1.32534482e-05
5.78367431e-02 -1.01791633e-02 1.29164336e-03 -1.01791633e-02 3.53441536e-02 -6.18137093e-03 1.29164336e-03 -6.18137093e-03 -8.09318013e-02
6.50216341e-02 -4.64813691e-03 6.90245815e-03 -4.64813691e-03 3.26620340e-02 2.61818932e-05 6.90245815e-03 2.61818932e-05 -8.46535861e-02
5.32131568e-02 -7.27027433e-03 -1.38291274e-03 -7.27027433e-03 3.48662036e-02 -5.04454643e-03 -1.38291274e-03 -5.04454643e-03 -7.55637921e-02
5.80574553e-02 -1.01184864e-02 -3.13093004e-03 -1.01184864e-02 3.71494032e-02 6.92676450e-03 -3.13093004e-03 6.92676450e-03 -8.26047398e-02
4.38264078e-02 -1.94173614e-02 1.89688401e-02 -1.94173614e-02 3.13427849e-02 -2.05136621e-02 1.89688401e-02 -2.05136621e-02 -6.57713227e-02
3.98431672e-02 -1.67702555e-02 7.79013522e-03 -1.67702555e-02 4.34990339e-02 3.35343322e-03 7.79013522e-03 3.35343322e-03 -7.15073813e-02
1.40681090e-02 -9.52274013e-03 1.69774788e-02 -9.52274013e-03 1.78121580e-02 -7.37787038e-03 1.69774788e-02 -7.37787038e-03 -2.65025096e-02
2.91396314e-02 -2.03581993e-02 8.78972979e-03 -2.03581993e-02 3.15267307e-02 3.64732326e-02 8.78972979e-03 3.64732326e-02 -5.27652303e-02
-1.24214526e-03 -3.14416816e-03 6.83320604e-05 -3.14416816e-03 1.27404204e-03 -6.75404997e-04 6.83320604e-05 -6.75404997e-04 1.18506220e-03
1.11301264e-03 -1.21545417e-02 2.56097395e-04 -1.21545417e-02 7.26222352e-05 1.54727556e-02 2.56097395e-04 1.54727556e-02 2.87836592e-05
-2.68941733e-04 -1.67833699e-04 8.61988738e-05 -1.67833699e-04 1.05403084e-04 1.11129266e-04 8.61988738e-05 1.11129266e-04 2.18506372e-04
-7.15925465e-05 -6.10392550e-05 2.84919812e-05 -6.10392550e-05 4.31390955e-05 -1.32131885e-04 2.84919812e-05 -1.32131885e-04 6.10177606e-05
-2.67643300e-05 1.20015618e-04 -2.86424238e-05 1.20015618e-04 -3.24945904e-05 2.69938864e-05 -2.86424238e-05 2.69938864e-05 3.84065333e-06
-8.61001899e-05 1.53748651e-05 -1.09986240e-05 1.53748651e-05 2.82995106e-05 6.30016621e-05 -1.09986240e-05 6.30016621e-05 2.38293887e-05
4.59151510e-02 4.10549865e-06 1.25787244e-03 4.10549865e-06 6.49384148e-02 -8.07256671e-03 1.25787244e-03 -8.07256671e-03 -9.36745889e-02
4.93184375e-02 -5.47172196e-04 8.37215059e-03 -5.47172196e-04 6.25953414e-02 -5.53891978e-03 8.37215059e-03 -5.53891978e-03 -9.45605561e-02
4.60635875e-02 -6.60445399e-03 4.88731684e-03 -6.60445399e-03 6.31541843e-02 -2.50265567e-03 4.88731684e-03 -2.50265567e-03 -9.18741468e-02
4.38770410e-02 -7.48571227e-04 3.12227313e-03 -7.48571227e-04 6.47606831e-02 -9.31829098e-04 3.12227313e-03 -9.31829098e-04 -9.17787738e-02
5.64462924e-02 -9.83419013e-03 5.18824346e-03 -9.83419013e-03 5.82372677e-02 -7.09279208e-04 5.18824346e-03 -7.09279208e-04 -9.64623634e-02
5.43759055e-02 -9.67090615e-03 1.02312394e-03 -9.67090615e-03 6.09393800e-02 -1.25417370e-02 1.02312394e-03 -1.25417370e-02 -9.68949413e-02
6.37676278e-02 6.52374320e-06 -1.11564377e-03 6.52374320e-06 5.76116312e-02 -7.22954457e-03 -1.11564377e-03 -7.22954457e-03 -1.02322960e-01
6.27641152e-02 -7.51390969e-03 1.71060557e-03 -7.51390969e-03 6.16758731e-02 -1.64913145e-04 1.71060557e-03 -1.64913145e-04 -1.03984523e-01
7.07911793e-02 -5.36435726e-03 1.31653268e-02 -5.36435726e-03 5.63162407e-02 -6.80675899e-03 1.31653268e-02 -6.80675899e-03 -1.07038200e-01
6.58195633e-02 -6.77952531e-03 2.82945993e-03 -6.77952531e-03 6.89386674e-02 9.18521621e-03 2.82945993e-03 9.18521621e-03 -1.13382465e-01
6.78612227e-02 -7.06136506e-03 1.48519140e-02 -7.06136506e-03 6.13382515e-02 2.96122182e-03 1.48519140e-02 2.96122182e-03 -1.08132489e-01
7.02653024e-02 -3.36598557e-03 1.34920911e-02 -3.36598557e-03 6.84237699e-02 5.87181008e-03 1.34920911e-02 5.87181008e-03 -1.16833142e-01
6.14129640e-02 1.17577417e-02 8.74279765e-03 1.17577417e-02 6.95584789e-02 8.89299228e-03 8.74279765e-03 8.89299228e-03 -1.09789718e-01
6.97035808e-02 1.53245474e-03 -1.50666118e-03 1.53245474e-03 7.02516278e-02 6.81032042e-03 -1.50666118e-03 6.81032042e-03 -1.18053518e-01
4.42397106e-02 -8.46808276e-03 9.67819069e-03 -8.46808276e-03 5.92298568e-02 -1.09469664e-02 9.67819069e-03 -1.09469664e-02 -8.68621748e-02
4.00598068e-02 -6.29563257e-03 2.07507769e-02 -6.29563257e-03 6.06271867e-02 -5.47525054e-03 2.07507769e-02 -5.47525054e-03 -8.48688055e-02
5.05587826e-02 -5.65676900e-03 1.94864739e-02 -5.65676900e-03 6.34939713e-02 -4.54428845e-03 1.94864739e-02 -4.54428845e-03 -9.77607667e-02
6.56140804e-02 -1.76811567e-02 5.43283181e-02 -1.76811567e-02 6.70013018e-02 -4.12063600e-03 5.43283181e-02 -4.12063600e-03 -1.14688006e-01
6.98794704e-02 -1.97958096e-03 1.48033786e-02 -1.97958096e-03 8.37414712e-02 1.77487669e-02 1.48033786e-02 1.77487669e-02 -1.33884065e-01
6.83326479e-02 -3.27847281e-03 2.91753612e-02 -3.27847281e-03 8.54919516e-02 3.60758805e-02 2.91753612e-02 3.60758805e-02 -1.33079357e-01
6.57456443e-02 -1.38301407e-02 1.52479829e-02 -1.38301407e-02 9.01797488e-02 3.17613578e-02 1.52479829e-02 3.17613578e-02 -1.34797879e-01
3.65592912e-02 -1.69732289e-03 2.87749490e-02 -1.69732289e-03 5.05409609e-02 -2.58326938e-03 2.87749490e-02 -2.58326938e-03 -7.22865742e-02
3.72522632e-02 -2.87473045e-03 2.03237538e-02 -2.87473045e-03 4.80533978e-02 -5.31521998e-03 2.03237538e-02 -5.31521998e-03 -7.11760651e-02
3.45709275e-02 -1.14835693e-02 3.87800895e-02 -1.14835693e-02 5.28827431e-02 4.58432355e-02 3.87800895e-02 4.58432355e-02 -7.38421710e-02
-1.66383423e-02 -4.37704576e-02 3.13543566e-02 -4.37704576e-02 1.01085631e-02 5.95278256e-02 3.13543566e-02 5.95278256e-02 2.91972402e-02
3.96212041e-02 -1.71992334e-03 1.85292418e-02 -1.71992334e-03 3.25076126e-02 1.36307371e-02 1.85292418e-02 1.36307371e-02 -5.94077683e-02
3.73014053e-02 5.84317138e-03 1.34741796e-02 5.84317138e-03 3.63267800e-02 1.01111801e-02 1.34741796e-02 1.01111801e-02 -6.12435108e-02
3.42884806e-02 -2.58310657e-02 2.25885989e-02 -2.58310657e-02 2.56134051e-02 2.98935638e-02 2.25885989e-02 2.98935638e-02 -4.87405754e-02
7.42252916e-03 -4.56448070e-03 -2.24836568e-02 -4.56448070e-03 2.01007963e-02 2.72817059e-02 -2.24836568e-02 2.72817059e-02 -1.57504169e-02
4.03527103e-02 -8.43663923e-03 2.76429043e-03 -8.43663923e-03 3.46144033e-02 7.84307748e-03 2.76429043e-03 7.84307748e-03 -6.21417831e-02
4.40474069e-02 -7.58856302e-03 -4.31065564e-04 -7.58856302e-03 3.32014989e-02 7.88629171e-03 -4.31065564e-04 7.88629171e-03 -6.47754949e-02
3.87813367e-02 -1.65936239e-02 -7.44214252e-04 -1.65936239e-02 4.28998044e-02 1.77369622e-02 -7.44214252e-04 1.77369622e-02 -6.85221883e-02
5.27983289e-02 2.28451565e-04 -2.52481455e-02 2.28451565e-04 5.58412150e-02 2.36095567e-02 -2.52481455e-02 2.36095567e-02 -9.67903659e-02
4.12707906e-02 -1.77969059e-03 -3.12440615e-03 -1.77969059e-03 4.66637854e-02 -3.34164710e-04 -3.12440615e-03 -3.34164710e-04 -7.48509131e-02
4.57829423e-02 1.00304294e-03 -4.21331311e-03 1.00304294e-03 4.12999596e-02 6.27269596e-03 -4.21331311e-03 6.27269596e-03 -7.41470084e-02
4.51272149e-02 -2.44612270e-03 2.49540329e-03 -2.44612270e-03 5.92851322e-02 -7.78407465e-03 2.49540329e-03 -7.78407465e-03 -8.84692036e-02
6.68572783e-02 -8.00046728e-04 -2.19563739e-02 -8.00046728e-04 7.32151419e-02 2.52731754e-02 -2.19563739e-02 2.52731754e-02 -1.25886217e-01
-3.79780897e-06 -2.85820979e-05 -1.37068391e-05 -2.85820979e-05 1.02843867e-05 1.08245572e-05 -1.37068391e-05 1.08245572e-05 -9.74435966e-06
-9.26799009e-06 -2.33676474e-06 -4.59176499e-06 -2.33676474e-06 -1.96366670e-06 -1.28270178e-05 -4.59176499e-06 -1.28270178e-05 5.84069676e-06
1.78340333e-05 -7.44499357e-06 -6.07392212e-06 -7.44499357e-06 -1.51358705e-06 2.61543373e-05 -6.07392212e-06 2.61543373e-05 -2.12860177e-05
1.04896285e-05 -3.45486987e-05 1.05159233e-06 -3.45486987e-05 -2.47054936e-06 -2.60893848e-05 1.05159233e-06 -2.60893848e-05 -1.38223809e-05
5.46743516e-02 8.40657503e-06 1.00188339e-02 8.40657503e-06 5.75022660e-02 -2.17987853e-03 1.00188339e-02 -2.17987853e-03 -9.46425572e-02
5.63849043e-02 3.04377364e-03 6.43197855e-03 3.04377364e-03 5.57409693e-02 3.10768609e-03 6.43197855e-03 3.10768609e-03 -9.46319085e-02
5.44716455e-02 -9.05467058e-03 1.18907890e-02 -9.05467058e-03 5.66937383e-02 4.27202300e-03 1.18907890e-02 4.27202300e-03 -9.32482369e-02
5.29869264e-02 2.12125026e-03 1.05312971e-02 2.12125026e-03 5.90447020e-02 -5.75263321e-03 1.05312971e-02 -5.75263321e-03 -9.45413448e-02
6.05633873e-02 -1.18024398e-02 9.93674994e-03 -1.18024398e-02 4.99853166e-02 4.85737517e-04 9.93674994e-03 4.85737517e-04 -9.27541498e-02
5.92127792e-02 -1.18734907e-02 1.27551535e-02 -1.18734907e-02 5.53220864e-02 5.71496242e-03 1.27551535e-02 5.71496242e-03 -9.61524472e-02
6.43866714e-02 1.11426451e-03 4.29162267e-03 1.11426451e-03 4.72540595e-02 6.41454650e-03 4.29162267e-03 6.41454650e-03 -9.36414767e-02
6.51317276e-02 -5.89479657e-03 -5.87994367e-03 -5.89479657e-03 5.40573113e-02 -4.70089950e-03 -5.87994367e-03 -4.70089950e-03 -9.95295290e-02
6.77896366e-02 2.82830157e-03 -5.45903575e-03 2.82830157e-03 4.50025033e-02 4.25003818e-05 -5.45903575e-03 4.25003818e-05 -9.45015866e-02
6.58343630e-02 1.05806653e-03 -8.91639871e-03 1.05806653e-03 6.09543021e-02 9.05310153e-05 -8.91639871e-03 9.05310153e-05 -1.06724321e-01
6.57367501e-02 3.33832148e-04 2.49648467e-03 3.33832148e-04 4.65114061e-02 -2.92618305e-03 2.49648467e-03 -2.92618305e-03 -9.39239189e-02
6.61007757e-02 -1.01616161e-03 3.66927095e-04 -1.01616161e-03 5.98829323e-02 3.52546574e-03 3.66927095e-04 3.52546574e-03 -1.05615942e-01
6.34222049e-02 -5.90711541e-04 1.66957942e-03 -5.90711541e-04 4.76581175e-02 -2.42525805e-03 1.66957942e-03 -2.42525805e-03 -9.28489380e-02
6.17593955e-02 -5.73060141e-03 -3.27776565e-03 -5.73060141e-03 6.12158868e-02 -2.08376953e-03 -3.27776565e-03 -2.08376953e-03 -1.02530990e-01
5.05380011e-02 -1.57031546e-02 3.18162949e-02 -1.57031546e-02 6.20002090e-02 2.02493818e-03 3.18162949e-02 2.02493818e-03 -9.41222962e-02
4.26474735e-02 -1.41092197e-02 2.34963223e-02 -1.41092197e-02 6.60531688e-02 -3.58574354e-03 2.34963223e-02 -3.58574354e-03 -9.10134632e-02
6.31512212e-02 -3.33604370e-04 2.44482787e-02 -3.33604370e-04 5.81949087e-02 -3.47412697e-03 2.44482787e-02 -3.47412697e-03 -1.04310370e-01
7.16800161e-02 -1.73861035e-02 -6.73471205e-02 -1.73861035e-02 6.49237078e-02 -1.35216378e-03 -6.73471205e-02 -1.35216378e-03 -1.21901539e-01
7.11263511e-02 -2.68414733e-03 -1.97608366e-02 -2.68414733e-03 8.16450939e-02 1.24096660e-02 -1.97608366e-02 1.24096660e-02 -1.33971281e-01
6.99131247e-02 -5.63901124e-03 -1.55218458e-03 -5.63901124e-03 7.88985211e-02 1.17533488e-02 -1.55218458e-03 1.17533488e-02 -1.28613442e-01
6.27329592e-02 -5.20830578e-03 -4.43162152e-03 -5.20830578e-03 8.30501691e-02 3.73132445e-03 -4.43162152e-03 3.73132445e-03 -1.25354461e-01
4.38637893e-02 -9.55043236e-03 4.45545592e-02 -9.55043236e-03 6.07934216e-02 2.34251622e-03 4.45545592e-02 2.34251622e-03 -8.73857183e-02
3.90369250e-02 3.06654640e-03 3.47423535e-02 3.06654640e-03 6.03025891e-02 4.20183036e-03 3.47423535e-02 4.20183036e-03 -8.23340900e-02
5.35493442e-02 -2.99971569e-02 5.80635546e-02 -2.99971569e-02 7.30737271e-02 -6.74646092e-02 5.80635546e-02 -6.74646092e-02 -1.08252050e-01
3.80905606e-02 -3.77724012e-03 1.65050012e-02 -3.77724012e-03 4.77611327e-02 2.89941636e-02 1.65050012e-02 2.89941636e-02 -7.02204981e-02
3.78852608e-02 -8.34564818e-03 2.82038592e-02 -8.34564818e-03 5.00554098e-02 8.47014203e-03 2.82038592e-02 8.47014203e-03 -7.30114579e-02
3.64799609e-02 9.46806421e-03 1.95647834e-02 9.46806421e-03 5.26737403e-02 8.40340955e-02 1.95647834e-02 8.40340955e-02 -7.73456497e-02
4.04683738e-02 2.99789674e-03 1.22862034e-02 2.99789674e-03 5.00977137e-02 1.01446102e-02 1.22862034e-02 1.01446102e-02 -7.43912971e-02
3.95757956e-02 6.21576118e-03 -3.56996083e-03 6.21576118e-03 5.01357410e-02 4.72604530e-03 -3.56996083e-03 4.72604530e-03 -7.50695523e-02
3.99852826e-02 -1.37046418e-02 -1.61752390e-02 -1.37046418e-02 6.40680604e-02 1.54998267e-02 -1.61752390e-02 1.54998267e-02 -8.66488814e-02
-6.33908156e-03 8.80000517e-02 -1.00719571e-01 8.80000517e-02 -2.58396342e-02 1.49965122e-01 -1.00719571e-01 1.49965122e-01 6.69455156e-02
7.10732204e-02 3.31428184e-02 -1.05083945e-01 3.31428184e-02 6.34970336e-02 -2.06552353e-02 -1.05083945e-01 -2.06552353e-02 -1.16209678e-01
4.50558104e-02 1.75201003e-02 5.66190400e-03 1.75201003e-02 5.52630574e-02 1.65996008e-02 5.66190400e-03 1.65996008e-02 -8.43103100e-02
4.13563512e-02 -4.26796987e-03 6.80418336e-03 -4.26796987e-03 5.61762396e-02 1.25841857e-02 6.80418336e-03 1.25841857e-02 -8.12063329e-02
</DataArray>
<DataArray type="Float32" Name="Plastic_strain_components" NumberOfComponents="9" format="ascii">
4.51181792e-02 -4.67887730e-07 4.05379751e-07 -4.67887730e-07 7.64370784e-02 -1.31945126e-06 4.05379751e-07 -1.31945126e-06 -1.02108978e-01
4.71653920e-02 2.91820511e-03 1.81406119e-06 2.91820511e-03 7.90968873e-02 -8.08270153e-04 1.81406119e-06 -8.08270153e-04 -1.06077269e-01
4.81441906e-02 7.63540901e-03 -5.07575949e-03 7.63540901e-03 7.15264212e-02 -2.75940023e-03 -5.07575949e-03 -2.75940023e-03 -1.00603789e-01
4.79164813e-02 2.72042188e-03 -3.42069182e-03 2.72042188e-03 6.99352957e-02 2.11429870e-06 -3.42069182e-03 2.11429870e-06 -9.91065912e-02
4.40045483e-02 4.87029956e-06 3.02664074e-03 4.87029956e-06 7.27237947e-02 -4.04670392e-03 3.02664074e-03 -4.04670392e-03 -9.80808139e-02
4.63242270e-02 9.58004821e-04 5.13250835e-03 9.58004821e-04 7.43521713e-02 -5.85452234e-03 5.13250835e-03 -5.85452234e-03 -1.01420904e-01
4.71118544e-02 4.01834247e-03 7.94257890e-04 4.01834247e-03 6.89342618e-02 -6.14662957e-03 7.94257890e-04 -6.14662957e-03 -9.75776929e-02
4.61454922e-02 1.05065925e-03 9.43283172e-04 1.05065925e-03 6.81534726e-02 -1.95539457e-03 9.43283172e-04 -1.95539457e-03 -9.61027574e-02
4.99037970e-02 1.19044306e-03 3.81244081e-06 1.19044306e-03 8.47130008e-02 -2.30369577e-03 3.81244081e-06 -2.30369577e-03 -1.13102097e-01
5.06273061e-02 1.12543374e-02 -7.42530089e-03 1.12543374e-02 7.69102499e-02 -1.14424262e-03 -7.42530089e-03 -1.14424262e-03 -1.07192315e-01
5.19995494e-02 2.29835109e-03 5.90916176e-03 2.29835109e-03 7.62305651e-02 -4.42744106e-03 5.90916176e-03 -4.42744106e-03 -1.07856354e-01
5.02763442e-02 4.59113170e-03 -2.19226613e-03 4.59113170e-03 7.29639772e-02 -1.21692506e-02 -2.19226613e-03 -1.21692506e-02 -1.03632267e-01
5.56676686e-02 4.54535219e-03 -5.25725773e-06 4.54535219e-03 8.97252448e-02 5.45492605e-03 -5.25725773e-06 5.45492605e-03 -1.22206852e-01
5.64361028e-02 7.97359727e-03 -1.32112459e-02 7.97359727e-03 8.92117582e-02 -4.96897509e-03 -1.32112459e-02 -4.96897509e-03 -1.23714685e-01
5.94143933e-02 -5.50728431e-03 5.28211734e-04 -5.50728431e-03 7.79080484e-02 -3.61063355e-03 5.28211734e-04 -3.61063355e-03 -1.15593793e-01
5.61187137e-02 -4.18772703e-03 2.16508040e-03 -4.18772703e-03 7.93886920e-02 -7.37084061e-03 2.16508040e-03 -7.37084061e-03 -1.14342395e-01
6.21449370e-02 -1.20512675e-02 3.05185295e-05 -1.20512675e-02 9.49305408e-02 3.83117830e-03 3.05185295e-05 3.83117830e-03 -1.32073067e-01
5.80680165e-02 -9.96181311e-03 -2.01252606e-02 -9.96181311e-03 9.88131985e-02 2.51143379e-03 -2.01252606e-02 2.51143379e-03 -1.33238323e-01
6.59374930e-02 -1.35127122e-02 3.46443173e-03 -1.35127122e-02 8.07998218e-02 -3.38247689e-03 3.46443173e-03 -3.38247689e-03 -1.23546774e-01
6.47820639e-02 -1.45319295e-02 1.96782884e-03 -1.45319295e-02 7.87493503e-02 2.59759519e-03 1.96782884e-03 2.59759519e-03 -1.21557959e-01
6.47638626e-02 -1.42337708e-02 2.87840259e-04 -1.42337708e-02 1.01030253e-01 5.57656749e-03 2.87840259e-04 5.57656749e-03 -1.39104016e-01
6.25217892e-02 -2.38346199e-02 -2.47044931e-02 -2.38346199e-02 1.06848927e-01 1.10576297e-02 -2.47044931e-02 1.10576297e-02 -1.45038553e-01
6.84227105e-02 -1.05169322e-02 5.74692234e-03 -1.05169322e-02 8.78797062e-02 4.79233224e-03 5.74692234e-03 4.79233224e-03 -1.32086990e-01
6.67451317e-02 -1.86667292e-02 8.65010195e-03 -1.86667292e-02 7.84570626e-02 2.62189333e-03 8.65010195e-03 2.62189333e-03 -1.22115573e-01
6.17381819e-02 -3.93933840e-02 -9.07617796e-05 -3.93933840e-02 1.17631175e-01 -3.35012772e-03 -9.07617796e-05 -3.35012772e-03 -1.50567457e-01
5.49613331e-02 -3.45208095e-02 -2.47055534e-02 -3.45208095e-02 1.24641035e-01 2.94512426e-02 -2.47055534e-02 2.94512426e-02 -1.52421996e-01
5.90060484e-02 -9.84399626e-03 -5.89837809e-03 -9.84399626e-03 1.02023542e-01 1.60683226e-03 -5.89837809e-03 1.60683226e-03 -1.35040119e-01
6.56423494e-02 -1.80234746e-02 5.67893963e-04 -1.80234746e-02 9.76193044e-02 1.45244058e-02 5.67893963e-04 1.45244058e-02 -1.38261657e-01
5.21912212e-02 1.07530119e-02 -4.47366072e-03 1.07530119e-02 5.20327380e-02 -3.95572244e-03 -4.47366072e-03 -3.95572244e-03 -8.77010059e-02
5.21662198e-02 2.25539156e-03 -5.73849236e-03 2.25539156e-03 5.14481645e-02 8.84573819e-06 -5.73849236e-03 8.84573819e-06 -8.72210786e-02
4.83037373e-02 7.61446648e-03 4.87265611e-03 7.61446648e-03 5.54685513e-02 -7.88917375e-03 4.87265611e-03 -7.88917375e-03 -8.73237671e-02
4.77182483e-02 3.48131295e-03 8.84081225e-03 3.48131295e-03 5.40047809e-02 -9.13674841e-04 8.84081225e-03 -9.13674841e-04 -8.56354516e-02
5.10049826e-02 1.96410539e-02 -9.21144639e-03 1.96410539e-02 5.41160051e-02 -7.99775030e-03 -9.21144639e-03 -7.99775030e-03 -8.86673499e-02
4.91171726e-02 1.12753185e-02 9.74470074e-03 1.12753185e-02 5.85220270e-02 -3.49423882e-03 9.74470074e-03 -3.49423882e-03 -9.08345897e-02
3.44148044e-02 1.09164428e-02 -8.62635480e-03 1.09164428e-02 3.77318769e-02 -5.59571455e-03 -8.62635480e-03 -5.59571455e-03 -5.75478962e-02
4.37177718e-02 1.66019342e-04 3.76924371e-02 1.66019342e-04 5.58836274e-02 1.90187934e-03 3.76924371e-02 1.90187934e-03 -8.30500860e-02
3.02515162e-02 -1.40805738e-02 -2.44061470e-02 -1.40805738e-02 3.47914950e-02 8.82183765e-04 -2.44061470e-02 8.82183765e-04 -5.06970242e-02
3.68496894e-02 -2.22040930e-02 3.89409886e-02 -2.22040930e-02 5.13738229e-02 9.22584037e-03 3.89409886e-02 9.22584037e-03 -6.99041448e-02
2.48178477e-02 -1.66321821e-02 -2.03442544e-02 -1.66321821e-02 1.70289286e-02 1.02823784e-02 -2.03442544e-02 1.02823784e-02 -2.72571356e-02
3.69409909e-02 -2.57561778e-02 4.63210042e-02 -2.57561778e-02 4.22917822e-02 2.64662296e-02 4.63210042e-02 2.64662296e-02 -6.06945395e-02
2.76508220e-02 -2.32137984e-02 -1.85489119e-02 -2.32137984e-02 1.49351491e-02 1.58348988e-02 -1.85489119e-02 1.58348988e-02 -2.71843551e-02
3.92451951e-02 -3.59012652e-02 4.00653221e-02 -3.59012652e-02 5.44516550e-02 3.37561611e-02 4.00653221e-02 3.37561611e-02 -7.34870353e-02
5.53905247e-02 5.77741780e-03 1.17491852e-03 5.77741780e-03 3.07066832e-02 -5.37209434e-03 1.17491852e-03 -5.37209434e-03 -7.22869784e-02
5.36276214e-02 3.24819901e-03 2.49879749e-03 3.24819901e-03 3.26513555e-02 -5.89534829e-06 2.49879749e-03 -5.89534829e-06 -7.25267604e-02
5.09592695e-02 3.67071573e-03 1.08891824e-02 3.67071573e-03 3.47071709e-02 -3.69268016e-03 1.08891824e-02 -3.69268016e-03 -7.19546555e-02
4.81622582e-02 1.89468858e-03 1.25940508e-02 1.89468858e-03 3.71701969e-02 -1.45396194e-03 1.25940508e-02 -1.45396194e-03 -7.17723500e-02
3.97861237e-02 7.66204332e-03 3.26458743e-04 7.66204332e-03 1.90929878e-02 -1.01040439e-02 3.26458743e-04 -1.01040439e-02 -4.80679148e-02
4.39896608e-02 5.78799414e-03 1.89686473e-02 5.78799414e-03 2.27903869e-02 5.88805770e-03 1.89686473e-02 5.88805770e-03 -5.51767922e-02
6.78688707e-03 6.28049020e-06 -3.95094755e-03 6.28049020e-06 -1.95944411e-03 -4.07901257e-03 -3.95094755e-03 -4.07901257e-03 1.74219953e-03
4.02789435e-03 1.18636173e-03 1.47307307e-03 1.18636173e-03 -6.70297440e-04 2.29652234e-03 1.47307307e-03 2.29652234e-03 4.47247798e-03
-3.03591353e-03 1.04870368e-03 -8.63532660e-03 1.04870368e-03 -5.62208937e-03 -3.78000177e-03 -8.63532660e-03 -3.78000177e-03 1.51695434e-02
-1.33660680e-03 -2.57427528e-02 2.02176788e-02 -2.57427528e-02 7.14224305e-03 6.00400978e-03 2.02176788e-02 6.00400978e-03 1.87598411e-04
-5.34990570e-03 8.17176211e-03 -4.75086203e-03 8.17176211e-03 -2.38532926e-03 -2.72423628e-03 -4.75086203e-03 -2.72423628e-03 1.40581532e-02
-3.22640051e-03 -5.95960797e-03 3.37741586e-03 -5.95960797e-03 2.45450235e-03 -3.00287719e-03 3.37741586e-03 -3.00287719e-03 7.04459206e-03
2.19804584e-03 9.12415050e-03 -9.28595453e-03 9.12415050e-03 -1.54881813e-02 2.22315872e-03 -9.28595453e-03 2.22315872e-03 1.86996660e-02
5.58817084e-03 -6.47818856e-03 2.90018693e-02 -6.47818856e-03 -1.86093710e-03 -5.52401424e-03 2.90018693e-02 -5.52401424e-03 7.30710570e-04
5.46149891e-02 -4.19995835e-03 2.59193411e-03 -4.19995835e-03 2.07878090e-02 -7.00218568e-03 2.59193411e-03 -7.00218568e-03 -6.30628299e-02
5.49277365e-02 -4.55907639e-03 3.47913580e-03 -4.55907639e-03 2.53309011e-02 1.08635395e-05 3.47913580e-03 1.08635395e-05 -6.72727861e-02
4.91266856e-02 -7.09979964e-03 1.41474122e-02 -7.09979964e-03 2.35664863e-02 -2.36288761e-04 1.41474122e-02 -2.36288761e-04 -6.10312354e-02
4.99935402e-02 -5.45620453e-03 3.95979651e-03 -5.45620453e-03 2.69883345e-02 1.98622351e-03 3.95979651e-03 1.98622351e-03 -6.46306574e-02
4.28413330e-02 -7.80405686e-03 -4.13227151e-03 -7.80405686e-03 1.13581500e-02 -1.17985986e-02 -4.13227151e-03 -1.17985986e-02 -4.57436303e-02
3.77415265e-02 -1.13436041e-02 3.83940154e-03 -1.13436041e-02 1.18249918e-02 1.26640309e-02 3.83940154e-03 1.26640309e-02 -4.08040122e-02
3.22951566e-03 -2.88470983e-03 -1.11799306e-03 -2.88470983e-03 1.05921621e-03 -7.70572503e-03 -1.11799306e-03 -7.70572503e-03 -1.22657232e-03
1.15773606e-02 -4.42770726e-03 -2.54158249e-03 -4.42770726e-03 -6.08862979e-04 5.23134326e-03 -2.54158249e-03 5.23134326e-03 -6.73367013e-03
-1.29439128e-03 -1.72232017e-03 -4.34662603e-05 -1.72232017e-03 5.23386705e-04 -2.82709750e-04 -4.34662603e-05 -2.82709750e-04 8.24603140e-04
1.23230843e-03 1.98423366e-03 -1.98128179e-03 1.98423366e-03 1.37806306e-03 4.95454912e-03 -1.98128179e-03 4.95454912e-03 -2.03355100e-03
6.19108230e-03 -1.56047828e-02 6.03397842e-04 -1.56047828e-02 -9.63252783e-03 1.29330147e-07 6.03397842e-04 1.29330147e-07 5.63609833e-03
-8.59755235e-04 -1.00034949e-02 -1.43882253e-03 -1.00034949e-02 1.70847791e-03 1.14003398e-04 -1.43882253e-03 1.14003398e-04 -3.14960614e-04
5.50689083e-03 -1.91192273e-02 -2.61351676e-03 -1.91192273e-02 -8.82790331e-03 -2.05195793e-05 -2.61351676e-03 -2.05195793e-05 5.13259554e-03
-2.72464866e-03 -1.04250888e-02 -4.77396057e-03 -1.04250888e-02 6.73021443e-03 -5.69058141e-05 -4.77396057e-03 -5.69058141e-05 -3.00395834e-03
5.26902117e-02 -1.12839120e-02 7.43481924e-03 -1.12839120e-02 2.68079196e-02 -3.09174275e-03 7.43481924e-03 -3.09174275e-03 -6.66406304e-02
5.65179903e-02 -1.00638238e-02 1.68455200e-03 -1.00638238e-02 2.93201562e-02 7.38872586e-06 1.68455200e-03 7.38872586e-06 -7.20294155e-02
4.70270929e-02 -9.98259518e-03 1.04052256e-03 -9.98259518e-03 2.83359319e-02 5.64345690e-03 1.04052256e-03 5.64345690e-03 -6.32740194e-02
5.18342545e-02 -4.28807072e-03 -2.54013151e-03 -4.28807072e-03 2.94826524e-02 7.91797647e-03 -2.54013151e-03 7.91797647e-03 -6.82632737e-02
4.16651745e-02 -1.36220324e-02 4.02592978e-03 -1.36220324e-02 1.90704127e-02 -1.60651118e-02 4.02592978e-03 -1.60651118e-02 -5.15655149e-02
3.03874353e-02 -1.63049095e-02 -2.63880313e-03 -1.63049095e-02 2.15202960e-02 6.68416209e-03 -2.63880313e-03 6.68416209e-03 -4.14259366e-02
3.36055947e-03 9.96211311e-05 2.24939417e-03 9.96211311e-05 1.84480683e-03 -5.31834899e-03 2.24939417e-03 -5.31834899e-03 -1.14643056e-03
2.38073734e-02 -9.20817652e-03 -3.60944368e-03 -9.20817652e-03 1.54936833e-02 2.53664683e-02 -3.60944368e-03 2.53664683e-02 -3.27950797e-02
7.53640970e-04 1.78587869e-03 -5.46708598e-05 1.78587869e-03 -5.67826549e-04 -4.22224932e-04 -5.46708598e-05 -4.22224932e-04 7.88313366e-05
3.53421558e-03 -2.63634642e-04 1.97524396e-04 -2.63634642e-04 -1.31837414e-03 6.14323869e-03 1.97524396e-04 6.14323869e-03 -1.69705295e-03
4.24800702e-05 -2.49469411e-05 -3.71823770e-06 -2.49469411e-05 -2.76462003e-05 1.16425303e-05 -3.71823770e-06 1.16425303e-05 -2.47552348e-05
6.74294688e-07 -5.07734990e-06 -5.25570127e-06 -5.07734990e-06 -3.93944524e-06 1.92492605e-05 -5.25570127e-06 1.92492605e-05 1.69159555e-06
0.00000000e+00 0.00000000e+00 0.00000000e+00 0.00000000e+00 0.00000000e+00 0.00000000e+00 0.00000000e+00 0.00000000e+00 0.00000000e+00
0.00000000e+00 0.00000000e+00 0.00000000e+00 0.00000000e+00 0.00000000e+00 0.00000000e+00 0.00000000e+00 0.00000000e+00 0.00000000e+00
5.80873452e-02 -1.00441477e-02 1.23318075e-03 -1.00441477e-02 3.58885676e-02 -6.10994385e-03 1.23318075e-03 -6.10994385e-03 -7.89358057e-02
6.54341206e-02 -4.59257280e-03 6.83000591e-03 -4.59257280e-03 3.33758704e-02 2.43413524e-05 6.83000591e-03 2.43413524e-05 -8.29127058e-02
5.35402829e-02 -7.23570993e-03 -1.39308325e-03 -7.23570993e-03 3.52978613e-02 -5.00837441e-03 -1.39308325e-03 -5.00837441e-03 -7.46716317e-02
5.84270433e-02 -1.00578368e-02 -3.14953490e-03 -1.00578368e-02 3.77510414e-02 6.90187491e-03 -3.14953490e-03 6.90187491e-03 -8.08551423e-02
4.57964391e-02 -1.99873578e-02 1.93547206e-02 -1.99873578e-02 3.30499047e-02 -2.05023400e-02 1.93547206e-02 -2.05023400e-02 -6.63000904e-02
4.21356075e-02 -1.74511261e-02 7.60851160e-03 -1.74511261e-02 4.64297440e-02 4.77972929e-03 7.60851160e-03 4.77972929e-03 -7.53775798e-02
8.93553160e-03 -6.69945184e-03 1.45930452e-02 -6.69945184e-03 1.42298085e-02 -6.64149830e-03 1.45930452e-02 -6.64149830e-03 -1.79461921e-02
3.14958255e-02 -2.08811996e-02 8.63525295e-03 -2.08811996e-02 3.29898174e-02 3.69197857e-02 8.63525295e-03 3.69197857e-02 -5.40925960e-02
-1.20653372e-03 -3.18091855e-03 1.66392642e-04 -3.18091855e-03 9.21618746e-04 -2.31423663e-04 1.66392642e-04 -2.31423663e-04 1.21633275e-04
1.20419802e-03 -1.16910155e-02 1.45671103e-04 -1.16910155e-02 1.89252525e-04 1.49913689e-02 1.45671103e-04 1.49913689e-02 3.50503149e-04
-1.33034424e-04 -1.23776437e-04 2.27138553e-05 -1.23776437e-04 6.16407051e-05 2.48382457e-05 2.27138553e-05 2.48382457e-05 9.66980806e-05
2.46607960e-05 -2.88663650e-05 -6.92389585e-06 -2.88663650e-05 -1.27996621e-05 -4.90039323e-06 -6.92389585e-06 -4.90039323e-06 -1.52605717e-05
0.00000000e+00 0.00000000e+00 0.00000000e+00 0.00000000e+00 0.00000000e+00 0.00000000e+00 0.00000000e+00 0.00000000e+00 0.00000000e+00
0.00000000e+00 0.00000000e+00 0.00000000e+00 0.00000000e+00 0.00000000e+00 0.00000000e+00 0.00000000e+00 0.00000000e+00 0.00000000e+00
4.58943527e-02 4.11753081e-06 1.27609231e-03 4.11753081e-06 6.48799241e-02 -8.06260435e-03 1.27609231e-03 -8.06260435e-03 -9.31935720e-02
4.91923979e-02 -5.46833035e-04 8.35927064e-03 -5.46833035e-04 6.24328805e-02 -5.51968219e-03 8.35927064e-03 -5.51968219e-03 -9.39527228e-02
4.59322659e-02 -6.59877376e-03 4.91279483e-03 -6.59877376e-03 6.29996764e-02 -2.53497536e-03 4.91279483e-03 -2.53497536e-03 -9.16116284e-02
4.37952019e-02 -7.47560916e-04 3.14422417e-03 -7.47560916e-04 6.45976886e-02 -9.60222373e-04 3.14422417e-03 -9.60222373e-04 -9.11344606e-02
5.62875411e-02 -9.80439433e-03 5.17359516e-03 -9.80439433e-03 5.80894668e-02 -7.42829958e-04 5.17359516e-03 -7.42829958e-04 -9.63404551e-02
5.41009032e-02 -9.65674475e-03 1.02687438e-03 -9.65674475e-03 6.06546681e-02 -1.25162441e-02 1.02687438e-03 -1.25162441e-02 -9.64898905e-02
6.36470271e-02 3.70914859e-06 -1.09569789e-03 3.70914859e-06 5.75259672e-02 -7.26623356e-03 -1.09569789e-03 -7.26623356e-03 -1.02043435e-01
5.70388592e-02 -6.49956313e-03 6.61093974e-04 -6.49956313e-03 5.56849083e-02 -9.78690892e-04 6.61093974e-04 -9.78690892e-04 -9.29810386e-02
7.05601946e-02 -5.35473367e-03 1.32015003e-02 -5.35473367e-03 5.61451800e-02 -6.83517399e-03 1.32015003e-02 -6.83517399e-03 -1.06632264e-01
6.68309806e-02 -6.99899555e-03 3.08835486e-03 -6.99899555e-03 6.99829697e-02 9.34934759e-03 3.08835486e-03 9.34934759e-03 -1.15673622e-01
6.76942896e-02 -7.05253589e-03 1.49383084e-02 -7.05253589e-03 6.12068800e-02 2.91420394e-03 1.49383084e-02 2.91420394e-03 -1.08460536e-01
6.98279981e-02 -3.32232528e-03 1.33941560e-02 -3.32232528e-03 6.79714796e-02 5.79228968e-03 1.33941560e-02 5.79228968e-03 -1.15966235e-01
6.13533985e-02 1.17718950e-02 8.79035424e-03 1.17718950e-02 6.95400238e-02 8.76256253e-03 8.79035424e-03 8.76256253e-03 -1.10154480e-01
6.90676123e-02 1.58533244e-03 -1.57750724e-03 1.58533244e-03 6.95923325e-02 6.67188701e-03 -1.57750724e-03 6.67188701e-03 -1.16623197e-01
4.49710847e-02 -8.58836935e-03 1.02348547e-02 -8.58836935e-03 6.02218597e-02 -1.08457712e-02 1.02348547e-02 -1.08457712e-02 -8.88129324e-02
4.00226349e-02 -6.27715385e-03 2.07542060e-02 -6.27715385e-03 6.05487674e-02 -5.49494196e-03 2.07542060e-02 -5.49494196e-03 -8.43966305e-02
5.02296420e-02 -5.62892641e-03 1.91511637e-02 -5.62892641e-03 6.28231194e-02 -4.97871970e-03 1.91511637e-02 -4.97871970e-03 -9.50022510e-02
6.88794680e-02 -1.75511311e-02 5.32424798e-02 -1.75511311e-02 7.03246638e-02 -3.56929684e-03 5.32424798e-02 -3.56929684e-03 -1.16460423e-01
7.01594632e-02 -1.79400179e-03 1.46210878e-02 -1.79400179e-03 8.38573277e-02 1.74922055e-02 1.46210878e-02 1.74922055e-02 -1.29329432e-01
6.93207327e-02 -3.17238443e-03 2.91349669e-02 -3.17238443e-03 8.63116905e-02 3.57557492e-02 2.91349669e-02 3.57557492e-02 -1.30625116e-01
6.68083876e-02 -1.36318416e-02 1.51706003e-02 -1.36318416e-02 9.10030082e-02 3.14086692e-02 1.51706003e-02 3.14086692e-02 -1.32455558e-01
3.41525686e-02 -1.66342650e-03 2.80130836e-02 -1.66342650e-03 4.69602761e-02 -1.94422020e-03 2.80130836e-02 -1.94422020e-03 -6.71176568e-02
3.70542845e-02 -2.86335353e-03 2.03499673e-02 -2.86335353e-03 4.78804428e-02 -5.33326867e-03 2.03499673e-02 -5.33326867e-03 -7.13365860e-02
3.71499903e-02 -1.13599338e-02 4.05961790e-02 -1.13599338e-02 5.70731272e-02 4.72165532e-02 4.05961790e-02 4.72165532e-02 -7.86030808e-02
-1.63015081e-02 -4.60429834e-02 3.64368185e-02 -4.60429834e-02 7.23423634e-03 5.77086676e-02 3.64368185e-02 5.77086676e-02 1.77864861e-02
3.36335415e-02 7.12448964e-05 1.36768500e-02 7.12448964e-05 2.71015293e-02 1.01584775e-02 1.36768500e-02 1.01584775e-02 -4.88633087e-02
3.69770220e-02 5.79925184e-03 1.34947517e-02 5.79925184e-03 3.60053517e-02 1.01041156e-02 1.34947517e-02 1.01041156e-02 -6.13816138e-02
3.10697205e-02 -2.29587370e-02 2.36407017e-02 -2.29587370e-02 2.10896898e-02 1.96582622e-02 2.36407017e-02 1.96582622e-02 -4.18223840e-02
1.09241096e-02 -8.13030576e-03 -3.65805992e-02 -8.13030576e-03 1.60958649e-02 2.09384287e-04 -3.65805992e-02 2.09384287e-04 -1.77953020e-02
3.99711712e-02 -8.42585354e-03 2.78993591e-03 -8.42585354e-03 3.42493793e-02 7.87654784e-03 2.78993591e-03 7.87654784e-03 -6.22623991e-02
4.37394232e-02 -7.55480898e-03 -4.51549422e-04 -7.55480898e-03 3.29545476e-02 7.86391506e-03 -4.51549422e-04 7.86391506e-03 -6.45029005e-02
3.41991519e-02 -1.60087393e-02 6.09831302e-04 -1.60087393e-02 3.68524472e-02 1.72479386e-02 6.09831302e-04 1.72479386e-02 -5.74132977e-02
5.65877818e-02 1.96496607e-04 -2.28214029e-02 1.96496607e-04 6.17575832e-02 3.07504251e-02 -2.28214029e-02 3.07504251e-02 -1.02227768e-01
4.14027981e-02 -1.76139564e-03 -3.15834256e-03 -1.76139564e-03 4.68484825e-02 -3.22136446e-04 -3.15834256e-03 -3.22136446e-04 -7.43525922e-02
4.60009854e-02 1.02064115e-03 -4.25837375e-03 1.02064115e-03 4.15699705e-02 6.23344257e-03 -4.25837375e-03 6.23344257e-03 -7.37167820e-02
3.67228799e-02 6.68146342e-04 1.75846496e-03 6.68146342e-04 5.06155933e-02 -5.73737611e-03 1.75846496e-03 -5.73737611e-03 -7.07772784e-02
7.33466893e-02 -2.12877127e-03 -2.15778491e-02 -2.12877127e-03 7.96357282e-02 2.39125388e-02 -2.15778491e-02 2.39125388e-02 -1.30351383e-01
0.00000000e+00 0.00000000e+00 0.00000000e+00 0.00000000e+00 0.00000000e+00 0.00000000e+00 0.00000000e+00 0.00000000e+00 0.00000000e+00
0.00000000e+00 0.00000000e+00 0.00000000e+00 0.00000000e+00 0.00000000e+00 0.00000000e+00 0.00000000e+00 0.00000000e+00 0.00000000e+00
0.00000000e+00 0.00000000e+00 0.00000000e+00 0.00000000e+00 0.00000000e+00 0.00000000e+00 0.00000000e+00 0.00000000e+00 0.00000000e+00
0.00000000e+00 0.00000000e+00 0.00000000e+00 0.00000000e+00 0.00000000e+00 0.00000000e+00 0.00000000e+00 0.00000000e+00 0.00000000e+00
5.46794515e-02 8.86411772e-06 1.00638149e-02 8.86411772e-06 5.74871954e-02 -2.18949153e-03 1.00638149e-02 -2.18949153e-03 -9.44554955e-02
5.61637646e-02 3.02496215e-03 6.43825438e-03 3.02496215e-03 5.55226980e-02 3.10874134e-03 6.43825438e-03 3.10874134e-03 -9.40389317e-02
5.43641816e-02 -9.06524376e-03 1.19676269e-02 -9.06524376e-03 5.65672568e-02 4.24354953e-03 1.19676269e-02 4.24354953e-03 -9.33373123e-02
5.27594658e-02 2.12582387e-03 1.05155360e-02 2.12582387e-03 5.87509563e-02 -5.75030933e-03 1.05155360e-02 -5.75030933e-03 -9.38763209e-02
6.03241958e-02 -1.17668130e-02 9.95135913e-03 -1.17668130e-02 4.97513041e-02 4.72766391e-04 9.95135913e-03 4.72766391e-04 -9.26314630e-02
5.89801711e-02 -1.18629503e-02 1.27361083e-02 -1.18629503e-02 5.51011083e-02 5.70221987e-03 1.27361083e-02 5.70221987e-03 -9.59245432e-02
6.42480757e-02 1.10459788e-03 4.29019262e-03 1.10459788e-03 4.71044583e-02 6.37828214e-03 4.29019262e-03 6.37828214e-03 -9.36816521e-02
5.94563643e-02 -5.43370412e-03 -4.65101027e-03 -5.43370412e-03 4.83645992e-02 -4.65743738e-03 -4.65101027e-03 -4.65743738e-03 -8.89827136e-02
6.73691407e-02 2.81849928e-03 -5.43894467e-03 2.81849928e-03 4.46526920e-02 9.58942110e-07 -5.43894467e-03 9.58942110e-07 -9.42048654e-02
6.74482835e-02 8.61874956e-04 -9.44090053e-03 8.61874956e-04 6.25883681e-02 8.35506071e-05 -9.44090053e-03 8.35506071e-05 -1.10131045e-01
6.52163466e-02 3.40355764e-04 2.51911668e-03 3.40355764e-04 4.60722307e-02 -2.93833191e-03 2.51911668e-03 -2.93833191e-03 -9.36355554e-02
6.55169631e-02 -9.86267187e-04 4.60115261e-04 -9.86267187e-04 5.93275041e-02 3.51692738e-03 4.60115261e-04 3.51692738e-03 -1.05050661e-01
6.29238915e-02 -5.93827979e-04 1.69938902e-03 -5.93827979e-04 4.72063310e-02 -2.38413643e-03 1.69938902e-03 -2.38413643e-03 -9.26305130e-02
6.10962315e-02 -5.71414009e-03 -3.25009396e-03 -5.71414009e-03 6.05511582e-02 -2.10901759e-03 -3.25009396e-03 -2.10901759e-03 -1.02386463e-01
5.00134672e-02 -1.56474996e-02 3.16045888e-02 -1.56474996e-02 6.13288134e-02 2.05188294e-03 3.16045888e-02 2.05188294e-03 -9.30717392e-02
4.25807284e-02 -1.40800371e-02 2.36091525e-02 -1.40800371e-02 6.59593428e-02 -3.58901720e-03 2.36091525e-02 -3.58901720e-03 -9.10980720e-02
6.38665796e-02 -4.41231033e-04 2.41095055e-02 -4.41231033e-04 5.88549924e-02 -3.58699788e-03 2.41095055e-02 -3.58699788e-03 -1.04044825e-01
7.59230174e-02 -1.73066269e-02 -6.60652285e-02 -1.73066269e-02 6.94049612e-02 -1.00539820e-03 -6.60652285e-02 -1.00539820e-03 -1.20819521e-01
7.13494830e-02 -2.49533844e-03 -1.91859633e-02 -2.49533844e-03 8.17613769e-02 1.24084676e-02 -1.91859633e-02 1.24084676e-02 -1.28491014e-01
7.12548252e-02 -5.60453912e-03 -1.56653626e-03 -5.60453912e-03 8.02090280e-02 1.17570361e-02 -1.56653626e-03 1.17570361e-02 -1.27554405e-01
6.36343323e-02 -5.11701684e-03 -4.38733236e-03 -5.11701684e-03 8.38160627e-02 3.72060202e-03 -4.38733236e-03 3.72060202e-03 -1.24078292e-01
4.57324867e-02 -9.70559054e-03 4.62280592e-02 -9.70559054e-03 6.30336617e-02 3.12751611e-03 4.62280592e-02 3.12751611e-03 -9.15225436e-02
3.81132839e-02 3.16378911e-03 3.41410530e-02 3.16378911e-03 5.93659459e-02 3.80815822e-03 3.41410530e-02 3.80815822e-03 -8.13854225e-02
5.37839939e-02 -2.97478498e-02 6.01527989e-02 -2.97478498e-02 7.37199737e-02 -6.80432043e-02 6.01527989e-02 -6.80432043e-02 -1.03632493e-01
3.37360525e-02 -3.55571146e-03 1.21488417e-02 -3.55571146e-03 4.28264084e-02 2.66378325e-02 1.21488417e-02 2.66378325e-02 -6.25593693e-02
4.01696186e-02 -8.70481366e-03 3.09896488e-02 -8.70481366e-03 5.25613055e-02 1.00319919e-02 3.09896488e-02 1.00319919e-02 -7.84730148e-02
3.95348021e-02 8.12557695e-03 1.85512369e-02 8.12557695e-03 5.60846739e-02 8.80034659e-02 1.85512369e-02 8.80034659e-02 -7.77269946e-02
2.18985851e-02 4.63210628e-04 1.49305917e-02 4.63210628e-04 2.78693005e-02 6.71258720e-04 1.49305917e-02 6.71258720e-04 -3.49357398e-02
4.20699455e-02 7.04368064e-03 -3.72744282e-03 7.04368064e-03 5.27535789e-02 5.92731172e-03 -3.72744282e-03 5.92731172e-03 -8.06635655e-02
2.66539530e-02 -9.35605930e-03 -6.86660196e-03 -9.35605930e-03 4.07493796e-02 2.45417218e-02 -6.86660196e-03 2.45417218e-02 -5.06348466e-02
-1.44569706e-02 8.87594298e-02 -8.88174549e-02 8.87594298e-02 -2.97636352e-02 1.71624452e-01 -8.88174549e-02 1.71624452e-01 5.54987378e-02
8.36405009e-02 3.08931290e-02 -1.14035269e-01 3.08931290e-02 8.21280020e-02 -2.74197905e-02 -1.14035269e-01 -2.74197905e-02 -1.42177443e-01
5.50654009e-02 1.90948698e-02 4.17367514e-03 1.90948698e-02 6.74266499e-02 2.19438024e-02 4.17367514e-03 2.19438024e-02 -1.06567886e-01
3.95201277e-02 -4.70018084e-03 6.94543379e-03 -4.70018084e-03 5.43137845e-02 1.18475547e-02 6.94543379e-03 1.18475547e-02 -7.84053169e-02
</DataArray>
<DataArray type="Float32" Name="Spatial_displacement" NumberOfComponents="3" format="ascii">
0.00000000e+00 0.00000000e+00 0.00000000e+00
4.62941900e-02 0.00000000e+00 0.00000000e+00
4.93681356e-02 8.25951993e-02 0.00000000e+00
0.00000000e+00 7.96711817e-02 0.00000000e+00
0.00000000e+00 0.00000000e+00 -9.75874066e-02
4.54277769e-02 0.00000000e+00 -1.01273596e-01
4.64266911e-02 7.70945624e-02 -9.66075957e-02
0.00000000e+00 7.59661049e-02 -9.48449373e-02
9.69321206e-02 0.00000000e+00 0.00000000e+00
9.81948078e-02 8.85699764e-02 0.00000000e+00
9.44759846e-02 0.00000000e+00 -1.07726797e-01
9.69063267e-02 8.04786012e-02 -1.02390781e-01
1.48698255e-01 0.00000000e+00 0.00000000e+00
1.53564990e-01 9.70348120e-02 0.00000000e+00
1.54521838e-01 0.00000000e+00 -1.13464445e-01
1.48637563e-01 8.33902210e-02 -1.13036036e-01
2.17343524e-01 0.00000000e+00 0.00000000e+00
2.04409257e-01 1.03161231e-01 0.00000000e+00
2.21462145e-01 0.00000000e+00 -1.21998578e-01
2.06956044e-01 8.37406740e-02 -1.18926466e-01
2.83502609e-01 0.00000000e+00 0.00000000e+00
2.68326193e-01 1.10350475e-01 0.00000000e+00
2.89766878e-01 0.00000000e+00 -1.30259410e-01
2.78361291e-01 8.67577866e-02 -1.24917358e-01
3.57685030e-01 0.00000000e+00 0.00000000e+00
3.15026879e-01 1.36786804e-01 0.00000000e+00
3.54233056e-01 0.00000000e+00 -1.31359145e-01
3.43729049e-01 1.11783266e-01 -1.36952132e-01
5.36539406e-02 1.48006752e-01 0.00000000e+00
0.00000000e+00 1.45622522e-01 0.00000000e+00
4.94323820e-02 1.43230289e-01 -8.49578381e-02
0.00000000e+00 1.39537305e-01 -8.41414928e-02
1.06643856e-01 1.60448134e-01 0.00000000e+00
9.79253501e-02 1.50355205e-01 -8.63149315e-02
1.49865732e-01 1.71308190e-01 0.00000000e+00
1.43043518e-01 1.58687621e-01 -7.77272880e-02
1.85912386e-01 1.93335012e-01 0.00000000e+00
1.88812748e-01 1.57547697e-01 -8.07109177e-02
2.09742174e-01 1.93994135e-01 0.00000000e+00
2.26335868e-01 1.62628189e-01 -7.59454817e-02
2.43993625e-01 2.32556641e-01 0.00000000e+00
2.71515250e-01 1.98261857e-01 -7.55930543e-02
5.72601259e-02 1.88866362e-01 0.00000000e+00
0.00000000e+00 1.85487360e-01 0.00000000e+00
5.15273809e-02 1.90070286e-01 -6.99985474e-02
0.00000000e+00 1.88093796e-01 -6.86364770e-02
1.15191258e-01 1.91422671e-01 0.00000000e+00
1.05054691e-01 1.92622662e-01 -5.56894243e-02
1.47242352e-01 2.00330198e-01 0.00000000e+00
1.40427440e-01 1.97535768e-01 -1.61766410e-02
1.54082805e-01 2.07312047e-01 0.00000000e+00
1.45224303e-01 1.95643276e-01 6.50891662e-03
1.70359790e-01 1.99500412e-01 0.00000000e+00
1.72490105e-01 1.77326009e-01 1.57201886e-02
1.72883868e-01 2.40577489e-01 0.00000000e+00
1.79997250e-01 2.37383991e-01 4.93901968e-03
5.98513708e-02 2.11288646e-01 0.00000000e+00
0.00000000e+00 2.16019496e-01 0.00000000e+00
5.23666441e-02 2.13961840e-01 -6.09934628e-02
0.00000000e+00 2.19614089e-01 -6.28399849e-02
1.14626601e-01 2.06954092e-01 0.00000000e+00
1.02480993e-01 2.02812850e-01 -4.29805964e-02
1.42259672e-01 2.00156569e-01 0.00000000e+00
1.33435160e-01 1.98822230e-01 -8.13764334e-03
1.38840705e-01 2.06053883e-01 0.00000000e+00
1.38459057e-01 2.06048891e-01 -3.93390656e-05
1.38755530e-01 2.09215403e-01 0.00000000e+00
1.38812661e-01 2.07456008e-01 0.00000000e+00
1.38878405e-01 2.09246695e-01 -2.73525715e-04
1.38876528e-01 2.07393080e-01 1.75535679e-05
5.76746911e-02 2.32527971e-01 0.00000000e+00
0.00000000e+00 2.42959112e-01 0.00000000e+00
5.43402880e-02 2.40262240e-01 -6.32755160e-02
0.00000000e+00 2.44724751e-01 -7.07299709e-02
1.12607494e-01 2.14399576e-01 0.00000000e+00
9.61392075e-02 2.18072683e-01 -4.96974885e-02
1.33566692e-01 2.01403677e-01 0.00000000e+00
1.26701891e-01 2.05811024e-01 -1.24880970e-02
1.37402743e-01 2.06145242e-01 0.00000000e+00
1.37164563e-01 2.06159875e-01 2.43902206e-04
1.37249246e-01 2.07561642e-01 0.00000000e+00
1.37344122e-01 2.07541078e-01 2.86698341e-05
1.37368366e-01 2.08974481e-01 0.00000000e+00
1.37385443e-01 2.08909497e-01 7.95722008e-06
6.51535764e-02 2.69323736e-01 0.00000000e+00
0.00000000e+00 2.74109155e-01 0.00000000e+00
5.85847422e-02 2.70743906e-01 -7.67684579e-02
0.00000000e+00 2.81258821e-01 -8.31876695e-02
1.21104836e-01 2.38376647e-01 0.00000000e+00
9.95283425e-02 2.58175135e-01 -7.09370226e-02
1.39811054e-01 2.12954313e-01 0.00000000e+00
1.32297263e-01 2.30183691e-01 -3.22914422e-02
1.37013614e-01 2.06780821e-01 0.00000000e+00
1.36344284e-01 2.06807077e-01 5.37067652e-04
1.36005655e-01 2.07414255e-01 0.00000000e+00
1.36116803e-01 2.07500309e-01 -3.34382057e-05
1.35970190e-01 2.08932579e-01 0.00000000e+00
1.35997027e-01 2.08904058e-01 -4.88758087e-06
0.00000000e+00 0.00000000e+00 -1.87274531e-01
4.56976220e-02 0.00000000e+00 -1.94643408e-01
4.51040566e-02 6.49964884e-02 -1.86990231e-01
0.00000000e+00 6.57909811e-02 -1.86125964e-01
1.01879857e-01 0.00000000e+00 -2.04047292e-01
9.14939940e-02 5.81768528e-02 -1.99317545e-01
1.58012092e-01 0.00000000e+00 -2.16055915e-01
1.58014491e-01 5.77935278e-02 -2.17066586e-01
2.30467066e-01 0.00000000e+00 -2.34930813e-01
2.24656254e-01 5.82067594e-02 -2.23023146e-01
3.05070460e-01 0.00000000e+00 -2.47802436e-01
2.97526121e-01 6.02562949e-02 -2.34436139e-01
3.64599437e-01 0.00000000e+00 -2.53094494e-01
3.77105236e-01 6.83747306e-02 -2.45228499e-01
3.94249633e-02 1.27546579e-01 -1.69697866e-01
0.00000000e+00 1.34278432e-01 -1.64598688e-01
8.86277854e-02 1.26606703e-01 -1.76370665e-01
1.42424956e-01 1.30947530e-01 -1.81001157e-01
2.14212567e-01 1.46358013e-01 -1.99542165e-01
2.88408667e-01 1.48700267e-01 -1.93269745e-01
3.52948874e-01 1.60113126e-01 -2.05575556e-01
3.47217470e-02 1.84978306e-01 -1.40787318e-01
0.00000000e+00 1.88046470e-01 -1.35788992e-01
7.53096193e-02 1.86679482e-01 -1.26755446e-01
6.70399964e-02 1.59699947e-01 1.10379755e-02
3.71162072e-02 2.32624292e-01 -1.14947647e-01
0.00000000e+00 2.26507708e-01 -1.24502391e-01
8.20350125e-02 2.12132409e-01 -8.45071673e-02
1.05265848e-01 1.78879842e-01 -3.71893197e-02
4.61018160e-02 2.52331316e-01 -1.24038368e-01
0.00000000e+00 2.60202676e-01 -1.31450623e-01
7.67050758e-02 2.39567757e-01 -1.01449281e-01
1.29846960e-01 2.21521646e-01 -7.82815665e-02
4.07186523e-02 2.96789378e-01 -1.55384630e-01
0.00000000e+00 2.95769870e-01 -1.61217794e-01
7.84369633e-02 3.03261727e-01 -1.46505162e-01
1.40925512e-01 2.89595246e-01 -1.43119767e-01
1.37381092e-01 2.07586244e-01 3.39150429e-05
1.37381867e-01 2.08927214e-01 3.19778919e-05
1.36039048e-01 2.08935425e-01 -1.73151493e-05
1.36011586e-01 2.07600549e-01 -3.44514847e-05
0.00000000e+00 0.00000000e+00 -2.79057920e-01
5.31167686e-02 0.00000000e+00 -2.81043112e-01
5.63522950e-02 5.83698750e-02 -2.75164515e-01
0.00000000e+00 5.61270937e-02 -2.69912422e-01
1.17952451e-01 0.00000000e+00 -2.95432568e-01
1.05428420e-01 5.02336696e-02 -2.86355466e-01
1.75484344e-01 0.00000000e+00 -3.11249048e-01
1.76673457e-01 4.55523580e-02 -3.07330549e-01
2.44751602e-01 0.00000000e+00 -3.24868858e-01
2.47769162e-01 4.72621843e-02 -3.29838365e-01
3.17930281e-01 0.00000000e+00 -3.41542423e-01
3.18279147e-01 5.01595959e-02 -3.39245468e-01
3.85692269e-01 0.00000000e+00 -3.46776307e-01
3.85089338e-01 5.11583015e-02 -3.45236480e-01
4.00160998e-02 1.10464588e-01 -2.53746361e-01
0.00000000e+00 1.25539824e-01 -2.50295073e-01
1.05480433e-01 1.12688079e-01 -2.75527358e-01
1.65964589e-01 1.19240850e-01 -3.18816870e-01
2.42661268e-01 1.31657958e-01 -3.30057532e-01
3.12079340e-01 1.24250770e-01 -3.27550560e-01
3.71680439e-01 1.32492453e-01 -3.33112001e-01
3.59899849e-02 1.88952446e-01 -2.08868593e-01
0.00000000e+00 1.85649663e-01 -2.12773144e-01
9.48394164e-02 1.66002229e-01 -2.40273491e-01
3.65451723e-02 2.34153748e-01 -1.75653636e-01
0.00000000e+00 2.42804527e-01 -1.83461547e-01
8.52036998e-02 2.34718561e-01 -1.40237421e-01
3.74487042e-02 2.90882945e-01 -1.90113500e-01
0.00000000e+00 2.84383386e-01 -1.94528699e-01
8.20418075e-02 2.86136448e-01 -1.79059133e-01
9.97146666e-02 2.90847003e-01 2.20123827e-02
1.24244630e-01 2.77218640e-01 -2.01979339e-01
4.09645289e-02 3.34769785e-01 -2.27708593e-01
0.00000000e+00 3.39243561e-01 -2.39273578e-01
</DataArray>
<DataArray type="Float32" Name="Spatial_acceleration" NumberOfComponents="3" format="ascii">
0.00000000e+00 0.00000000e+00 0.00000000e+00
-2.51452121e-07 0.00000000e+00 0.00000000e+00
-2.75095289e-07 -3.67224203e-07 0.00000000e+00
0.00000000e+00 -3.47991772e-07 0.00000000e+00
0.00000000e+00 0.00000000e+00 4.46319575e-07
-2.59459028e-07 0.00000000e+00 4.46319575e-07
-2.59846445e-07 -3.49192419e-07 4.35511254e-07
0.00000000e+00 -3.50018325e-07 4.38054400e-07
-5.05248693e-07 0.00000000e+00 0.00000000e+00
-5.34812614e-07 -3.84767844e-07 0.00000000e+00
-5.11308485e-07 0.00000000e+00 4.35511254e-07
-5.13712564e-07 -3.44336030e-07 4.24385064e-07
-7.76688239e-07 0.00000000e+00 0.00000000e+00
-8.07682682e-07 -3.98238484e-07 0.00000000e+00
-8.04950787e-07 0.00000000e+00 4.45683781e-07
-7.66793903e-07 -3.50157421e-07 4.62214160e-07
-1.11796214e-06 0.00000000e+00 0.00000000e+00
-1.05516119e-06 -4.03523444e-07 0.00000000e+00
-1.11858049e-06 0.00000000e+00 4.52677398e-07
-1.04061758e-06 -3.30686561e-07 4.68571983e-07
-1.38445694e-06 0.00000000e+00 0.00000000e+00
-1.34317077e-06 -4.09642837e-07 0.00000000e+00
-1.40539805e-06 0.00000000e+00 4.64757278e-07
-1.37790039e-06 -3.52899235e-07 4.56333169e-07
-1.69638793e-06 0.00000000e+00 0.00000000e+00
-1.53732299e-06 -4.93049640e-07 0.00000000e+00
-1.68764586e-06 0.00000000e+00 4.45048016e-07
-1.65128711e-06 -4.33643663e-07 4.93367509e-07
-2.90155413e-07 -6.82632106e-07 0.00000000e+00
0.00000000e+00 -6.69161466e-07 0.00000000e+00
-2.66676153e-07 -6.59309308e-07 4.06901052e-07
0.00000000e+00 -6.55511997e-07 4.08808376e-07
-5.60601563e-07 -7.24792471e-07 0.00000000e+00
-5.21630056e-07 -6.86446811e-07 4.21206153e-07
-8.08556877e-07 -7.53879533e-07 0.00000000e+00
-7.55525775e-07 -7.08080449e-07 4.04721220e-07
-9.98973860e-07 -8.31603984e-07 0.00000000e+00
-1.00419254e-06 -6.76631942e-07 3.99695494e-07
-1.12517671e-06 -8.26199823e-07 0.00000000e+00
-1.16950605e-06 -6.82989764e-07 3.92913819e-07
-1.28563249e-06 -9.38097628e-07 0.00000000e+00
-1.35909193e-06 -7.99497002e-07 3.66210941e-07
-3.13758846e-07 -9.12566975e-07 0.00000000e+00
0.00000000e+00 -8.94983600e-07 0.00000000e+00
-2.71717710e-07 -9.10182791e-07 3.62714133e-07
0.00000000e+00 -8.90235071e-07 3.50634252e-07
-6.45478565e-07 -9.10202630e-07 0.00000000e+00
-5.92708602e-07 -9.07361482e-07 3.22024022e-07
-8.16981014e-07 -9.33488195e-07 0.00000000e+00
-7.87666295e-07 -9.26587347e-07 7.09957533e-08
-8.51737127e-07 -9.40216921e-07 0.00000000e+00
-7.71840405e-07 -8.78228093e-07 -3.47561304e-08
-9.19130116e-07 -8.72214628e-07 0.00000000e+00
-9.72429916e-07 -7.31998000e-07 -8.60426184e-08
-9.23156733e-07 -9.81648782e-07 0.00000000e+00
-9.96589620e-07 -1.02541844e-06 -2.73386629e-08
-3.29891833e-07 -1.03100137e-06 0.00000000e+00
0.00000000e+00 -1.05977063e-06 0.00000000e+00
-2.82704832e-07 -1.05129675e-06 3.27269220e-07
0.00000000e+00 -1.09237931e-06 3.31560756e-07
-6.64552033e-07 -9.91094794e-07 0.00000000e+00
-5.81264487e-07 -9.59356612e-07 2.45730092e-07
-8.23160008e-07 -9.16282318e-07 0.00000000e+00
-7.78145250e-07 -9.36243282e-07 3.60276964e-08
-8.13113331e-07 -9.36508172e-07 0.00000000e+00
-8.06808487e-07 -9.39051347e-07 -1.16560195e-09
-8.17219416e-07 -8.47498541e-07 0.00000000e+00
-8.02702402e-07 -9.30693432e-07 0.00000000e+00
-7.66118376e-07 -9.03765340e-07 -1.44640602e-08
-7.89059527e-07 -8.77973093e-07 5.19222674e-08
-3.18606681e-07 -1.14468730e-06 0.00000000e+00
0.00000000e+00 -1.22143820e-06 0.00000000e+00
-3.17295388e-07 -1.19723870e-06 3.28143443e-07
0.00000000e+00 -1.22040512e-06 3.64939382e-07
-6.57677617e-07 -1.02539855e-06 0.00000000e+00
-5.67595180e-07 -1.05738638e-06 3.09467310e-07
-7.82012933e-07 -9.25024324e-07 0.00000000e+00
-7.56157760e-07 -9.69727807e-07 9.74867120e-08
-8.23497771e-07 -9.54786969e-07 0.00000000e+00
-8.28504540e-07 -9.34600848e-07 7.94728616e-10
-8.52664300e-07 -8.97924110e-07 0.00000000e+00
-8.28679390e-07 -9.03920352e-07 -8.95708840e-09
-8.45670684e-07 -9.06467449e-07 0.00000000e+00
-8.40955295e-07 -8.56876397e-07 -1.66634315e-08
-3.35852292e-07 -1.33768719e-06 0.00000000e+00
0.00000000e+00 -1.37496488e-06 0.00000000e+00
-3.32514446e-07 -1.36649612e-06 4.35511254e-07
0.00000000e+00 -1.42326201e-06 4.48862693e-07
-6.93162292e-07 -1.18780133e-06 0.00000000e+00
-5.86926944e-07 -1.28984448e-06 4.29153431e-07
-8.70347037e-07 -1.02965032e-06 0.00000000e+00
-8.01510282e-07 -1.12024941e-06 2.45836048e-07
-8.49723790e-07 -9.51131199e-07 0.00000000e+00
-8.67327060e-07 -9.20931484e-07 9.21885146e-09
-8.66254140e-07 -9.09487369e-07 0.00000000e+00
-8.59949353e-07 -8.83976611e-07 1.11764917e-08
-8.27213114e-07 -8.75194871e-07 0.00000000e+00
-8.74241209e-07 -8.74817374e-07 -1.48393831e-08
0.00000000e+00 0.00000000e+00 8.29060866e-07
-2.27650006e-07 0.00000000e+00 8.41140718e-07
-2.40325932e-07 -3.00531582e-07 8.33988167e-07
0.00000000e+00 -3.03454073e-07 8.36054483e-07
-5.20358469e-07 0.00000000e+00 8.65618404e-07
-4.81923394e-07 -2.94446949e-07 8.42730174e-07
-7.99953909e-07 0.00000000e+00 8.64028948e-07
-7.84158715e-07 -3.01043201e-07 8.89778107e-07
-1.11879899e-06 0.00000000e+00 9.04083265e-07
-1.09450025e-06 -2.93771421e-07 8.98679104e-07
-1.46677098e-06 0.00000000e+00 8.91049694e-07
-1.43055115e-06 -2.89718315e-07 9.06149523e-07
-1.74848242e-06 0.00000000e+00 8.46227010e-07
-1.78162259e-06 -3.67124869e-07 9.00268560e-07
-2.30352086e-07 -6.00258488e-07 8.15709427e-07
0.00000000e+00 -6.16312036e-07 7.97907489e-07
-4.91233095e-07 -5.91800301e-07 8.38143478e-07
-7.26572694e-07 -6.09842971e-07 8.68733707e-07
-1.04141236e-06 -6.56217310e-07 8.76108800e-07
-1.37035056e-06 -6.70154861e-07 8.30968190e-07
-1.61536536e-06 -7.41809572e-07 8.36690276e-07
-2.22365060e-07 -8.69870178e-07 7.16845193e-07
0.00000000e+00 -9.03526939e-07 7.20977766e-07
-4.32173408e-07 -8.94758443e-07 7.09957533e-07
-3.58899428e-07 -6.75042486e-07 -6.58830004e-08
-2.13603172e-07 -1.14886279e-06 6.15676242e-07
0.00000000e+00 -1.09445546e-06 6.50087998e-07
-5.05674450e-07 -1.00653506e-06 5.06718948e-07
-6.36206721e-07 -8.60108287e-07 2.19133170e-07
-2.87493066e-07 -1.27275780e-06 6.84261295e-07
0.00000000e+00 -1.30450974e-06 7.05083210e-07
-4.60147845e-07 -1.19320555e-06 5.98430631e-07
-7.27653514e-07 -1.08663733e-06 4.29153431e-07
-2.75254251e-07 -1.51181223e-06 8.03311650e-07
0.00000000e+00 -1.51664017e-06 8.64664685e-07
-4.86532826e-07 -1.52087205e-06 8.18888338e-07
-8.17656485e-07 -1.39315921e-06 7.65482582e-07
-8.27215615e-07 -8.80289520e-07 -1.42802792e-08
-8.30749684e-07 -8.73714669e-07 4.81605511e-08
-8.65742550e-07 -8.65974755e-07 7.67409780e-09
-8.53915992e-07 -9.04887884e-07 7.89761534e-10
0.00000000e+00 0.00000000e+00 1.26266480e-06
-2.53160778e-07 0.00000000e+00 1.24486291e-06
-2.81165029e-07 -2.82982995e-07 1.25169754e-06
0.00000000e+00 -2.65181058e-07 1.24867756e-06
-5.49435583e-07 0.00000000e+00 1.28491718e-06
-5.03967215e-07 -2.64530371e-07 1.26854582e-06
-8.36223364e-07 0.00000000e+00 1.32179264e-06
-8.33431898e-07 -2.65200924e-07 1.29954014e-06
-1.14436443e-06 0.00000000e+00 1.34086611e-06
-1.16221111e-06 -2.63849898e-07 1.33959452e-06
-1.51413178e-06 0.00000000e+00 1.34944912e-06
-1.49949392e-06 -2.69254059e-07 1.37170150e-06
-1.84783335e-06 0.00000000e+00 1.35040284e-06
-1.83494888e-06 -3.01023334e-07 1.36280062e-06
-2.23080320e-07 -5.44389081e-07 1.21657047e-06
0.00000000e+00 -6.01410875e-07 1.20735172e-06
-5.48498974e-07 -5.82831262e-07 1.20726088e-06
-8.09605922e-07 -5.83394353e-07 1.31276454e-06
-1.11691156e-06 -6.34193441e-07 1.37138363e-06
-1.41815337e-06 -6.09040228e-07 1.34976699e-06
-1.65641802e-06 -7.37587584e-07 1.37456254e-06
-2.26043511e-07 -9.12007806e-07 1.09717962e-06
0.00000000e+00 -8.96175720e-07 1.09608970e-06
-5.14348358e-07 -8.05854768e-07 1.15585328e-06
-2.44821820e-07 -1.14032196e-06 9.47861452e-07
0.00000000e+00 -1.18254616e-06 1.03282923e-06
-4.88122282e-07 -1.15150215e-06 8.23974574e-07
-2.30292471e-07 -1.45858530e-06 1.05659171e-06
0.00000000e+00 -1.43017371e-06 1.08750658e-06
-4.83285817e-07 -1.40453517e-06 9.55127575e-07
-5.17487535e-07 -1.56291321e-06 -1.21434525e-07
-6.23279163e-07 -1.36523784e-06 1.02912054e-06
-2.68936162e-07 -1.71407066e-06 1.23325981e-06
0.00000000e+00 -1.75333025e-06 1.26647944e-06
</DataArray>
<DataArray type="Float32" Name="Spatial_velocity" NumberOfComponents="3" format="ascii">
0.00000000e+00 0.00000000e+00 0.00000000e+00
1.47054407e-05 0.00000000e+00 0.00000000e+00
1.52913526e-05 2.07564262e-05 0.00000000e+00
0.00000000e+00 2.04683929e-05 0.00000000e+00
0.00000000e+00 0.00000000e+00 -2.46732052e-05
1.41510591e-05 0.00000000e+00 -2.52712653e-05
1.44978740e-05 1.98282087e-05 -2.44297971e-05
0.00000000e+00 1.95635839e-05 -2.49466175e-05
2.94811471e-05 0.00000000e+00 0.00000000e+00
2.99558833e-05 2.14463871e-05 0.00000000e+00
2.86465820e-05 0.00000000e+00 -2.52966383e-05
2.91356519e-05 2.01047878e-05 -2.45499159e-05
4.40977601e-05 0.00000000e+00 0.00000000e+00
4.53697612e-05 2.22053859e-05 0.00000000e+00
4.51141204e-05 0.00000000e+00 -2.47191019e-05
4.34828617e-05 1.98627913e-05 -2.63227557e-05
6.23321321e-05 0.00000000e+00 0.00000000e+00
5.90339514e-05 2.23004790e-05 0.00000000e+00
6.27257978e-05 0.00000000e+00 -2.54459010e-05
5.90251329e-05 1.92406878e-05 -2.60062097e-05
7.73102511e-05 0.00000000e+00 0.00000000e+00
7.56168884e-05 2.31280683e-05 0.00000000e+00
7.91670609e-05 0.00000000e+00 -2.49788554e-05
7.73579231e-05 1.93368505e-05 -2.59031785e-05
9.41228500e-05 0.00000000e+00 0.00000000e+00
8.59045322e-05 2.67309242e-05 0.00000000e+00
9.42687620e-05 0.00000000e+00 -2.33939791e-05
9.22722829e-05 2.44482926e-05 -2.66891584e-05
1.61976350e-05 3.87667824e-05 0.00000000e+00
0.00000000e+00 3.82557118e-05 0.00000000e+00
1.53019409e-05 3.74632764e-05 -2.30313144e-05
0.00000000e+00 3.68750589e-05 -2.32663315e-05
3.17442027e-05 4.08142150e-05 0.00000000e+00
2.96775615e-05 3.89370689e-05 -2.38477587e-05
4.50079206e-05 4.29552674e-05 0.00000000e+00
4.31415720e-05 4.03883059e-05 -2.28488771e-05
5.57335261e-05 4.83051808e-05 0.00000000e+00
5.58102074e-05 3.77906290e-05 -2.28975950e-05
6.26565525e-05 4.52828062e-05 0.00000000e+00
6.61059094e-05 3.79918383e-05 -2.20024140e-05
7.20186144e-05 5.42710222e-05 0.00000000e+00
7.70331462e-05 4.46602899e-05 -2.11183142e-05
1.72262571e-05 5.12122970e-05 0.00000000e+00
0.00000000e+00 5.03170922e-05 0.00000000e+00
1.57188479e-05 5.13906743e-05 -2.06439363e-05
0.00000000e+00 5.08988851e-05 -1.96872170e-05
3.58068573e-05 5.13110208e-05 0.00000000e+00
3.35601908e-05 5.12613151e-05 -1.84392811e-05
4.63971737e-05 5.21283837e-05 0.00000000e+00
4.43990139e-05 5.19142559e-05 -3.48650951e-06
4.82007054e-05 5.24203570e-05 0.00000000e+00
4.57766619e-05 5.01067370e-05 2.10117832e-06
5.20237918e-05 5.00275564e-05 0.00000000e+00
5.33411512e-05 4.03590602e-05 4.54701831e-06
5.21568472e-05 5.72182689e-05 0.00000000e+00
5.47688323e-05 5.76407401e-05 1.38329017e-06
1.82148306e-05 5.85209091e-05 0.00000000e+00
0.00000000e+00 6.04477282e-05 0.00000000e+00
1.61732951e-05 5.92015385e-05 -1.84616110e-05
0.00000000e+00 6.10588031e-05 -1.83000884e-05
3.69525696e-05 5.62910936e-05 0.00000000e+00
3.27433336e-05 5.44193135e-05 -1.38933692e-05
4.63477263e-05 5.15975771e-05 0.00000000e+00
4.43807803e-05 5.18472989e-05 -2.11727684e-06
4.52148379e-05 5.24399875e-05 0.00000000e+00
4.52637396e-05 5.24415300e-05 -5.96043179e-08
4.52574968e-05 4.91194041e-05 0.00000000e+00
4.52660315e-05 5.07740515e-05 0.00000000e+00
4.52700406e-05 4.91436222e-05 9.84904780e-09
4.52408749e-05 5.07643490e-05 1.85486257e-08
1.82692784e-05 6.49288122e-05 0.00000000e+00
0.00000000e+00 6.85561099e-05 0.00000000e+00
1.76233189e-05 6.74766998e-05 -1.87195383e-05
0.00000000e+00 6.95356794e-05 -2.06473451e-05
3.68844485e-05 5.81838322e-05 0.00000000e+00
3.17767008e-05 5.96618993e-05 -1.68607730e-05
4.45527985e-05 5.18624656e-05 0.00000000e+00
4.26431397e-05 5.44053182e-05 -5.19303148e-06
4.69345723e-05 5.24290990e-05 0.00000000e+00
4.68999278e-05 5.24226307e-05 -1.47717294e-09
4.69031183e-05 5.07892473e-05 0.00000000e+00
4.68986509e-05 5.07903751e-05 -8.50994830e-09
4.69087572e-05 4.91228529e-05 0.00000000e+00
4.68873441e-05 4.91246174e-05 3.96069755e-09
2.07285593e-05 7.60876865e-05 0.00000000e+00
0.00000000e+00 7.78463436e-05 0.00000000e+00
1.88164668e-05 7.77915629e-05 -2.30980913e-05
0.00000000e+00 8.01364513e-05 -2.42188671e-05
3.87196706e-05 6.65063708e-05 0.00000000e+00
3.34722608e-05 7.25871214e-05 -2.31622544e-05
4.88300866e-05 5.72553545e-05 0.00000000e+00
4.52358909e-05 6.28908019e-05 -1.36718509e-05
4.85389392e-05 5.24337738e-05 0.00000000e+00
4.85475975e-05 5.25150390e-05 -1.89739602e-08
4.85603268e-05 5.07968325e-05 0.00000000e+00
4.85554046e-05 5.07841105e-05 -4.71024464e-09
4.85666060e-05 4.91281244e-05 0.00000000e+00
4.85687342e-05 4.91265018e-05 -2.97629965e-09
0.00000000e+00 0.00000000e+00 -4.78454240e-05
1.31629477e-05 0.00000000e+00 -4.88783262e-05
1.34287538e-05 1.74553552e-05 -4.77475878e-05
0.00000000e+00 1.73915105e-05 -4.83298936e-05
2.93007288e-05 0.00000000e+00 -4.95885179e-05
2.67336582e-05 1.61140724e-05 -4.82667856e-05
4.47017155e-05 0.00000000e+00 -4.94042361e-05
4.44857615e-05 1.65191832e-05 -5.08280864e-05
6.31219300e-05 0.00000000e+00 -5.07009318e-05
6.17356127e-05 1.61394037e-05 -5.05858516e-05
8.24653762e-05 0.00000000e+00 -5.04699383e-05
8.04325391e-05 1.61378975e-05 -5.09486563e-05
9.80483383e-05 0.00000000e+00 -4.87039688e-05
1.00415047e-04 1.93304058e-05 -5.11639555e-05
1.31520328e-05 3.39541330e-05 -4.56236266e-05
0.00000000e+00 3.54285621e-05 -4.58300747e-05
2.75988550e-05 3.40225743e-05 -4.67386417e-05
4.09588465e-05 3.39226244e-05 -4.76336863e-05
5.93778859e-05 3.71304122e-05 -4.90142520e-05
7.66685262e-05 3.74574884e-05 -4.68376238e-05
9.03295804e-05 4.15466311e-05 -4.68182370e-05
1.22273441e-05 4.95471795e-05 -4.06092222e-05
0.00000000e+00 5.08160010e-05 -4.03771628e-05
2.41712314e-05 5.02799048e-05 -3.98012817e-05
1.96613037e-05 3.66226486e-05 4.41931843e-06
1.22893507e-05 6.46798653e-05 -3.50547016e-05
0.00000000e+00 6.22955122e-05 -3.73572730e-05
2.86653340e-05 5.68769574e-05 -2.84012804e-05
3.56506243e-05 4.67179016e-05 -1.27516350e-05
1.61282460e-05 7.16110444e-05 -3.84408268e-05
0.00000000e+00 7.43291675e-05 -4.00103636e-05
2.59242079e-05 6.63845567e-05 -3.34931501e-05
4.13927301e-05 6.10468414e-05 -2.37643253e-05
1.53904784e-05 8.50432261e-05 -4.57486130e-05
0.00000000e+00 8.61367589e-05 -4.88181577e-05
2.71959871e-05 8.56383485e-05 -4.60380470e-05
4.49470717e-05 7.93104628e-05 -4.37942072e-05
4.68897924e-05 5.07984550e-05 2.19390373e-08
4.69055922e-05 4.91262836e-05 -1.56291868e-08
4.85384735e-05 4.91287938e-05 1.78397244e-08
4.85470919e-05 5.08014091e-05 -3.58819392e-08
0.00000000e+00 0.00000000e+00 -7.04391787e-05
1.39421390e-05 0.00000000e+00 -7.04064878e-05
1.54738409e-05 1.58263847e-05 -7.05336206e-05
0.00000000e+00 1.50158521e-05 -7.00171950e-05
3.13785567e-05 0.00000000e+00 -7.23803169e-05
2.85362185e-05 1.48846693e-05 -7.16796712e-05
4.65155208e-05 0.00000000e+00 -7.43019336e-05
4.68984654e-05 1.48973104e-05 -7.33518464e-05
6.47529669e-05 0.00000000e+00 -7.49090177e-05
6.51981827e-05 1.48758463e-05 -7.57709349e-05
8.50278229e-05 0.00000000e+00 -7.56215668e-05
8.42031877e-05 1.51419972e-05 -7.60575422e-05
1.04277126e-04 0.00000000e+00 -7.45436701e-05
1.03417849e-04 1.67288417e-05 -7.59867471e-05
1.21347348e-05 3.06104448e-05 -6.85693085e-05
0.00000000e+00 3.40367769e-05 -6.80524608e-05
3.07331902e-05 3.23276945e-05 -6.92630783e-05
4.48466817e-05 3.27179478e-05 -7.48096427e-05
6.25959947e-05 3.53854630e-05 -7.68426471e-05
7.93580984e-05 3.49560869e-05 -7.50339459e-05
9.35302232e-05 4.04564744e-05 -7.58119568e-05
1.29350801e-05 5.09889032e-05 -6.16201069e-05
0.00000000e+00 5.07237201e-05 -6.17130863e-05
2.81329631e-05 4.53213252e-05 -6.44280954e-05
1.37158468e-05 6.46259432e-05 -5.36010666e-05
0.00000000e+00 6.69941146e-05 -5.73325633e-05
2.77703039e-05 6.44044703e-05 -4.64848417e-05
1.29726432e-05 8.19610359e-05 -5.94442863e-05
0.00000000e+00 8.07280157e-05 -6.09271665e-05
2.64815772e-05 7.87945828e-05 -5.38886015e-05
3.07513619e-05 8.87099886e-05 7.71748910e-06
3.51012641e-05 7.73655629e-05 -5.90538839e-05
1.41807632e-05 9.57231096e-05 -6.99553202e-05
0.00000000e+00 9.78931275e-05 -7.13933114e-05
</DataArray>
<DataArray type="Float32" Name="Reaction_force" NumberOfComponents="3" format="ascii">
4.23740178e-01 -1.70533597e-01 8.89055920e+00
0.00000000e+00 -5.53323269e-01 1.82367268e+01
0.00000000e+00 0.00000000e+00 3.47143097e+01
4.07867908e-01 0.00000000e+00 1.75909958e+01
8.90538692e-01 -3.75733793e-01 0.00000000e+00
0.00000000e+00 -7.11534739e-01 0.00000000e+00
0.00000000e+00 0.00000000e+00 0.00000000e+00
8.61532748e-01 0.00000000e+00 0.00000000e+00
0.00000000e+00 -7.44423568e-01 1.83530006e+01
0.00000000e+00 0.00000000e+00 3.65279922e+01
0.00000000e+00 -4.40579414e-01 0.00000000e+00
0.00000000e+00 0.00000000e+00 0.00000000e+00
0.00000000e+00 -5.30938268e-01 1.94094620e+01
0.00000000e+00 0.00000000e+00 3.60629883e+01
0.00000000e+00 -1.34765372e-01 0.00000000e+00
0.00000000e+00 0.00000000e+00 0.00000000e+00
0.00000000e+00 -7.93522418e-01 1.90931587e+01
0.00000000e+00 0.00000000e+00 3.52799568e+01
0.00000000e+00 -4.31289762e-01 0.00000000e+00
0.00000000e+00 0.00000000e+00 0.00000000e+00
0.00000000e+00 -1.21336031e+00 1.68110619e+01
0.00000000e+00 0.00000000e+00 3.16968422e+01
0.00000000e+00 -1.57818747e+00 0.00000000e+00
0.00000000e+00 0.00000000e+00 0.00000000e+00
0.00000000e+00 -2.30614352e+00 1.07452278e+01
0.00000000e+00 0.00000000e+00 2.01022339e+01
0.00000000e+00 -3.14632487e+00 0.00000000e+00
0.00000000e+00 0.00000000e+00 0.00000000e+00
0.00000000e+00 0.00000000e+00 3.26786270e+01
-5.12400389e-01 0.00000000e+00 1.61185913e+01
0.00000000e+00 0.00000000e+00 0.00000000e+00
-4.49680984e-01 0.00000000e+00 0.00000000e+00
0.00000000e+00 0.00000000e+00 2.97193413e+01
0.00000000e+00 0.00000000e+00 0.00000000e+00
0.00000000e+00 0.00000000e+00 2.35481720e+01
0.00000000e+00 0.00000000e+00 0.00000000e+00
0.00000000e+00 0.00000000e+00 1.92962761e+01
0.00000000e+00 0.00000000e+00 0.00000000e+00
0.00000000e+00 0.00000000e+00 1.88031616e+01
0.00000000e+00 0.00000000e+00 0.00000000e+00
0.00000000e+00 0.00000000e+00 1.53433819e+01
0.00000000e+00 0.00000000e+00 0.00000000e+00
0.00000000e+00 0.00000000e+00 2.94135418e+01
-1.00851512e+00 0.00000000e+00 1.47186756e+01
0.00000000e+00 0.00000000e+00 0.00000000e+00
-1.49056387e+00 0.00000000e+00 0.00000000e+00
0.00000000e+00 0.00000000e+00 2.14044380e+01
0.00000000e+00 0.00000000e+00 0.00000000e+00
0.00000000e+00 0.00000000e+00 1.25709372e+01
0.00000000e+00 0.00000000e+00 0.00000000e+00
0.00000000e+00 0.00000000e+00 4.91362429e+00
0.00000000e+00 0.00000000e+00 0.00000000e+00
0.00000000e+00 0.00000000e+00 3.80661011e+00
0.00000000e+00 0.00000000e+00 0.00000000e+00
0.00000000e+00 0.00000000e+00 3.29490924e+00
0.00000000e+00 0.00000000e+00 0.00000000e+00
0.00000000e+00 0.00000000e+00 2.66347332e+01
-1.62354672e+00 0.00000000e+00 1.45716372e+01
0.00000000e+00 0.00000000e+00 0.00000000e+00
-2.47713184e+00 0.00000000e+00 0.00000000e+00
0.00000000e+00 0.00000000e+00 1.94484024e+01
0.00000000e+00 0.00000000e+00 0.00000000e+00
0.00000000e+00 0.00000000e+00 9.36112213e+00
0.00000000e+00 0.00000000e+00 0.00000000e+00
0.00000000e+00 0.00000000e+00 2.43844271e-01
0.00000000e+00 0.00000000e+00 0.00000000e+00
0.00000000e+00 0.00000000e+00 -2.39636040e+00
0.00000000e+00 0.00000000e+00 -3.25770140e+00
0.00000000e+00 0.00000000e+00 0.00000000e+00
0.00000000e+00 0.00000000e+00 0.00000000e+00
0.00000000e+00 0.00000000e+00 2.71075687e+01
-2.23636746e+00 0.00000000e+00 1.42763481e+01
0.00000000e+00 0.00000000e+00 0.00000000e+00
-3.20868254e+00 0.00000000e+00 0.00000000e+00
0.00000000e+00 0.00000000e+00 2.25102272e+01
0.00000000e+00 0.00000000e+00 0.00000000e+00
0.00000000e+00 0.00000000e+00 1.81050148e+01
0.00000000e+00 0.00000000e+00 0.00000000e+00
0.00000000e+00 0.00000000e+00 7.16348028e+00
0.00000000e+00 0.00000000e+00 0.00000000e+00
0.00000000e+00 0.00000000e+00 -4.23341084e+00
0.00000000e+00 0.00000000e+00 0.00000000e+00
0.00000000e+00 0.00000000e+00 1.82181263e+00
0.00000000e+00 0.00000000e+00 0.00000000e+00
0.00000000e+00 0.00000000e+00 1.84523621e+01
-2.19229126e+00 0.00000000e+00 9.14929390e+00
0.00000000e+00 0.00000000e+00 0.00000000e+00
-3.85620713e+00 0.00000000e+00 0.00000000e+00
0.00000000e+00 0.00000000e+00 1.90953026e+01
0.00000000e+00 0.00000000e+00 0.00000000e+00
0.00000000e+00 0.00000000e+00 1.47950516e+01
0.00000000e+00 0.00000000e+00 0.00000000e+00
0.00000000e+00 0.00000000e+00 6.33842373e+00
0.00000000e+00 0.00000000e+00 0.00000000e+00
0.00000000e+00 0.00000000e+00 -2.92349625e+00
0.00000000e+00 0.00000000e+00 0.00000000e+00
0.00000000e+00 0.00000000e+00 3.89073312e-01
0.00000000e+00 0.00000000e+00 0.00000000e+00
4.52504754e-01 -4.70838219e-01 0.00000000e+00
0.00000000e+00 3.28534424e-01 0.00000000e+00
0.00000000e+00 0.00000000e+00 0.00000000e+00
1.43065190e+00 0.00000000e+00 0.00000000e+00
0.00000000e+00 9.69685078e-01 0.00000000e+00
0.00000000e+00 0.00000000e+00 0.00000000e+00
0.00000000e+00 1.18137538e+00 0.00000000e+00
0.00000000e+00 0.00000000e+00 0.00000000e+00
0.00000000e+00 1.66478169e+00 0.00000000e+00
0.00000000e+00 0.00000000e+00 0.00000000e+00
0.00000000e+00 -1.50440335e-01 0.00000000e+00
0.00000000e+00 0.00000000e+00 0.00000000e+00
0.00000000e+00 -1.13196671e+00 0.00000000e+00
0.00000000e+00 0.00000000e+00 0.00000000e+00
0.00000000e+00 0.00000000e+00 0.00000000e+00
4.77117360e-01 0.00000000e+00 0.00000000e+00
0.00000000e+00 0.00000000e+00 0.00000000e+00
0.00000000e+00 0.00000000e+00 0.00000000e+00
0.00000000e+00 0.00000000e+00 0.00000000e+00
0.00000000e+00 0.00000000e+00 0.00000000e+00
0.00000000e+00 0.00000000e+00 0.00000000e+00
0.00000000e+00 0.00000000e+00 0.00000000e+00
-7.97973990e-01 0.00000000e+00 0.00000000e+00
0.00000000e+00 0.00000000e+00 0.00000000e+00
0.00000000e+00 0.00000000e+00 0.00000000e+00
0.00000000e+00 0.00000000e+00 0.00000000e+00
-2.71578968e-01 0.00000000e+00 0.00000000e+00
0.00000000e+00 0.00000000e+00 0.00000000e+00
0.00000000e+00 0.00000000e+00 0.00000000e+00
0.00000000e+00 0.00000000e+00 0.00000000e+00
-1.04529786e+00 0.00000000e+00 0.00000000e+00
0.00000000e+00 0.00000000e+00 0.00000000e+00
0.00000000e+00 0.00000000e+00 0.00000000e+00
0.00000000e+00 0.00000000e+00 0.00000000e+00
-2.17382288e+00 0.00000000e+00 0.00000000e+00
0.00000000e+00 0.00000000e+00 0.00000000e+00
0.00000000e+00 0.00000000e+00 0.00000000e+00
0.00000000e+00 0.00000000e+00 0.00000000e+00
0.00000000e+00 0.00000000e+00 0.00000000e+00
0.00000000e+00 0.00000000e+00 0.00000000e+00
0.00000000e+00 0.00000000e+00 0.00000000e+00
1.07263044e-01 -1.17491990e-01 0.00000000e+00
0.00000000e+00 9.99319434e-01 0.00000000e+00
0.00000000e+00 0.00000000e+00 0.00000000e+00
1.84142828e+00 0.00000000e+00 0.00000000e+00
0.00000000e+00 1.58491683e+00 0.00000000e+00
0.00000000e+00 0.00000000e+00 0.00000000e+00
0.00000000e+00 1.99954498e+00 0.00000000e+00
0.00000000e+00 0.00000000e+00 0.00000000e+00
0.00000000e+00 2.71208882e+00 0.00000000e+00
0.00000000e+00 0.00000000e+00 0.00000000e+00
0.00000000e+00 1.00950491e+00 0.00000000e+00
0.00000000e+00 0.00000000e+00 0.00000000e+00
0.00000000e+00 1.69053823e-02 0.00000000e+00
0.00000000e+00 0.00000000e+00 0.00000000e+00
0.00000000e+00 0.00000000e+00 0.00000000e+00
1.49278891e+00 0.00000000e+00 0.00000000e+00
0.00000000e+00 0.00000000e+00 0.00000000e+00
0.00000000e+00 0.00000000e+00 0.00000000e+00
0.00000000e+00 0.00000000e+00 0.00000000e+00
0.00000000e+00 0.00000000e+00 0.00000000e+00
0.00000000e+00 0.00000000e+00 0.00000000e+00
0.00000000e+00 0.00000000e+00 0.00000000e+00
2.56664753e-02 0.00000000e+00 0.00000000e+00
0.00000000e+00 0.00000000e+00 0.00000000e+00
0.00000000e+00 0.00000000e+00 0.00000000e+00
9.00437713e-01 0.00000000e+00 0.00000000e+00
0.00000000e+00 0.00000000e+00 0.00000000e+00
0.00000000e+00 0.00000000e+00 0.00000000e+00
4.49126601e-01 0.00000000e+00 0.00000000e+00
0.00000000e+00 0.00000000e+00 0.00000000e+00
0.00000000e+00 0.00000000e+00 0.00000000e+00
0.00000000e+00 0.00000000e+00 0.00000000e+00
0.00000000e+00 0.00000000e+00 0.00000000e+00
-6.85757756e-01 0.00000000e+00 0.00000000e+00
</DataArray>
<DataArray type="Float32" Name="Equivalent_plastic_strain" format="ascii">
1.03800014e-01
1.07752219e-01
1.01770623e-01
1.00063831e-01
9.95610915e-02
1.02799198e-01
9.85728968e-02
9.71168708e-02
1.14837047e-01
1.08587714e-01
1.08767420e-01
1.04670760e-01
1.23763539e-01
1.23050008e-01
1.15988661e-01
1.14893368e-01
1.33428529e-01
1.32876392e-01
1.23838207e-01
1.21071633e-01
1.41009875e-01
1.43595953e-01
1.31746156e-01
1.23494307e-01
1.54497012e-01
1.55666851e-01
1.37455180e-01
1.39800677e-01
8.81800596e-02
8.74818154e-02
8.77984995e-02
8.58703703e-02
8.94848388e-02
9.11736153e-02
6.28779032e-02
8.67536020e-02
5.88838556e-02
8.03237135e-02
4.28176597e-02
7.68259338e-02
4.45423285e-02
8.81845790e-02
7.37399329e-02
7.34128393e-02
7.29993023e-02
7.23819155e-02
5.14335819e-02
5.86482303e-02
8.09254643e-03
5.79637708e-03
-1.34689283e-03
2.14198958e-02
-3.45900996e-03
1.92883628e-02
4.89876606e-03
2.50161192e-02
6.57949708e-02
6.92848936e-02
6.30058297e-02
6.59322627e-02
4.80711991e-02
4.50752294e-02
6.25101419e-03
1.28700922e-02
2.86263679e-04
3.07948249e-03
1.13659315e-02
3.71896037e-03
9.76338889e-03
5.11357067e-03
6.86221607e-02
7.37178437e-02
6.45353161e-02
6.96810018e-02
5.29285315e-02
4.67350830e-02
7.16712646e-03
3.63144612e-02
2.44543417e-05
3.14091056e-03
-5.29625824e-05
-8.39910863e-06
0.00000000e+00
0.00000000e+00
8.02935921e-02
8.48074704e-02
7.56145604e-02
8.18205774e-02
6.86046556e-02
7.47832749e-02
2.15644706e-02
5.79398914e-02
-1.27287174e-04
9.10941209e-03
1.35064853e-04
-1.81478657e-05
0.00000000e+00
0.00000000e+00
9.38448384e-02
9.43517406e-02
9.24366098e-02
9.21345539e-02
9.62813050e-02
9.75000756e-02
1.02099434e-01
9.68162026e-02
1.07179325e-01
1.15154044e-01
1.09109782e-01
1.16542920e-01
1.10715568e-01
1.17626602e-01
8.91340636e-02
8.63370299e-02
9.51214294e-02
1.23611146e-01
1.30557891e-01
1.33487683e-01
1.35365166e-01
7.07624261e-02
7.25806560e-02
8.70668441e-02
6.67550433e-02
5.45296185e-02
6.19131168e-02
4.88238267e-02
2.17489600e-02
6.37001987e-02
6.50700182e-02
6.37831191e-02
9.84879527e-02
7.42580853e-02
7.39527531e-02
7.52957501e-02
1.27567299e-01
0.00000000e+00
0.00000000e+00
0.00000000e+00
0.00000000e+00
9.45483930e-02
9.42147337e-02
9.39102946e-02
9.41333026e-02
9.31263790e-02
9.69277807e-02
9.43697523e-02
9.25219595e-02
9.50957648e-02
1.09494392e-01
9.42268651e-02
1.05365859e-01
9.34163220e-02
1.02827599e-01
9.70796822e-02
9.31051895e-02
1.00287076e-01
1.31984292e-01
1.29675826e-01
1.27747679e-01
1.24753118e-01
9.57879318e-02
8.47243257e-02
1.23804320e-01
6.79859633e-02
8.05205032e-02
9.87027008e-02
4.65987867e-02
7.99407046e-02
5.92355233e-02
8.61264020e-02
1.45859996e-01
1.02460405e-01
8.00002553e-02
</DataArray>
<DataArray type="Float32" Name="Stress_Mises" format="ascii">
3.15422192e+01
3.80700951e+01
3.35118639e+01
3.51271877e+01
2.93297949e+01
3.48873243e+01
3.18407406e+01
3.39255443e+01
4.06762772e+01
4.24465072e+01
3.69682050e+01
3.68279984e+01
4.41450520e+01
5.08660321e+01
3.68089707e+01
4.19316991e+01
4.98527937e+01
5.85875654e+01
3.90974175e+01
2.90062258e+01
4.89945202e+01
4.35305598e+01
3.57416587e+01
3.20556463e+01
7.79382629e+01
8.89650116e+01
5.62187128e+01
5.51352191e+01
3.30275493e+01
3.10639677e+01
3.18742420e+01
2.84233007e+01
3.90357473e+01
3.78532172e+01
2.62833881e+01
3.96510396e+01
2.50359368e+01
5.60274692e+01
1.91384212e+01
4.70852324e+01
4.71153517e+01
9.03310318e+01
3.50779173e+01
2.41918926e+01
3.07119481e+01
2.30928659e+01
4.08020763e+01
3.18751340e+01
2.17574068e+01
2.17214393e+01
1.36753384e+01
3.42900956e+01
8.37819592e+00
2.74205208e+01
2.45872850e+01
3.58736334e+01
3.27631407e+01
3.10802288e+01
2.35038645e+01
2.62578301e+01
2.15013371e+01
2.60343919e+01
1.42903862e+01
2.23459805e+01
1.11136546e+01
2.02763449e+01
3.45914059e+01
1.01459125e+01
3.36399002e+01
2.20686019e+01
3.01523864e+01
3.25087390e+01
2.41190335e+01
2.78516037e+01
2.19427463e+01
2.90834849e+01
2.38475838e+01
4.33391221e+01
1.55661321e+01
2.39228401e+01
1.25428120e+01
8.62194872e+00
9.99891806e+00
7.65367572e+00
6.22535210e+01
6.16870308e+01
4.57231474e+01
6.01667576e+01
7.27276878e+01
5.66789448e+01
5.66969910e+01
7.49941904e+01
2.79452753e+01
3.99019499e+01
1.82778444e+01
1.44285304e+01
4.77525902e+00
5.44218278e+00
3.02606964e+01
2.92678642e+01
2.56060754e+01
3.07100062e+01
2.40451958e+01
2.54625334e+01
2.67464352e+01
2.87427955e+01
2.60701797e+01
2.58986344e+01
1.93088806e+01
2.58592524e+01
1.98188038e+01
2.56047869e+01
2.49544842e+01
3.01704094e+01
4.21271181e+01
1.00694412e+02
7.92387009e+01
7.32817421e+01
7.85431862e+01
3.03039708e+01
1.65465746e+01
6.79340947e+01
4.58811932e+01
1.71588602e+01
1.34749960e+01
2.18407134e+01
1.16019271e+01
1.89221970e+01
1.92142408e+01
2.94430679e+01
6.13107839e+01
3.48247156e+01
3.84378452e+01
6.37097397e+01
1.33834343e+02
1.71585190e+00
1.26249295e+00
2.09486943e+00
2.95637488e+00
2.78831568e+01
2.74707823e+01
2.30027253e+01
2.69015608e+01
2.20339422e+01
2.45139002e+01
2.29832671e+01
2.44426439e+01
2.09617083e+01
2.73774758e+01
1.65205884e+01
3.11321878e+01
1.57098684e+01
2.53136744e+01
2.58943149e+01
2.52938476e+01
4.50222690e+01
1.20834886e+02
8.92253304e+01
6.87352686e+01
6.00916004e+01
2.45765937e+01
2.92551711e+01
1.47870249e+02
2.70836274e+01
1.80070200e+01
9.32712927e+01
2.42926455e+01
2.24213734e+01
3.94589064e+01
5.05899811e+01
1.20390210e+02
2.86771593e+01
3.99116459e+01
</DataArray>
<DataArray type="Float32" Name="Stress_Max_Principal" format="ascii">
3.80284220e-01
-4.82162285e+00
-1.67180669e+00
-3.23715472e+00
2.14129490e+00
-2.33610380e+00
-2.78080657e-01
-2.09766495e+00
-6.73113942e+00
-8.39760613e+00
-4.29996073e+00
-3.40412933e+00
-9.63101625e+00
-1.47521973e+01
-4.73002571e+00
-7.83726025e+00
-1.45188552e+01
-1.87745450e+01
-6.31317079e+00
2.30324188e+00
-1.31411221e+01
-3.63693035e+00
2.52857637e+00
9.35717428e+00
-3.34792366e+01
-3.75436468e+01
-1.83852438e+01
-1.65254920e+01
-1.06509686e+00
3.66189480e-01
-7.92769969e-01
1.88608980e+00
-4.32577300e+00
-1.38809811e+00
2.96313484e+01
1.61412108e+01
4.09135475e+01
1.02905560e+00
3.96044557e+01
6.13120516e+00
3.25136938e+01
-1.33940481e+01
1.36678219e-02
7.20616174e+00
2.84360814e+00
7.35877597e+00
3.08716683e+01
2.19572744e+01
4.32137411e+01
4.13522033e+01
3.19997787e+01
6.13579680e+01
3.93817304e+01
5.33434989e+01
3.21435027e+01
6.58619738e+01
3.01109111e+00
2.84112954e+00
9.09286451e+00
5.75138080e+00
2.09954427e+01
2.76443172e+01
2.90014212e+01
4.45704346e+01
2.92751649e+01
2.15583693e+01
-2.18455839e+00
2.18131186e+01
7.33723760e+00
1.69572581e+01
4.66466840e+00
1.97833633e+00
1.30472815e+01
4.92816687e+00
2.04831959e+01
1.58077490e+01
2.33710167e+01
3.49008975e+01
2.66024780e+01
2.44158585e+01
8.65951470e+00
6.67535655e+00
2.96727085e+00
1.46186066e+00
-2.11616697e+01
-1.99242535e+01
-9.51427385e+00
-2.04816027e+01
-2.73321619e+01
-9.42800236e+00
3.09480715e+01
-2.38961124e+01
5.14718866e+01
6.81909916e+00
8.63189888e+00
7.91860747e+00
4.57537293e-01
1.43487421e+00
1.16753101e+00
1.52453744e+00
4.81139751e+00
8.74917924e-01
6.02703047e+00
5.84257352e+00
3.24165285e+00
1.04104354e+01
4.23194295e+00
7.35536814e+00
1.15150641e+01
5.73845658e+00
9.58849907e+00
5.48063874e+00
8.47244135e+00
1.15128689e+00
-4.70530564e+00
-5.04515755e+01
-3.98843613e+01
-3.32156751e+01
-3.52145767e+01
2.48135000e+01
1.20370612e+01
-2.53102856e+01
1.01499706e+02
1.82960472e+01
1.77071792e+01
4.44809413e+01
3.41548850e+01
2.15860079e+01
1.16464117e+01
1.26339843e+01
-1.65428908e+01
-2.01331377e+00
-5.32410288e+00
5.85224152e+00
-8.25727673e+01
9.60741818e-01
6.80822670e-01
1.08301014e+00
1.75999558e+00
2.23789644e+00
2.94323072e+00
8.27723241e+00
3.56488425e+00
7.83010316e+00
7.97783744e+00
6.64717913e+00
1.48894699e+01
9.28968087e+00
7.60373676e+00
1.23766534e+01
1.56282309e+01
1.27092998e+01
2.45450306e+01
5.59553093e+00
8.19389868e+00
3.26348721e+01
-7.28995621e+01
-4.78234687e+01
-2.98810067e+01
-2.05388894e+01
6.93142823e+00
2.16810408e+01
-9.11160240e+01
3.78165332e+01
1.70600263e+01
-4.90178248e+01
2.42358333e+01
1.98796396e+01
4.38767330e+01
1.00341515e+02
-6.13897320e+01
1.76499890e+01
1.46659451e+01
</DataArray>
<DataArray type="Float32" Name="Stress_Mid_Principal" format="ascii">
-3.12065053e+00
-9.15122151e+00
-4.40561712e+00
-5.59838277e+00
-1.05833948e+00
-6.13876271e+00
-2.91797986e+00
-4.67599988e+00
-1.17397959e+01
-1.30763950e+01
-7.64771867e+00
-7.20260392e+00
-1.46937466e+01
-2.11107337e+01
-6.89602423e+00
-1.26442671e+01
-1.96128447e+01
-3.05596472e+01
-9.27031064e+00
-3.89937669e-01
-1.95235263e+01
-1.40010445e+01
-1.46285224e+00
2.31658466e+00
-4.91781387e+01
-6.51703053e+01
-2.66937096e+01
-2.64471962e+01
-4.13729167e+00
-2.18907261e+00
-2.33612349e+00
8.98851871e-01
-1.08184351e+01
-7.17496222e+00
1.83174491e+01
5.58371380e+00
2.86940517e+01
-1.95619435e+01
2.99768828e+01
-9.60898685e+00
7.80943108e+00
-4.77215818e+01
-9.23889756e+00
2.64986801e+00
-4.00383890e+00
4.49957943e+00
1.00970692e+01
5.70288718e+00
2.86754591e+01
2.75781787e+01
2.53263540e+01
3.27292512e+01
3.32596811e+01
3.04321114e+01
2.04998458e+01
4.50356932e+01
-8.54954225e+00
-5.14662647e+00
2.20777924e+00
6.48809001e-01
1.06687815e+01
1.36888705e+01
2.28742072e+01
3.15409177e+01
2.60544449e+01
8.94148604e+00
-1.50988915e+01
1.52092328e+01
-2.56202793e+00
-1.47179246e+00
-5.55139151e+00
-6.80117989e+00
5.63787323e+00
-1.52760339e+00
9.11394027e+00
4.82852108e+00
1.16774324e+01
1.05114861e+01
1.74000431e+01
9.45943952e+00
3.48332186e+00
8.39128713e-01
-1.34095353e+00
3.13799838e-01
-3.47341471e+01
-3.52749214e+01
-1.75320541e+01
-3.16354713e+01
-4.55570116e+01
-2.16991031e+01
3.10320282e+00
-4.54776999e+01
3.75536439e+01
-1.69850514e+01
4.55570281e+00
3.16573828e+00
-4.64150310e-01
2.01312840e-01
-1.63747931e+00
-2.36076355e-01
2.75006901e+00
-2.12398469e+00
4.47739276e+00
3.40999240e+00
2.40477228e+00
6.02507085e+00
2.57540751e+00
4.77956748e+00
9.42774958e+00
3.55545110e+00
8.18307590e+00
2.41266179e+00
5.76643427e+00
-1.43423146e+00
-9.43347376e+00
-6.89676928e+01
-4.45027237e+01
-4.09157979e+01
-4.83896751e+01
1.48577334e+01
1.12075549e+01
-3.42891130e+01
6.11492043e+01
1.34945937e+01
1.54792339e+01
3.05172604e+01
2.53161414e+01
1.52610067e+01
8.91618621e+00
2.28209937e+00
-2.35544251e+01
-4.50151563e+00
-8.88253689e+00
-1.31959057e+01
-9.33753319e+01
-3.71998362e-01
-3.66554023e-01
-1.33817803e-01
-6.34008586e-01
1.45907092e+00
1.46728566e+00
6.23307042e+00
1.85731554e+00
5.95231378e+00
4.96983996e+00
5.46095711e+00
9.98259506e+00
7.22308880e+00
4.07906711e+00
1.07806070e+01
8.13016462e+00
1.19434538e+01
1.69477472e+01
1.69396383e+00
3.52354705e+00
1.56415613e+01
-8.61141441e+01
-5.36460056e+01
-3.65276413e+01
-3.13783798e+01
3.08060626e+00
1.29030509e+01
-1.13167966e+02
2.45373757e+01
1.38458942e+01
-5.92370919e+01
1.63768139e+01
1.47519458e+01
2.34475765e+01
5.03616371e+01
-8.02866023e+01
1.20904459e+01
4.32987499e+00
</DataArray>
<DataArray type="Float32" Name="Stress_Min_Principal" format="ascii">
-3.27663498e+01
-4.48714113e+01
-3.64601814e+01
-3.94775696e+01
-2.86570721e+01
-3.89687216e+01
-3.33522577e+01
-3.72323706e+01
-4.96798019e+01
-5.29877028e+01
-4.28232577e+01
-4.18918399e+01
-5.60751724e+01
-6.84934318e+01
-4.25726356e+01
-5.19626868e+01
-6.67132368e+01
-8.23194625e+01
-4.68045671e+01
-2.79385516e+01
-6.50104141e+01
-5.11514621e+01
-3.42814369e+01
-2.46329543e+01
-1.18071968e+02
-1.36982800e+02
-7.82956247e+01
-7.59214679e+01
-3.55161798e+01
-3.18839228e+01
-3.34084840e+01
-2.70179355e+01
-4.61879401e+01
-4.13822952e+01
1.46216884e+00
-2.58415448e+01
1.37864590e+01
-6.09740953e+01
1.89738240e+01
-4.54773782e+01
-2.10848103e+01
-1.14238185e+02
-3.87287772e+01
-1.89398923e+01
-3.06401529e+01
-1.70170933e+01
-1.41974006e+01
-1.37736407e+01
1.86061049e+01
1.74835440e+01
1.70465161e+01
2.35049559e+01
3.01301123e+01
2.31702709e+01
4.35491276e+00
2.54050550e+01
-3.39560108e+01
-3.14434719e+01
-1.70503756e+01
-2.26790737e+01
-3.47414351e+00
-1.95007348e+00
1.30181956e+01
1.91769437e+01
1.71405552e+01
-1.63631455e+00
-3.98736377e+01
1.01869601e+01
-2.99944744e+01
-7.26722164e+00
-2.92172861e+01
-3.40136173e+01
-1.34921504e+01
-2.55772803e+01
-4.50719261e+00
-1.61703013e+01
-3.87390614e+00
-1.30838782e+01
8.72606087e+00
-2.33208531e+00
-5.38915357e+00
-2.84949117e+00
-8.37308908e+00
-6.61964067e+00
-8.90797501e+01
-8.78370972e+01
-5.87073336e+01
-8.54445038e+01
-1.07404610e+02
-7.02450256e+01
-3.23064556e+01
-1.06657260e+02
2.08335714e+01
-3.88943386e+01
-1.08466897e+01
-8.18040975e+00
-4.71138144e+00
-4.51437068e+00
-3.03979931e+01
-2.85720983e+01
-2.17614881e+01
-3.12237837e+01
-1.87452040e+01
-2.06380694e+01
-2.39117163e+01
-1.89709326e+01
-2.26253553e+01
-1.93426070e+01
-8.63665342e+00
-2.09763758e+01
-1.08956022e+01
-2.15005882e+01
-1.71943548e+01
-3.02223029e+01
-4.89143888e+01
-1.58432038e+02
-1.21323875e+02
-1.10036352e+02
-1.19510914e+02
-6.77725208e+00
-4.90078974e+00
-9.72569733e+01
5.19188309e+01
-3.53876472e-01
3.45501739e+00
2.11059406e+01
2.12958667e+01
1.15457034e+00
-8.65215921e+00
-1.97619010e+01
-8.09992495e+01
-3.79151793e+01
-4.54160175e+01
-6.21702318e+01
-2.21473228e+02
-9.75271434e-01
-7.00649798e-01
-1.33564511e+00
-1.51255059e+00
-2.60258560e+01
-2.52345229e+01
-1.55131210e+01
-2.41409391e+01
-1.50785502e+01
-1.75972791e+01
-1.68996336e+01
-1.02805294e+01
-1.25569284e+01
-2.08827562e+01
-4.88201857e+00
-1.67427495e+01
-3.36412573e+00
-1.77877951e+00
-2.19694642e+01
-1.88539670e+01
-1.47047605e+01
-1.99355058e+02
-1.39810753e+02
-1.01695747e+02
-8.53123894e+01
-1.92409943e+01
-8.59318471e+00
-2.48726742e+02
9.94859879e+00
-1.57919693e+00
-1.46786936e+02
-1.31093520e+00
-3.33796406e+00
1.30150822e+00
4.91627426e+01
-1.89639047e+02
-1.18676057e+01
-2.67341805e+01
</DataArray>
<DataArray type="Float32" Name="Stress_Pressure" format="ascii">
1.18355713e+01
1.96147523e+01
1.41792018e+01
1.61043689e+01
9.19137263e+00
1.58145293e+01
1.21827727e+01
1.46686780e+01
2.27169132e+01
2.48205674e+01
1.82569788e+01
1.74995240e+01
2.67999778e+01
3.47854534e+01
1.80662293e+01
2.41480723e+01
3.36149793e+01
4.38845516e+01
2.07960148e+01
8.67508256e+00
3.25583539e+01
2.29298112e+01
1.10719051e+01
4.31973180e+00
6.69097824e+01
7.98989143e+01
4.11248593e+01
3.96313860e+01
1.35728567e+01
1.12356014e+01
1.21791255e+01
8.07766557e+00
2.04440510e+01
1.66484519e+01
-1.64703233e+01
1.37220737e+00
-2.77980185e+01
2.65023278e+01
-2.95183875e+01
1.63183859e+01
-6.41277122e+00
5.84512723e+01
1.59846687e+01
3.02795410e+00
1.06001278e+01
1.71957946e+00
-8.92377877e+00
-4.62884063e+00
-3.01651018e+01
-2.88046427e+01
-2.47908827e+01
-3.91973915e+01
-3.42571735e+01
-3.56486271e+01
-1.89994211e+01
-4.54342418e+01
1.31648213e+01
1.12496562e+01
1.91657728e+00
5.42629476e+00
-9.39669299e+00
-1.31277044e+01
-2.16312750e+01
-3.17627649e+01
-2.41567221e+01
-9.62118038e+00
1.90523617e+01
-1.57364367e+01
8.40642107e+00
-2.73941477e+00
1.00346693e+01
1.29454863e+01
-1.73100164e+00
7.39223886e+00
-8.36331457e+00
-1.48865545e+00
-1.03915145e+01
-1.07761676e+01
-1.75761938e+01
-1.05144042e+01
-2.25122753e+00
-1.55499797e+00
2.24892384e+00
1.61465996e+00
4.83251877e+01
4.76787567e+01
2.85845544e+01
4.58538589e+01
6.00979290e+01
3.37907114e+01
-5.81604004e-01
5.86770236e+01
-3.66197000e+01
1.63534306e+01
-7.80303955e-01
-9.67978785e-01
1.57266474e+00
9.59394559e-01
1.02893137e+01
9.09454548e+00
4.73334057e+00
1.08242837e+01
2.74692672e+00
3.79516809e+00
6.08843064e+00
8.45141888e-01
5.27266841e+00
2.40255797e+00
-4.10205340e+00
3.89415592e+00
-2.29199082e+00
4.53576263e+00
9.85159755e-01
1.01684163e+01
2.10177223e+01
9.26170998e+01
6.85703192e+01
6.13892746e+01
6.77050533e+01
-1.09646602e+01
-6.11460865e+00
5.22854561e+01
-7.15225811e+01
-1.04789210e+01
-1.22138103e+01
-3.20347140e+01
-2.69222984e+01
-1.26671946e+01
-3.97014594e+00
1.61527324e+00
4.03655212e+01
1.48100038e+01
1.98742189e+01
2.31712999e+01
1.32473778e+02
1.28842637e-01
1.28793724e-01
1.28817596e-01
1.28854562e-01
7.44296265e+00
6.94133544e+00
3.34272444e-01
6.23957968e+00
4.32044551e-01
1.54986706e+00
1.59716588e+00
-4.86384496e+00
-1.31861353e+00
3.06665081e+00
-6.09174702e+00
-2.33854890e+00
-7.09620935e+00
-1.32379996e+01
4.89332332e+00
2.37884027e+00
-1.11905584e+01
1.19456258e+02
8.04267435e+01
5.60347967e+01
4.57432213e+01
3.07631969e+00
-8.66363692e+00
1.51003576e+02
-2.41008361e+01
-9.77557510e+00
8.50139492e+01
-1.31005704e+01
-1.04312068e+01
-2.28752741e+01
-6.66219635e+01
1.10438463e+02
-5.95760942e+00
2.57945251e+00
</DataArray>
<DataArray type="Float32" Name="Stress_Tresca" format="ascii">
3.31466331e+01
4.00497875e+01
3.47883749e+01
3.62404156e+01
3.07983675e+01
3.66326180e+01
3.30741770e+01
3.51347060e+01
4.29486628e+01
4.45900960e+01
3.85232973e+01
3.84877102e+01
4.64441566e+01
5.37412333e+01
3.78426108e+01
4.41254270e+01
5.21943798e+01
6.35449171e+01
4.04913962e+01
3.02417934e+01
5.18692932e+01
4.75145321e+01
3.68100128e+01
3.39901288e+01
8.45927277e+01
9.94391518e+01
5.99103794e+01
5.93959761e+01
3.44510820e+01
3.22501125e+01
3.26157138e+01
2.89040248e+01
4.18621674e+01
3.99941981e+01
2.81691792e+01
4.19827554e+01
2.71270885e+01
6.20031509e+01
2.06306319e+01
5.16085819e+01
5.35985050e+01
1.00844137e+02
3.87424450e+01
2.61460538e+01
3.34837606e+01
2.43758688e+01
4.50690689e+01
3.57309158e+01
2.46076360e+01
2.38686590e+01
1.49532623e+01
3.78530121e+01
9.25161807e+00
3.01732279e+01
2.77885895e+01
4.04569187e+01
3.69671021e+01
3.42846012e+01
2.61432399e+01
2.84304543e+01
2.44695864e+01
2.95943904e+01
1.59832258e+01
2.53934905e+01
1.21346099e+01
2.31946837e+01
3.76890793e+01
1.16261584e+01
3.73317127e+01
2.42244797e+01
3.38819551e+01
3.59919548e+01
2.65394322e+01
3.05054469e+01
2.49903889e+01
3.19780501e+01
2.72449222e+01
4.79847749e+01
1.78764167e+01
2.67479439e+01
1.40486681e+01
9.52484779e+00
1.13403599e+01
8.08150140e+00
6.79180832e+01
6.79128418e+01
4.91930599e+01
6.49629002e+01
8.00724449e+01
6.08170252e+01
6.32545261e+01
8.27611485e+01
3.06383152e+01
4.57134390e+01
1.94785881e+01
1.60990171e+01
5.16891861e+00
5.94924498e+00
3.15655241e+01
3.00966358e+01
2.65728855e+01
3.20987015e+01
2.47722349e+01
2.64806423e+01
2.71533694e+01
2.93813682e+01
2.68572984e+01
2.66979744e+01
2.01517177e+01
2.67148321e+01
2.04841003e+01
2.69812269e+01
2.56667964e+01
3.13735902e+01
4.42090836e+01
1.07980465e+02
8.14395161e+01
7.68206749e+01
8.42963333e+01
3.15907521e+01
1.69378510e+01
7.19466896e+01
4.95808754e+01
1.86499238e+01
1.42521620e+01
2.33750010e+01
1.28590183e+01
2.04314375e+01
2.02985706e+01
3.23958846e+01
6.44563584e+01
3.59018655e+01
4.00919132e+01
6.80224733e+01
1.38900459e+02
1.93601334e+00
1.38147247e+00
2.41865528e+00
3.27254629e+00
2.82637539e+01
2.81777530e+01
2.37903540e+01
2.77058239e+01
2.29086533e+01
2.55751168e+01
2.35468123e+01
2.51699995e+01
2.18466098e+01
2.84864931e+01
1.72586722e+01
3.23709800e+01
1.60734258e+01
2.63238101e+01
2.75649949e+01
2.70478654e+01
4.73396331e+01
1.26455498e+02
9.19872856e+01
7.18147392e+01
6.47735004e+01
2.61724221e+01
3.02742257e+01
1.57610716e+02
2.78679346e+01
1.86392229e+01
9.77691102e+01
2.55467683e+01
2.32176032e+01
4.25752242e+01
5.11787720e+01
1.28249315e+02
2.95175948e+01
4.14001255e+01
</DataArray>
<DataArray type="Float32" Name="Stress_Third_Invariant" format="ascii">
-3.11006050e+01
-3.75101748e+01
-3.32390568e+01
-3.49240513e+01
-2.89330635e+01
-3.44156275e+01
-3.15797559e+01
-3.36842575e+01
-3.99736624e+01
-4.18542583e+01
-3.66096392e+01
-3.59335155e+01
-4.34406948e+01
-4.99437542e+01
-3.66605301e+01
-4.12967601e+01
-4.92312880e+01
-5.56909223e+01
-3.88426824e+01
-2.86630793e+01
-4.80342417e+01
-3.83418589e+01
-3.09138191e+01
-2.46149760e+01
-7.42548904e+01
-7.81164589e+01
-5.48112345e+01
-5.29802983e+01
-3.26876841e+01
-3.07876997e+01
-3.17833810e+01
-2.83845875e+01
-3.77492532e+01
-3.46832865e+01
-8.58065486e+00
-2.26613625e+01
-2.70885086e+00
-3.87262952e+01
1.70668364e+00
-3.18567403e+01
-1.40687695e+01
-6.09889030e+01
-3.20220244e+01
-2.31968448e+01
-2.86471835e+01
-2.26473081e+01
-1.13466868e+01
-1.32462284e+01
4.13719130e+00
1.06403740e+00
-3.31130886e+00
3.08801378e+01
4.91765205e+00
2.44484806e+01
-6.61228943e+00
5.38173866e+00
-2.75279903e+01
-2.85913782e+01
-2.08654371e+01
-2.50912781e+01
-1.08211435e+01
-6.88060558e+00
-5.47418404e+00
1.52444657e+00
-7.07584858e+00
7.44400024e-01
-1.70998473e+01
3.31598838e+00
-2.93361378e+01
1.93954261e+01
-2.55437783e+01
-2.96407614e+01
-1.86007398e+01
-2.60610077e+01
-8.92979211e+00
-1.78148682e+01
-8.85804915e+00
-8.58259010e+00
1.48623872e+00
7.24544525e-02
-7.14427662e+00
3.12460575e+00
-4.08670759e+00
-6.46733697e+00
-5.87776051e+01
-5.71478233e+01
-4.40704927e+01
-5.77704735e+01
-6.71584187e+01
-4.84518056e+01
-1.87117929e+01
-6.37209489e+01
1.83304787e+00
1.06000624e+01
-1.05753500e+01
-1.19908398e+01
-4.56866026e+00
-5.09891510e+00
-2.99660597e+01
-2.91124368e+01
-2.54136176e+01
-3.03756528e+01
-2.38967465e+01
-2.46112004e+01
-2.67118702e+01
-2.23036613e+01
-2.59463522e+01
-2.36177929e+01
-1.81049884e+01
-2.47118568e+01
-1.97062073e+01
-2.51239541e+01
-2.23634803e+01
-2.98999174e+01
-4.10737473e+01
-9.42962605e+01
-7.89126453e+01
-7.23409719e+01
-7.59931526e+01
-1.26175601e+01
-1.64753726e+01
-6.64812587e+01
4.29712696e+01
-1.27103488e+01
-1.14089191e+01
4.50057619e+00
7.99489339e+00
-1.04228426e+01
-1.80253114e+01
-2.00089972e+01
-6.02117012e+01
-3.37546848e+01
-3.80602417e+01
-3.98987856e+01
-1.32824200e+02
1.44661790e+00
1.08884063e+00
-8.30467343e-02
2.53377485e+00
-2.78566895e+01
-2.73775694e+01
-2.18249613e+01
-2.67523532e+01
-2.18400986e+01
-2.27136763e+01
-2.28942966e+01
-1.74884590e+01
-2.02930289e+01
-2.40485440e+01
-1.63395246e+01
-1.97642969e+01
-1.56514821e+01
-1.07236019e+01
-2.49798282e+01
-2.29192862e+01
-1.42424440e+01
-1.17768108e+02
-8.87759132e+01
-6.79991627e+01
-5.78300991e+01
-2.35027924e+01
-1.42907606e+01
-1.43946539e+02
-1.55468014e+00
-1.34040030e+01
-9.13860345e+01
-1.08102975e+01
-1.30069928e+01
-2.01307913e+00
5.05579872e+01
-1.15163659e+02
-1.86954435e+01
-2.36297145e+01
</DataArray>
<DataArray type="Float32" Name="Logarithmic_strain_Max_Principal" format="ascii">
7.65816122e-02
7.91953951e-02
7.23792762e-02
7.01268800e-02
7.29291253e-02
7.44549651e-02
6.93427986e-02
6.82491958e-02
8.46919008e-02
7.84811191e-02
7.64111187e-02
7.33378837e-02
8.99710320e-02
8.45695566e-02
7.84461647e-02
7.85803730e-02
9.59762186e-02
9.29110367e-02
8.33358373e-02
8.00570138e-02
1.03274833e-01
1.01731665e-01
8.71658977e-02
8.78239935e-02
1.23496503e-01
1.19091310e-01
1.03314571e-01
1.02055080e-01
6.03516232e-02
5.82303051e-02
5.84434746e-02
5.54638710e-02
6.52435776e-02
6.21958198e-02
6.03838796e-02
6.39520804e-02
6.88792663e-02
7.44031966e-02
6.98344503e-02
7.60132453e-02
7.50224367e-02
8.55804980e-02
5.59716728e-02
5.40991314e-02
5.19179590e-02
4.86561107e-02
4.72300779e-02
5.01371631e-02
2.28246117e-02
3.18831376e-02
1.74908366e-02
4.18528595e-02
2.07986757e-02
4.09202365e-02
1.81294112e-02
3.63391452e-02
5.51616875e-02
5.54250441e-02
4.95038852e-02
5.05663427e-02
4.16320763e-02
4.17310647e-02
1.51510388e-02
2.27867903e-02
2.47870980e-03
4.62804497e-03
9.19939684e-03
5.94110774e-03
1.04144300e-02
9.77058725e-03
5.43659497e-02
5.75506371e-02
4.98631019e-02
5.24277724e-02
4.28649322e-02
4.35611000e-02
1.66558984e-02
3.04464206e-02
2.13045856e-03
5.34133588e-03
1.59083182e-04
1.34896323e-04
9.77272357e-05
5.41535725e-05
6.06888719e-02
6.51880577e-02
5.42989057e-02
5.93159851e-02
5.28459549e-02
5.08245761e-02
2.58772187e-02
4.38849324e-02
2.28451399e-03
1.10472521e-02
2.93486140e-04
1.86231999e-04
3.04472596e-05
4.54269120e-05
6.49409182e-02
6.27177125e-02
6.40762495e-02
6.49800543e-02
6.23823944e-02
6.52858778e-02
6.46393634e-02
6.86117704e-02
7.14120530e-02
7.53171351e-02
7.02535268e-02
7.68210851e-02
7.28456676e-02
8.04668050e-02
6.06806874e-02
6.19733576e-02
6.56869092e-02
8.28102216e-02
8.46098978e-02
8.67495649e-02
9.22380053e-02
5.26520913e-02
4.94174650e-02
6.16263617e-02
8.34596157e-02
4.73636193e-02
4.08686772e-02
4.64692142e-02
4.49730344e-02
4.67934627e-02
4.54242500e-02
5.43966522e-02
6.31773202e-02
4.72170766e-02
4.59189657e-02
6.21312996e-02
7.40475282e-02
2.51566362e-05
1.81367595e-05
2.68850063e-05
4.34911599e-05
5.76673765e-02
5.93220294e-02
6.23230734e-02
5.98806553e-02
6.33352110e-02
6.60570855e-02
6.45397939e-02
6.87588518e-02
6.78991657e-02
7.24196490e-02
6.58263061e-02
6.90999702e-02
6.38689920e-02
6.97126295e-02
7.06388960e-02
6.90743197e-02
6.52796003e-02
8.76131803e-02
8.39312058e-02
8.13806895e-02
8.34819824e-02
6.91851702e-02
6.25500018e-02
9.72706657e-02
5.08953642e-02
5.37641151e-02
6.90613585e-02
5.17261834e-02
5.18984888e-02
6.71936848e-02
1.16935819e-01
9.98981372e-02
6.13502013e-02
5.68799730e-02
</DataArray>
<DataArray type="Float32" Name="Logarithmic_strain_Min_Principal" format="ascii">
-1.02772743e-01
-1.07054722e-01
-1.01391267e-01
-9.99815576e-02
-9.87073742e-02
-1.02296859e-01
-9.83849941e-02
-9.68342684e-02
-1.14213403e-01
-1.08484356e-01
-1.08997319e-01
-1.04827553e-01
-1.23941831e-01
-1.18178081e-01
-1.16799571e-01
-1.13624325e-01
-1.34202585e-01
-1.27624599e-01
-1.24547627e-01
-1.18232167e-01
-1.42995320e-01
-1.30990097e-01
-1.29178941e-01
-1.24082581e-01
-1.54809177e-01
-1.44775614e-01
-1.39428392e-01
-1.34463575e-01
-8.84890277e-02
-8.79559405e-02
-8.81987847e-02
-8.63824002e-02
-8.74548908e-02
-8.98890169e-02
-7.87806474e-02
-9.23976653e-02
-7.99357221e-02
-9.47290709e-02
-7.38454582e-02
-9.38497310e-02
-7.95059502e-02
-1.03202216e-01
-7.31984973e-02
-7.30651356e-02
-7.33884135e-02
-7.26884026e-02
-5.69957197e-02
-6.46956498e-02
-1.97077307e-02
-2.77364881e-02
-1.28453219e-02
-3.17814974e-02
-1.39228071e-02
-3.20073180e-02
-1.71265476e-02
-2.93635139e-02
-6.40373901e-02
-6.81890361e-02
-6.16580471e-02
-6.53547179e-02
-4.41275062e-02
-4.44425680e-02
-1.00369118e-02
-1.96283755e-02
-2.74908366e-03
-3.97670208e-03
-1.36622565e-02
-4.48799144e-03
-1.43326552e-02
-5.92866908e-03
-6.75586835e-02
-7.26951584e-02
-6.37345687e-02
-6.91326614e-02
-4.91403723e-02
-5.28611941e-02
-1.37942720e-02
-3.48931725e-02
-9.16179997e-04
-3.11632620e-03
-1.22144555e-04
-8.94950921e-05
-1.74074776e-04
-1.39925289e-04
-8.10033605e-02
-8.47550705e-02
-7.59829115e-02
-8.27327631e-02
-6.74999095e-02
-7.26954099e-02
-2.83191623e-02
-5.77224890e-02
-2.28009088e-03
-9.91164814e-03
-4.22083052e-04
-2.07364996e-04
-9.36767392e-05
-9.53236304e-05
-9.37936977e-02
-9.47451536e-02
-9.21141598e-02
-9.19929110e-02
-9.65373013e-02
-9.75314025e-02
-1.02484526e-01
-1.04776320e-01
-1.07387640e-01
-1.13658714e-01
-1.08502597e-01
-1.17501701e-01
-1.10055044e-01
-1.18938858e-01
-8.73575145e-02
-8.57015997e-02
-9.89516846e-02
-1.25546592e-01
-1.34771112e-01
-1.36246562e-01
-1.37343369e-01
-7.43949423e-02
-7.22372904e-02
-9.02796276e-02
-7.36770779e-02
-6.21056859e-02
-6.22138279e-02
-5.64252889e-02
-4.55997686e-02
-6.32825657e-02
-6.53367117e-02
-7.03872000e-02
-9.97967236e-02
-7.51072001e-02
-7.46827796e-02
-8.87946021e-02
-1.27493009e-01
-2.18913592e-05
-1.61651283e-05
-2.98467576e-05
-3.61019311e-05
-9.48152728e-02
-9.48374905e-02
-9.36903069e-02
-9.48460139e-02
-9.29355323e-02
-9.68396729e-02
-9.38036218e-02
-9.98917138e-02
-9.45765637e-02
-1.06979258e-01
-9.40232296e-02
-1.05761889e-01
-9.32948925e-02
-1.02666365e-01
-9.67246601e-02
-9.20671187e-02
-1.06208957e-01
-1.40089747e-01
-1.34813037e-01
-1.28956651e-01
-1.25521496e-01
-9.18149097e-02
-8.44765417e-02
-1.37881391e-01
-7.45082051e-02
-7.55523751e-02
-1.04676452e-01
-7.54165258e-02
-7.58263040e-02
-8.89513748e-02
-1.05616294e-01
-1.39469713e-01
-8.54116194e-02
-8.19666460e-02
</DataArray>
<DataArray type="Float32" Name="Plastic_strain_Max_Principal" format="ascii">
7.64370784e-02
7.91636817e-02
7.22969305e-02
7.00440556e-02
7.27372169e-02
7.43964482e-02
6.92160288e-02
6.82104211e-02
8.47231820e-02
7.85384718e-02
7.63316583e-02
7.33234603e-02
8.98843519e-02
8.99359733e-02
7.83220064e-02
8.01728573e-02
9.60043706e-02
9.99670178e-02
8.34389962e-02
8.26026415e-02
1.02392595e-01
1.14196327e-01
8.92575700e-02
8.75724866e-02
1.23875611e-01
1.30828902e-01
1.02618895e-01
1.07194584e-01
6.02662517e-02
5.81008997e-02
5.83698726e-02
5.52864075e-02
6.67405892e-02
6.35469728e-02
5.15041780e-02
6.02805460e-02
4.93322255e-02
6.22602717e-02
4.38316539e-02
6.04669104e-02
4.12283605e-02
6.96479132e-02
5.58454869e-02
5.37582245e-02
5.15770786e-02
4.83446587e-02
4.16807826e-02
5.03814251e-02
2.03355870e-02
2.91446671e-02
1.70870416e-02
2.53148703e-02
1.57180155e-02
2.71695244e-02
2.04077866e-02
3.12893195e-02
5.48882382e-02
5.51029388e-02
4.98960568e-02
5.03239753e-02
4.38539106e-02
3.98048183e-02
7.04133220e-03
1.35284543e-02
2.11989864e-03
4.23314497e-03
9.39464848e-03
5.65100075e-03
1.03517463e-02
9.42141082e-03
5.40747931e-02
5.74232806e-02
4.95925597e-02
5.21900691e-02
4.50689802e-02
4.21143922e-02
1.24776650e-02
3.11343845e-02
1.39650985e-03
5.00486797e-03
4.54630918e-05
1.23422477e-05
0.00000000e+00
0.00000000e+00
6.09110706e-02
6.55981228e-02
5.46215530e-02
5.96844275e-02
5.48800472e-02
5.38361249e-02
1.99155100e-02
4.60946454e-02
1.98056792e-03
1.06616527e-02
1.00283825e-04
2.96091894e-05
0.00000000e+00
0.00000000e+00
6.48825131e-02
6.25554258e-02
6.39219247e-02
6.48179529e-02
6.22156570e-02
6.49903710e-02
6.45248443e-02
6.23769495e-02
7.11827893e-02
7.63974516e-02
7.00911433e-02
7.63340797e-02
7.28238076e-02
7.97120854e-02
6.17032652e-02
6.18963623e-02
6.50864978e-02
8.57028395e-02
8.47409125e-02
8.75601526e-02
9.30281542e-02
4.92373011e-02
4.92411535e-02
6.57678905e-02
8.48940052e-02
4.28753069e-02
4.05295063e-02
4.51654520e-02
4.44960259e-02
4.63918499e-02
4.51117717e-02
5.51596703e-02
6.89699575e-02
4.73931357e-02
4.61391006e-02
5.22165755e-02
8.07124116e-02
0.00000000e+00
0.00000000e+00
0.00000000e+00
0.00000000e+00
5.76540157e-02
5.90850739e-02
6.22001034e-02
5.95881930e-02
6.30838675e-02
6.58094068e-02
6.43997202e-02
6.28415835e-02
6.74780831e-02
7.40620289e-02
6.53062072e-02
6.85086912e-02
6.33679703e-02
6.90241251e-02
6.99543552e-02
6.89834971e-02
6.59783663e-02
9.17750478e-02
8.40459224e-02
8.26829597e-02
8.42398964e-02
7.14019484e-02
6.15780624e-02
9.89708900e-02
4.61953473e-02
5.65131940e-02
7.18766935e-02
5.96534568e-02
5.46471421e-02
6.56702471e-02
1.14369668e-01
1.17700160e-01
7.35372454e-02
5.51060047e-02
</DataArray>
<DataArray type="Float32" Name="Plastic_strain_Min_Principal" format="ascii">
-1.02108978e-01
-1.06078334e-01
-1.00653080e-01
-9.91239287e-02
-9.81230475e-02
-1.01520512e-01
-9.76889152e-02
-9.61532965e-02
-1.13110237e-01
-1.07268685e-01
-1.07967200e-01
-1.04004744e-01
-1.22248776e-01
-1.23951435e-01
-1.15617760e-01
-1.15035375e-01
-1.32091984e-01
-1.33683994e-01
-1.23582192e-01
-1.22102350e-01
-1.39142498e-01
-1.45766445e-01
-1.32202324e-01
-1.22979100e-01
-1.50580823e-01
-1.53910831e-01
-1.35133125e-01
-1.40265318e-01
-8.77627376e-02
-8.72810595e-02
-8.75494890e-02
-8.57938528e-02
-8.89158528e-02
-9.12945187e-02
-6.52631945e-02
-8.66718364e-02
-5.60241992e-02
-7.46369993e-02
-3.79592616e-02
-7.16774939e-02
-3.61586763e-02
-8.08352431e-02
-7.23475739e-02
-7.25416429e-02
-7.24915676e-02
-7.21835420e-02
-4.84664529e-02
-6.13803101e-02
-1.18520235e-02
-1.84206932e-02
-9.48315176e-03
-1.84239019e-02
-8.75449336e-03
-1.97375761e-02
-1.81617513e-02
-2.82417880e-02
-6.31850837e-02
-6.73054866e-02
-6.21293858e-02
-6.48270305e-02
-4.62385947e-02
-4.22797184e-02
-5.13669784e-03
-1.04402438e-02
-2.89226657e-03
-3.80994997e-03
-1.28368260e-02
-4.77653204e-03
-1.36818634e-02
-5.49147837e-03
-6.68039881e-02
-7.20364340e-02
-6.35020901e-02
-6.85327072e-02
-5.22972997e-02
-4.78718436e-02
-8.63620680e-03
-3.62812124e-02
-1.09776051e-03
-3.17142612e-03
-3.02436049e-05
-9.09131347e-06
0.00000000e+00
0.00000000e+00
-7.90064260e-02
-8.30129460e-02
-7.50897862e-02
-8.09831955e-02
-6.80130757e-02
-7.65648521e-02
-1.98062425e-02
-5.89731373e-02
-2.26559819e-03
-9.19113724e-03
-1.51960645e-04
-2.07465491e-05
0.00000000e+00
0.00000000e+00
-9.33128931e-02
-9.41373166e-02
-9.18528475e-02
-9.13495887e-02
-9.64153223e-02
-9.71271256e-02
-1.02205779e-01
-9.39510125e-02
-1.06984967e-01
-1.15955370e-01
-1.08833864e-01
-1.16632092e-01
-1.10417161e-01
-1.17505213e-01
-8.93258937e-02
-8.52329284e-02
-9.62133620e-02
-1.26907721e-01
-1.30211625e-01
-1.33775949e-01
-1.34975851e-01
-6.95948374e-02
-7.24002514e-02
-9.43692364e-02
-8.36605132e-02
-5.36538862e-02
-6.23538727e-02
-5.43348057e-02
-4.74166976e-02
-6.34061340e-02
-6.50624484e-02
-6.63098849e-02
-1.05851311e-01
-7.46105555e-02
-7.42519535e-02
-7.11630890e-02
-1.31695777e-01
0.00000000e+00
0.00000000e+00
0.00000000e+00
0.00000000e+00
-9.46299993e-02
-9.42449346e-02
-9.37825143e-02
-9.41817407e-02
-9.28137451e-02
-9.66107845e-02
-9.38428342e-02
-8.94120859e-02
-9.42794215e-02
-1.10393044e-01
-9.37353801e-02
-1.05198316e-01
-9.30738300e-02
-1.02521326e-01
-9.56775825e-02
-9.21606477e-02
-1.05885761e-01
-1.38744012e-01
-1.29319990e-01
-1.27898160e-01
-1.24246169e-01
-9.60956354e-02
-8.34831763e-02
-1.34502530e-01
-6.71875383e-02
-8.13093605e-02
-1.04722036e-01
-6.63368951e-02
-8.14300459e-02
-7.67579538e-02
-1.16320372e-01
-1.66712975e-01
-1.07763175e-01
-7.91794211e-02
</DataArray>
</PointData>
<Cells>
<DataArray type="Int32" Name="connectivity" format="ascii">
0 1 2 3 4 5 6 7
1 8 9 2 5 10 11 6
8 12 13 9 10 14 15 11
12 16 17 13 14 18 19 15
16 20 21 17 18 22 23 19
20 24 25 21 22 26 27 23
3 2 28 29 7 6 30 31
2 9 32 28 6 11 33 30
9 13 34 32 11 15 35 33
13 17 36 34 15 19 37 35
17 21 38 36 19 23 39 37
21 25 40 38 23 27 41 39
29 28 42 43 31 30 44 45
28 32 46 42 30 33 47 44
32 34 48 46 33 35 49 47
34 36 50 48 35 37 51 49
36 38 52 50 37 39 53 51
38 40 54 52 39 41 55 53
43 42 56 57 45 44 58 59
42 46 60 56 44 47 61 58
46 48 62 60 47 49 63 61
48 50 64 62 49 51 65 63
52 54 66 67 53 55 68 69
57 56 70 71 59 58 72 73
56 60 74 70 58 61 75 72
60 62 76 74 61 63 77 75
62 64 78 76 63 65 79 77
64 67 80 78 65 69 81 79
67 66 82 80 69 68 83 81
71 70 84 85 73 72 86 87
70 74 88 84 72 75 89 86
74 76 90 88 75 77 91 89
76 78 92 90 77 79 93 91
78 80 94 92 79 81 95 93
80 82 96 94 81 83 97 95
4 5 6 7 98 99 100 101
5 10 11 6 99 102 103 100
10 14 15 11 102 104 105 103
14 18 19 15 104 106 107 105
18 22 23 19 106 108 109 107
22 26 27 23 108 110 111 109
7 6 30 31 101 100 112 113
6 11 33 30 100 103 114 112
11 15 35 33 103 105 115 114
15 19 37 35 105 107 116 115
19 23 39 37 107 109 117 116
23 27 41 39 109 111 118 117
31 30 44 45 113 112 119 120
30 33 47 44 112 114 121 119
33 35 49 47 114 115 122 121
45 44 58 59 120 119 123 124
44 47 61 58 119 121 125 123
47 49 63 61 121 122 126 125
59 58 72 73 124 123 127 128
58 61 75 72 123 125 129 127
61 63 77 75 125 126 130 129
73 72 86 87 128 127 131 132
72 75 89 86 127 129 133 131
75 77 91 89 129 130 134 133
81 83 97 95 135 136 137 138
98 99 100 101 139 140 141 142
99 102 103 100 140 143 144 141
102 104 105 103 143 145 146 144
104 106 107 105 145 147 148 146
106 108 109 107 147 149 150 148
108 110 111 109 149 151 152 150
101 100 112 113 142 141 153 154
100 103 114 112 141 144 155 153
103 105 115 114 144 146 156 155
105 107 116 115 146 148 157 156
107 109 117 116 148 150 158 157
109 111 118 117 150 152 159 158
113 112 119 120 154 153 160 161
112 114 121 119 153 155 162 160
120 119 123 124 161 160 163 164
119 121 125 123 160 162 165 163
124 123 127 128 164 163 166 167
123 125 129 127 163 165 168 166
125 126 130 129 165 169 170 168
128 127 131 132 167 166 171 172
</DataArray>
<DataArray type="Int32" Name="offsets" format="ascii">
8
16
24
32
40
48
56
64
72
80
88
96
104
112
120
128
136
144
152
160
168
176
184
192
200
208
216
224
232
240
248
256
264
272
280
288
296
304
312
320
328
336
344
352
360
368
376
384
392
400
408
416
424
432
440
448
456
464
472
480
488
496
504
512
520
528
536
544
552
560
568
576
584
592
600
608
616
624
632
640
</DataArray>
<DataArray type="UInt8" Name="types" format="ascii">
12
12
12
12
12
12
12
12
12
12
12
12
12
12
12
12
12
12
12
12
12
12
12
12
12
12
12
12
12
12
12
12
12
12
12
12
12
12
12
12
12
12
12
12
12
12
12
12
12
12
12
12
12
12
12
12
12
12
12
12
12
12
12
12
12
12
12
12
12
12
12
12
12
12
12
12
12
12
12
12
</DataArray>
</Cells>
</Piece>
</UnstructuredGrid>
</VTKFile>
