<VTKFile type="UnstructuredGrid" version="0.1" byte_order="LittleEndian">
<UnstructuredGrid>
<Piece NumberOfPoints="191" NumberOfCells="79">
<Points>
<DataArray type="Float64" NumberOfComponents="3" format="ascii">
 1.02702749e+00  5.16463280e+00  1.92234778e+00
 2.04594326e+00  5.15750313e+00  1.93884695e+00
 2.04637694e+00  6.19778204e+00  1.90963018e+00
 1.02272773e+00  6.19247675e+00  1.90092468e+00
 1.02197742e+00  5.18967199e+00  2.88200474e+00
 2.05007768e+00  5.18843412e+00  2.88660479e+00
 2.04162502e+00  6.24074697e+00  2.84991431e+00
 1.02389193e+00  6.21677065e+00  2.85819149e+00
 3.08005905e+00  5.14595461e+00  1.95139217e+00
 3.08683157e+00  6.19105434e+00  1.91083395e+00
 3.08092690e+00  5.18115044e+00  2.87150764e+00
 3.11705446e+00  6.22903395e+00  2.80566454e+00
 5.08192968e+00  5.14333963e+00  2.00002718e+00
 6.08192921e+00  5.14619827e+00  2.00002074e+00
 6.07906628e+00  6.14620543e+00  1.99998665e+00
 5.07904148e+00  6.14334965e+00  1.99997270e+00
 5.08192492e+00  5.14338827e+00  3.00001431e+00
 6.08191442e+00  5.14625740e+00  3.00002861e+00
 6.07904720e+00  6.14624453e+00  2.99997592e+00
 5.07906580e+00  6.14337444e+00  2.99998331e+00
 0.00000000e+00  0.00000000e+00  2.81006980e+00
 1.03584898e+00  0.00000000e+00  2.80820394e+00
 1.03732312e+00  1.03886759e+00  2.81387591e+00
 0.00000000e+00  1.03763080e+00  2.81832743e+00
 0.00000000e+00  0.00000000e+00  3.74505544e+00
 1.04894888e+00  0.00000000e+00  3.74506140e+00
 1.05008113e+00  1.03827047e+00  3.74731731e+00
 0.00000000e+00  1.03598762e+00  3.75363469e+00
 2.07919860e+00  0.00000000e+00  2.79652190e+00
 2.07026052e+00  1.03216791e+00  2.80464315e+00
 2.09479952e+00  0.00000000e+00  3.73735714e+00
 2.09697962e+00  1.04011464e+00  3.73687220e+00
 3.11790156e+00  0.00000000e+00  2.78375483e+00
 3.11864281e+00  1.02770996e+00  2.78662777e+00
 3.14092660e+00  0.00000000e+00  3.72390938e+00
 3.13666701e+00  1.03521848e+00  3.72438502e+00
 4.16455221e+00  0.00000000e+00  2.77194715e+00
 4.16669035e+00  1.02923965e+00  2.76773763e+00
 4.18071461e+00  0.00000000e+00  3.71339202e+00
 4.17897320e+00  1.02887106e+00  3.70749974e+00
 5.21240234e+00  0.00000000e+00  2.75701714e+00
 5.21359062e+00  1.03162134e+00  2.75953817e+00
 5.21835136e+00  0.00000000e+00  3.70634270e+00
 5.21816874e+00  1.02717745e+00  3.69576907e+00
 6.25586510e+00  0.00000000e+00  2.75110650e+00
 6.25665140e+00  1.03093255e+00  2.75393581e+00
 6.24803400e+00  0.00000000e+00  3.70378256e+00
 6.25825453e+00  1.02600992e+00  3.69564652e+00
 1.02542913e+00  2.07285094e+00  2.83189869e+00
 0.00000000e+00  2.08353615e+00  2.83462882e+00
 1.04974735e+00  2.07820845e+00  3.76774383e+00
 0.00000000e+00  2.07845116e+00  3.76956129e+00
 2.06812000e+00  2.07309771e+00  2.81195474e+00
 2.10367799e+00  2.08236790e+00  3.74292135e+00
 3.11053967e+00  2.07883048e+00  2.77695632e+00
 3.14326715e+00  2.07705045e+00  3.69598508e+00
 4.16469383e+00  2.08777881e+00  2.76896954e+00
 4.17235088e+00  2.06667972e+00  3.68180680e+00
 5.21289206e+00  2.08109713e+00  2.76919889e+00
 5.21645594e+00  2.07510138e+00  3.68391228e+00
 6.25418186e+00  2.08266020e+00  2.76492333e+00
 6.25676155e+00  2.07460093e+00  3.68331361e+00
 1.02081740e+00  3.12576365e+00  2.86706734e+00
 0.00000000e+00  3.12312531e+00  2.86289215e+00
 1.04573500e+00  3.12370014e+00  3.79485273e+00
 0.00000000e+00  3.12188101e+00  3.80625582e+00
 2.06083465e+00  3.11028647e+00  2.84010363e+00
 2.11628580e+00  3.12815571e+00  3.73328543e+00
 3.05018210e+00  3.09576988e+00  2.61087489e+00
 3.16639757e+00  3.11196756e+00  3.64813137e+00
 1.02045941e+00  4.15437603e+00  2.88952494e+00
 0.00000000e+00  4.16025877e+00  2.88601851e+00
 1.03477228e+00  4.17035627e+00  3.84474730e+00
 0.00000000e+00  4.17439127e+00  3.83189130e+00
 0.00000000e+00  5.18472433e+00  2.87957835e+00
 1.03277099e+00  5.22021151e+00  3.83277178e+00
 0.00000000e+00  5.20671940e+00  3.82315302e+00
 2.05145478e+00  4.15490866e+00  2.91599607e+00
 2.08315134e+00  4.17961264e+00  3.82135701e+00
 2.08114648e+00  5.20797157e+00  3.83030581e+00
 0.00000000e+00  6.21874475e+00  2.84877944e+00
 1.04677176e+00  6.26286745e+00  3.77804136e+00
 0.00000000e+00  6.27378178e+00  3.79184365e+00
 2.08215165e+00  6.27815962e+00  3.77533507e+00
 3.11160684e+00  5.19075346e+00  3.72674298e+00
 3.17279267e+00  6.22169638e+00  3.73232317e+00
 0.00000000e+00  0.00000000e+00  4.67293835e+00
 1.06134260e+00  0.00000000e+00  4.67030573e+00
 1.06443977e+00  1.03960907e+00  4.67361546e+00
 0.00000000e+00  1.03677607e+00  4.67572784e+00
 2.11233377e+00  0.00000000e+00  4.66655588e+00
 2.11997867e+00  1.04638076e+00  4.66584730e+00
 3.15459037e+00  0.00000000e+00  4.66042423e+00
 3.15952182e+00  1.04862738e+00  4.65825605e+00
 4.19176435e+00  0.00000000e+00  4.65299034e+00
 4.18819857e+00  1.04386294e+00  4.65163040e+00
 5.22190666e+00  0.00000000e+00  4.64999771e+00
 5.21737766e+00  1.03865218e+00  4.64588022e+00
 6.24633694e+00  0.00000000e+00  4.64897585e+00
 6.24748898e+00  1.04148877e+00  4.64779615e+00
 1.07487917e+00  2.08568287e+00  4.67934895e+00
 0.00000000e+00  2.07739329e+00  4.68699980e+00
 2.13475251e+00  2.09451437e+00  4.66392851e+00
 3.17274690e+00  2.09359503e+00  4.64205742e+00
 4.19407892e+00  2.08339000e+00  4.62481356e+00
 5.20914698e+00  2.07137060e+00  4.61464071e+00
 6.22747469e+00  2.07413387e+00  4.61516666e+00
 1.07688880e+00  3.11773849e+00  4.71246910e+00
 0.00000000e+00  3.13252497e+00  4.72771406e+00
 2.15184069e+00  3.12231326e+00  4.65726948e+00
 3.19948912e+00  3.11571598e+00  4.60618639e+00
 4.18573570e+00  3.05162120e+00  3.55791306e+00
 4.21163511e+00  3.10242701e+00  4.59146833e+00
 1.08088219e+00  4.16504383e+00  4.77487612e+00
 0.00000000e+00  4.15349674e+00  4.74410295e+00
 2.16420197e+00  4.15638828e+00  4.68319988e+00
 1.06736803e+00  5.24813032e+00  4.72036314e+00
 0.00000000e+00  5.25325680e+00  4.72098780e+00
 1.08044934e+00  6.32861757e+00  4.69325161e+00
 0.00000000e+00  6.32512569e+00  4.70399618e+00
 2.12215543e+00  5.22595549e+00  4.71838188e+00
 2.18386412e+00  6.28518391e+00  4.69621372e+00
 3.18579197e+00  5.16258383e+00  4.62627172e+00
 3.26127076e+00  6.18424749e+00  4.64909315e+00
 4.05867863e+00  5.13999462e+00  3.50212908e+00
 4.16052341e+00  6.14026308e+00  3.56475210e+00
 4.23836088e+00  5.10265875e+00  4.59014750e+00
 4.25320578e+00  6.10404301e+00  4.59052277e+00
 5.23876810e+00  5.08933115e+00  3.59027195e+00
 6.23866272e+00  5.07579470e+00  3.59026217e+00
 6.25220203e+00  6.07570934e+00  3.59030128e+00
 5.25225735e+00  6.08927822e+00  3.59036064e+00
 5.23872662e+00  5.08931208e+00  4.59026909e+00
 6.23870659e+00  5.07576466e+00  4.59028435e+00
 6.25219679e+00  6.07568264e+00  4.59029245e+00
 5.25237513e+00  6.08912849e+00  4.59035730e+00
 0.00000000e+00  0.00000000e+00  5.59030676e+00
 1.06542075e+00  0.00000000e+00  5.59030676e+00
 1.07129335e+00  1.04327059e+00  5.59030676e+00
 0.00000000e+00  1.03839481e+00  5.59030676e+00
 2.12113380e+00  0.00000000e+00  5.59030676e+00
 2.12637901e+00  1.05071032e+00  5.59030676e+00
 3.16051841e+00  0.00000000e+00  5.59030676e+00
 3.16833115e+00  1.05455232e+00  5.59030676e+00
 4.19356728e+00  0.00000000e+00  5.59030676e+00
 4.19533825e+00  1.05422628e+00  5.59030676e+00
 5.22223473e+00  0.00000000e+00  5.59030676e+00
 5.21850348e+00  1.04985476e+00  5.59030676e+00
 6.25185061e+00  0.00000000e+00  5.59030676e+00
 6.23583984e+00  1.05654657e+00  5.59030676e+00
 1.08706999e+00  2.07771397e+00  5.59030676e+00
 0.00000000e+00  2.07325292e+00  5.59030676e+00
 2.15151811e+00  2.09495854e+00  5.59030676e+00
 3.18363857e+00  2.10164714e+00  5.59030676e+00
 4.20294428e+00  2.09372520e+00  5.59030676e+00
 5.20774698e+00  2.08284473e+00  5.59030676e+00
 6.21812916e+00  2.08132982e+00  5.59030676e+00
 1.09670794e+00  3.15180945e+00  5.59030676e+00
 0.00000000e+00  3.15777445e+00  5.59030676e+00
 2.17690253e+00  3.13185215e+00  5.59030676e+00
 3.21109319e+00  3.12204313e+00  5.59030676e+00
 4.21220207e+00  3.10333228e+00  5.59030676e+00
 5.21210432e+00  3.08853793e+00  4.58966923e+00
 5.21260452e+00  3.08926606e+00  5.59030676e+00
 6.21389961e+00  3.07766032e+00  4.58914280e+00
 6.21412277e+00  3.07930446e+00  5.59030676e+00
 3.22562313e+00  4.11726093e+00  4.57966423e+00
 3.23096585e+00  4.12440777e+00  5.59030676e+00
 2.22417998e+00  4.14947939e+00  5.59030676e+00
 4.22546387e+00  4.10231209e+00  4.59055090e+00
 4.22564077e+00  4.10256958e+00  5.59030676e+00
 5.22528648e+00  4.08944845e+00  4.59024382e+00
 5.22537422e+00  4.08934736e+00  5.59030676e+00
 6.22509861e+00  4.07613182e+00  4.59032536e+00
 6.22500467e+00  4.07597733e+00  5.59030676e+00
 0.00000000e+00  4.12988234e+00  5.59030676e+00
 1.11032915e+00  4.15081358e+00  5.59030676e+00
 1.09317660e+00  5.27119350e+00  5.59030676e+00
 0.00000000e+00  5.28408241e+00  5.59030676e+00
 5.23867750e+00  5.08930540e+00  5.59030676e+00
 4.23878956e+00  5.10271883e+00  5.59030676e+00
 6.23873615e+00  5.07578516e+00  5.59030676e+00
 1.09963274e+00  6.34490824e+00  5.59030676e+00
 0.00000000e+00  6.34185743e+00  5.59030676e+00
 2.15292025e+00  5.23154449e+00  5.59030676e+00
 2.22273874e+00  6.28188562e+00  5.59030676e+00
 3.20068550e+00  5.14671564e+00  5.59030676e+00
 3.27632380e+00  6.17276287e+00  5.59030676e+00
 4.25361633e+00  6.10322523e+00  5.59030676e+00
 5.25239420e+00  6.08906651e+00  5.59030676e+00
 6.25219011e+00  6.07568073e+00  5.59030676e+00
</DataArray>
</Points>
<PointData Tensors="Stress_Components,Plastic_strain_components" Vevtors="Spatial_displacement,Reaction_force" Scalars="Equivalent_plastic_strain,Stress_Mises,Stress_Max_Principal,Stress_Mid_Principal,Stress_Min_Principal,Stress_Pressure,Stress_Tresca,Stress_Third_Invariant,Plastic_strain_Max_Principal,Plastic_strain_Min_Principal">
<DataArray type="Float32" Name="Stress_Components" NumberOfComponents="9" format="ascii">
1.33508004e+01 -2.67035356e-01 3.29577947e-01 -2.67035356e-01 1.07246658e+01 2.24355713e-01 3.29577947e-01 2.24355713e-01 -3.62228215e+00
1.16159540e+00 -2.63684682e+00 6.94785699e-01 -2.63684682e+00 8.52416515e-01 2.33010442e+00 6.94785699e-01 2.33010442e+00 -2.57764426e+01
-4.58482170e+00 1.45664573e-01 1.16234963e+00 1.45664573e-01 1.32156610e+00 -1.84572575e+00 1.16234963e+00 -1.84572575e+00 -3.30615616e+01
-3.71194988e-01 -6.10486545e-01 -3.41241959e-01 -6.10486545e-01 1.22190595e-01 -1.72381178e-01 -3.41241959e-01 -1.72381178e-01 -3.03917770e+01
1.62832548e+01 1.32110494e-01 1.13498613e+00 1.32110494e-01 1.73436767e+01 -3.20933543e-01 1.13498613e+00 -3.20933543e-01 6.38685787e+00
1.99018879e+01 -1.76352184e+00 2.52073929e+00 -1.76352184e+00 2.24660345e+01 1.13933558e+00 2.52073929e+00 1.13933558e+00 1.28999543e+01
-1.57919855e+01 -2.01641031e-01 4.32223871e-01 -2.01641031e-01 -4.21303135e+00 -1.36747345e-01 4.32223871e-01 -1.36747345e-01 -4.97417822e+01
8.79096660e+00 2.14205404e-01 5.22499166e-01 2.14205404e-01 8.29801106e+00 1.27664182e+00 5.22499166e-01 1.27664182e+00 -1.15820379e+01
-1.56135788e+01 -1.02362339e+00 -8.61172862e-01 -1.02362339e+00 -1.44447281e+01 5.55609752e+00 -8.61172862e-01 5.55609752e+00 -6.36273870e+01
-7.56738052e+01 -2.40548575e+00 -4.23117566e+00 -2.40548575e+00 -7.10625153e+01 4.78497422e+00 -4.23117566e+00 4.78497422e+00 -1.89108101e+02
-6.54265887e+01 7.08255625e+00 -2.43746863e+01 7.08255625e+00 -6.80449249e+01 -3.13463942e+00 -2.43746863e+01 -3.13463942e+00 -1.60733505e+02
-4.68354185e+01 1.00163436e+00 -5.96482038e+00 1.00163436e+00 -6.78092432e+01 -1.27907312e+00 -5.96482038e+00 -1.27907312e+00 -1.51883093e+02
-1.74115531e-01 -6.18767112e-01 -2.28898082e-01 -6.18767112e-01 2.43557524e-01 1.97841763e-01 -2.28898082e-01 1.97841763e-01 -4.81628060e-01
-3.95025965e-01 -1.00713275e-01 -1.18138850e-01 -1.00713275e-01 -7.58871362e-02 -2.12064586e-01 -1.18138850e-01 -2.12064586e-01 5.87219731e-02
6.48621544e-01 -1.49928868e-01 -5.46370260e-02 -1.49928868e-01 -6.83916286e-02 5.62184028e-01 -5.46370260e-02 5.62184028e-01 -9.92385060e-01
3.85176316e-01 -6.68136448e-01 -2.17747092e-02 -6.68136448e-01 -2.33335353e-01 -5.04669219e-01 -2.17747092e-02 -5.04669219e-01 -5.64132735e-01
2.23854259e-01 2.06162050e-01 3.73208463e-01 2.06162050e-01 9.25640166e-02 2.05642551e-01 3.73208463e-01 2.05642551e-01 -3.29136699e-02
-7.84844533e-02 4.08769958e-02 1.39423415e-01 4.08769958e-02 -1.77146569e-01 -1.13155581e-02 1.39423415e-01 -1.13155581e-02 5.39267659e-01
-3.62434611e-02 5.71667068e-02 -2.89525688e-01 5.71667068e-02 1.95624560e-01 -5.51989794e-01 -2.89525688e-01 -5.51989794e-01 1.24197446e-01
-3.23713630e-01 2.22465187e-01 -1.23216964e-01 2.22465187e-01 -1.24527775e-01 3.48128974e-01 -1.23216964e-01 3.48128974e-01 7.31725276e-01
2.29098558e-01 2.68564709e-02 3.90629128e-01 2.68564709e-02 9.30831671e-01 -1.00860439e-01 3.90629128e-01 -1.00860439e-01 -2.87749991e+01
7.55301185e-01 4.06353734e-01 2.32521463e-01 4.06353734e-01 7.07622558e-01 3.49266037e-01 2.32521463e-01 3.49266037e-01 -2.83861897e+01
4.38245640e+00 -4.44308132e-01 3.97926137e-01 -4.44308132e-01 5.01871038e+00 4.98641384e-01 3.97926137e-01 4.98641384e-01 -1.97605792e+01
5.53715527e-01 2.01918183e-01 4.77966726e-01 2.01918183e-01 2.07495874e+00 -2.98259407e-01 4.77966726e-01 -2.98259407e-01 -2.71245668e+01
5.49501061e+00 -2.63302084e-02 8.05642560e-01 -2.63302084e-02 3.96255255e+00 1.79471444e-01 8.05642560e-01 1.79471444e-01 -1.97231956e+01
5.12595415e-01 2.14337602e-01 5.57912642e-03 2.14337602e-01 -3.24745804e-01 1.14820746e+00 5.57912642e-03 1.14820746e+00 -2.96988811e+01
3.18510168e+00 3.71004420e-01 6.05162418e-01 3.71004420e-01 2.18869131e+00 5.00673413e-01 6.05162418e-01 5.00673413e-01 -2.41382931e+01
6.25003874e-01 4.10115372e-01 9.11960170e-01 4.10115372e-01 -1.24087822e+00 -7.13591136e-01 9.11960170e-01 -7.13591136e-01 -3.05553792e+01
5.35772282e+00 -9.14373368e-01 2.39946200e-01 -9.14373368e-01 4.20061642e+00 7.46373888e-02 2.39946200e-01 7.46373888e-02 -1.96204627e+01
5.75548933e+00 -7.16931310e-01 9.72844880e-01 -7.16931310e-01 5.44704662e+00 9.31592750e-01 9.72844880e-01 9.31592750e-01 -1.75859522e+01
7.93051302e-01 1.30609302e-01 4.03339015e-02 1.30609302e-01 4.71048057e-01 5.19481018e-01 4.03339015e-02 5.19481018e-01 -2.86674511e+01
-1.35091096e+00 1.01890989e-01 1.19563579e+00 1.01890989e-01 -4.71907794e-01 1.90751199e+00 1.19563579e+00 1.90751199e+00 -3.16883950e+01
6.91135716e+00 1.21554578e-01 1.63834941e-01 1.21554578e-01 5.27070695e+00 6.22023137e-01 1.63834941e-01 6.22023137e-01 -1.67020540e+01
1.05526336e+01 -1.64507485e-01 6.44109435e-02 -1.64507485e-01 8.61787346e+00 1.48963975e-02 6.44109435e-02 1.48963975e-02 -9.19701836e+00
3.39618221e+00 -6.72167644e-01 2.59798367e-01 -6.72167644e-01 2.13704683e+00 9.39966094e-01 2.59798367e-01 9.39966094e-01 -2.39271413e+01
2.29450062e+00 -7.20001193e-01 3.53792578e-01 -7.20001193e-01 2.13413991e+00 8.20876237e-01 3.53792578e-01 8.20876237e-01 -2.50787583e+01
9.18763366e+00 2.12539293e-01 -1.07324260e-01 2.12539293e-01 6.74672957e+00 3.45079530e-01 -1.07324260e-01 3.45079530e-01 -1.25958751e+01
3.60655543e+00 1.59789057e-01 -5.95002478e-01 1.59789057e-01 1.21534377e+00 6.75303089e-02 -5.95002478e-01 6.75303089e-02 -2.46418553e+01
5.68530273e+00 -3.49292815e-01 -3.61752294e-01 -3.49292815e-01 3.54072607e+00 6.18792631e-01 -3.61752294e-01 6.18792631e-01 -1.99554266e+01
1.26436613e+01 -5.71324231e-01 1.88309103e-01 -5.71324231e-01 1.11801846e+01 -3.11571328e-01 1.88309103e-01 -3.11571328e-01 -4.24842834e+00
1.24554991e+01 -1.27570170e-01 6.46113893e-02 -1.27570170e-01 1.03767893e+01 -1.18275095e-01 6.46113893e-02 -1.18275095e-01 -5.18184280e+00
7.68337464e+00 8.76661378e-03 -3.45652094e-01 8.76661378e-03 5.15988004e+00 3.58603122e-02 -3.45652094e-01 3.58603122e-02 -1.59834371e+01
1.35911728e+01 -7.09322493e-02 -3.15380704e-01 -7.09322493e-02 1.32431231e+01 -3.25855587e-01 -3.15380704e-01 -3.25855587e-01 -1.01226854e+00
7.11249649e+00 -2.49824848e-01 -4.22130269e-01 -2.49824848e-01 5.60023886e+00 -4.50971479e-01 -4.22130269e-01 -4.50971479e-01 -1.61340172e+01
1.60765734e+01 -1.57302801e-01 3.67919803e-02 -1.57302801e-01 1.49959435e+01 -4.46202904e-01 3.67919803e-02 -4.46202904e-01 3.77588320e+00
1.64505684e+01 -2.38951482e-02 -4.70387083e-01 -2.38951482e-02 1.45336326e+01 -6.80017397e-02 -4.70387083e-01 -6.80017397e-02 3.53969765e+00
1.85983412e+01 6.13289777e-01 -5.56755066e-02 6.13289777e-01 1.90718997e+01 -7.70190597e-01 -5.56755066e-02 -7.70190597e-01 1.08009953e+01
1.23201915e+01 5.12489907e-01 1.70427490e-01 5.12489907e-01 1.09156861e+01 -8.85844919e-01 1.70427490e-01 -8.85844919e-01 -4.65343428e+00
2.49144483e+00 -1.02995642e+00 1.77554658e+00 -1.02995642e+00 5.26843733e+00 1.34464938e-01 1.77554658e+00 1.34464938e-01 -2.08305172e+01
2.15143275e+00 -1.16436791e+00 1.38579807e+00 -1.16436791e+00 6.09272361e+00 -3.02840330e-01 1.38579807e+00 -3.02840330e-01 -2.05813175e+01
-4.96692452e+00 3.97939451e-01 2.97566774e+00 3.97939451e-01 -6.53175673e+00 2.12626006e+00 2.97566774e+00 2.12626006e+00 -4.17195308e+01
8.75567079e-01 -9.40844789e-02 1.00971360e+00 -9.40844789e-02 9.35360789e-01 -1.18182788e-01 1.00971360e+00 -1.18182788e-01 -2.80523891e+01
1.18284586e+01 1.80793492e+00 3.63289002e+00 1.80793492e+00 1.02413920e+01 2.76544127e+00 3.63289002e+00 2.76544127e+00 -1.13027671e+01
-4.81959750e+00 1.00949002e+00 4.03373113e-01 1.00949002e+00 -4.70008022e+00 4.09387574e-02 4.03373113e-01 4.09387574e-02 -3.91631296e+01
-6.70850121e+01 -4.73170156e+00 -1.41618211e+01 -4.73170156e+00 -6.74672504e+01 -1.84765800e+00 -1.41618211e+01 -1.84765800e+00 -1.61492650e+02
9.25952727e+00 1.23797424e+00 -6.44933564e-01 1.23797424e+00 1.25253480e+01 1.35266013e+00 -6.44933564e-01 1.35266013e+00 -9.74076203e+00
-4.52143350e+01 -1.02031568e+00 -4.11655891e+00 -1.02031568e+00 -4.09975352e+01 1.58434865e+00 -4.11655891e+00 1.58434865e+00 -1.22713184e+02
-3.00443139e+01 -1.41650642e+00 -1.50939710e+01 -1.41650642e+00 -3.66010025e+01 -6.44491315e-02 -1.50939710e+01 -6.44491315e-02 -8.60546755e+01
-2.93029938e+01 -1.12551446e+00 -9.21642408e-02 -1.12551446e+00 -2.58441758e+01 1.65888058e+00 -9.21642408e-02 1.65888058e+00 -8.95113697e+01
-3.91755128e+01 -5.99390008e-02 -4.55616742e+00 -5.99390008e-02 -3.41715436e+01 -1.35724818e+00 -4.55616742e+00 -1.35724818e+00 -1.08779001e+02
-2.05376091e+01 -1.44344771e+00 -6.58632845e-01 -1.44344771e+00 -1.35649133e+01 3.38889226e-01 -6.58632845e-01 3.38889226e-01 -6.63943138e+01
-3.85708275e+01 -3.01743925e+00 -4.98410583e+00 -3.01743925e+00 -2.93012800e+01 -3.90374701e+00 -4.98410583e+00 -3.90374701e+00 -1.01206234e+02
-5.12208802e-01 -1.36901176e-01 3.63232497e+00 -1.36901176e-01 2.98609095e+00 7.77862327e-01 3.63232497e+00 7.77862327e-01 -2.60263392e+01
1.14654030e+01 2.44520389e-01 1.44732576e+00 2.44520389e-01 1.33460960e+01 -4.86179722e-01 1.44732576e+00 -4.86179722e-01 -2.88511777e+00
-7.19524384e+00 -4.32228626e-01 4.02851899e+00 -4.32228626e-01 -7.78896856e+00 1.46176723e+00 4.02851899e+00 1.46176723e+00 -4.49310262e+01
6.55324435e+00 8.69390387e-02 1.83013185e+00 8.69390387e-02 8.16124272e+00 -6.62846267e-02 1.83013185e+00 -6.62846267e-02 -1.39322013e+01
-9.30522871e+01 -1.02490683e+01 1.09317717e+01 -1.02490683e+01 -8.45183258e+01 -1.43162296e+01 1.09317717e+01 -1.43162296e+01 -2.00223568e+02
-2.03459311e+01 2.37622561e+00 1.83987300e+00 2.37622561e+00 -2.68468470e+01 -3.20695130e+00 1.83987300e+00 -3.20695130e+00 -8.14923502e+01
6.49245148e+01 2.25980258e+00 -4.50526327e-02 2.25980258e+00 6.34155426e+01 8.64446163e+00 -4.50526327e-02 8.64446163e+00 1.14456490e+02
6.62356377e+00 -3.69456781e+00 -7.36044369e+00 -3.69456781e+00 5.88631535e+00 -5.76964853e+00 -7.36044369e+00 -5.76964853e+00 -8.60509586e+00
2.04021288e+01 -7.24647742e-02 -1.75916065e+00 -7.24647742e-02 2.10663528e+01 5.23881763e-01 -1.75916065e+00 5.23881763e-01 1.41916605e+01
1.15919802e+01 -4.53255797e-01 1.61644671e+00 -4.53255797e-01 1.26533961e+01 7.80363832e-01 1.61644671e+00 7.80363832e-01 -3.17351079e+00
2.06700716e+01 -5.61155275e-01 1.30631005e-01 -5.61155275e-01 2.29015271e+01 1.27341912e+00 1.30631005e-01 1.27341912e+00 1.80985394e+01
1.04189743e+01 -7.76719186e-01 2.22284497e+00 -7.76719186e-01 1.13382428e+01 1.30040231e+00 2.22284497e+00 1.30040231e+00 -5.87995005e+00
1.34676790e+01 6.63318988e-02 1.12778420e-01 6.63318988e-02 1.39998441e+01 3.65551867e-01 1.12778420e-01 3.65551867e-01 -1.92026377e-01
1.51825876e+01 6.79189903e-01 7.02515977e-01 6.79189903e-01 1.61705598e+01 9.22266613e-01 7.02515977e-01 9.22266613e-01 4.31032671e+00
5.72562814e+00 1.71403339e+00 1.20900020e-01 1.71403339e+00 8.29392099e+00 1.04253276e+00 1.20900020e-01 1.04253276e+00 -1.45538582e+01
-4.40006128e+01 1.08112713e+00 5.80146730e+00 1.08112713e+00 -4.07884250e+01 1.63815604e+01 5.80146730e+00 1.63815604e+01 -1.07030993e+02
-9.23580170e+01 -3.21599833e+00 1.44037399e+01 -3.21599833e+00 -9.20370712e+01 9.69638968e+00 1.44037399e+01 9.69638968e+00 -2.25874428e+02
-7.38396349e+00 -3.11401703e+00 -2.87688388e+00 -3.11401703e+00 -1.22437353e+00 4.16689148e+00 -2.87688388e+00 4.16689148e+00 -3.74033516e+01
3.63450050e-01 -4.04438034e-01 -2.22882263e-01 -4.04438034e-01 2.84080029e+00 1.02165607e+00 -2.22882263e-01 1.02165607e+00 -2.65037699e+01
5.47291374e+00 1.23239311e+00 -1.12389411e+00 1.23239311e+00 4.34834146e+00 8.75813514e-01 -1.12389411e+00 8.75813514e-01 -1.95252075e+01
1.96072578e+00 -1.76613820e+00 2.65308213e+00 -1.76613820e+00 6.19862270e+00 -1.17027680e+00 2.65308213e+00 -1.17027680e+00 -2.07549324e+01
-1.92692676e+01 -3.38302442e+00 -3.93880423e+00 -3.38302442e+00 -1.44947720e+01 4.46707222e+00 -3.93880423e+00 4.46707222e+00 -6.22315521e+01
-8.03615926e+01 9.75712768e+00 -5.40058374e-01 9.75712768e+00 -4.94480871e+01 -3.56354561e+01 -5.40058374e-01 -3.56354561e+01 -1.21588244e+02
-7.19411961e+00 -3.05815971e+00 -1.49738009e+00 -3.05815971e+00 -1.06083231e+01 -6.14104970e+00 -1.49738009e+00 -6.14104970e+00 -4.13531342e+01
4.12819371e+00 -2.79932339e-02 2.54584350e-01 -2.79932339e-02 7.96720982e-01 -1.01356767e-01 2.54584350e-01 -1.01356767e-01 -2.44723463e+01
7.13179708e-01 1.80957254e-01 4.92325937e-02 1.80957254e-01 -1.27663541e+00 7.56498921e-01 4.92325937e-02 7.56498921e-01 -3.04873955e+01
5.01519851e-01 8.39805236e-01 3.95791121e-01 8.39805236e-01 -1.91353434e+00 4.52790501e-01 3.95791121e-01 4.52790501e-01 -3.13601656e+01
9.09906805e-01 2.80766716e-01 5.34886405e-01 2.80766716e-01 -2.92899618e+00 -3.08219042e-01 5.34886405e-01 -3.08219042e-01 -3.19275258e+01
-4.62894511e+00 8.88916999e-01 -1.84571650e-01 8.88916999e-01 -3.42306429e+00 9.38951921e-01 -1.84571650e-01 9.38951921e-01 -3.85999200e+01
-5.64624238e+00 1.46702292e+00 5.35185389e-01 1.46702292e+00 -4.41358623e+00 1.43344433e+00 5.35185389e-01 1.43344433e+00 -4.05305001e+01
-5.99950385e+00 4.38991532e-01 3.52148868e-01 4.38991532e-01 -4.02305317e+00 4.60851289e-01 3.52148868e-01 4.60851289e-01 -4.08398905e+01
-1.08018889e+01 6.56893240e-01 4.53754618e-01 6.56893240e-01 -5.43361740e+00 1.71370739e+00 4.53754618e-01 1.71370739e+00 -4.69148614e+01
-4.05026519e+00 -1.07740358e+00 2.30035353e-01 -1.07740358e+00 -1.88345677e+00 4.87335555e-01 2.30035353e-01 4.87335555e-01 -3.63267503e+01
-2.83724229e+00 -6.81609117e-01 -4.53325376e-01 -6.81609117e-01 8.93371902e-01 -1.32556077e-02 -4.53325376e-01 -1.32556077e-02 -3.18196676e+01
2.16445754e+00 -6.51686728e-01 -2.01057512e-01 -6.51686728e-01 4.92286679e+00 -4.96598952e-01 -2.01057512e-01 -4.96598952e-01 -2.21817622e+01
5.01473770e+00 -1.24274228e+00 -6.48551357e-01 -1.24274228e+00 6.34508598e+00 -2.03242003e-01 -6.48551357e-01 -2.03242003e-01 -1.75903476e+01
-6.55488491e-01 3.88997257e-01 5.00160500e-01 3.88997257e-01 4.37832665e+00 -1.11941361e+00 5.00160500e-01 -1.11941361e+00 -2.55026941e+01
-2.12885696e+00 -1.26160204e+00 -3.48614588e-01 -1.26160204e+00 9.99147654e-01 -2.10858241e+00 -3.48614588e-01 -2.10858241e+00 -3.05046921e+01
-6.45094857e+00 1.59294593e+00 1.32086811e+00 1.59294593e+00 -1.10084575e+01 1.78639087e+00 1.32086811e+00 1.78639087e+00 -4.82924879e+01
6.45393848e-01 8.95510912e-01 6.72124170e-01 8.95510912e-01 -3.57144833e+00 -2.42234234e-01 6.72124170e-01 -2.42234234e-01 -3.28649464e+01
-5.46232128e+00 2.49775759e+00 4.71810158e-01 2.49775759e+00 -6.03883946e+00 7.65439529e-01 4.71810158e-01 7.65439529e-01 -4.20350024e+01
6.04545569e+00 1.85157135e+00 -4.37654811e+00 1.85157135e+00 7.42555523e+00 -4.28609271e-01 -4.37654811e+00 -4.28609271e-01 -1.30319206e+01
9.89059080e+00 1.11717384e-01 -2.97992887e+00 1.11717384e-01 1.40150311e+01 -3.23499339e-01 -2.97992887e+00 -3.23499339e-01 -4.56796105e+00
-2.08438857e+00 -1.55901117e+00 -6.10946224e+00 -1.55901117e+00 2.04323498e+00 -1.80874172e+00 -6.10946224e+00 -1.80874172e+00 -2.80263278e+01
-3.42005730e+00 -4.41617588e+00 -7.96030623e+00 -4.41617588e+00 -6.92193222e+00 -3.13098333e+00 -7.96030623e+00 -3.13098333e+00 -3.72745018e+01
-1.94184500e+01 1.20915911e-01 5.05260215e+00 1.20915911e-01 -2.89226455e+01 -3.61165623e-01 5.05260215e+00 -3.61165623e-01 -8.04210822e+01
-2.86325440e+01 -1.82988870e+00 5.14859935e+00 -1.82988870e+00 -3.42132843e+01 -7.35192001e-01 5.14859935e+00 -7.35192001e-01 -9.70970853e+01
1.02657146e+01 1.93352902e+00 -1.00545024e-01 1.93352902e+00 4.36053594e+00 -3.76125274e+00 -1.00545024e-01 -3.76125274e+00 -1.26977642e+01
3.14901961e+01 2.11809598e+00 -2.88250657e+00 2.11809598e+00 3.07754199e+01 3.72322400e-01 -2.88250657e+00 3.72322400e-01 3.74170891e+01
4.70026512e+01 -1.37678671e+00 1.04229078e+01 -1.37678671e+00 4.90565872e+01 -2.52611518e+00 1.04229078e+01 -2.52611518e+00 7.88898239e+01
1.92780284e+01 -1.53646532e+00 -1.32113380e+00 -1.53646532e+00 1.59153570e+01 -3.43470377e+00 -1.32113380e+00 -3.43470377e+00 1.34656284e+01
-1.96754732e+01 -4.49503358e-01 5.58436811e-01 -4.49503358e-01 -1.87313322e+01 6.12391436e+00 5.58436811e-01 6.12391436e+00 -6.83849187e+01
-2.58552043e+00 2.13247644e-01 -1.88022147e+00 2.13247644e-01 -4.74740473e+00 3.33885101e+00 -1.88022147e+00 3.33885101e+00 -3.76041215e+01
-8.75623512e+01 -1.00404530e+01 8.84173059e+00 -1.00404530e+01 -1.32251545e+02 -1.35850320e+01 8.84173059e+00 -1.35850320e+01 -2.56478600e+02
-2.58277651e+01 2.65548075e-01 -1.46856264e+00 2.65548075e-01 -2.16213606e+01 4.76920664e+00 -1.46856264e+00 4.76920664e+00 -8.04348221e+01
-1.20989586e+01 -3.22976612e-01 3.36586953e+00 -3.22976612e-01 -9.12300718e+00 1.32491214e-01 3.36586953e+00 1.32491214e-01 -5.28606348e+01
9.07724637e+00 -1.96736030e-01 2.02014419e+00 -1.96736030e-01 6.78741896e+00 1.50167076e+00 2.02014419e+00 1.50167076e+00 -1.25630047e+01
5.81225014e+00 2.77875260e-01 8.28676879e-01 2.77875260e-01 4.73568439e+00 -7.74905689e-01 8.28676879e-01 -7.74905689e-01 -1.84601841e+01
-2.70189018e+01 9.68856066e-01 -7.88898479e-01 9.68856066e-01 -3.37983465e+01 -4.19054198e+00 -7.88898479e-01 -4.19054198e+00 -9.39991872e+01
-1.05294523e+01 -1.60106194e+00 -2.74465597e+00 -1.60106194e+00 -2.06775626e+01 6.48886567e+00 -2.74465597e+00 6.48886567e+00 -5.93336103e+01
1.52313557e+01 -5.30968606e-03 5.77711165e-02 -5.30968606e-03 -7.99419403e-01 6.30296549e+00 5.77711165e-02 6.30296549e+00 -2.34875894e+01
1.16500797e+01 -1.88970038e+00 1.88081864e+00 -1.88970038e+00 1.94172900e+01 -2.28939934e+00 1.88081864e+00 -2.28939934e+00 3.96589959e+00
8.24750595e+01 -2.70736265e+00 1.24202454e+00 -2.70736265e+00 5.86203728e+01 2.04890060e+01 1.24202454e+00 2.04890060e+01 8.15978394e+01
4.67411575e+01 2.03685927e+00 4.70984310e-01 2.03685927e+00 4.13421555e+01 7.94299078e+00 4.70984310e-01 7.94299078e+00 6.07164383e+01
8.79811561e+00 -3.25618302e+00 -1.98940624e+00 -3.25618302e+00 8.17216587e+00 -2.61490732e-01 -1.98940624e+00 -2.61490732e-01 4.95555404e+00
1.57600975e+00 -6.15656283e+00 -1.80503296e+00 -6.15656283e+00 1.19906475e+01 -5.13451505e+00 -1.80503296e+00 -5.13451505e+00 4.57508691e+00
-1.05541480e+00 -9.74182606e-01 1.44105148e+00 -9.74182606e-01 1.15650940e+00 -1.03937960e+00 1.44105148e+00 -1.03937960e+00 -5.76662183e-01
-9.38913822e-01 5.84908351e-02 1.95120052e-01 5.84908351e-02 -1.03780381e-01 7.14067876e-01 1.95120052e-01 7.14067876e-01 5.67020655e-01
8.79851997e-01 -6.29715621e-01 2.84153521e-01 -6.29715621e-01 -3.50862294e-01 -1.32325768e+00 2.84153521e-01 -1.32325768e+00 -1.00478756e+00
3.24388534e-01 -1.66293287e+00 -1.26780438e+00 -1.66293287e+00 4.70674932e-01 1.25297046e+00 -1.26780438e+00 1.25297046e+00 -1.27088726e+00
7.07255416e+00 2.55744908e+00 1.60531159e+00 2.55744908e+00 -2.94653296e+00 9.91342056e-01 1.60531159e+00 9.91342056e-01 -6.90016208e-01
1.34686740e+00 -4.18215871e-01 -1.01375093e-01 -4.18215871e-01 -5.15549636e+00 1.03615185e+00 -1.01375093e-01 1.03615185e+00 -6.71953072e-01
-3.34858882e+00 9.61122543e-01 -1.14052609e-01 9.61122543e-01 6.53902218e-01 -1.47558749e+00 -1.14052609e-01 -1.47558749e+00 4.09591235e-01
-5.14918800e+00 -2.70849117e+00 -3.07103634e-01 -2.70849117e+00 2.19692059e+00 -1.03456197e+00 -3.07103634e-01 -1.03456197e+00 3.28082402e+00
1.64968634e+00 -2.37091240e-02 -2.50651501e-04 -2.37091240e-02 -2.33987522e+00 2.31407210e-03 -2.50651501e-04 2.31407210e-03 -3.04808712e+01
4.91303205e-02 3.19240555e-01 -9.59220086e-03 3.19240555e-01 -2.31406412e+00 3.66940767e-01 -9.59220086e-03 3.66940767e-01 -3.23442822e+01
5.03257513e-01 1.13729763e+00 2.47264754e-01 1.13729763e+00 -2.54340971e+00 4.83830341e-01 2.47264754e-01 4.83830341e-01 -3.19525764e+01
1.67077875e+00 3.42827246e-01 1.83676772e-01 3.42827246e-01 -2.74738359e+00 -1.05027994e-02 1.83676772e-01 -1.05027994e-02 -3.08471773e+01
-6.89894950e+00 6.40772849e-01 -7.64994952e-03 6.40772849e-01 -5.24732733e+00 1.10218444e+00 -7.64994952e-03 1.10218444e+00 -4.30003586e+01
-6.17108053e+00 2.26676491e+00 3.10551953e-01 2.26676491e+00 -5.18702343e+00 7.77946845e-01 3.10551953e-01 7.77946845e-01 -4.19144262e+01
-1.13143994e+01 1.19068235e+00 3.09740677e-02 1.19068235e+00 -6.56912005e+00 8.16288203e-01 3.09740677e-02 8.16288203e-01 -4.90087242e+01
-1.62489603e+01 1.77077764e+00 1.07565294e+00 1.77077764e+00 -9.10244656e+00 1.75334638e+00 1.07565294e+00 1.75334638e+00 -5.64973869e+01
-1.10655295e+01 -2.98285693e-01 5.51005546e-02 -2.98285693e-01 -4.62414169e+00 3.41758385e-01 5.51005546e-02 3.41758385e-01 -4.64618607e+01
-1.64827459e+01 -5.54055646e-01 1.99691412e+00 -5.54055646e-01 -7.53115015e+00 1.55202471e+00 1.99691412e+00 1.55202471e+00 -5.49594364e+01
-9.08216405e+00 -2.83554219e-01 8.88317525e-02 -2.83554219e-01 -2.34421303e+00 -3.59674588e-01 8.88317525e-02 -3.59674588e-01 -4.17889671e+01
-7.96438289e+00 -2.15844080e+00 2.01934871e+00 -2.15844080e+00 1.81612015e-01 2.36989567e-01 2.01934871e+00 2.36989567e-01 -3.70430193e+01
-2.25518780e+01 -3.40719819e+00 1.47686198e-01 -3.40719819e+00 -1.10372391e+01 4.39352363e-01 1.47686198e-01 4.39352363e-01 -6.47251816e+01
-2.01948700e+01 -1.79112154e+00 2.84312439e+00 -1.79112154e+00 -6.63691199e+00 -3.69277573e+00 2.84312439e+00 -3.69277573e+00 -5.62981453e+01
2.68723726e+00 3.01044013e+00 -1.19819012e+00 3.01044013e+00 -1.84306383e+00 1.22992766e+00 -1.19819012e+00 1.22992766e+00 -2.82619619e+01
-5.56677246e+00 5.30379415e-01 -4.05879200e-01 5.30379415e-01 -1.40514593e+01 1.58218473e-01 -4.05879200e-01 1.58218473e-01 -5.03298962e+01
-5.39590180e+00 4.56703776e+00 5.24068967e-01 4.56703776e+00 -5.27319747e+00 2.26015389e+00 5.24068967e-01 2.26015389e+00 -3.99986944e+01
6.95934725e+00 1.61576396e+00 1.57222326e+00 1.61576396e+00 1.13191218e+01 1.38227098e+00 1.57222326e+00 1.38227098e+00 -9.82419884e+00
2.03792963e+01 -1.08775495e+00 1.85543179e+00 -1.08775495e+00 2.01671207e+01 6.54649675e-01 1.85543179e+00 6.54649675e-01 1.29145906e+01
1.73064203e+01 -2.80447572e-01 1.79414867e+00 -2.80447572e-01 1.69119327e+01 -5.00790823e-01 1.79414867e+00 -5.00790823e-01 6.33257616e+00
1.70467682e+01 -5.02223954e+00 1.48169523e+00 -5.02223954e+00 7.02092361e+00 -1.02165574e+00 1.48169523e+00 -1.02165574e+00 -1.61064148e+00
-7.80732822e+01 -2.09631312e+00 5.99864984e+00 -2.09631312e+00 -9.32669449e+01 3.95687127e+00 5.99864984e+00 3.95687127e+00 -2.14029961e+02
-9.26716690e+01 -1.66767165e-01 3.20421338e+00 -1.66767165e-01 -9.91508560e+01 1.22999713e-01 3.20421338e+00 1.22999713e-01 -2.37556900e+02
1.55813814e+01 5.15485259e+00 -4.45287784e-01 5.15485259e+00 1.23184493e+01 2.76509877e+00 -4.45287784e-01 2.76509877e+00 1.86716588e+00
3.38474709e+01 -2.53330109e+00 2.33408529e+00 -2.53330109e+00 3.32949302e+01 1.50057092e+00 2.33408529e+00 1.50057092e+00 3.87397237e+01
3.07247410e+01 -1.76476032e+00 1.63272396e+00 -1.76476032e+00 2.73776594e+01 1.17171357e+00 1.63272396e+00 1.17171357e+00 3.16965384e+01
7.07218094e+00 -3.56801003e-01 2.99515367e-01 -3.56801003e-01 1.10821602e+01 -3.22265661e+00 2.99515367e-01 -3.22265661e+00 6.15583624e+00
2.61304804e+01 1.41735175e+00 4.67634018e+00 1.41735175e+00 1.77679241e+01 1.07053873e+00 4.67634018e+00 1.07053873e+00 2.93769135e+01
-1.48005533e+00 -8.35897499e+00 -2.94334388e+00 -8.35897499e+00 -1.02696772e+01 -9.04096872e-01 -2.94334388e+00 -9.04096872e-01 -4.78947783e+00
2.52587309e+01 2.51794365e+00 3.56308603e+00 2.51794365e+00 1.23710518e+01 3.80346686e-01 3.56308603e+00 3.80346686e-01 2.94432510e+01
1.41805058e+01 6.76497114e+00 -1.03927087e+01 6.76497114e+00 2.31392117e+01 1.35356090e+01 -1.03927087e+01 1.35356090e+01 5.26140066e+01
2.43277216e+01 -2.65456092e+00 3.90306398e+00 -2.65456092e+00 2.88376751e+01 -2.12048697e+00 3.90306398e+00 -2.12048697e+00 4.07909546e+01
-8.17630672e+00 8.60556412e+00 -1.71836996e+00 8.60556412e+00 3.95843863e-01 1.96089344e+01 -1.71836996e+00 1.96089344e+01 -3.95202522e+01
1.52144736e+01 4.61937602e+00 -3.29556843e+00 4.61937602e+00 2.32639538e+01 -1.26480973e+00 -3.29556843e+00 -1.26480973e+00 9.79728134e+00
1.29685807e+01 -1.09916131e-01 4.03458202e+00 -1.09916131e-01 7.40708224e+00 2.60078152e+00 4.03458202e+00 2.60078152e+00 6.07974235e+00
-9.75863516e-01 4.59732996e+00 4.67833775e+00 4.59732996e+00 1.10991821e+01 -8.35446477e-01 4.67833775e+00 -8.35446477e-01 2.78384523e+00
-7.66927928e-01 -4.85286295e+00 -6.94812074e-01 -4.85286295e+00 6.09243554e+00 2.21034616e+00 -6.94812074e-01 2.21034616e+00 1.01890544e+01
3.87481993e+00 -2.32289696e+00 -9.12127733e-01 -2.32289696e+00 -8.22483397e+00 -6.50509149e-02 -9.12127733e-01 -6.50509149e-02 5.98910624e+00
-1.98736215e+00 -4.86798286e-02 -1.46620779e+00 -4.86798286e-02 -7.06812108e+00 -1.35616252e+00 -1.46620779e+00 -1.35616252e+00 3.42437398e+00
-8.46330795e+01 2.43558908e+00 -2.86876583e+00 2.43558908e+00 -5.98091927e+01 9.49125707e-01 -2.86876583e+00 9.49125707e-01 -1.83711761e+02
-1.24100769e+02 4.06892920e+00 -4.77821529e-02 4.06892920e+00 -1.11791443e+02 1.84869277e+00 -4.77821529e-02 1.84869277e+00 -2.85296082e+02
4.22762362e+00 -1.44281002e+00 1.44212683e+00 -1.44281002e+00 2.35823599e+00 2.13264281e+00 1.44212683e+00 2.13264281e+00 -2.28034299e+01
-1.20782661e+00 -2.23959929e+00 3.81652629e+00 -2.23959929e+00 -7.92733955e+00 1.69022903e-02 3.81652629e+00 1.69022903e-02 -3.86691732e+01
1.39141835e+00 2.25523680e+00 -1.50854107e-01 2.25523680e+00 -3.51586103e-01 -7.52126072e-01 -1.50854107e-01 -7.52126072e-01 3.24222844e+00
1.24566311e+01 1.44794854e+00 1.09350363e-01 1.44794854e+00 2.68200235e+01 5.72300760e+00 1.09350363e-01 5.72300760e+00 2.44556341e+01
2.50859547e+00 1.45688462e+00 4.29951549e-01 1.45688462e+00 -6.15174603e+00 6.21094525e-01 4.29951549e-01 6.21094525e-01 -2.83883739e+00
4.10674047e+00 -1.86794436e+00 9.17644850e-01 -1.86794436e+00 -9.11457062e-01 7.92678252e-01 9.17644850e-01 7.92678252e-01 -2.56570196e+01
1.18844538e+01 1.50145388e+00 -5.10955870e-01 1.50145388e+00 7.14986849e+00 2.81563532e-02 -5.10955870e-01 2.81563532e-02 -8.99995041e+00
-1.31919861e+00 -1.19920343e+00 2.71879546e-01 -1.19920343e+00 -1.63239861e+00 3.92952165e+00 2.71879546e-01 3.92952165e+00 -3.34111271e+01
-5.22233045e+00 -2.25665635e+00 -8.74186717e-02 -2.25665635e+00 -1.45559392e+01 3.67473936e+00 -8.74186717e-02 3.67473936e+00 -4.93247051e+01
1.39355879e+01 3.05697495e+00 -2.21029814e+00 3.05697495e+00 3.87938118e+00 6.33506179e-01 -2.21029814e+00 6.33506179e-01 -1.05741768e+01
6.22444344e+00 -1.21821839e+00 -1.45279038e+00 -1.21821839e+00 2.28217020e+01 2.10700333e+00 -1.45279038e+00 2.10700333e+00 4.43077469e+00
2.32175848e+01 3.68306658e+00 -2.49047861e+00 3.68306658e+00 2.61130190e+01 2.07885826e+00 -2.49047861e+00 2.07885826e+00 2.59055986e+01
-6.40552485e+00 1.42576933e+00 -1.17040342e+00 1.42576933e+00 1.88139546e+00 6.98208272e-01 -1.17040342e+00 6.98208272e-01 3.95477697e+00
-4.51162958e+00 1.45080960e+00 -4.46880385e-02 1.45080960e+00 -4.06012475e-01 -1.33255914e-01 -4.46880385e-02 -1.33255914e-01 8.22907984e-01
</DataArray>
<DataArray type="Float32" Name="Logarithmic_strain_components" NumberOfComponents="9" format="ascii">
2.42367897e-02 -5.76416085e-03 1.91805541e-03 -5.76416085e-03 2.12185711e-02 5.73186902e-03 1.91805541e-03 5.73186902e-03 -3.77657963e-02
2.50631102e-02 -1.02586731e-02 6.61805869e-04 -1.02586731e-02 2.69473665e-02 1.11042676e-02 6.61805869e-04 1.11042676e-02 -4.37171089e-02
2.93084923e-02 -5.43931965e-04 3.77706537e-03 -5.43931965e-04 3.78226172e-02 -3.56967089e-03 3.77706537e-03 -3.56967089e-03 -5.70746465e-02
2.45844787e-02 -7.12725916e-04 -2.45676425e-03 -7.12725916e-04 2.92686704e-02 -2.29594065e-04 -2.45676425e-03 -2.29594065e-04 -4.58031548e-02
2.47338891e-02 3.52081900e-03 1.05759905e-02 3.52081900e-03 3.10454632e-02 6.42711437e-03 1.05759905e-02 6.42711437e-03 -4.57133865e-02
2.71339786e-02 -8.49000246e-03 -1.04401041e-02 -8.49000246e-03 4.17339099e-02 1.14620426e-02 -1.04401041e-02 1.14620426e-02 -5.72653881e-02
4.03881944e-02 -1.76554150e-03 -1.05167928e-03 -1.76554150e-03 4.67180368e-02 -1.08389065e-02 -1.05167928e-03 -1.08389065e-02 -7.41158547e-02
2.88383486e-02 1.28993237e-02 8.69740726e-03 1.28993237e-02 3.56073929e-02 1.21307648e-02 8.69740726e-03 1.21307648e-02 -5.42466044e-02
3.42053124e-02 7.57317059e-04 -1.55030016e-02 7.57317059e-04 3.57035268e-02 1.53218429e-02 -1.55030016e-02 1.53218429e-02 -6.17925767e-02
4.53175306e-02 9.21174738e-04 -7.43996259e-03 9.21174738e-04 5.03188241e-02 1.94160230e-02 -7.43996259e-03 1.94160230e-02 -8.61424841e-02
4.85710750e-02 2.21968358e-02 -7.27098311e-02 2.21968358e-02 4.71612513e-02 -7.45850646e-03 -7.27098311e-02 -7.45850646e-03 -8.38379885e-02
6.91055357e-02 2.29463298e-02 -5.70390616e-02 2.29463298e-02 4.15010061e-02 -1.02883299e-02 -5.70390616e-02 -1.02883299e-02 -9.64693651e-02
-2.57254146e-06 -2.94905085e-05 -1.11627685e-05 -2.94905085e-05 7.26194452e-06 9.50105641e-06 -1.11627685e-05 9.50105641e-06 -9.63106709e-06
-8.02868544e-06 -4.63904757e-06 -5.62048535e-06 -4.63904757e-06 -2.41120915e-07 -9.62777131e-06 -5.62048535e-06 -9.62777131e-06 2.96969870e-06
1.71859829e-05 -7.25969244e-06 -2.85343049e-06 -7.25969244e-06 -1.25721158e-07 2.68991023e-05 -2.85343049e-06 2.68991023e-05 -2.19418816e-05
1.10987280e-05 -3.21081388e-05 -5.25975338e-07 -3.21081388e-05 -3.58217824e-06 -2.38953908e-05 -5.25975338e-07 -2.38953908e-05 -1.17722063e-05
4.18554464e-06 1.01859923e-05 1.80252609e-05 1.01859923e-05 1.10236169e-06 9.84195594e-06 1.80252609e-05 9.84195594e-06 -1.96014435e-06
-2.82460951e-06 1.52290329e-06 6.97149517e-06 1.52290329e-06 -4.92436402e-06 -2.58802260e-07 6.97149517e-06 -2.58802260e-07 1.18297385e-05
-1.91092931e-06 2.82480892e-06 -1.40561233e-05 2.82480892e-06 4.32163233e-06 -2.68612403e-05 -1.40561233e-05 -2.68612403e-05 2.16870785e-06
-9.07734284e-06 1.05773024e-05 -5.82391749e-06 1.05773024e-05 -4.31060880e-06 1.69635186e-05 -5.82391749e-06 1.69635186e-05 1.64991088e-05
3.70705202e-02 7.62454511e-06 8.79132096e-03 7.62454511e-06 3.87704819e-02 -1.98990037e-03 8.79132096e-03 -1.98990037e-03 -6.42011762e-02
3.81236756e-02 1.41005602e-03 6.03350240e-03 1.41005602e-03 3.73750106e-02 2.05501076e-03 6.03350240e-03 2.05501076e-03 -6.39153589e-02
3.66883050e-02 -7.69384304e-03 1.01508532e-02 -7.69384304e-03 3.78385847e-02 2.92727581e-03 1.01508532e-02 2.92727581e-03 -6.27131439e-02
3.54997041e-02 1.19847318e-03 9.10703704e-03 1.19847318e-03 3.97705836e-02 -4.73563944e-03 9.10703704e-03 -4.73563944e-03 -6.36839438e-02
4.81683649e-02 -5.42828639e-06 9.19542834e-03 -5.42828639e-06 3.57226394e-02 8.90417141e-06 9.19542834e-03 8.90417141e-06 -7.05791861e-02
4.65260372e-02 1.06895823e-03 2.41476553e-03 1.06895823e-03 3.77179822e-02 8.01868626e-03 2.41476553e-03 8.01868626e-03 -7.12665562e-02
4.75583831e-02 2.34069722e-03 1.25098517e-02 2.34069722e-03 3.84408780e-02 3.90337771e-03 1.25098517e-02 3.90337771e-03 -7.24674566e-02
4.89026001e-02 2.23426009e-03 1.27507487e-02 2.23426009e-03 3.84835433e-02 -6.80050836e-03 1.27507487e-02 -6.80050836e-03 -7.38587566e-02
4.11395095e-02 -8.58736434e-03 8.63511954e-03 -8.58736434e-03 3.24644493e-02 6.93542594e-04 8.63511954e-03 6.93542594e-04 -6.19240170e-02
4.03063889e-02 -1.06692450e-02 9.19198044e-03 -1.06692450e-02 3.61814012e-02 3.70900721e-03 9.19198044e-03 3.70900721e-03 -6.42645354e-02
4.35378626e-02 2.08109064e-03 -5.16604501e-04 2.08109064e-03 3.77861233e-02 4.52110768e-03 -5.16604501e-04 4.52110768e-03 -6.88513927e-02
4.31918283e-02 2.88925203e-03 9.79570055e-03 2.88925203e-03 4.09217649e-02 1.14888123e-02 9.79570055e-03 1.14888123e-02 -7.13232188e-02
4.39769281e-02 7.08525200e-04 3.05173488e-03 7.08525200e-04 2.93886806e-02 4.91770099e-03 3.05173488e-03 4.91770099e-03 -6.15703203e-02
4.43011923e-02 -4.94727705e-03 -4.71997904e-03 -4.94727705e-03 3.57141139e-02 -3.83728676e-03 -4.71997904e-03 -3.83728676e-03 -6.69109868e-02
4.17568041e-02 -4.09659359e-03 5.17394932e-04 -4.09659359e-03 3.41492966e-02 4.80705054e-03 5.17394932e-04 4.80705054e-03 -6.40819930e-02
4.04293980e-02 -4.07297966e-03 -4.76682023e-03 -4.07297966e-03 3.78723643e-02 3.87327473e-03 -4.76682023e-03 3.87327473e-03 -6.60268012e-02
4.54262374e-02 2.04518181e-03 -4.48021991e-03 2.04518181e-03 2.79733711e-02 -7.82097530e-04 -4.48021991e-03 -7.82097530e-04 -6.14700690e-02
4.44850931e-02 1.86541349e-03 -6.13941425e-03 1.86541349e-03 4.09177404e-02 -3.75975796e-05 -6.13941425e-03 -3.75975796e-05 -7.20136529e-02
3.99418008e-02 -1.65795034e-03 -6.25131233e-03 -1.65795034e-03 3.03449878e-02 3.75153770e-03 -6.25131233e-03 3.75153770e-03 -5.91994682e-02
3.96263250e-02 -7.87699272e-03 -9.65935702e-03 -7.87699272e-03 3.24265915e-02 -4.81979815e-03 -9.65935702e-03 -4.81979815e-03 -5.99586521e-02
4.26849397e-02 1.14204088e-03 2.66222359e-03 1.14204088e-03 2.91306823e-02 -3.65678153e-03 2.66222359e-03 -3.65678153e-03 -6.00017840e-02
4.40814504e-02 9.72766215e-04 2.88699463e-04 9.72766215e-04 3.97909642e-02 2.24106223e-03 2.88699463e-04 2.24106223e-03 -7.04665836e-02
3.49457078e-02 -1.76504152e-04 -1.11549057e-02 -1.76504152e-04 2.86370660e-02 -4.76034795e-04 -1.11549057e-02 -4.76034795e-04 -5.29450411e-02
3.70052261e-02 -2.32202349e-03 -8.50843467e-03 -2.32202349e-03 3.49917235e-02 -4.48285756e-03 -8.50843467e-03 -4.48285756e-03 -6.05072910e-02
4.07221131e-02 7.45987287e-04 2.98288930e-03 7.45987287e-04 2.86014229e-02 -3.81469424e-03 2.98288930e-03 -3.81469424e-03 -5.76047320e-02
4.08610869e-02 -1.51063338e-03 -1.43441692e-03 -1.51063338e-03 3.92241944e-02 -3.05664295e-03 -1.43441692e-03 -3.05664295e-03 -6.66606668e-02
3.18455109e-02 9.87629779e-03 -8.52585770e-03 9.87629779e-03 2.82318722e-02 -7.33219692e-03 -8.52585770e-03 -7.33219692e-03 -4.96049542e-02
3.61221703e-02 2.99658993e-03 -5.73444087e-03 2.99658993e-03 3.34231704e-02 -4.59125749e-03 -5.73444087e-03 -4.59125749e-03 -5.80253899e-02
3.28121686e-02 -1.29817831e-02 2.47931423e-02 -1.29817831e-02 4.16154610e-02 3.95863375e-04 2.47931423e-02 3.95863375e-04 -6.21873168e-02
2.76336381e-02 -1.02139628e-02 1.79985445e-02 -1.02139628e-02 4.43169959e-02 -2.79351627e-03 1.79985445e-02 -2.79351627e-03 -6.03850009e-02
5.10560269e-02 -1.86781392e-04 3.17596165e-02 -1.86781392e-04 4.19191150e-02 9.02302310e-03 3.17596165e-02 9.02302310e-03 -7.88889928e-02
4.86317286e-02 -2.47128293e-04 2.53833430e-02 -2.47128293e-04 4.19596154e-02 -1.95121014e-03 2.53833430e-02 -1.95121014e-03 -7.63045195e-02
4.32054283e-02 -1.60772763e-03 1.77070017e-02 -1.60772763e-03 3.97949884e-02 -3.82323087e-03 1.77070017e-02 -3.82323087e-03 -7.10798119e-02
4.61071664e-02 9.02305939e-03 8.34581592e-03 9.02305939e-03 4.30483883e-02 -6.76709702e-03 8.34581592e-03 -6.76709702e-03 -7.63015104e-02
5.11127025e-02 -1.12795442e-02 -4.90982410e-02 -1.12795442e-02 4.67947513e-02 -8.74622352e-04 -4.90982410e-02 -8.74622352e-04 -8.72177377e-02
3.63926180e-02 6.11345798e-03 -3.06371065e-02 6.11345798e-03 3.96452072e-02 -6.07589007e-03 -3.06371065e-02 -6.07589007e-03 -6.49959280e-02
5.03188539e-02 -9.94065194e-04 -1.42847989e-02 -9.94065194e-04 5.73061490e-02 1.04258742e-02 -1.42847989e-02 1.04258742e-02 -9.45466030e-02
4.12752122e-02 -5.16842627e-03 -4.60958997e-02 -5.16842627e-03 3.28635515e-02 6.83738953e-03 -4.60958997e-02 6.83738953e-03 -6.32689409e-02
4.92868396e-02 -3.25907487e-03 -1.96815957e-03 -3.25907487e-03 5.38401511e-02 8.78340696e-03 -1.96815957e-03 8.78340696e-03 -8.93399902e-02
4.23982088e-02 2.12205120e-03 -1.74722704e-02 2.12205120e-03 4.78127664e-02 -9.94593429e-04 -1.74722704e-02 -9.94593429e-04 -7.92354345e-02
4.44383509e-02 -1.02770282e-03 -3.78152309e-03 -1.02770282e-03 5.44976257e-02 3.23006359e-03 -3.78152309e-03 3.23006359e-03 -8.49520303e-02
4.02741823e-02 -1.99628295e-03 -1.73802981e-02 -1.99628295e-03 4.80796490e-02 -1.35103038e-02 -1.73802981e-02 -1.35103038e-02 -7.71555677e-02
2.78541676e-02 -7.68047202e-03 3.18754597e-02 -7.68047202e-03 4.05541179e-02 9.34486810e-04 3.18754597e-02 9.34486810e-04 -5.72086158e-02
2.31402833e-02 2.49074749e-03 2.54152995e-02 2.49074749e-03 3.99867520e-02 4.38646472e-03 2.54152995e-02 4.38646472e-03 -5.22445068e-02
5.36107165e-02 -3.76147698e-03 3.57237927e-02 -3.76147698e-03 4.32130540e-02 -8.93046175e-03 3.57237927e-02 -8.93046175e-03 -8.16493503e-02
4.23945766e-02 1.99521537e-03 3.78410094e-02 1.99521537e-03 4.42376314e-02 -1.22136895e-02 3.78410094e-02 -1.22136895e-02 -7.23531302e-02
3.93728809e-02 -2.09192121e-02 4.44110888e-02 -2.09192121e-02 5.16108656e-02 -4.97502317e-02 4.44110888e-02 -4.97502317e-02 -7.87319802e-02
6.01118386e-02 9.62722115e-06 1.44384018e-02 9.62722115e-06 4.44385961e-02 -3.71280812e-02 1.44384018e-02 -3.71280812e-02 -9.07715037e-02
-1.72806866e-02 -8.12147558e-02 -1.46865949e-01 -8.12147558e-02 1.47867762e-03 -1.03777431e-01 -1.46865949e-01 -1.03777431e-01 5.29216453e-02
2.52139953e-02 -7.01820447e-03 -3.99152972e-02 -7.01820447e-03 1.86457362e-02 -3.21712028e-02 -3.99152972e-02 -3.21712028e-02 -2.88237706e-02
2.29720354e-02 -2.36366825e-03 1.29430613e-02 -2.36366825e-03 3.02574145e-02 1.87732838e-02 1.29430613e-02 1.87732838e-02 -4.35469486e-02
2.16259966e-02 -5.74371836e-03 2.07534294e-02 -5.74371836e-03 3.16121159e-02 3.70494585e-03 2.07534294e-02 3.70494585e-03 -4.40210532e-02
3.51269379e-02 -6.18227253e-03 2.53484630e-02 -6.18227253e-03 4.31694929e-02 2.97283184e-02 2.53484630e-02 2.97283184e-02 -6.29812522e-02
3.81824924e-02 -3.91304796e-03 6.02841226e-03 -3.91304796e-03 4.55293497e-02 1.37155063e-02 6.02841226e-03 1.37155063e-02 -6.89231362e-02
2.37748697e-02 4.81137272e-03 -1.31464284e-03 4.81137272e-03 3.09684211e-02 2.51961662e-03 -1.31464284e-03 2.51961662e-03 -4.56777625e-02
4.20072568e-02 9.79644459e-03 -1.13156447e-02 9.79644459e-03 4.82011608e-02 2.44499794e-02 -1.13156447e-02 2.44499794e-02 -7.51311353e-02
3.73861492e-02 1.27246575e-02 1.06981129e-02 1.27246575e-02 5.40819280e-02 1.03370559e-02 1.06981129e-02 1.03370559e-02 -7.65023995e-02
2.38506853e-02 4.25107250e-03 1.21742107e-02 4.25107250e-03 3.45109953e-02 5.60420691e-02 1.21742107e-02 5.60420691e-02 -5.02507845e-02
6.37121741e-02 -8.65438487e-03 5.50596304e-02 -8.65438487e-03 5.34693506e-02 2.57641037e-02 5.50596304e-02 2.57641037e-02 -1.04944341e-01
3.84423871e-02 -1.24702226e-02 -2.74780616e-02 -1.24702226e-02 5.79437450e-02 -1.34224650e-02 -2.74780616e-02 -1.34224650e-02 -8.13757084e-02
2.57691760e-02 -1.93173811e-03 7.70367961e-03 -1.93173811e-03 3.64256389e-02 9.94566735e-03 7.70367961e-03 9.94566735e-03 -5.21184187e-02
4.66081621e-02 1.69744159e-02 -6.18400180e-03 1.69744159e-02 4.91558667e-02 1.72655608e-02 -6.18400180e-03 1.72655608e-02 -7.73713011e-02
3.86337973e-02 -1.02427658e-02 1.61147919e-02 -1.02427658e-02 5.92263825e-02 -1.47839701e-02 1.61147919e-02 -1.47839701e-02 -8.25351588e-02
5.10368240e-02 -1.64376986e-02 -3.77426660e-02 -1.64376986e-02 5.65675851e-02 4.12533730e-02 -3.77426660e-02 4.12533730e-02 -9.21587832e-02
3.34312916e-02 3.17586130e-02 -1.48059676e-03 3.17586130e-02 6.01692672e-02 -9.67174247e-02 -1.48059676e-03 -9.67174247e-02 -7.83842330e-02
5.90198456e-02 -6.63525487e-03 -1.35268125e-02 -6.63525487e-03 3.35214579e-02 -1.70286838e-02 -1.35268125e-02 -1.70286838e-02 -7.78373952e-02
5.95393088e-02 4.56896669e-06 3.02144093e-03 4.56896669e-06 3.61215398e-02 -2.84383714e-03 3.02144093e-03 -2.84383714e-03 -8.05181339e-02
5.52120768e-02 2.92076939e-03 3.57473473e-03 2.92076939e-03 3.93867008e-02 4.33663754e-03 3.57473473e-03 4.33663754e-03 -7.99174532e-02
5.72593678e-02 1.10040688e-02 7.24952907e-03 1.10040688e-02 4.08695126e-02 4.65020371e-03 7.24952907e-03 4.65020371e-03 -8.29417743e-02
6.25938112e-02 2.72911618e-03 8.79687007e-03 2.72911618e-03 3.80990189e-02 -2.30449112e-03 8.79687007e-03 -2.30449112e-03 -8.50026421e-02
4.53315563e-02 7.30474875e-03 -7.88450838e-04 7.30474875e-03 4.50043101e-02 7.23614800e-03 -7.88450838e-04 7.23614800e-03 -7.67340772e-02
4.55951621e-02 1.50873450e-02 3.55424438e-03 1.50873450e-02 4.51915767e-02 5.70070211e-03 3.55424438e-03 5.70070211e-03 -7.71791236e-02
3.73759568e-02 4.74140828e-03 -2.31953547e-03 4.74140828e-03 4.58713248e-02 2.14624533e-03 -2.31953547e-03 2.14624533e-03 -7.09156971e-02
3.42404086e-02 7.73024220e-03 -6.30941300e-04 7.73024220e-03 4.63152379e-02 7.55378337e-03 -6.30941300e-04 7.55378337e-03 -6.87142750e-02
3.27035016e-02 -3.45312746e-03 -1.44614436e-03 -3.45312746e-03 4.25047372e-02 6.54848700e-04 -1.44614436e-03 6.54848700e-04 -6.39673127e-02
2.90500743e-02 -3.56115025e-03 -2.74511985e-03 -3.56115025e-03 4.13870430e-02 1.31059039e-03 -2.74511985e-03 1.31059039e-03 -5.96649009e-02
2.87381583e-02 -4.39643976e-03 -4.36510018e-03 -4.39643976e-03 3.97072593e-02 -2.31449048e-04 -4.36510018e-03 -2.31449048e-04 -5.77834165e-02
2.92202374e-02 -7.33835240e-03 -7.69638520e-03 -7.33835240e-03 3.50736906e-02 -1.75642672e-03 -7.69638520e-03 -1.75642672e-03 -5.39483815e-02
2.54240492e-02 1.14829297e-03 -1.26302626e-03 1.14829297e-03 4.19344734e-02 7.73085514e-04 -1.26302626e-03 7.73085514e-04 -5.69905303e-02
2.90608620e-02 -6.56233588e-03 -3.12530622e-03 -6.56233588e-03 3.57381832e-02 -8.62494740e-03 -3.12530622e-03 -8.62494740e-03 -5.46410726e-02
6.72429181e-02 1.39815790e-02 2.08101802e-02 1.39815790e-02 4.01435266e-02 4.80995866e-03 2.08101802e-02 4.80995866e-03 -9.04762084e-02
6.99045677e-02 7.98508967e-03 2.60866901e-02 7.98508967e-03 4.42273533e-02 -8.48189322e-03 2.60866901e-02 -8.48189322e-03 -9.62677654e-02
5.05174235e-02 1.91135018e-02 1.25549911e-03 1.91135018e-02 3.97015479e-02 2.55784141e-03 1.25549911e-03 2.55784141e-03 -7.64713855e-02
3.01424793e-02 1.42811924e-02 -1.54323646e-02 1.42811924e-02 3.34985417e-02 -1.52019755e-03 -1.54323646e-02 -1.52019755e-03 -5.31804650e-02
1.99508744e-02 1.98724746e-04 -1.81120139e-02 1.98724746e-04 3.16562315e-02 -1.11227117e-03 -1.81120139e-02 -1.11227117e-03 -4.32731376e-02
1.77806375e-02 -9.00485980e-03 -2.39936144e-02 -9.00485980e-03 2.82641610e-02 -8.26843454e-03 -2.39936144e-02 -8.26843454e-03 -3.85560586e-02
2.04702777e-02 -1.50626972e-02 -2.71502907e-02 -1.50626972e-02 2.45151697e-02 -1.47456548e-02 -2.71502907e-02 -1.47456548e-02 -3.76755421e-02
7.55682041e-02 -2.03721497e-03 5.40820537e-02 -2.03721497e-03 3.82651035e-02 -1.31332166e-02 5.40820537e-02 -1.31332166e-02 -9.68627507e-02
7.51587674e-02 -1.37608005e-02 5.09136785e-02 -1.37608005e-02 4.34159860e-02 -1.64993430e-02 5.09136785e-02 -1.64993430e-02 -1.02175355e-01
5.90810652e-02 1.37659529e-02 6.39871228e-03 1.37659529e-02 2.87806854e-02 -2.83615546e-02 6.39871228e-03 -2.83615546e-02 -7.36371515e-02
2.58082701e-02 1.60290419e-02 -2.80369058e-02 1.60290419e-02 1.08746363e-02 -1.62694170e-02 -2.80369058e-02 -1.62694170e-02 -2.82807339e-02
8.15191492e-03 -4.87011112e-02 -6.64660931e-02 -4.87011112e-02 -2.42427438e-02 -6.61122352e-02 -6.64660931e-02 -6.61122352e-02 3.14299166e-02
5.74139960e-04 2.95079245e-03 -9.47602992e-03 2.95079245e-03 4.48134035e-03 -4.15100942e-03 -9.47602992e-03 -4.15100942e-03 -1.13149941e-03
7.28064384e-02 2.19321149e-03 -3.83002777e-03 2.19321149e-03 5.65685136e-02 4.02710987e-02 -3.83002777e-03 4.02710987e-02 -1.09521890e-01
7.41683878e-02 1.10629480e-02 -3.16749464e-02 1.10629480e-02 6.69744841e-02 3.45308532e-02 -3.16749464e-02 3.45308532e-02 -1.20456991e-01
7.95719177e-02 -1.19081602e-02 1.60708302e-02 -1.19081602e-02 4.23136111e-02 -4.20649713e-02 1.60708302e-02 -4.20649713e-02 -1.07849143e-01
6.48426190e-02 -5.12029471e-03 -1.73934971e-02 -5.12029471e-03 8.17659125e-02 2.67582871e-02 -1.73934971e-02 2.67582871e-02 -1.24585371e-01
6.47777729e-02 -4.83494706e-03 1.28670475e-02 -4.83494706e-03 8.25037435e-02 -7.17622373e-04 1.28670475e-02 -7.17622373e-04 -1.23936160e-01
7.33996984e-02 -5.59013709e-03 8.20524199e-03 -5.59013709e-03 6.37392364e-02 1.96451952e-02 8.20524199e-03 1.96451952e-02 -1.15974441e-01
7.10193105e-02 3.28892365e-03 1.29507368e-02 3.28892365e-03 6.36055022e-02 -1.20049631e-02 1.29507368e-02 -1.20049631e-02 -1.13719396e-01
6.70006927e-02 1.83037879e-02 -1.05868401e-02 1.83037879e-02 6.64787125e-02 -2.05284613e-02 -1.05868401e-02 -2.05284613e-02 -1.16056537e-01
7.95627348e-02 -1.05882555e-02 -2.02017557e-02 -1.05882555e-02 4.94282991e-02 3.87384999e-02 -2.02017557e-02 3.87384999e-02 -1.09251466e-01
5.90153169e-02 1.02313894e-02 7.43485976e-03 1.02313894e-02 2.22773831e-02 -2.58160238e-02 7.43485976e-03 -2.58160238e-02 -6.98312605e-02
4.50804101e-02 -1.68749738e-02 5.58880821e-03 -1.68749738e-02 3.27940583e-02 -5.15232095e-03 5.58880821e-03 -5.15232095e-03 -6.44281209e-02
-4.65361923e-02 4.81425524e-02 3.24359797e-02 4.81425524e-02 -1.22543424e-02 -1.37451384e-02 3.24359797e-02 -1.37451384e-02 9.45276767e-02
-1.18339825e-02 1.88638549e-02 3.90331782e-02 1.88638549e-02 -3.04033142e-03 -6.41065687e-02 3.90331782e-02 -6.41065687e-02 3.18827629e-02
1.19163545e-02 -2.46907194e-02 -8.12899238e-03 -2.46907194e-02 -1.50419515e-02 2.61200096e-02 -8.12899238e-03 2.61200096e-02 4.06589039e-03
-7.17103621e-03 -4.43961116e-02 -9.79847961e-03 -4.43961116e-02 1.34035976e-03 -7.47135954e-03 -9.79847961e-03 -7.47135954e-03 7.14915173e-03
-2.40121299e-05 -4.71986059e-05 6.98753574e-05 -4.71986059e-05 2.92133591e-05 -5.00180504e-05 6.98753574e-05 -5.00180504e-05 -1.26311770e-05
-2.01063776e-05 2.81560870e-06 8.92061053e-06 2.81560870e-06 8.87056899e-08 3.42181265e-05 8.92061053e-06 3.42181265e-05 1.55211656e-05
2.22804192e-05 -3.02314675e-05 1.28244365e-05 -3.02314675e-05 -6.53430743e-06 -6.39724749e-05 1.28244365e-05 -6.39724749e-05 -2.23556308e-05
9.80962159e-06 -7.92013234e-05 -6.03969856e-05 -7.92013234e-05 1.35280507e-05 5.98283259e-05 -6.03969856e-05 5.98283259e-05 -2.85306014e-05
1.74740214e-04 9.35355958e-05 5.28816501e-05 9.35355958e-05 -1.25410657e-04 1.11934667e-05 5.28816501e-05 1.11934667e-05 -2.17807720e-05
5.04857647e-05 -2.04349029e-05 -4.77869071e-06 -2.04349029e-05 -1.05527510e-04 4.93201151e-05 -4.77869071e-06 4.93201151e-05 1.98505556e-06
-7.13607587e-05 4.57303358e-05 -6.08352889e-06 4.57303358e-05 2.43941367e-05 -7.03143996e-05 -6.08352889e-06 -7.03143996e-05 1.84923892e-05
-1.55893602e-04 -2.83935796e-04 -1.73088362e-06 -2.83935796e-04 6.03741804e-05 -4.50039564e-05 -1.73088362e-06 -4.50039564e-05 1.11979503e-04
6.37196526e-02 -3.64275184e-06 2.37286440e-06 -3.64275184e-06 3.80348973e-02 -1.66159589e-06 2.37286440e-06 -1.66159589e-06 -8.58393610e-02
5.80524355e-02 5.53949783e-03 -6.64194522e-06 5.53949783e-03 4.15803138e-02 3.83490580e-03 -6.64194522e-06 3.83490580e-03 -8.42582695e-02
6.23852536e-02 1.60896874e-02 3.46478069e-03 1.60896874e-02 3.92149305e-02 6.39306719e-03 3.46478069e-03 6.39306719e-03 -8.56995136e-02
6.91920184e-02 4.69533401e-03 1.56322052e-03 4.69533401e-03 3.63239218e-02 -4.60264346e-06 1.56322052e-03 -4.60264346e-06 -8.89011063e-02
4.56570126e-02 5.01205074e-03 -2.48017277e-05 5.01205074e-03 4.86506615e-02 8.38499516e-03 -2.48017277e-05 8.38499516e-03 -8.02516602e-02
4.70477585e-02 1.98903475e-02 4.06667066e-03 1.98903475e-02 4.59252661e-02 6.04428386e-03 4.06667066e-03 6.04428386e-03 -7.89669175e-02
3.45313326e-02 7.54562137e-03 -2.01731764e-05 7.54562137e-03 5.20546641e-02 5.71562396e-03 -2.01731764e-05 5.71562396e-03 -7.38945231e-02
3.35324043e-02 1.28861794e-02 5.56756882e-03 1.28861794e-02 4.91473665e-02 8.45937012e-03 5.56756882e-03 8.45937012e-03 -7.08386078e-02
2.81426860e-02 1.71420630e-03 2.49030381e-06 1.71420630e-03 5.06090093e-02 1.74160436e-03 2.49030381e-06 1.74160436e-03 -6.72033392e-02
2.57575512e-02 2.36753564e-03 9.86661436e-03 2.36753564e-03 4.67612967e-02 6.93053962e-03 9.86661436e-03 6.93053962e-03 -6.22768458e-02
2.71386560e-02 -3.62908794e-03 -2.06476761e-06 -3.62908794e-03 4.70873527e-02 3.17550162e-04 -2.06476761e-06 3.17550162e-04 -6.32829517e-02
2.20265477e-02 -5.95375826e-03 1.07399898e-02 -5.95375826e-03 4.25392119e-02 1.14141873e-03 1.07399898e-02 1.14141873e-03 -5.50853685e-02
2.49043368e-02 -1.55832581e-02 3.35773293e-05 -1.55832581e-02 5.07401899e-02 5.40258270e-03 3.35773293e-05 5.40258270e-03 -6.51765242e-02
2.09847940e-02 -1.01465038e-02 1.43716121e-02 -1.01465038e-02 4.34643589e-02 -1.13060167e-02 1.43716121e-02 -1.13060167e-02 -5.53325899e-02
6.84153708e-02 2.20911563e-02 -7.63387128e-03 2.20911563e-02 4.80611278e-02 1.13892846e-02 -7.63387128e-03 1.13892846e-02 -9.86539070e-02
7.71242492e-02 4.21235757e-03 -3.81249981e-03 4.21235757e-03 5.13616540e-02 -1.03002458e-05 -3.81249981e-03 -1.03002458e-05 -1.09324519e-01
4.83315969e-02 3.56024196e-02 9.47706030e-05 3.56024196e-02 4.07135487e-02 1.59216337e-02 9.47706030e-05 1.59216337e-02 -7.51961637e-02
2.69348673e-02 2.03144985e-02 7.65031367e-03 2.03144985e-02 3.44842481e-02 1.05193900e-02 7.65031367e-03 1.05193900e-02 -5.16694048e-02
1.39941967e-02 -7.54382054e-04 1.00886112e-02 -7.54382054e-04 2.62448455e-02 8.77725356e-03 1.00886112e-02 8.77725356e-03 -3.31031764e-02
8.69053253e-03 -9.00410966e-03 1.12654436e-02 -9.00410966e-03 2.06338549e-02 -1.33088767e-03 1.12654436e-02 -1.33088767e-03 -2.34996444e-02
1.33349583e-02 -1.22617772e-02 7.07232649e-03 -1.22617772e-02 1.42140700e-02 -9.21144523e-03 7.07232649e-03 -9.21144523e-03 -2.21471200e-02
8.15752447e-02 -3.08827788e-03 3.19405291e-02 -3.08827788e-03 6.84562661e-02 1.80363460e-02 3.19405291e-02 1.80363460e-02 -1.34669356e-01
8.93451199e-02 -5.58476849e-03 2.33214423e-02 -5.58476849e-03 7.83515573e-02 -3.62188148e-05 2.33214423e-02 -3.62188148e-05 -1.51654392e-01
4.97764175e-02 1.84592123e-02 9.13816411e-03 1.84592123e-02 3.09644813e-02 2.37047846e-02 9.13816411e-03 2.37047846e-02 -6.84190417e-02
1.58836749e-02 9.33837230e-03 6.26780465e-03 9.33837230e-03 9.53300679e-03 1.14172136e-02 6.26780465e-03 1.14172136e-02 -1.79899558e-02
3.09147843e-04 -4.96715818e-03 9.35566582e-04 -4.96715818e-03 4.04583917e-03 6.02975721e-04 9.35566582e-04 6.02975721e-04 -1.66625627e-03
-1.92970816e-03 -4.24056363e-03 -1.15071361e-02 -4.24056363e-03 5.91003160e-03 -7.47828602e-04 -1.15071361e-02 -7.47828602e-04 -2.38122911e-03
-1.11258785e-04 -3.17047103e-03 7.39675990e-04 -3.17047103e-03 2.20905659e-03 5.00142909e-04 7.39675990e-04 5.00142909e-04 -4.76153435e-04
9.25408560e-04 -1.20691781e-02 -1.07747028e-02 -1.20691781e-02 4.59499424e-05 -2.94620171e-04 -1.07747028e-02 -2.94620171e-04 3.85390362e-04
1.96508807e-03 -6.54560115e-03 1.65117293e-03 -6.54560115e-03 -2.20005668e-03 2.09078862e-04 1.65117293e-03 2.09078862e-04 1.60190777e-03
1.72229366e-02 -1.80323562e-03 -1.82964299e-02 -1.80323562e-03 -1.04412346e-02 -4.19170605e-02 -1.82964299e-02 -4.19170605e-02 -1.42357545e-04
-1.52440113e-03 -3.31045972e-03 7.13132857e-03 -3.31045972e-03 3.79551784e-05 5.62709989e-03 7.13132857e-03 5.62709989e-03 7.99498940e-03
3.47153693e-02 2.12596096e-02 -7.18947640e-03 2.12596096e-02 4.33570072e-02 5.85052520e-02 -7.18947640e-03 5.85052520e-02 -6.96833432e-02
1.59824147e-04 -4.52518167e-05 -5.47762640e-04 -4.52518167e-05 3.75085860e-04 3.60354599e-03 -5.47762640e-04 3.60354599e-03 -1.46796519e-05
-8.69607696e-04 -2.73059026e-03 2.56126679e-04 -2.73059026e-03 6.70398673e-04 1.74756147e-04 2.56126679e-04 1.74756147e-04 7.57647368e-04
-1.92196841e-04 2.28309294e-04 2.00132739e-04 2.28309294e-04 3.74558610e-04 -2.10637809e-05 2.00132739e-04 -2.10637809e-05 -3.50247501e-05
-1.63300005e-04 -2.55052539e-04 -1.01100710e-04 -2.55052539e-04 1.77315027e-04 8.75581263e-05 -1.01100710e-04 8.75581263e-05 1.32528552e-04
2.56552651e-04 -9.23422529e-04 4.14795977e-04 -9.23422529e-04 -4.92116538e-04 -5.17619014e-06 4.14795977e-04 -5.17619014e-06 3.49170277e-04
4.04874983e-04 -1.08064644e-03 -1.54727641e-04 -1.08064644e-03 -9.73223527e-04 -9.31799477e-05 -1.54727641e-04 -9.31799477e-05 6.79543169e-04
8.70270282e-02 1.83401555e-02 -2.06703674e-02 1.83401555e-02 1.26596287e-01 3.67881265e-04 -2.06703674e-02 3.67881265e-04 -1.90081999e-01
1.07023612e-01 2.87486613e-03 -1.28725581e-02 2.87486613e-03 1.15863979e-01 2.62920056e-02 -1.28725581e-02 2.62920056e-02 -2.01505929e-01
7.88977047e-02 -2.09899456e-02 2.11725732e-02 -2.09899456e-02 8.57982586e-02 2.38315916e-02 2.11725732e-02 2.38315916e-02 -1.39581437e-01
8.17041434e-02 -1.17516159e-02 2.77303346e-02 -1.17516159e-02 9.32831280e-02 9.59097524e-05 2.77303346e-02 9.59097524e-05 -1.49420373e-01
5.89324522e-05 4.16229450e-05 -6.74600847e-06 4.16229450e-05 -5.52295260e-05 -4.89045406e-05 -6.74600847e-06 -4.89045406e-05 3.21091948e-05
8.57466409e-03 -9.62305850e-03 4.19671026e-05 -9.62305850e-03 -3.24141851e-03 4.14133887e-04 4.19671026e-05 4.14133887e-04 -3.82000317e-03
8.71462762e-05 7.01773970e-05 2.13520643e-05 7.01773970e-05 -1.21375302e-04 2.97108818e-05 2.13520643e-05 2.97108818e-05 -4.21691093e-05
9.12656412e-02 -2.22778306e-02 1.55761470e-02 -2.22778306e-02 5.72808906e-02 1.74859911e-02 1.55761470e-02 1.74859911e-02 -1.26236726e-01
9.28918868e-02 2.88053835e-03 1.57902241e-02 2.88053835e-03 5.40726893e-02 -7.15531933e-05 1.57902241e-02 -7.15531933e-05 -1.23358399e-01
7.04963207e-02 7.14185694e-03 5.34027419e-03 7.14185694e-03 6.68284483e-02 2.85259029e-02 5.34027419e-03 2.85259029e-02 -1.18253324e-01
8.46186075e-02 -1.73746959e-02 -2.66133610e-03 -1.73746959e-02 5.04644904e-02 3.55018917e-02 -2.66133610e-03 3.55018917e-02 -1.14788398e-01
3.76775637e-02 9.47945379e-03 -1.54793193e-02 9.47945379e-03 2.07699072e-02 1.44314491e-02 -1.54793193e-02 1.44314491e-02 -4.43943795e-02
2.68440646e-02 -1.27031426e-02 -1.09442621e-02 -1.27031426e-02 3.87158757e-02 1.46072442e-02 -1.09442621e-02 1.46072442e-02 -5.07866628e-02
-7.69442925e-03 -2.65059063e-02 -8.31341662e-04 -2.65059063e-02 5.98619817e-03 4.15387971e-04 -8.31341662e-04 4.15387971e-04 4.30428985e-03
-3.40080142e-04 -4.95588174e-05 -6.13299599e-05 -4.95588174e-05 1.35323673e-04 1.93687001e-05 -6.13299599e-05 1.93687001e-05 2.28541810e-04
-9.33406918e-05 6.89589360e-05 -2.63039783e-06 6.89589360e-05 5.50201457e-06 -5.85352018e-06 -2.63039783e-06 -5.85352018e-06 3.50042283e-05
</DataArray>
<DataArray type="Float32" Name="Plastic_strain_components" NumberOfComponents="9" format="ascii">
2.39713127e-02 -5.75311334e-03 1.92710508e-03 -5.75311334e-03 2.10054331e-02 5.73754582e-03 1.92710508e-03 5.73754582e-03 -3.77168311e-02
2.09053945e-02 -9.34912213e-03 1.00875042e-03 -9.34912213e-03 2.18092274e-02 1.04673160e-02 1.00875042e-03 1.04673160e-02 -3.39772885e-02
3.06889042e-02 -8.90404219e-04 3.51572008e-03 -8.90404219e-04 3.95356733e-02 -2.65309976e-03 3.51572008e-03 -2.65309976e-03 -5.98662039e-02
2.45244773e-02 -6.89483466e-04 -2.45677884e-03 -6.89483466e-04 2.92061414e-02 -2.24570045e-04 -2.45677884e-03 -2.24570045e-04 -4.52589421e-02
1.43317545e-02 2.00441566e-03 1.16024061e-02 2.00441566e-03 1.84783204e-02 5.97822796e-04 1.16024061e-02 5.97822796e-04 -2.36383640e-02
2.09920845e-02 -6.42813228e-03 -5.98798556e-03 -6.42813228e-03 3.12075006e-02 1.60793780e-02 -5.98798556e-03 1.60793780e-02 -4.13320690e-02
4.31503495e-02 -2.63852486e-03 -3.11667827e-03 -2.63852486e-03 5.13788899e-02 -1.29573722e-02 -3.11667827e-03 -1.29573722e-02 -8.04935489e-02
3.43261277e-02 1.38074813e-02 8.14240437e-03 1.38074813e-02 4.23268834e-02 1.53555177e-02 8.14240437e-03 1.53555177e-02 -6.63960315e-02
3.72183532e-02 4.99292859e-04 -1.45529917e-02 4.99292859e-04 3.96977696e-02 1.95410983e-02 -1.45529917e-02 1.95410983e-02 -6.65476695e-02
4.59029414e-02 1.26312704e-03 -7.27036456e-03 1.26312704e-03 5.05468473e-02 1.87636856e-02 -7.27036456e-03 1.87636856e-02 -8.09511431e-02
5.49479301e-02 2.10282837e-02 -7.62003126e-02 2.10282837e-02 5.63419800e-02 -1.07197072e-02 -7.62003126e-02 -1.07197072e-02 -9.46482259e-02
6.71999268e-02 2.31935224e-02 -5.51475883e-02 2.31935224e-02 3.88711002e-02 -9.44370613e-03 -5.51475883e-02 -9.44370613e-03 -8.75072591e-02
0.00000000e+00 0.00000000e+00 0.00000000e+00 0.00000000e+00 0.00000000e+00 0.00000000e+00 0.00000000e+00 0.00000000e+00 0.00000000e+00
0.00000000e+00 0.00000000e+00 0.00000000e+00 0.00000000e+00 0.00000000e+00 0.00000000e+00 0.00000000e+00 0.00000000e+00 0.00000000e+00
0.00000000e+00 0.00000000e+00 0.00000000e+00 0.00000000e+00 0.00000000e+00 0.00000000e+00 0.00000000e+00 0.00000000e+00 0.00000000e+00
0.00000000e+00 0.00000000e+00 0.00000000e+00 0.00000000e+00 0.00000000e+00 0.00000000e+00 0.00000000e+00 0.00000000e+00 0.00000000e+00
0.00000000e+00 0.00000000e+00 0.00000000e+00 0.00000000e+00 0.00000000e+00 0.00000000e+00 0.00000000e+00 0.00000000e+00 0.00000000e+00
0.00000000e+00 0.00000000e+00 0.00000000e+00 0.00000000e+00 0.00000000e+00 0.00000000e+00 0.00000000e+00 0.00000000e+00 0.00000000e+00
0.00000000e+00 0.00000000e+00 0.00000000e+00 0.00000000e+00 0.00000000e+00 0.00000000e+00 0.00000000e+00 0.00000000e+00 0.00000000e+00
0.00000000e+00 0.00000000e+00 0.00000000e+00 0.00000000e+00 0.00000000e+00 0.00000000e+00 0.00000000e+00 0.00000000e+00 0.00000000e+00
3.70191149e-02 7.16585055e-06 8.79489258e-03 7.16585055e-06 3.86996884e-02 -1.98887370e-03 8.79489258e-03 -1.98887370e-03 -6.37569875e-02
3.79642043e-02 1.39334923e-03 6.02196006e-03 1.39334923e-03 3.72175490e-02 2.04565279e-03 6.02196006e-03 2.04565279e-03 -6.32974794e-02
3.65754501e-02 -7.68440595e-03 1.01684365e-02 -7.68440595e-03 3.77058391e-02 2.90189726e-03 1.01684365e-02 2.90189726e-03 -6.24811570e-02
3.53492601e-02 1.19592180e-03 9.07467585e-03 1.19592180e-03 3.95704573e-02 -4.72390896e-03 9.07467585e-03 -4.72390896e-03 -6.30624229e-02
4.79538273e-02 -4.12023292e-06 9.15898522e-03 -4.12023292e-06 3.55336927e-02 -2.12110535e-07 9.15898522e-03 -2.12110535e-07 -7.02504702e-02
4.64026257e-02 1.05877905e-03 2.41575798e-03 1.05877905e-03 3.76103036e-02 7.96303619e-03 2.41575798e-03 7.96303619e-03 -7.07034990e-02
4.73755240e-02 2.33136462e-03 1.24863672e-02 2.33136462e-03 3.82729690e-02 3.88019105e-03 1.24863672e-02 3.88019105e-03 -7.20256949e-02
4.87639997e-02 2.21469416e-03 1.27126112e-02 2.21469416e-03 3.83771900e-02 -6.76650740e-03 1.27126112e-02 -6.76650740e-03 -7.32841995e-02
4.09460599e-02 -8.54556495e-03 8.63268203e-03 -8.54556495e-03 3.22910561e-02 6.81735462e-04 8.63268203e-03 6.81735462e-04 -6.16109399e-02
4.00948357e-02 -1.06406954e-02 9.15630674e-03 -1.06406954e-02 3.59848104e-02 3.68752205e-03 9.15630674e-03 3.68752205e-03 -6.39463728e-02
4.33442956e-02 2.07713729e-03 -5.26647098e-04 2.07713729e-03 3.76116987e-02 4.49196230e-03 -5.26647098e-04 4.49196230e-03 -6.81682527e-02
4.31498317e-02 2.89068550e-03 9.73539043e-03 2.89068550e-03 4.08578850e-02 1.13989044e-02 9.73539043e-03 1.13989044e-02 -7.07067782e-02
4.37998418e-02 7.00686112e-04 3.05048347e-03 7.00686112e-04 2.92277006e-02 4.88912000e-03 3.05048347e-03 4.88912000e-03 -6.14073360e-02
4.31357445e-02 -4.87351979e-03 -4.47964910e-03 -4.87351979e-03 3.45757636e-02 -3.82784269e-03 -4.47964910e-03 -3.82784269e-03 -6.51173242e-02
4.15443964e-02 -4.05994232e-03 4.99663249e-04 -4.05994232e-03 3.39796050e-02 4.75799435e-03 4.99663249e-04 4.75799435e-03 -6.35868572e-02
4.02420186e-02 -4.04347375e-03 -4.76920902e-03 -4.04347375e-03 3.76826413e-02 3.82932344e-03 -4.76920902e-03 3.82932344e-03 -6.55611586e-02
4.50853696e-02 2.03134149e-03 -4.46407916e-03 2.03134149e-03 2.77058277e-02 -8.05693475e-04 -4.46407916e-03 -8.05693475e-04 -6.11901209e-02
4.43806993e-02 1.85219510e-03 -6.15509299e-03 1.85219510e-03 4.08354804e-02 -3.72538343e-05 -6.15509299e-03 -3.72538343e-05 -7.17642093e-02
3.97871537e-02 -1.64468144e-03 -6.24534802e-03 -1.64468144e-03 3.02278111e-02 3.72347055e-03 -6.24534802e-03 3.72347055e-03 -5.89347510e-02
3.92195564e-02 -7.84144230e-03 -9.64079378e-03 -7.84144230e-03 3.20538115e-02 -4.80718697e-03 -9.64079378e-03 -4.80718697e-03 -5.99181387e-02
4.22721012e-02 1.14456157e-03 2.66963715e-03 1.14456157e-03 2.87956912e-02 -3.64707116e-03 2.66963715e-03 -3.64707116e-03 -5.97858205e-02
4.37981235e-02 9.74275070e-04 3.12414282e-04 9.74275070e-04 3.95522451e-02 2.24023355e-03 3.12414282e-04 2.24023355e-03 -7.01777320e-02
3.46717909e-02 -1.72711545e-04 -1.11560153e-02 -1.72711545e-04 2.83619706e-02 -4.62122553e-04 -1.11560153e-02 -4.62122553e-04 -5.30346436e-02
3.67040753e-02 -2.30284345e-03 -8.47271091e-03 -2.30284345e-03 3.47055930e-02 -4.45238487e-03 -8.47271091e-03 -4.45238487e-03 -6.00704174e-02
4.02784124e-02 7.50172447e-04 2.99095514e-03 7.50172447e-04 2.82063130e-02 -3.76825244e-03 2.99095514e-03 -3.76825244e-03 -5.75843845e-02
4.04026350e-02 -1.50367043e-03 -1.40847500e-03 -1.50367043e-03 3.87890507e-02 -3.06261389e-03 -1.40847500e-03 -3.06261389e-03 -6.66599972e-02
3.15262731e-02 9.86513542e-03 -8.53506336e-03 9.86513542e-03 2.78876591e-02 -7.31401565e-03 -8.53506336e-03 -7.31401565e-03 -4.99667786e-02
3.56828044e-02 2.98372598e-03 -5.71458452e-03 2.98372598e-03 3.29957032e-02 -4.51828929e-03 -5.71458452e-03 -4.51828929e-03 -5.77414446e-02
3.26034569e-02 -1.29370865e-02 2.46974149e-02 -1.29370865e-02 4.13251810e-02 4.22115481e-04 2.46974149e-02 4.22115481e-04 -6.17582179e-02
2.75597973e-02 -1.01715159e-02 1.80058521e-02 -1.01715159e-02 4.41753520e-02 -2.78567703e-03 1.80058521e-02 -2.78567703e-03 -6.01734342e-02
5.11112805e-02 -1.92269603e-04 3.16332181e-02 -1.92269603e-04 4.19909260e-02 8.91352302e-03 3.16332181e-02 8.91352302e-03 -7.80674862e-02
4.85079633e-02 -2.28858546e-04 2.53720046e-02 -2.28858546e-04 4.18009739e-02 -1.95896556e-03 2.53720046e-02 -1.95896556e-03 -7.58138411e-02
4.34514550e-02 -1.68510036e-03 1.73586011e-02 -1.68510036e-03 4.00145240e-02 -3.95116982e-03 1.73586011e-02 -3.95116982e-03 -7.07052925e-02
4.58977758e-02 8.98266032e-03 9.14635774e-03 8.98266032e-03 4.29834970e-02 -6.57643724e-03 9.14635774e-03 -6.57643724e-03 -7.45546781e-02
5.25492936e-02 -1.10606920e-02 -4.75964608e-02 -1.10606920e-02 4.84007999e-02 -5.37225790e-04 -4.75964608e-02 -5.37225790e-04 -8.36052798e-02
3.83104953e-02 5.97730882e-03 -3.41692692e-02 5.97730882e-03 4.09380171e-02 -7.24575748e-03 -3.41692692e-02 -7.24575748e-03 -6.74352593e-02
5.10460055e-02 -9.33945528e-04 -1.40068675e-02 -9.33945528e-04 5.79438964e-02 1.03697972e-02 -1.40068675e-02 1.03697972e-02 -9.16944165e-02
4.16806005e-02 -5.13151325e-03 -4.53985430e-02 -5.13151325e-03 3.33411633e-02 6.88051092e-03 -4.53985430e-02 6.88051092e-03 -6.18373945e-02
4.99950163e-02 -3.21722237e-03 -1.96499075e-03 -3.21722237e-03 5.44975474e-02 8.75370487e-03 -1.96499075e-03 8.75370487e-03 -8.79822802e-02
4.31057699e-02 2.13562883e-03 -1.72418859e-02 2.13562883e-03 4.83981604e-02 -9.08728049e-04 -1.72418859e-02 -9.08728049e-04 -7.70290997e-02
4.48865257e-02 -9.68992477e-04 -3.75154964e-03 -9.68992477e-04 5.48197012e-02 3.21654230e-03 -3.75154964e-03 3.21654230e-03 -8.39291997e-02
4.09191698e-02 -1.83678663e-03 -1.71233192e-02 -1.83678663e-03 4.85063121e-02 -1.32825561e-02 -1.71233192e-02 -1.32825561e-02 -7.51044378e-02
2.76794541e-02 -7.61284816e-03 3.16067559e-02 -7.61284816e-03 4.02901034e-02 9.31123205e-04 3.16067559e-02 9.31123205e-04 -5.65216685e-02
2.28960016e-02 2.48294283e-03 2.54363916e-02 2.48294283e-03 3.97340395e-02 4.40623879e-03 2.54363916e-02 4.40623879e-03 -5.23597151e-02
5.48599793e-02 -3.91035815e-03 3.67136395e-02 -3.91035815e-03 4.44314224e-02 -8.73921785e-03 3.67136395e-02 -8.73921785e-03 -8.34785040e-02
4.21405407e-02 1.99011865e-03 3.77265741e-02 1.99011865e-03 4.39015767e-02 -1.22518747e-02 3.77265741e-02 -1.22518747e-02 -7.19247758e-02
3.98785991e-02 -2.05674456e-02 4.57200874e-02 -2.05674456e-02 5.23272911e-02 -4.95907462e-02 4.57200874e-02 -4.95907462e-02 -7.52879381e-02
6.14973120e-02 -5.50349429e-04 9.20101572e-03 -5.50349429e-04 4.54716727e-02 -3.84021822e-02 9.20101572e-03 -3.84021822e-02 -9.04337347e-02
-1.63805764e-02 -8.29056576e-02 -1.69067144e-01 -8.29056576e-02 -9.76195326e-04 -1.10391341e-01 -1.69067144e-01 -1.10391341e-01 2.79701930e-02
1.34361486e-02 -3.18123214e-03 -1.11493741e-02 -3.18123214e-03 1.03638259e-02 -2.22229585e-02 -1.11493741e-02 -2.22229585e-02 -1.26281418e-02
2.27828476e-02 -2.44371864e-03 1.32937266e-02 -2.44371864e-03 3.00447111e-02 1.88702279e-02 1.32937266e-02 1.88702279e-02 -4.41926223e-02
2.14096503e-02 -5.73138567e-03 2.06930114e-02 -5.73138567e-03 3.13776620e-02 3.68441019e-03 2.06930114e-02 3.68441019e-03 -4.40219948e-02
1.89203226e-02 -4.08952326e-03 2.48961049e-02 -4.08952326e-03 2.39850537e-02 1.63609334e-02 2.48961049e-02 1.63609334e-02 -2.92965824e-02
2.45849867e-02 -3.56199755e-03 1.15503068e-02 -3.56199755e-03 3.18501847e-02 8.42824671e-03 1.15503068e-02 8.42824671e-03 -4.25321781e-02
2.52215737e-02 5.23362204e-03 -1.34767988e-03 5.23362204e-03 3.27237006e-02 3.22855520e-03 -1.34767988e-03 3.22855520e-03 -4.93126353e-02
5.14150411e-02 1.08132947e-02 -1.28711632e-02 1.08132947e-02 5.93935730e-02 3.19982263e-02 -1.28711632e-02 3.19982263e-02 -9.65028570e-02
3.30214864e-02 1.15988925e-02 7.66244088e-03 1.15988925e-02 4.82609887e-02 8.76767433e-03 7.66244088e-03 8.76767433e-03 -6.65145041e-02
2.55583706e-02 3.51780831e-03 1.17096107e-02 3.51780831e-03 3.62200914e-02 5.72965634e-02 1.17096107e-02 5.72965634e-02 -5.00643272e-02
7.10266884e-02 -9.25079221e-03 5.96052576e-02 -9.25079221e-03 6.03362359e-02 2.60725229e-02 5.96052576e-02 2.60725229e-02 -1.11579124e-01
3.92642938e-02 -1.32079303e-02 -2.88027152e-02 -1.32079303e-02 5.95370136e-02 -1.54106092e-02 -2.88027152e-02 -1.54106092e-02 -8.25093560e-02
2.46832408e-02 -2.14613089e-03 7.76107796e-03 -2.14613089e-03 3.51713579e-02 9.48681962e-03 7.76107796e-03 9.48681962e-03 -4.99599315e-02
2.35939638e-02 1.21137621e-02 -5.29642616e-03 1.21137621e-02 2.49732295e-02 1.45940867e-03 -5.29642616e-03 1.45940867e-03 -3.27267665e-02
4.27661017e-02 -9.56252683e-03 1.65312183e-02 -9.56252683e-03 6.29249122e-02 -1.36178751e-02 1.65312183e-02 -1.36178751e-02 -9.04534571e-02
5.39338877e-02 -1.47523317e-02 -3.71214189e-02 -1.47523317e-02 5.94399264e-02 4.50225363e-02 -3.71214189e-02 4.50225363e-02 -9.53884833e-02
3.07355815e-02 3.38118058e-02 5.14870432e-04 3.38118058e-02 5.87190961e-02 -9.68383439e-02 5.14870432e-04 -9.68383439e-02 -7.19261070e-02
5.77935819e-02 -4.55688697e-03 -1.08560526e-02 -4.55688697e-03 3.39816231e-02 -2.28308680e-02 -1.08560526e-02 -2.28308680e-02 -7.65534652e-02
5.93155734e-02 6.22188236e-06 3.00851034e-03 6.22188236e-06 3.59725598e-02 -2.84258684e-03 3.00851034e-03 -2.84258684e-03 -8.00784975e-02
5.50749730e-02 2.91659118e-03 3.57806217e-03 2.91659118e-03 3.92980436e-02 4.29701832e-03 3.57806217e-03 4.29701832e-03 -7.93810841e-02
5.70595837e-02 1.09572457e-02 7.22214160e-03 1.09572457e-02 4.07467866e-02 4.61982636e-03 7.22214160e-03 4.61982636e-03 -8.22302690e-02
6.24370035e-02 2.71865778e-03 8.77633266e-03 2.71865778e-03 3.80236441e-02 -2.28228042e-03 8.77633266e-03 -2.28228042e-03 -8.44125785e-02
4.52754255e-02 7.26125995e-03 -7.78115296e-04 7.26125995e-03 4.49266424e-02 7.18541563e-03 -7.78115296e-04 7.18541563e-03 -7.59311114e-02
4.55483394e-02 1.50013287e-02 3.52017579e-03 1.50013287e-02 4.51335963e-02 5.61891889e-03 3.52017579e-03 5.61891889e-03 -7.62517210e-02
3.73222316e-02 4.71506582e-03 -2.34265364e-03 4.71506582e-03 4.57581282e-02 2.11570511e-03 -2.34265364e-03 2.11570511e-03 -6.99529815e-02
3.42717837e-02 7.71021858e-03 -6.24596345e-04 7.71021858e-03 4.61560222e-02 7.48913390e-03 -6.24596345e-04 7.48913390e-03 -6.75700242e-02
3.26540913e-02 -3.39866744e-03 -1.45814475e-03 -3.39866744e-03 4.24103476e-02 6.31674426e-04 -1.45814475e-03 6.31674426e-04 -6.31970754e-02
2.92329860e-02 -3.53927215e-03 -2.85449857e-03 -3.53927215e-03 4.17447914e-02 1.23651055e-03 -2.85449857e-03 1.23651055e-03 -5.98177072e-02
2.86607281e-02 -4.37223783e-03 -4.35893342e-03 -4.37223783e-03 3.95902991e-02 -2.05708129e-04 -4.35893342e-03 -2.05708129e-04 -5.74386343e-02
2.90611454e-02 -7.34607481e-03 -7.82420690e-03 -7.34607481e-03 3.48661970e-02 -1.80872162e-03 -7.82420690e-03 -1.80872162e-03 -5.37587083e-02
2.53996588e-02 1.12301292e-03 -1.28118321e-03 1.12301292e-03 4.18219417e-02 8.31434852e-04 -1.28118321e-03 8.31434852e-04 -5.65321054e-02
2.87580309e-02 -6.38524676e-03 -3.15439841e-03 -6.38524676e-03 3.51764727e-02 -8.41598958e-03 -3.15439841e-03 -8.41598958e-03 -5.36112338e-02
5.75126735e-02 1.40707736e-02 1.73667374e-02 1.40707736e-02 3.42408174e-02 3.90196309e-03 1.73667374e-02 3.90196309e-03 -7.40863467e-02
7.37821311e-02 8.16986524e-03 2.73056536e-02 8.16986524e-03 4.61858641e-02 -8.01400363e-03 2.73056536e-02 -8.01400363e-03 -1.01767158e-01
4.32457614e-02 1.65925394e-02 8.93333854e-04 1.65925394e-02 3.60992583e-02 2.53111121e-03 8.93333854e-04 2.53111121e-03 -6.46596511e-02
2.96707782e-02 1.37407725e-02 -1.52418725e-02 1.37407725e-02 3.31253745e-02 -2.59005305e-03 -1.52418725e-02 -2.59005305e-03 -5.24566779e-02
1.90295818e-02 2.16273790e-04 -1.88684376e-02 2.16273790e-04 2.94680050e-02 -1.22281714e-03 -1.88684376e-02 -1.22281714e-03 -4.05794459e-02
1.73804032e-02 -8.52280211e-03 -2.29698787e-02 -8.52280211e-03 2.77468593e-02 -7.88327961e-03 -2.29698787e-02 -7.88327961e-03 -3.74696674e-02
2.10452297e-02 -1.54741642e-02 -2.66889203e-02 -1.54741642e-02 2.60585866e-02 -1.51281254e-02 -2.66889203e-02 -1.51281254e-02 -3.94443261e-02
7.97393881e-02 -1.87230374e-03 5.49298609e-02 -1.87230374e-03 4.08521347e-02 -1.29564068e-02 5.49298609e-02 -1.29564068e-02 -1.01317099e-01
7.44567588e-02 -1.37559067e-02 5.03608224e-02 -1.37559067e-02 4.35556937e-02 -1.66896731e-02 5.03608224e-02 -1.66896731e-02 -9.79561855e-02
6.14356498e-02 1.49921620e-02 4.70065230e-03 1.49921620e-02 2.94922612e-02 -3.08717266e-02 4.70065230e-03 -3.08717266e-02 -7.68179682e-02
1.53185975e-02 1.19067829e-02 -2.21998575e-02 1.19067829e-02 7.47147202e-03 -6.39885978e-03 -2.21998575e-02 -6.39885978e-03 -1.61040622e-02
7.18305726e-03 -4.88565415e-02 -7.38411471e-02 -4.88565415e-02 -2.51655821e-02 -6.76117837e-02 -7.38411471e-02 -6.76117837e-02 2.37338636e-02
-1.52715888e-03 3.11592750e-03 -2.02601048e-03 3.11592750e-03 2.80533963e-03 -1.66434599e-03 -2.02601048e-03 -1.66434599e-03 1.73280110e-03
8.43691397e-02 1.95796893e-04 -6.33152854e-03 1.95796893e-04 7.06873713e-02 4.72777486e-02 -6.33152854e-03 4.72777486e-02 -1.32808072e-01
8.37726370e-02 1.06474987e-02 -3.28689736e-02 1.06474987e-02 7.94695094e-02 3.67658834e-02 -3.28689736e-02 3.67658834e-02 -1.40862795e-01
7.82693774e-02 -1.16487370e-02 1.46164752e-02 -1.16487370e-02 4.22842260e-02 -4.28549387e-02 1.46164752e-02 -4.28549387e-02 -1.00721173e-01
5.08833595e-02 -2.33823162e-03 -1.17597780e-02 -2.33823162e-03 6.43119259e-02 1.99084044e-02 -1.17597780e-02 1.99084044e-02 -9.12335596e-02
5.28156785e-02 -3.73373250e-03 1.18314803e-02 -3.73373250e-03 6.27865330e-02 -2.15524621e-03 1.18314803e-02 -2.15524621e-03 -9.17770555e-02
7.78198615e-02 -4.30504419e-03 7.92978518e-03 -4.30504419e-03 6.84962552e-02 2.32649500e-02 7.92978518e-03 2.32649500e-02 -1.25107955e-01
6.93785064e-02 3.15326452e-03 1.26258110e-02 3.15326452e-03 6.20462541e-02 -1.21410470e-02 1.26258110e-02 -1.21410470e-02 -1.10241845e-01
7.15394504e-02 1.88591161e-02 -1.01439789e-02 1.88591161e-02 6.91468939e-02 -2.42595430e-02 -1.01439789e-02 -2.42595430e-02 -1.19078208e-01
8.07416886e-02 -1.17056163e-02 -1.93114758e-02 -1.17056163e-02 4.86543952e-02 3.61803961e-02 -1.93114758e-02 3.61803961e-02 -1.08559292e-01
4.87497719e-02 9.73822083e-03 5.42620770e-03 9.73822083e-03 1.92849014e-02 -1.07366871e-02 5.42620770e-03 -1.07366871e-02 -5.51002563e-02
3.34324678e-02 -1.81239621e-02 1.76916574e-03 -1.81239621e-02 2.96650715e-02 2.71535479e-03 1.76916574e-03 2.71535479e-03 -5.06923487e-02
-2.01755371e-02 2.82109026e-02 1.95911545e-02 2.82109026e-02 -9.37273819e-03 -1.66347902e-02 1.95911545e-02 -1.66347902e-02 3.58077176e-02
-3.79477628e-03 -6.66561490e-03 7.94933550e-03 -6.66561490e-03 -7.38951890e-03 4.11885674e-04 7.94933550e-03 4.11885674e-04 1.83301568e-02
1.07189636e-02 -2.83422960e-02 -8.76638255e-03 -2.83422960e-02 -1.53462779e-02 2.85539120e-02 -8.76638255e-03 2.85539120e-02 8.21957323e-03
-4.17729543e-03 -2.14403559e-02 1.31584412e-03 -2.14403559e-02 4.70832778e-03 -3.00318828e-02 1.31584412e-03 -3.00318828e-02 4.32167442e-03
0.00000000e+00 0.00000000e+00 0.00000000e+00 0.00000000e+00 0.00000000e+00 0.00000000e+00 0.00000000e+00 0.00000000e+00 0.00000000e+00
0.00000000e+00 0.00000000e+00 0.00000000e+00 0.00000000e+00 0.00000000e+00 0.00000000e+00 0.00000000e+00 0.00000000e+00 0.00000000e+00
0.00000000e+00 0.00000000e+00 0.00000000e+00 0.00000000e+00 0.00000000e+00 0.00000000e+00 0.00000000e+00 0.00000000e+00 0.00000000e+00
0.00000000e+00 0.00000000e+00 0.00000000e+00 0.00000000e+00 0.00000000e+00 0.00000000e+00 0.00000000e+00 0.00000000e+00 0.00000000e+00
1.93379716e-05 -2.89882275e-05 -2.39471854e-05 -2.89882275e-05 -4.03139406e-05 -3.64472715e-05 -2.39471854e-05 -3.64472715e-05 9.39539295e-06
0.00000000e+00 0.00000000e+00 0.00000000e+00 0.00000000e+00 0.00000000e+00 0.00000000e+00 0.00000000e+00 0.00000000e+00 0.00000000e+00
0.00000000e+00 0.00000000e+00 0.00000000e+00 0.00000000e+00 0.00000000e+00 0.00000000e+00 0.00000000e+00 0.00000000e+00 0.00000000e+00
-3.17663774e-05 -1.54135438e-04 1.33673154e-05 -1.54135438e-04 8.39378542e-06 4.41788416e-06 1.33673154e-05 4.41788416e-06 3.41882042e-05
6.35469854e-02 5.11266990e-07 1.92428706e-06 5.11266990e-07 3.79520096e-02 5.04878699e-07 1.92428706e-06 5.04878699e-07 -8.52956027e-02
5.78615237e-02 5.52181248e-03 -7.82543793e-06 5.52181248e-03 4.14640792e-02 3.81888368e-03 -7.82543793e-06 3.81888368e-03 -8.35547708e-02
6.22788230e-02 1.60654518e-02 3.45961412e-03 1.60654518e-02 3.91713399e-02 6.38143555e-03 3.45961412e-03 6.38143555e-03 -8.51865150e-02
6.90243728e-02 4.68358258e-03 1.55456545e-03 4.68358258e-03 3.62444855e-02 -2.25458643e-06 1.55456545e-03 -2.25458643e-06 -8.83522369e-02
4.56173606e-02 4.97702067e-03 -2.39521214e-05 4.97702067e-03 4.85890992e-02 8.32866132e-03 -2.39521214e-05 8.32866132e-03 -7.92947635e-02
4.70222188e-02 1.97823753e-02 4.05406801e-03 1.97823753e-02 4.58850795e-02 6.00872515e-03 4.05406801e-03 6.00872515e-03 -7.80721810e-02
3.45936846e-02 7.48032029e-03 -2.09600494e-05 7.48032029e-03 5.19897230e-02 5.67084132e-03 -2.09600494e-05 5.67084132e-03 -7.27974884e-02
3.35586620e-02 1.28024538e-02 5.43351483e-03 1.28024538e-02 4.87809535e-02 8.30455613e-03 5.43351483e-03 8.30455613e-03 -6.90589435e-02
2.81947181e-02 1.72633835e-03 -1.49131483e-06 1.72633835e-03 5.04595824e-02 1.72186218e-03 -1.49131483e-06 1.72186218e-03 -6.60712905e-02
2.64882660e-02 2.64853868e-03 9.98031045e-03 2.64853868e-03 4.77821007e-02 7.14027288e-03 9.98031045e-03 7.14027288e-03 -6.26309197e-02
2.71866387e-02 -3.61203251e-03 -5.89264528e-06 -3.61203251e-03 4.69501503e-02 3.37058867e-04 -5.89264528e-06 3.37058867e-04 -6.23016562e-02
2.30369247e-02 -7.19411473e-03 1.12530515e-02 -7.19411473e-03 4.53010201e-02 1.05312237e-03 1.12530515e-02 1.05312237e-03 -5.80558544e-02
2.51519475e-02 -1.53776119e-02 1.94292952e-05 -1.53776119e-02 5.06076701e-02 5.37339831e-03 1.94292952e-05 5.37339831e-03 -6.35185391e-02
2.23712148e-02 -1.10052931e-02 1.45147773e-02 -1.10052931e-02 4.58523277e-02 -1.18539655e-02 1.45147773e-02 -1.18539655e-02 -5.77130336e-02
7.32939551e-02 2.28064950e-02 -5.83994942e-03 2.28064950e-02 5.05752871e-02 1.19858265e-02 -5.83994942e-03 1.19858265e-02 -1.05490971e-01
7.57216550e-02 4.05140675e-03 -4.50990512e-03 4.05140675e-03 5.09979893e-02 -8.37881307e-05 -4.50990512e-03 -8.37881307e-05 -1.06272902e-01
4.23468323e-02 3.25356820e-02 -1.37937261e-04 3.25356820e-02 3.73326209e-02 1.36377707e-02 -1.37937261e-04 1.36377707e-02 -6.49677059e-02
2.97774612e-02 2.21682297e-02 8.27980286e-03 2.21682297e-02 3.68353915e-02 1.14701628e-02 8.27980286e-03 1.14701628e-02 -5.69284018e-02
1.21638175e-02 -1.72212438e-03 8.89956497e-03 -1.72212438e-03 2.35221665e-02 7.83019443e-03 8.89956497e-03 7.83019443e-03 -2.94002725e-02
5.03824011e-03 -4.50361153e-03 8.74505076e-03 -4.50361153e-03 1.03977951e-02 -1.05919995e-03 8.74505076e-03 -1.05919995e-03 -1.03446431e-02
9.16400284e-03 -8.68536974e-03 6.05946127e-03 -8.68536974e-03 5.35089313e-03 -6.58860803e-03 6.05946127e-03 -6.58860803e-03 -9.62938915e-03
7.96284862e-02 -3.57191695e-03 3.04018687e-02 -3.57191695e-03 6.86724111e-02 1.75530100e-02 3.04018687e-02 1.75530100e-02 -1.23953052e-01
9.20275152e-02 -5.46596991e-03 2.33287401e-02 -5.46596991e-03 8.08352754e-02 5.54844228e-05 2.33287401e-02 5.54844228e-05 -1.45723805e-01
5.88735007e-02 2.36404051e-02 1.02289608e-02 2.36404051e-02 3.43913020e-02 2.60720998e-02 1.02289608e-02 2.60720998e-02 -8.09467956e-02
-1.18616730e-03 -2.62245850e-03 3.56078352e-03 -2.62245850e-03 4.62778361e-03 6.31032670e-03 3.56078352e-03 6.31032670e-03 2.07981910e-03
-1.23279027e-03 -4.57638691e-03 2.10845532e-03 -4.57638691e-03 -9.57477750e-04 1.05829469e-04 2.10845532e-03 1.05829469e-04 3.64336228e-03
-2.06300068e-03 -4.66562216e-03 -1.16640800e-02 -4.66562216e-03 6.22248203e-03 -6.28728737e-04 -1.16640800e-02 -6.28728737e-04 -2.90587567e-03
-2.92339244e-04 -1.49456938e-03 1.23655390e-03 -1.49456938e-03 9.00042687e-05 5.96342295e-04 1.23655390e-03 5.96342295e-04 8.68367877e-04
8.78131425e-04 -1.16285083e-02 -1.06129651e-02 -1.16285083e-02 2.02273543e-04 -2.47714204e-04 -1.06129651e-02 -2.47714204e-04 4.51456144e-04
1.61530584e-03 -6.75597964e-03 1.43784395e-03 -6.75597964e-03 -2.17142736e-03 1.89110746e-04 1.43784395e-03 1.89110746e-04 1.08471600e-03
1.95774448e-02 -7.39230774e-04 -1.73210045e-02 -7.39230774e-04 -1.00391197e-02 -4.02771034e-02 -1.73210045e-02 -4.02771034e-02 -4.98916535e-03
-1.42123443e-02 -3.23668233e-03 5.05538122e-03 -3.23668233e-03 -1.59150589e-03 8.53565591e-03 5.05538122e-03 8.53565591e-03 2.03047756e-02
4.25947383e-02 2.11311355e-02 -6.06214628e-03 2.11311355e-02 4.49197367e-02 5.66199347e-02 -6.06214628e-03 5.66199347e-02 -7.70691037e-02
8.02913928e-06 -2.63231400e-04 -3.94353364e-04 -2.63231400e-04 2.74204261e-05 3.66429149e-03 -3.94353364e-04 3.66429149e-03 -3.86810704e-05
-1.07138305e-03 -2.72890642e-03 6.42607505e-05 -2.72890642e-03 6.05228779e-04 5.35709122e-05 6.42607505e-05 5.35709122e-05 7.24762288e-04
-1.18598499e-04 7.74107343e-06 -2.44841794e-05 7.74107343e-06 1.58090156e-04 1.90980763e-05 -2.44841794e-05 1.90980763e-05 -5.19245500e-05
-8.44327012e-05 -2.20456586e-05 -6.77999253e-05 -2.20456586e-05 9.20592315e-05 -1.84447067e-05 -6.77999253e-05 -1.84447067e-05 -5.13450567e-05
1.69125560e-04 -8.12198967e-04 4.59146977e-04 -8.12198967e-04 -2.89745192e-04 -2.18031209e-06 4.59146977e-04 -2.18031209e-06 2.10935614e-04
4.30141517e-04 -1.07983523e-03 -8.41982255e-05 -1.07983523e-03 -8.27721902e-04 -2.86348841e-05 -8.41982255e-05 -2.86348841e-05 5.75146289e-04
8.46165344e-02 1.82254706e-02 -2.05963384e-02 1.82254706e-02 1.20780103e-01 -4.74115252e-04 -2.05963384e-02 -4.74115252e-04 -1.71096563e-01
1.05647676e-01 4.00221488e-03 -1.04218880e-02 4.00221488e-03 1.13057002e-01 2.41596941e-02 -1.04218880e-02 2.41596941e-02 -1.82092994e-01
8.55789905e-02 -2.26376705e-02 1.84309616e-02 -2.26376705e-02 9.40938815e-02 2.63293522e-02 1.84309616e-02 2.63293522e-02 -1.53810014e-01
8.84940363e-02 -1.20173148e-02 2.82841036e-02 -1.20173148e-02 1.03996754e-01 1.01761401e-03 2.82841036e-02 1.01761401e-03 -1.64989844e-01
4.34762048e-05 -6.66793837e-05 5.19216655e-07 -6.66793837e-05 -2.88983776e-05 -1.31705282e-05 5.19216655e-07 -1.31705282e-05 -2.74639528e-05
2.19137207e-03 -3.98354718e-03 3.30077263e-04 -3.98354718e-03 -1.62851655e-03 1.40081172e-03 3.30077263e-04 1.40081172e-03 8.35877333e-04
0.00000000e+00 0.00000000e+00 0.00000000e+00 0.00000000e+00 0.00000000e+00 0.00000000e+00 0.00000000e+00 0.00000000e+00 0.00000000e+00
9.01540816e-02 -2.18285620e-02 1.53077678e-02 -2.18285620e-02 5.66784292e-02 1.72344986e-02 1.53077678e-02 1.72344986e-02 -1.23233866e-01
9.24007669e-02 2.82734632e-03 1.58137288e-02 2.82734632e-03 5.37821352e-02 -4.02176229e-05 1.58137288e-02 -4.02176229e-05 -1.22812703e-01
7.76726194e-02 5.72646130e-03 3.93368199e-03 5.72646130e-03 7.21421987e-02 3.02944891e-02 3.93368199e-03 3.02944891e-02 -1.28737327e-01
9.13791433e-02 -2.09284136e-02 -3.40882316e-03 -2.09284136e-02 5.38124721e-02 3.70914284e-02 -3.40882316e-03 3.70914284e-02 -1.23716287e-01
1.81627817e-02 1.26342425e-02 -1.00987300e-02 1.26342425e-02 4.21174057e-03 7.64466682e-03 -1.00987300e-02 7.64466682e-03 -1.03106126e-02
-1.44213968e-03 -3.71931342e-03 -8.25162977e-03 -3.71931342e-03 2.68888022e-02 6.86906585e-03 -8.25162977e-03 6.86906585e-03 -1.36973802e-02
-4.21517238e-03 -1.19321097e-02 -5.90409501e-04 -1.19321097e-02 1.16434728e-03 3.05421065e-03 -5.90409501e-04 3.05421065e-03 5.28778023e-03
-1.88213104e-04 -1.17744341e-04 -5.68950600e-06 -1.17744341e-04 8.82538006e-05 -1.43770012e-05 -5.68950600e-06 -1.43770012e-05 1.31786946e-04
0.00000000e+00 0.00000000e+00 0.00000000e+00 0.00000000e+00 0.00000000e+00 0.00000000e+00 0.00000000e+00 0.00000000e+00 0.00000000e+00
</DataArray>
<DataArray type="Float32" Name="Spatial_displacement" NumberOfComponents="3" format="ascii">
2.70275399e-02 1.64633006e-01 -7.76522309e-02
4.59433496e-02 1.57503232e-01 -6.11530542e-02
4.63769510e-02 1.97781816e-01 -9.03698653e-02
2.27276981e-02 1.92476720e-01 -9.90753099e-02
2.19774693e-02 1.89671785e-01 -1.17995314e-01
5.00776768e-02 1.88434035e-01 -1.13395117e-01
4.16250229e-02 2.40747184e-01 -1.50085658e-01
2.38918886e-02 2.16770560e-01 -1.41808406e-01
8.00589472e-02 1.45954490e-01 -4.86078113e-02
8.68315101e-02 1.91054225e-01 -8.91660377e-02
8.09268057e-02 1.81150228e-01 -1.28492296e-01
1.17054440e-01 2.29034156e-01 -1.94335565e-01
8.19295049e-02 1.43339708e-01 2.71052122e-05
8.19292516e-02 1.46198139e-01 2.06679106e-05
7.90660456e-02 1.46205515e-01 -1.33365393e-05
7.90414065e-02 1.43349499e-01 -2.72989273e-05
8.19249973e-02 1.43388242e-01 1.43945217e-05
8.19142759e-02 1.46257475e-01 2.86847353e-05
7.90470839e-02 1.46244407e-01 -2.40355730e-05
7.90657401e-02 1.43374383e-01 -1.65998936e-05
0.00000000e+00 0.00000000e+00 -1.89930111e-01
3.58489603e-02 0.00000000e+00 -1.91796079e-01
3.73230651e-02 3.88675481e-02 -1.86123997e-01
0.00000000e+00 3.76307368e-02 -1.81672543e-01
0.00000000e+00 0.00000000e+00 -2.54944563e-01
4.89489362e-02 0.00000000e+00 -2.54938632e-01
5.00811264e-02 3.82704511e-02 -2.52682775e-01
0.00000000e+00 3.59875932e-02 -2.46365398e-01
7.91986957e-02 0.00000000e+00 -2.03478187e-01
7.02604949e-02 3.21679488e-02 -1.95356816e-01
9.47993994e-02 0.00000000e+00 -2.62642920e-01
9.69795436e-02 4.01145928e-02 -2.63127863e-01
1.17901452e-01 0.00000000e+00 -2.16245055e-01
1.18642874e-01 2.77099088e-02 -2.13372111e-01
1.40926570e-01 0.00000000e+00 -2.76090741e-01
1.36666983e-01 3.52184922e-02 -2.75614917e-01
1.64552420e-01 0.00000000e+00 -2.28052795e-01
1.66690424e-01 2.92396918e-02 -2.32262403e-01
1.80714816e-01 0.00000000e+00 -2.86607921e-01
1.78973138e-01 2.88710371e-02 -2.92500168e-01
2.12402254e-01 0.00000000e+00 -2.42982969e-01
2.13590562e-01 3.16212848e-02 -2.40461916e-01
2.18351275e-01 0.00000000e+00 -2.93657422e-01
2.18168527e-01 2.71774605e-02 -3.04230869e-01
2.55864948e-01 0.00000000e+00 -2.48893544e-01
2.56651551e-01 3.09325680e-02 -2.46064067e-01
2.48034149e-01 0.00000000e+00 -2.96217501e-01
2.58254558e-01 2.60099098e-02 -3.04353505e-01
2.54291520e-02 7.28509575e-02 -1.68101355e-01
0.00000000e+00 8.35360363e-02 -1.65371239e-01
4.97473478e-02 7.82083869e-02 -2.32256234e-01
0.00000000e+00 7.84512386e-02 -2.30438814e-01
6.81200773e-02 7.30978176e-02 -1.88045159e-01
1.03678077e-01 8.23679492e-02 -2.57078648e-01
1.10539593e-01 7.88304880e-02 -2.23043576e-01
1.43267095e-01 7.70504102e-02 -3.04014862e-01
1.64693907e-01 8.77787396e-02 -2.31030434e-01
1.72350734e-01 6.66797757e-02 -3.18193227e-01
2.12892145e-01 8.10970366e-02 -2.30801046e-01
2.16455787e-01 7.51014948e-02 -3.16087604e-01
2.54181862e-01 8.26602578e-02 -2.35076576e-01
2.56761670e-01 7.46009126e-02 -3.16686362e-01
2.08174363e-02 1.25763625e-01 -1.32932663e-01
0.00000000e+00 1.23125389e-01 -1.37107775e-01
4.57349494e-02 1.23700187e-01 -2.05147371e-01
0.00000000e+00 1.21880949e-01 -1.93744138e-01
6.08347543e-02 1.10286489e-01 -1.59896299e-01
1.16285808e-01 1.28155649e-01 -2.66714454e-01
5.01820706e-02 9.57698673e-02 -3.89125198e-01
1.66397616e-01 1.11967593e-01 -3.51868629e-01
2.04594359e-02 1.54375941e-01 -1.10475183e-01
0.00000000e+00 1.60258889e-01 -1.13981523e-01
3.47722545e-02 1.70356095e-01 -1.55252606e-01
0.00000000e+00 1.74391270e-01 -1.68108761e-01
0.00000000e+00 1.84724301e-01 -1.20421760e-01
3.27709913e-02 2.20211595e-01 -1.67228177e-01
0.00000000e+00 2.06719592e-01 -1.76847056e-01
5.14547862e-02 1.54908687e-01 -8.40038657e-02
8.31514522e-02 1.79612651e-01 -1.78643078e-01
8.11463743e-02 2.07971752e-01 -1.69694170e-01
0.00000000e+00 2.18744576e-01 -1.51220664e-01
4.67717797e-02 2.62867481e-01 -2.21958697e-01
0.00000000e+00 2.73781657e-01 -2.08156317e-01
8.21515545e-02 2.78159678e-01 -2.24665016e-01
1.11606829e-01 1.90753236e-01 -2.73256928e-01
1.72792599e-01 2.21696407e-01 -2.67676771e-01
0.00000000e+00 0.00000000e+00 -3.27061892e-01
6.13425858e-02 0.00000000e+00 -3.29694271e-01
6.44397438e-02 3.96090224e-02 -3.26384366e-01
0.00000000e+00 3.67761105e-02 -3.24272156e-01
1.12333812e-01 0.00000000e+00 -3.33444118e-01
1.19978599e-01 4.63807620e-02 -3.34152728e-01
1.54590324e-01 0.00000000e+00 -3.39575738e-01
1.59521729e-01 4.86273393e-02 -3.41743827e-01
1.91764474e-01 0.00000000e+00 -3.47009808e-01
1.88198343e-01 4.38629501e-02 -3.48369718e-01
2.21906498e-01 0.00000000e+00 -3.50002348e-01
2.17377752e-01 3.86521816e-02 -3.54119569e-01
2.46336877e-01 0.00000000e+00 -3.51024300e-01
2.47488797e-01 4.14887369e-02 -3.52203727e-01
7.48791397e-02 8.56828764e-02 -3.20651054e-01
0.00000000e+00 7.73932636e-02 -3.13000172e-01
1.34752557e-01 9.45144743e-02 -3.36071372e-01
1.72746792e-01 9.35950056e-02 -3.57942730e-01
1.94078848e-01 8.33900496e-02 -3.75186622e-01
2.09147125e-01 7.13706687e-02 -3.85359406e-01
2.27474511e-01 7.41338655e-02 -3.84833336e-01
7.68887401e-02 1.17738456e-01 -2.87530839e-01
0.00000000e+00 1.32524848e-01 -2.72285759e-01
1.51840746e-01 1.22313261e-01 -3.42730522e-01
1.99489176e-01 1.15716003e-01 -3.93813670e-01
1.85735628e-01 5.16211279e-02 -4.42087024e-01
2.11635128e-01 1.02427043e-01 -4.08531666e-01
8.08822140e-02 1.65043712e-01 -2.25123733e-01
0.00000000e+00 1.53496891e-01 -2.55897224e-01
1.64202079e-01 1.56388223e-01 -3.16799939e-01
6.73680156e-02 2.48130292e-01 -2.79636919e-01
0.00000000e+00 2.53256679e-01 -2.79012263e-01
8.04492906e-02 3.28617394e-01 -3.06748509e-01
0.00000000e+00 3.25125605e-01 -2.96003908e-01
1.22155465e-01 2.25955367e-01 -2.81617969e-01
1.83864236e-01 2.85184085e-01 -3.03786248e-01
1.85791910e-01 1.62583902e-01 -3.73728245e-01
2.61270732e-01 1.84247389e-01 -3.50906968e-01
5.86784296e-02 1.39994651e-01 -4.97870922e-01
1.60523415e-01 1.40262872e-01 -4.35247898e-01
2.38360941e-01 1.02658719e-01 -4.09852684e-01
2.53205895e-01 1.04042895e-01 -4.09477413e-01
2.38768220e-01 8.93311724e-02 -4.09728110e-01
2.38662750e-01 7.57945478e-02 -4.09737885e-01
2.52201855e-01 7.57092088e-02 -4.09698784e-01
2.52257288e-01 8.92781913e-02 -4.09639478e-01
2.38726765e-01 8.93119350e-02 -4.09730911e-01
2.38706410e-01 7.57644624e-02 -4.09715593e-01
2.52196670e-01 7.56827295e-02 -4.09707695e-01
2.52374977e-01 8.91282558e-02 -4.09642786e-01
0.00000000e+00 0.00000000e+00 -4.09693152e-01
6.54207915e-02 0.00000000e+00 -4.09693152e-01
7.12932944e-02 4.32706214e-02 -4.09693152e-01
0.00000000e+00 3.83947715e-02 -4.09693152e-01
1.21133894e-01 0.00000000e+00 -4.09693152e-01
1.26379058e-01 5.07103764e-02 -4.09693152e-01
1.60518304e-01 0.00000000e+00 -4.09693152e-01
1.68331116e-01 5.45523316e-02 -4.09693152e-01
1.93567097e-01 0.00000000e+00 -4.09693152e-01
1.95338249e-01 5.42263202e-02 -4.09693152e-01
2.22234964e-01 0.00000000e+00 -4.09693152e-01
2.18503609e-01 4.98548113e-02 -4.09693152e-01
2.51850665e-01 0.00000000e+00 -4.09693152e-01
2.35839874e-01 5.65466173e-02 -4.09693152e-01
8.70699584e-02 7.77140856e-02 -4.09693152e-01
0.00000000e+00 7.32529163e-02 -4.09693152e-01
1.51518136e-01 9.49585065e-02 -4.09693152e-01
1.83638483e-01 1.01647116e-01 -4.09693152e-01
2.02944160e-01 9.37253088e-02 -4.09693152e-01
2.07746804e-01 8.28446969e-02 -4.09693152e-01
2.18129277e-01 8.13297182e-02 -4.09693152e-01
9.67079327e-02 1.51809484e-01 -4.09693152e-01
0.00000000e+00 1.57774538e-01 -4.09693152e-01
1.76902503e-01 1.31852090e-01 -4.09693152e-01
2.11093217e-01 1.22043014e-01 -4.09693152e-01
2.12202191e-01 1.03332259e-01 -4.09693152e-01
2.12104410e-01 8.85379016e-02 -4.10330534e-01
2.12604493e-01 8.92661512e-02 -4.09693152e-01
2.13899553e-01 7.76602849e-02 -4.10857141e-01
2.14122862e-01 7.93044120e-02 -4.09693152e-01
2.25623012e-01 1.17261052e-01 -4.20335770e-01
2.30965793e-01 1.24407753e-01 -4.09693152e-01
2.24180073e-01 1.49479330e-01 -4.09693152e-01
2.25463748e-01 1.02312222e-01 -4.09449100e-01
2.25640893e-01 1.02569416e-01 -4.09693152e-01
2.25286692e-01 8.94484892e-02 -4.09756154e-01
2.25374296e-01 8.93472731e-02 -4.09693152e-01
2.25098401e-01 7.61316866e-02 -4.09674674e-01
2.25004643e-01 7.59773701e-02 -4.09693152e-01
0.00000000e+00 1.29882112e-01 -4.09693152e-01
1.10329166e-01 1.50813729e-01 -4.09693152e-01
9.31765586e-02 2.71193266e-01 -4.09693152e-01
0.00000000e+00 2.84082472e-01 -4.09693152e-01
2.38677710e-01 8.93051922e-02 -4.09693152e-01
2.38789797e-01 1.02718957e-01 -4.09693152e-01
2.38736302e-01 7.57850856e-02 -4.09693152e-01
9.96327177e-02 3.44908059e-01 -4.09693152e-01
0.00000000e+00 3.41857225e-01 -4.09693152e-01
1.52920187e-01 2.31544256e-01 -4.09693152e-01
2.22738862e-01 2.81885684e-01 -4.09693152e-01
2.00685501e-01 1.46715492e-01 -4.09693152e-01
2.76323736e-01 1.72762796e-01 -4.09693152e-01
2.53616422e-01 1.03225455e-01 -4.09693152e-01
2.52394348e-01 8.90664235e-02 -4.09693152e-01
2.52190322e-01 7.56805614e-02 -4.09693152e-01
</DataArray>
<DataArray type="Float32" Name="Spatial_acceleration" NumberOfComponents="3" format="ascii">
-7.24395122e-08 -5.73039074e-07 2.43822740e-07
-1.66495639e-07 -5.11169446e-07 2.56220488e-07
-1.16626417e-07 -6.13609927e-07 3.38872269e-07
-7.74860354e-08 -6.45160696e-07 4.46955369e-07
-8.43604369e-08 -6.24020913e-07 3.87469925e-07
-1.69481552e-07 -6.83012445e-07 4.06174422e-07
-2.18391421e-07 -8.02040120e-07 6.01450608e-07
-9.63211022e-08 -7.40726762e-07 5.37236531e-07
-2.45094299e-07 -4.70722711e-07 2.68300369e-07
-3.07897722e-07 -5.33580760e-07 4.11987287e-07
-2.97228496e-07 -6.55704071e-07 4.52677426e-07
-3.76065572e-07 -7.44938859e-07 8.17616751e-07
-7.09717440e-08 -6.04240142e-07 -4.46692098e-07
-3.44693660e-07 -3.13649565e-07 4.16025529e-07
-3.48885862e-08 -4.54684084e-07 -4.50998527e-07
-6.48299832e-08 -5.86768010e-07 4.10705809e-07
-2.05001797e-07 -4.24635914e-07 6.17546334e-07
9.12373253e-08 -5.69755230e-07 -8.39362542e-07
2.59598096e-07 -7.47151660e-07 4.31872905e-07
-1.96859233e-07 -1.90960861e-07 -6.20671244e-07
0.00000000e+00 0.00000000e+00 7.97907489e-07
-1.78992750e-07 0.00000000e+00 7.94092784e-07
-1.54187276e-07 -1.23341877e-07 7.86622365e-07
0.00000000e+00 -1.66634720e-07 7.27335589e-07
0.00000000e+00 0.00000000e+00 1.08973188e-06
-1.99222939e-07 0.00000000e+00 1.13995873e-06
-1.96039679e-07 -1.66152915e-07 1.06239315e-06
0.00000000e+00 -1.96933740e-07 1.05158483e-06
-2.69889824e-07 0.00000000e+00 9.01540091e-07
-2.11318337e-07 -1.02472804e-07 8.68002587e-07
-3.72052199e-07 0.00000000e+00 1.17556249e-06
-3.75072148e-07 -1.13089875e-07 1.13900501e-06
-3.87430191e-07 0.00000000e+00 9.75290959e-07
-4.01099527e-07 -7.47839621e-08 1.00326542e-06
-5.71429723e-07 0.00000000e+00 1.14758814e-06
-5.05949060e-07 -9.67582068e-08 1.20353695e-06
-6.17583567e-07 0.00000000e+00 1.05158483e-06
-5.86628914e-07 -1.18394695e-07 1.04459127e-06
-6.86923670e-07 0.00000000e+00 1.24931330e-06
-7.21812228e-07 -8.19762533e-08 1.26361840e-06
-7.93926404e-07 0.00000000e+00 1.07510880e-06
-8.05934235e-07 -8.67148202e-08 1.09100336e-06
-7.79787683e-07 0.00000000e+00 1.23278301e-06
-8.33034505e-07 -1.21692821e-07 1.29222872e-06
-1.03630623e-06 0.00000000e+00 1.12787882e-06
-9.60389798e-07 -8.50061568e-08 1.18160244e-06
-8.16106763e-07 0.00000000e+00 1.30907688e-06
-9.86496616e-07 2.62260436e-09 1.30462649e-06
-1.00453697e-07 -2.71479280e-07 6.87281272e-07
0.00000000e+00 -3.48647433e-07 7.14619944e-07
-1.97966898e-07 -3.09268643e-07 9.64323704e-07
0.00000000e+00 -2.86181773e-07 9.48588024e-07
-2.16801965e-07 -2.20571238e-07 8.16345221e-07
-4.24861895e-07 -3.27348715e-07 1.10212966e-06
-4.37037158e-07 -2.84576430e-07 1.00453701e-06
-5.56764121e-07 -2.80107770e-07 1.39726910e-06
-6.19530681e-07 -3.61561774e-07 1.11389159e-06
-7.32040405e-07 -2.55839041e-07 1.45975753e-06
-8.43485168e-07 -2.94049585e-07 9.61303726e-07
-8.95897529e-07 -3.09308376e-07 1.37074790e-06
-1.02223953e-06 -2.35994648e-07 1.01343790e-06
-1.03972104e-06 -1.55528383e-07 1.38854978e-06
-7.24338323e-09 -4.84602765e-07 4.57763662e-07
0.00000000e+00 -4.49021655e-07 5.45183809e-07
-2.31697442e-07 -4.74475684e-07 7.40051235e-07
0.00000000e+00 -4.64995708e-07 7.80105609e-07
-1.06970468e-07 -3.86079137e-07 6.58671070e-07
-5.15969589e-07 -4.41869105e-07 1.17136642e-06
-2.68936162e-07 -3.47574542e-07 1.70644125e-06
-6.10192615e-07 -4.20252491e-07 1.44555838e-06
-1.16711574e-08 -5.41596194e-07 3.82559648e-07
0.00000000e+00 -5.77057392e-07 3.49998459e-07
-1.49647391e-07 -6.09689323e-07 5.84284464e-07
0.00000000e+00 -6.92983463e-07 7.05401078e-07
0.00000000e+00 -6.21577101e-07 4.48862693e-07
-1.53359906e-07 -8.09169933e-07 6.21977279e-07
0.00000000e+00 -7.64767321e-07 6.76472951e-07
-6.31014530e-08 -5.99304826e-07 2.58127841e-07
-4.14371499e-07 -6.25769303e-07 7.88370755e-07
-3.30098487e-07 -7.80804953e-07 6.04248044e-07
0.00000000e+00 -7.46726982e-07 6.23067194e-07
-2.05953910e-07 -9.91026582e-07 8.06172693e-07
0.00000000e+00 -1.10197061e-06 8.55763744e-07
-3.22341918e-07 -1.04959804e-06 8.47498541e-07
-4.70903188e-07 -6.75201420e-07 1.14949546e-06
-6.33663603e-07 -9.25699908e-07 1.04268395e-06
0.00000000e+00 0.00000000e+00 1.44958494e-06
-2.61843212e-07 0.00000000e+00 1.44068395e-06
-2.96493369e-07 -1.85618802e-07 1.41525265e-06
0.00000000e+00 -1.66654587e-07 1.50108337e-06
-4.93586072e-07 0.00000000e+00 1.45022068e-06
-5.43634087e-07 -1.59184140e-07 1.41016642e-06
-6.57141186e-07 0.00000000e+00 1.33895878e-06
-6.65704420e-07 -1.63435928e-07 1.36502581e-06
-7.61707611e-07 0.00000000e+00 1.43305454e-06
-7.67956180e-07 -1.38123823e-07 1.50648748e-06
-8.11239090e-07 0.00000000e+00 1.49408970e-06
-8.50756976e-07 -1.28110244e-07 1.57737725e-06
-1.02716683e-06 0.00000000e+00 1.59009301e-06
-8.91526554e-07 -1.75793957e-07 1.66797633e-06
-3.80675004e-07 -3.31640251e-07 1.31734214e-06
0.00000000e+00 -3.84569177e-07 1.29890441e-06
-6.12338397e-07 -3.20196136e-07 1.38346354e-06
-7.10248912e-07 -3.10023609e-07 1.61298112e-06
-7.99973805e-07 -2.89190382e-07 1.64794915e-06
-9.07103242e-07 -3.05599627e-07 1.68270537e-06
-9.43077964e-07 -2.89493130e-07 1.66490349e-06
-3.59376287e-07 -4.60094867e-07 1.20459663e-06
0.00000000e+00 -5.17739181e-07 1.11728241e-06
-6.75439821e-07 -4.48597802e-07 1.40889483e-06
-8.12318603e-07 -4.72598600e-07 1.48561264e-06
-5.79317430e-07 -2.90671977e-07 2.08886468e-06
-1.08242034e-06 -4.30679336e-07 1.75043749e-06
-4.54584750e-07 -6.43094381e-07 8.79923505e-07
0.00000000e+00 -6.03357933e-07 1.03081595e-06
-8.00768532e-07 -6.45160696e-07 1.40126542e-06
-3.10262038e-07 -1.01206035e-06 1.11050076e-06
0.00000000e+00 -1.01820626e-06 1.13805129e-06
-3.62714133e-07 -1.27653277e-06 1.29000341e-06
0.00000000e+00 -1.37027098e-06 1.19972231e-06
-5.65369930e-07 -8.94784932e-07 1.09100336e-06
-7.66436244e-07 -1.20472907e-06 1.24613439e-06
-7.67230972e-07 -5.96602774e-07 1.57546992e-06
-1.30812327e-06 -8.02993782e-07 1.45149227e-06
-1.23818708e-07 -3.95298002e-07 2.38355005e-06
-6.99639315e-07 -6.75280887e-07 2.09204359e-06
-9.83099085e-07 -3.84410214e-07 1.78925200e-06
-1.21731227e-06 -2.15106539e-07 1.77489392e-06
-1.04979745e-06 -5.75140461e-07 1.49127641e-06
-1.15317607e-06 -2.64359006e-08 1.74903619e-06
-1.29453338e-06 -9.69568870e-09 1.84856606e-06
-1.28042200e-06 -4.46215260e-08 1.70276996e-06
-1.05641686e-06 -2.01670332e-07 1.71493298e-06
-1.06432708e-06 -1.45700241e-07 1.65772440e-06
-1.24384462e-06 -8.20656609e-08 1.60930801e-06
-1.27063856e-06 -4.05576486e-07 1.62305105e-06
0.00000000e+00 0.00000000e+00 1.73031333e-06
-2.78333829e-07 0.00000000e+00 1.73031333e-06
-3.37640444e-07 -1.60321591e-07 1.73031333e-06
0.00000000e+00 -6.61214159e-08 1.73031333e-06
-5.22136702e-07 0.00000000e+00 1.73031333e-06
-6.32067497e-07 -2.03053148e-07 1.73031333e-06
-7.90119145e-07 0.00000000e+00 1.73031333e-06
-7.21653294e-07 -2.68379836e-07 1.73031333e-06
-8.03430851e-07 0.00000000e+00 1.73031333e-06
-7.53124539e-07 -2.30789183e-07 1.73031333e-06
-8.27391943e-07 0.00000000e+00 1.73031333e-06
-7.65124923e-07 -1.60535180e-07 1.73031333e-06
-8.18192973e-07 0.00000000e+00 1.73031333e-06
-9.87132353e-07 -1.54654188e-07 1.73031333e-06
-4.72386660e-07 -3.47773238e-07 1.73031333e-06
0.00000000e+00 -3.26474492e-07 1.73031333e-06
-6.49611138e-07 -4.19914727e-07 1.73031333e-06
-8.15073633e-07 -2.50180562e-07 1.73031333e-06
-9.18507567e-07 -3.01043201e-07 1.73031333e-06
-9.63528919e-07 -3.55243685e-07 1.73031333e-06
-8.45352815e-07 -5.56468933e-07 1.73031333e-06
-3.65257250e-07 -6.94910682e-07 1.73031333e-06
0.00000000e+00 -7.03295086e-07 1.73031333e-06
-8.39021482e-07 -6.00073065e-07 1.73031333e-06
-1.02154411e-06 -3.37123879e-07 1.73031333e-06
-8.42491772e-07 -4.18424605e-07 1.73031333e-06
-9.68615154e-07 -3.03665786e-07 1.61186847e-06
-7.68979362e-07 -2.80857080e-07 1.73031333e-06
-8.97407517e-07 -2.32060753e-08 1.82120004e-06
-9.03129546e-07 -2.08218893e-07 1.73031333e-06
-1.06620791e-06 -3.10579935e-07 2.10762028e-06
-1.05627373e-06 -4.94639096e-07 1.73031333e-06
-9.53515382e-07 -6.21934703e-07 1.73031333e-06
-9.46256876e-07 -5.78350523e-07 1.89529533e-06
-9.72535872e-07 -2.65121457e-07 1.73031333e-06
-1.12930934e-06 -1.32322313e-07 1.71639522e-06
-9.67343681e-07 -2.91838006e-07 1.73031333e-06
-9.56058443e-07 -3.47773238e-07 1.59708657e-06
-9.57965881e-07 -1.60376231e-07 1.73031333e-06
0.00000000e+00 -5.10973052e-07 1.73031333e-06
-4.77122740e-07 -6.33423497e-07 1.73031333e-06
-3.90900510e-07 -1.11489828e-06 1.73031333e-06
0.00000000e+00 -1.12263365e-06 1.73031333e-06
-9.55978976e-07 -3.56515244e-07 1.73031333e-06
-1.11876591e-06 -1.69118252e-07 1.73031333e-06
-1.00082161e-06 -2.75135051e-07 1.73031333e-06
-3.88930232e-07 -1.38423843e-06 1.73031333e-06
0.00000000e+00 -1.41294800e-06 1.73031333e-06
-7.11043640e-07 -9.89516593e-07 1.73031333e-06
-9.83238237e-07 -1.21784205e-06 1.73031333e-06
-6.95228550e-07 -5.45899070e-07 1.73031333e-06
-1.36923791e-06 -6.92685433e-07 1.73031333e-06
-1.12501777e-06 -2.18550369e-07 1.73031333e-06
-9.64323704e-07 -2.69889824e-07 1.73031333e-06
-1.22310223e-06 -2.46425458e-07 1.73031333e-06
</DataArray>
<DataArray type="Float32" Name="Spatial_velocity" NumberOfComponents="3" format="ascii">
9.80856639e-05 4.70581406e-04 -2.45028554e-04
1.58693787e-04 4.43980127e-04 -2.12016486e-04
1.64351979e-04 5.69672848e-04 -2.98630417e-04
9.08612710e-05 5.60119457e-04 -3.04050453e-04
8.02466093e-05 5.47217147e-04 -3.81111575e-04
1.68062572e-04 5.31157828e-04 -3.51467374e-04
1.45214275e-04 6.86657557e-04 -4.56234848e-04
8.95052435e-05 6.36919576e-04 -4.60175128e-04
2.61729845e-04 4.09429136e-04 -1.61024116e-04
2.85027141e-04 5.36368927e-04 -2.90099211e-04
2.34365638e-04 5.22078131e-04 -3.99464770e-04
3.33282573e-04 6.10584044e-04 -5.06082899e-04
2.85292452e-04 3.56167118e-04 -1.21571929e-07
2.85196147e-04 3.51007737e-04 2.29957379e-07
2.90634547e-04 3.50963237e-04 -1.39340415e-07
2.90514407e-04 3.56198638e-04 1.02828594e-07
2.85238842e-04 3.56293865e-04 2.42529751e-07
2.85346585e-04 3.50880582e-04 -2.04168074e-07
2.90421624e-04 3.50989139e-04 2.97977522e-07
2.90492782e-04 3.56219563e-04 -2.39337851e-07
0.00000000e+00 0.00000000e+00 -4.94441134e-04
9.41264516e-05 0.00000000e+00 -4.96070716e-04
1.02662532e-04 1.05514824e-04 -4.92682913e-04
0.00000000e+00 1.00192112e-04 -4.87250683e-04
0.00000000e+00 0.00000000e+00 -6.62382867e-04
1.23547230e-04 0.00000000e+00 -6.58383418e-04
1.28120490e-04 1.09411623e-04 -6.59085461e-04
0.00000000e+00 1.00866644e-04 -6.44918589e-04
2.10223836e-04 0.00000000e+00 -5.12718048e-04
1.90160557e-04 9.58852615e-05 -5.06472599e-04
2.40044363e-04 0.00000000e+00 -6.74390758e-04
2.44750408e-04 1.16557261e-04 -6.72941271e-04
3.13326658e-04 0.00000000e+00 -5.32936363e-04
3.15429934e-04 9.26802240e-05 -5.28925273e-04
3.60020727e-04 0.00000000e+00 -6.97159616e-04
3.45487962e-04 1.01898804e-04 -6.90558518e-04
4.36525646e-04 0.00000000e+00 -5.48891025e-04
4.43017605e-04 9.49914465e-05 -5.52696059e-04
4.69518767e-04 0.00000000e+00 -7.10967521e-04
4.61077347e-04 8.72746532e-05 -7.17727060e-04
5.74723643e-04 0.00000000e+00 -5.64013259e-04
5.71716635e-04 9.86881278e-05 -5.63536538e-04
5.80494874e-04 0.00000000e+00 -7.25692720e-04
5.76922263e-04 8.99709266e-05 -7.36708171e-04
7.08527514e-04 0.00000000e+00 -5.65215596e-04
6.99550495e-04 1.06356638e-04 -5.68343734e-04
6.74065494e-04 0.00000000e+00 -7.31998938e-04
7.01931305e-04 9.74459617e-05 -7.37151946e-04
7.66747689e-05 2.02929979e-04 -4.68240876e-04
0.00000000e+00 2.27558427e-04 -4.63930162e-04
1.28590240e-04 2.14759581e-04 -6.36384415e-04
0.00000000e+00 2.13290652e-04 -6.36723766e-04
1.98513997e-04 2.12107843e-04 -4.84607968e-04
2.62374786e-04 2.31752070e-04 -6.59617304e-04
3.00643849e-04 2.18954025e-04 -5.39314293e-04
3.64337495e-04 2.22706614e-04 -7.28437619e-04
4.26779792e-04 2.38852488e-04 -5.60747692e-04
4.40170668e-04 1.99675822e-04 -7.55340036e-04
5.45677787e-04 2.33703642e-04 -5.48423326e-04
5.58330212e-04 2.21841619e-04 -7.62881420e-04
6.49632711e-04 2.67329917e-04 -5.56854066e-04
6.53249968e-04 2.43386283e-04 -7.66086683e-04
7.68173559e-05 3.43734573e-04 -4.08431137e-04
0.00000000e+00 3.38651909e-04 -4.05533065e-04
1.30597968e-04 3.39726481e-04 -5.79468964e-04
0.00000000e+00 3.42926505e-04 -5.87123388e-04
1.79522744e-04 3.00766289e-04 -4.39416908e-04
2.95311736e-04 3.43113788e-04 -6.67160435e-04
1.31136199e-04 2.49314937e-04 -9.31730028e-04
4.02408768e-04 3.19312676e-04 -8.69706855e-04
8.10982892e-05 4.31785884e-04 -3.45691486e-04
0.00000000e+00 4.46037302e-04 -3.67432687e-04
1.16917719e-04 4.73385444e-04 -4.89436556e-04
0.00000000e+00 4.94959881e-04 -5.41002024e-04
0.00000000e+00 5.38470922e-04 -3.93663882e-04
9.58406454e-05 6.35087665e-04 -5.43599890e-04
0.00000000e+00 5.94296784e-04 -5.69482101e-04
1.78470960e-04 4.33747249e-04 -2.95486680e-04
2.34240477e-04 4.98477020e-04 -5.08314464e-04
2.18542686e-04 5.81340049e-04 -5.05208678e-04
0.00000000e+00 6.48770889e-04 -4.75107721e-04
1.31242923e-04 7.26301630e-04 -6.49873924e-04
0.00000000e+00 7.63051852e-04 -6.20565144e-04
2.08814905e-04 7.66465033e-04 -6.20634237e-04
2.61038309e-04 5.49390796e-04 -6.69562083e-04
4.28459694e-04 5.99835417e-04 -6.83234597e-04
0.00000000e+00 0.00000000e+00 -8.40046385e-04
1.51218614e-04 0.00000000e+00 -8.42043082e-04
1.56211434e-04 1.12645095e-04 -8.41457164e-04
0.00000000e+00 1.05159743e-04 -8.34940991e-04
2.76307663e-04 0.00000000e+00 -8.49086209e-04
2.94322614e-04 1.28323023e-04 -8.52826342e-04
3.87759530e-04 0.00000000e+00 -8.64126428e-04
3.98118398e-04 1.29404027e-04 -8.57911655e-04
4.97015833e-04 0.00000000e+00 -8.73836165e-04
4.79890790e-04 1.17126358e-04 -8.70439457e-04
5.84472611e-04 0.00000000e+00 -8.82718130e-04
5.70865930e-04 1.09714085e-04 -8.86965718e-04
6.53558935e-04 0.00000000e+00 -8.91764299e-04
6.56364660e-04 1.22640631e-04 -8.82476510e-04
1.72401516e-04 2.30786900e-04 -8.30503879e-04
0.00000000e+00 2.14885440e-04 -8.27908458e-04
3.22458276e-04 2.53901584e-04 -8.46343464e-04
4.25237173e-04 2.62992515e-04 -8.84583395e-04
4.89622471e-04 2.38463690e-04 -9.20027145e-04
5.36956417e-04 2.05987875e-04 -9.37142584e-04
5.97154081e-04 2.27877390e-04 -9.42207873e-04
1.71880107e-04 3.26834881e-04 -7.94919964e-04
0.00000000e+00 3.57306504e-04 -7.88032776e-04
3.55077733e-04 3.40592087e-04 -8.51138786e-04
4.94489854e-04 3.32589203e-04 -9.86828934e-04
4.72631189e-04 1.48198116e-04 -1.11504330e-03
5.27126540e-04 3.03634239e-04 -1.03594433e-03
1.85995930e-04 4.73994209e-04 -6.89822598e-04
0.00000000e+00 4.59883042e-04 -7.61564239e-04
3.57174256e-04 4.14753245e-04 -7.66673591e-04
1.47483253e-04 6.73638890e-04 -7.86344521e-04
0.00000000e+00 6.90489367e-04 -7.89873768e-04
1.85850397e-04 8.53475649e-04 -8.34441278e-04
0.00000000e+00 8.41186207e-04 -8.15788109e-04
2.82321416e-04 6.32812968e-04 -7.37202528e-04
4.27459308e-04 7.55642599e-04 -7.92596198e-04
4.43057856e-04 4.66135214e-04 -9.33404663e-04
6.35790580e-04 5.20958623e-04 -8.81966727e-04
3.81925493e-05 4.21881443e-04 -1.25540991e-03
3.66003311e-04 3.90011584e-04 -1.08880491e-03
5.83489484e-04 3.02370638e-04 -1.03660475e-03
6.11131196e-04 3.01846128e-04 -1.03688356e-03
5.82823821e-04 2.74760649e-04 -1.03656424e-03
5.82493842e-04 2.46907148e-04 -1.03652559e-03
6.10200630e-04 2.46571144e-04 -1.03665271e-03
6.10642834e-04 2.74373248e-04 -1.03643991e-03
5.82935696e-04 2.74723483e-04 -1.03647052e-03
5.82570443e-04 2.46935000e-04 -1.03666121e-03
6.10355753e-04 2.46562820e-04 -1.03655295e-03
6.10678922e-04 2.74271501e-04 -1.03651034e-03
0.00000000e+00 0.00000000e+00 -1.03654678e-03
1.59348390e-04 0.00000000e+00 -1.03654678e-03
1.68154831e-04 1.16642128e-04 -1.03654678e-03
0.00000000e+00 1.07738590e-04 -1.03654678e-03
2.95476348e-04 0.00000000e+00 -1.03654678e-03
3.07339185e-04 1.33717607e-04 -1.03654678e-03
4.00169170e-04 0.00000000e+00 -1.03654678e-03
4.20828321e-04 1.42492965e-04 -1.03654678e-03
5.02466981e-04 0.00000000e+00 -1.03654678e-03
4.99615038e-04 1.39551819e-04 -1.03654678e-03
5.80190565e-04 0.00000000e+00 -1.03654678e-03
5.75236219e-04 1.33190755e-04 -1.03654678e-03
6.61322090e-04 0.00000000e+00 -1.03654678e-03
6.14565564e-04 1.50665306e-04 -1.03654678e-03
1.98852387e-04 2.16336077e-04 -1.03654678e-03
0.00000000e+00 2.08543875e-04 -1.03654678e-03
3.60463251e-04 2.58229033e-04 -1.03654678e-03
4.51292552e-04 2.83286412e-04 -1.03654678e-03
5.06812590e-04 2.66715069e-04 -1.03654678e-03
5.30015735e-04 2.36949272e-04 -1.03654678e-03
5.78623323e-04 2.46932061e-04 -1.03654678e-03
1.93988541e-04 3.77806951e-04 -1.03654678e-03
0.00000000e+00 3.79712379e-04 -1.03654678e-03
4.13227594e-04 3.43014224e-04 -1.03654678e-03
5.22365328e-04 3.55261087e-04 -1.03654678e-03
5.29066427e-04 3.03072477e-04 -1.03654678e-03
5.27227006e-04 2.74836144e-04 -1.03706878e-03
5.27375669e-04 2.75872211e-04 -1.03654678e-03
5.29700308e-04 2.49198987e-04 -1.03727798e-03
5.28922246e-04 2.50064244e-04 -1.03654678e-03
5.55742939e-04 3.31777177e-04 -1.07224355e-03
5.74924634e-04 3.60557286e-04 -1.03654678e-03
5.38057066e-04 4.00297984e-04 -1.03654678e-03
5.55585953e-04 3.03001318e-04 -1.03656505e-03
5.55322447e-04 3.02601082e-04 -1.03654678e-03
5.55310457e-04 2.75129511e-04 -1.03656005e-03
5.55294042e-04 2.75182276e-04 -1.03654678e-03
5.54673315e-04 2.47220160e-04 -1.03635597e-03
5.54775121e-04 2.47349031e-04 -1.03654678e-03
0.00000000e+00 4.19704098e-04 -1.03654678e-03
1.89172322e-04 4.72241576e-04 -1.03654678e-03
1.96382054e-04 7.09035434e-04 -1.03654678e-03
0.00000000e+00 7.66070560e-04 -1.03654678e-03
5.82948094e-04 2.74705730e-04 -1.03654678e-03
5.83283429e-04 3.02481843e-04 -1.03654678e-03
5.82681911e-04 2.47038552e-04 -1.03654678e-03
2.12712403e-04 8.88007984e-04 -1.03654678e-03
0.00000000e+00 8.49023811e-04 -1.03654678e-03
3.60709993e-04 6.39596081e-04 -1.03654678e-03
5.00733790e-04 7.49936793e-04 -1.03654678e-03
4.66013473e-04 4.31837660e-04 -1.03654678e-03
6.76415279e-04 4.94662207e-04 -1.03654678e-03
6.10916235e-04 3.02111584e-04 -1.03654678e-03
6.10714138e-04 2.74375023e-04 -1.03654678e-03
6.10388466e-04 2.46562005e-04 -1.03654678e-03
</DataArray>
<DataArray type="Float32" Name="Reaction_force" NumberOfComponents="3" format="ascii">
0.00000000e+00 0.00000000e+00 0.00000000e+00
0.00000000e+00 0.00000000e+00 0.00000000e+00
0.00000000e+00 0.00000000e+00 0.00000000e+00
0.00000000e+00 0.00000000e+00 0.00000000e+00
0.00000000e+00 0.00000000e+00 0.00000000e+00
0.00000000e+00 0.00000000e+00 0.00000000e+00
0.00000000e+00 0.00000000e+00 0.00000000e+00
0.00000000e+00 0.00000000e+00 0.00000000e+00
0.00000000e+00 0.00000000e+00 0.00000000e+00
0.00000000e+00 0.00000000e+00 0.00000000e+00
0.00000000e+00 0.00000000e+00 0.00000000e+00
0.00000000e+00 0.00000000e+00 0.00000000e+00
0.00000000e+00 0.00000000e+00 0.00000000e+00
0.00000000e+00 0.00000000e+00 0.00000000e+00
0.00000000e+00 0.00000000e+00 0.00000000e+00
0.00000000e+00 0.00000000e+00 0.00000000e+00
0.00000000e+00 0.00000000e+00 0.00000000e+00
0.00000000e+00 0.00000000e+00 0.00000000e+00
0.00000000e+00 0.00000000e+00 0.00000000e+00
0.00000000e+00 0.00000000e+00 0.00000000e+00
-6.57828897e-02 -2.95584977e-01 0.00000000e+00
0.00000000e+00 6.94599867e-01 0.00000000e+00
0.00000000e+00 0.00000000e+00 0.00000000e+00
1.56849194e+00 0.00000000e+00 0.00000000e+00
2.49919727e-01 1.04054368e+00 0.00000000e+00
0.00000000e+00 1.71526861e+00 0.00000000e+00
0.00000000e+00 0.00000000e+00 0.00000000e+00
8.74673009e-01 0.00000000e+00 0.00000000e+00
0.00000000e+00 1.46588624e+00 0.00000000e+00
0.00000000e+00 0.00000000e+00 0.00000000e+00
0.00000000e+00 1.54365361e+00 0.00000000e+00
0.00000000e+00 0.00000000e+00 0.00000000e+00
0.00000000e+00 2.13276863e+00 0.00000000e+00
0.00000000e+00 0.00000000e+00 0.00000000e+00
0.00000000e+00 1.65840888e+00 0.00000000e+00
0.00000000e+00 0.00000000e+00 0.00000000e+00
0.00000000e+00 3.16172361e+00 0.00000000e+00
0.00000000e+00 0.00000000e+00 0.00000000e+00
0.00000000e+00 1.41412210e+00 0.00000000e+00
0.00000000e+00 0.00000000e+00 0.00000000e+00
0.00000000e+00 1.79461813e+00 0.00000000e+00
0.00000000e+00 0.00000000e+00 0.00000000e+00
0.00000000e+00 -1.04478598e-02 0.00000000e+00
0.00000000e+00 0.00000000e+00 0.00000000e+00
0.00000000e+00 5.25513053e-01 0.00000000e+00
0.00000000e+00 0.00000000e+00 0.00000000e+00
0.00000000e+00 -1.47839457e-01 0.00000000e+00
0.00000000e+00 0.00000000e+00 0.00000000e+00
0.00000000e+00 0.00000000e+00 0.00000000e+00
1.47391331e+00 0.00000000e+00 0.00000000e+00
0.00000000e+00 0.00000000e+00 0.00000000e+00
9.45430160e-01 0.00000000e+00 0.00000000e+00
0.00000000e+00 0.00000000e+00 0.00000000e+00
0.00000000e+00 0.00000000e+00 0.00000000e+00
0.00000000e+00 0.00000000e+00 0.00000000e+00
0.00000000e+00 0.00000000e+00 0.00000000e+00
0.00000000e+00 0.00000000e+00 0.00000000e+00
0.00000000e+00 0.00000000e+00 0.00000000e+00
0.00000000e+00 0.00000000e+00 0.00000000e+00
0.00000000e+00 0.00000000e+00 0.00000000e+00
0.00000000e+00 0.00000000e+00 0.00000000e+00
0.00000000e+00 0.00000000e+00 0.00000000e+00
0.00000000e+00 0.00000000e+00 0.00000000e+00
6.83139563e-02 0.00000000e+00 0.00000000e+00
0.00000000e+00 0.00000000e+00 0.00000000e+00
1.60348582e+00 0.00000000e+00 0.00000000e+00
0.00000000e+00 0.00000000e+00 0.00000000e+00
0.00000000e+00 0.00000000e+00 0.00000000e+00
0.00000000e+00 0.00000000e+00 0.00000000e+00
0.00000000e+00 0.00000000e+00 0.00000000e+00
0.00000000e+00 0.00000000e+00 0.00000000e+00
7.03077376e-01 0.00000000e+00 0.00000000e+00
0.00000000e+00 0.00000000e+00 0.00000000e+00
9.20646846e-01 0.00000000e+00 0.00000000e+00
5.58771968e-01 0.00000000e+00 0.00000000e+00
0.00000000e+00 0.00000000e+00 0.00000000e+00
2.94682831e-01 0.00000000e+00 0.00000000e+00
0.00000000e+00 0.00000000e+00 0.00000000e+00
0.00000000e+00 0.00000000e+00 0.00000000e+00
0.00000000e+00 0.00000000e+00 0.00000000e+00
-5.27333617e-01 0.00000000e+00 0.00000000e+00
0.00000000e+00 0.00000000e+00 0.00000000e+00
6.61680579e-01 0.00000000e+00 0.00000000e+00
0.00000000e+00 0.00000000e+00 0.00000000e+00
0.00000000e+00 0.00000000e+00 0.00000000e+00
0.00000000e+00 0.00000000e+00 0.00000000e+00
2.96211690e-01 1.76392365e+00 0.00000000e+00
0.00000000e+00 2.33481956e+00 0.00000000e+00
0.00000000e+00 0.00000000e+00 0.00000000e+00
4.94522125e-01 0.00000000e+00 0.00000000e+00
0.00000000e+00 6.56320095e-01 0.00000000e+00
0.00000000e+00 0.00000000e+00 0.00000000e+00
0.00000000e+00 2.31017828e-01 0.00000000e+00
0.00000000e+00 0.00000000e+00 0.00000000e+00
0.00000000e+00 -5.90097547e-01 0.00000000e+00
0.00000000e+00 0.00000000e+00 0.00000000e+00
0.00000000e+00 -2.39144802e+00 0.00000000e+00
0.00000000e+00 0.00000000e+00 0.00000000e+00
0.00000000e+00 -2.12064433e+00 0.00000000e+00
0.00000000e+00 0.00000000e+00 0.00000000e+00
0.00000000e+00 0.00000000e+00 0.00000000e+00
1.30032992e+00 0.00000000e+00 0.00000000e+00
0.00000000e+00 0.00000000e+00 0.00000000e+00
0.00000000e+00 0.00000000e+00 0.00000000e+00
0.00000000e+00 0.00000000e+00 0.00000000e+00
0.00000000e+00 0.00000000e+00 0.00000000e+00
0.00000000e+00 0.00000000e+00 0.00000000e+00
0.00000000e+00 0.00000000e+00 0.00000000e+00
-4.07032967e-01 0.00000000e+00 0.00000000e+00
0.00000000e+00 0.00000000e+00 0.00000000e+00
0.00000000e+00 0.00000000e+00 0.00000000e+00
0.00000000e+00 0.00000000e+00 0.00000000e+00
0.00000000e+00 0.00000000e+00 0.00000000e+00
0.00000000e+00 0.00000000e+00 0.00000000e+00
1.01401722e+00 0.00000000e+00 0.00000000e+00
0.00000000e+00 0.00000000e+00 0.00000000e+00
0.00000000e+00 0.00000000e+00 0.00000000e+00
5.79306364e-01 0.00000000e+00 0.00000000e+00
0.00000000e+00 0.00000000e+00 0.00000000e+00
9.12570655e-01 0.00000000e+00 0.00000000e+00
0.00000000e+00 0.00000000e+00 0.00000000e+00
0.00000000e+00 0.00000000e+00 0.00000000e+00
0.00000000e+00 0.00000000e+00 0.00000000e+00
0.00000000e+00 0.00000000e+00 0.00000000e+00
0.00000000e+00 0.00000000e+00 0.00000000e+00
0.00000000e+00 0.00000000e+00 0.00000000e+00
0.00000000e+00 0.00000000e+00 0.00000000e+00
0.00000000e+00 0.00000000e+00 0.00000000e+00
0.00000000e+00 0.00000000e+00 0.00000000e+00
0.00000000e+00 0.00000000e+00 0.00000000e+00
0.00000000e+00 0.00000000e+00 0.00000000e+00
0.00000000e+00 0.00000000e+00 0.00000000e+00
0.00000000e+00 0.00000000e+00 0.00000000e+00
0.00000000e+00 0.00000000e+00 0.00000000e+00
0.00000000e+00 0.00000000e+00 0.00000000e+00
0.00000000e+00 0.00000000e+00 0.00000000e+00
9.83200595e-02 9.18373406e-01 -9.33121777e+00
0.00000000e+00 1.32598162e+00 -1.85610733e+01
0.00000000e+00 0.00000000e+00 -3.68099289e+01
7.18317926e-02 0.00000000e+00 -1.87521477e+01
0.00000000e+00 2.40075827e-01 -1.84415283e+01
0.00000000e+00 0.00000000e+00 -3.64769096e+01
0.00000000e+00 -3.69914293e-01 -1.83446236e+01
0.00000000e+00 0.00000000e+00 -3.36094017e+01
0.00000000e+00 -9.31189358e-01 -1.68018036e+01
0.00000000e+00 0.00000000e+00 -3.03181515e+01
0.00000000e+00 -1.70533586e+00 -1.43145533e+01
0.00000000e+00 0.00000000e+00 -2.71886826e+01
0.00000000e+00 -1.82398248e+00 -7.61861706e+00
0.00000000e+00 0.00000000e+00 -1.49750547e+01
0.00000000e+00 0.00000000e+00 -4.06411362e+01
1.85780501e+00 0.00000000e+00 -2.23277912e+01
0.00000000e+00 0.00000000e+00 -3.02095470e+01
0.00000000e+00 0.00000000e+00 -2.34164677e+01
0.00000000e+00 0.00000000e+00 -1.92343140e+01
0.00000000e+00 0.00000000e+00 -1.85733795e+01
0.00000000e+00 0.00000000e+00 -1.17834492e+01
0.00000000e+00 0.00000000e+00 -2.86396027e+01
-8.59759986e-01 0.00000000e+00 -1.74469261e+01
0.00000000e+00 0.00000000e+00 -2.31250553e+01
0.00000000e+00 0.00000000e+00 -1.23102837e+01
0.00000000e+00 0.00000000e+00 -7.62837648e+00
0.00000000e+00 0.00000000e+00 0.00000000e+00
0.00000000e+00 0.00000000e+00 -9.89239883e+00
0.00000000e+00 0.00000000e+00 0.00000000e+00
0.00000000e+00 0.00000000e+00 -5.48696566e+00
0.00000000e+00 0.00000000e+00 0.00000000e+00
0.00000000e+00 0.00000000e+00 -3.38181639e+00
0.00000000e+00 0.00000000e+00 -1.11864843e+01
0.00000000e+00 0.00000000e+00 0.00000000e+00
0.00000000e+00 0.00000000e+00 2.41155195e+00
0.00000000e+00 0.00000000e+00 0.00000000e+00
0.00000000e+00 0.00000000e+00 5.55426407e+00
0.00000000e+00 0.00000000e+00 0.00000000e+00
0.00000000e+00 0.00000000e+00 3.37702537e+00
7.75285006e-01 0.00000000e+00 -1.67649097e+01
0.00000000e+00 0.00000000e+00 -1.82636814e+01
0.00000000e+00 0.00000000e+00 -3.12556152e+01
2.17662764e+00 0.00000000e+00 -2.12766857e+01
0.00000000e+00 0.00000000e+00 1.69337547e+00
0.00000000e+00 0.00000000e+00 -5.94200134e+00
0.00000000e+00 0.00000000e+00 -8.28475714e-01
0.00000000e+00 0.00000000e+00 -1.61416435e+01
1.10364892e-02 0.00000000e+00 -6.47968721e+00
0.00000000e+00 0.00000000e+00 -1.73854580e+01
0.00000000e+00 0.00000000e+00 -1.71288242e+01
0.00000000e+00 0.00000000e+00 -1.10921774e+01
0.00000000e+00 0.00000000e+00 -1.04869184e+01
0.00000000e+00 0.00000000e+00 -6.10879183e+00
0.00000000e+00 0.00000000e+00 3.75756055e-01
0.00000000e+00 0.00000000e+00 -8.82490426e-02
</DataArray>
<DataArray type="Float32" Name="Equivalent_plastic_strain" format="ascii">
3.87548953e-02
3.87097339e-02
5.84483352e-02
4.52225218e-02
3.03455684e-02
4.47750642e-02
8.14179191e-02
6.47263443e-02
6.39323704e-02
8.10340047e-02
9.81071815e-02
9.45903882e-02
0.00000000e+00
0.00000000e+00
0.00000000e+00
0.00000000e+00
0.00000000e+00
0.00000000e+00
0.00000000e+00
0.00000000e+00
6.38649166e-02
6.34414833e-02
6.29855599e-02
6.32879194e-02
7.06624538e-02
7.10435919e-02
7.27179367e-02
7.39737879e-02
6.20670943e-02
6.47654585e-02
6.82572983e-02
7.09977318e-02
6.20401660e-02
6.60978006e-02
6.37246082e-02
6.59924494e-02
6.19310560e-02
7.21074091e-02
5.91506604e-02
6.06151973e-02
6.02246532e-02
7.03140711e-02
5.33791408e-02
6.05286239e-02
5.81831262e-02
6.68904874e-02
5.04247975e-02
5.83820874e-02
6.49668546e-02
6.17163498e-02
8.02492788e-02
7.73669221e-02
6.84432861e-02
7.52844829e-02
9.13982764e-02
6.82332478e-02
9.21453610e-02
6.94153711e-02
8.81365370e-02
7.72517361e-02
8.42256024e-02
7.64456503e-02
6.09918455e-02
5.48252137e-02
8.65959067e-02
7.53581654e-02
8.82676598e-02
9.34244215e-02
8.79772231e-02
2.18288898e-02
4.65090067e-02
4.67883935e-02
4.39828041e-02
5.12973791e-02
4.89216624e-02
9.39516122e-02
7.05351448e-02
6.41328916e-02
1.13262735e-01
8.86682883e-02
5.12968153e-02
4.57056786e-02
8.84967633e-02
1.01295277e-01
9.49274376e-02
8.42690368e-02
8.11807588e-02
8.00429583e-02
8.31369031e-02
8.56653396e-02
7.61776976e-02
7.70447170e-02
7.00765438e-02
6.84362138e-02
6.33528512e-02
6.02214951e-02
5.77225015e-02
5.43884649e-02
5.70533238e-02
5.47059709e-02
8.12859636e-02
1.02608781e-01
6.88317022e-02
5.47243999e-02
4.20066557e-02
4.01396258e-02
4.29033904e-02
1.07690113e-01
1.05100349e-01
7.91729180e-02
2.45263830e-02
4.87444438e-02
2.86137738e-03
1.39490247e-01
1.37702085e-01
1.01542443e-01
1.01273035e-01
1.01019079e-01
1.22894732e-01
1.11268885e-01
1.20275330e-01
1.12822091e-01
5.00733769e-02
5.76636512e-02
-4.75270208e-03
1.05175432e-02
2.75466583e-02
7.36807968e-03
0.00000000e+00
0.00000000e+00
0.00000000e+00
0.00000000e+00
-6.18176799e-05
0.00000000e+00
0.00000000e+00
5.77369841e-05
8.65221322e-02
8.41664635e-02
8.68363790e-02
9.02668238e-02
7.95827955e-02
7.91629776e-02
7.35890754e-02
7.04056695e-02
6.71424344e-02
6.33741841e-02
6.31457567e-02
5.82529726e-02
6.53301179e-02
5.91263995e-02
1.04951046e-01
1.07990164e-01
7.07178907e-02
5.70646171e-02
3.13999881e-02
1.55421067e-02
1.47903794e-02
1.25632796e-01
1.45485938e-01
7.88447857e-02
5.83243335e-03
-1.48060069e-03
7.61073162e-03
1.24229700e-04
8.14258715e-03
2.95127195e-03
3.27503569e-02
-9.19336197e-03
7.35601261e-02
-1.72436315e-05
1.38046331e-03
-6.63680153e-05
-2.33361413e-04
4.82127740e-04
9.47807450e-04
1.74960107e-01
1.85548142e-01
1.50354475e-01
1.61882631e-01
-6.87814913e-05
1.14819905e-03
0.00000000e+00
1.25978079e-01
1.24756351e-01
1.23856116e-01
1.24648277e-01
2.46679985e-02
2.77426443e-02
2.89807262e-03
1.69879335e-04
0.00000000e+00
</DataArray>
<DataArray type="Float32" Name="Stress_Mises" format="ascii">
1.82291392e+01
2.82122257e+01
5.65840416e+01
3.06051650e+01
2.11079867e+01
3.78058261e+01
4.23959398e+01
2.34625583e+01
5.16998613e+01
1.16484512e+02
1.10840352e+02
9.79010468e+01
1.59770811e+00
1.36710382e+00
2.03764021e+00
2.90998888e+00
8.49520087e-01
7.18341291e-01
1.10347664e+00
1.22515249e+00
2.93699799e+01
2.91787114e+01
2.45924121e+01
2.85339017e+01
2.45305376e+01
2.98846908e+01
2.73442021e+01
3.03719466e+01
2.44856336e+01
2.45575939e+01
2.93198686e+01
3.11106657e+01
2.29048381e+01
2.65865897e+01
2.68160660e+01
2.79583311e+01
2.07200366e+01
2.72116921e+01
2.46794810e+01
2.40202545e+01
1.67073584e+01
2.93451685e+01
1.45312932e+01
2.33691980e+01
1.19569626e+01
2.33378875e+01
1.44629171e+01
2.10555217e+01
2.54320248e+01
2.52118033e+01
3.67415323e+01
2.90851352e+01
3.88606591e+01
3.49804516e+01
1.04300499e+02
3.49721097e+01
8.01935816e+01
6.56613361e+01
6.21904392e+01
7.27926207e+01
4.98138027e+01
6.90636997e+01
2.85353870e+01
2.59255422e+01
3.96050169e+01
2.16155418e+01
1.28824659e+02
6.09138432e+01
5.26302414e+01
2.79806447e+01
2.22698135e+01
1.57857333e+01
2.82614668e+01
2.37321397e+01
2.16886592e+01
2.32234278e+01
3.58189292e+01
7.68215361e+01
1.37528893e+02
5.22930458e+01
2.94486690e+01
4.86659198e+01
4.01728635e+01
5.47897298e+01
1.12066518e+02
4.45753028e+01
2.70932570e+01
3.03096786e+01
3.08009280e+01
3.11219609e+01
3.46808834e+01
3.57899010e+01
3.59018793e+01
3.93649626e+01
3.35130777e+01
3.12241421e+01
2.58928628e+01
2.47423106e+01
2.78270016e+01
3.50366793e+01
4.45467364e+01
5.34988470e+01
3.75638625e+01
3.20133129e+01
3.09651380e+01
4.45314646e+01
4.46363522e+01
5.78897444e+01
6.65948188e+01
4.58381329e+01
3.15062340e+01
3.61421852e+01
2.28847471e+01
5.27091129e+01
3.54478166e+01
1.57674675e+02
6.66979488e+01
4.80457859e+01
2.89045224e+01
2.40079396e+01
6.60792804e+01
4.82623386e+01
5.37598245e+01
2.99319532e+01
4.28357925e+01
2.24119492e+01
2.89441681e+01
2.49232446e+01
4.04731512e+00
1.83351791e+00
3.07114959e+00
4.54175043e+00
1.30837465e+01
7.11388175e+00
4.98496604e+00
1.75954704e+01
3.03332195e+01
3.12995701e+01
3.11476111e+01
3.05585580e+01
3.70476818e+01
3.65428057e+01
4.03551731e+01
4.45582705e+01
3.90508270e+01
4.38805385e+01
3.65539379e+01
3.44956093e+01
4.93179131e+01
4.53589573e+01
4.87944250e+01
4.12193093e+01
4.35168135e+01
3.88464007e+01
2.45327928e+01
2.52226706e+01
3.31372509e+01
1.29739067e+02
1.41865799e+02
3.69964383e+01
2.46007035e+01
1.58364232e+01
2.27085121e+01
2.11848468e+01
3.20428820e+01
2.24319372e+01
5.09309235e+01
1.96631494e+01
5.20496521e+01
2.29950355e+01
1.93722059e+01
2.38311126e+01
1.99274244e+01
2.06725621e+01
1.96996555e+01
1.13743210e+02
1.67867752e+02
5.26944338e+01
3.58347921e+01
1.27332311e+01
2.39703744e+01
9.32844877e+00
2.84530230e+01
1.91636200e+01
3.30389891e+01
4.12979069e+01
3.64447203e+01
2.71494184e+01
1.96247501e+01
1.61724253e+01
5.45762062e+00
</DataArray>
<DataArray type="Float32" Name="Stress_Max_Principal" format="ascii">
1.46946509e+01
4.82217985e+00
1.44057045e+01
9.33181107e-01
2.29863946e+01
3.81608347e+01
-2.81488106e+00
1.06085357e+01
-1.16970749e+01
-6.97275982e+01
-5.31111562e+01
-4.63054115e+01
8.75296742e-01
7.38218307e-01
1.01698801e+00
1.71435893e+00
6.20774686e-01
5.65464735e-01
7.29066730e-01
8.39403450e-01
9.37558413e-01
1.44776556e+00
5.71223005e+00
2.24760059e+00
5.49774408e+00
6.18354201e-01
3.63178203e+00
7.30860129e-01
5.89938152e+00
7.47000834e+00
8.65279704e-01
-3.92822325e-02
6.97365860e+00
1.45489807e+01
3.73067528e+00
3.60985097e+00
9.22795248e+00
3.85724452e+00
5.76053035e+00
1.68702696e+01
1.24703087e+01
1.10777720e+01
1.39442647e+01
7.87086919e+00
1.61933012e+01
2.17741214e+01
2.26432929e+01
1.53828355e+01
6.30248958e+00
6.51610625e+00
-4.31386518e+00
1.39239252e+00
2.06594557e+01
-3.10117819e+00
-5.95827793e+01
1.97398450e+01
-4.03687062e+01
-2.72401850e+01
-2.50409617e+01
-3.38880863e+01
-1.32669735e+01
-2.81965303e+01
4.09564887e+00
1.88959274e+01
-5.59006480e+00
8.35522723e+00
-7.32932005e+01
-1.79052743e+01
1.15923920e+02
1.34063791e+01
2.91703066e+01
1.30451155e+01
3.51747211e+01
1.55047911e+01
1.82452649e+01
2.33820079e+01
1.65746477e+01
-3.46170135e+01
-8.53933716e+01
9.34888508e+00
3.43684387e+00
1.89713249e+01
1.43881054e+01
-5.66444969e+00
-3.59082731e+01
1.60065015e+00
4.12884778e+00
7.60807157e-01
8.42873052e-01
9.33410287e-01
-2.91335261e+00
-3.16576013e+00
-3.92258430e+00
-5.18011104e+00
-1.34955108e+00
1.24929586e+00
5.08672655e+00
7.93076354e+00
4.42090595e+00
4.41275597e+00
-3.32750362e+00
1.20154853e+01
-2.44772375e+00
1.51629747e+01
2.11262170e+01
1.14632994e+01
4.91541926e+00
-1.91244170e+01
-2.79836493e+01
2.39802473e+01
5.24336117e+01
8.23957367e+01
3.00871174e+01
-1.51265798e+01
-1.16684246e+00
-8.27991829e+01
-1.62965598e+01
-5.93682051e+00
1.36498033e+01
6.01694298e+00
-2.42419803e+01
-7.82347846e+00
2.63462129e+01
2.71918726e+01
1.02556122e+02
6.43781662e+01
2.60049601e+01
2.04089591e+01
2.49851155e+00
8.93075705e-01
1.78492796e+00
2.83562326e+00
9.08812876e+00
2.05770266e+00
1.36756650e+00
8.10193014e+00
1.64982736e+00
1.02063537e-01
9.60513711e-01
1.69819736e+00
-4.84989357e+00
-3.23531191e+00
-6.28434813e+00
-8.52408952e+00
-4.60629225e+00
-7.41580103e+00
-2.33077388e+00
1.24841905e+00
-1.01045732e+01
-6.16784179e+00
1.43804274e+01
-5.52128983e+00
3.64720750e+00
2.23582232e+01
3.02796926e+01
2.52179928e+01
2.69583036e+01
-7.77108040e+01
-9.26673660e+01
3.06373675e+01
4.79437952e+01
3.93284369e+01
2.25196309e+01
3.62601357e+01
1.17184329e+01
3.33088927e+01
6.00846329e+01
4.37689114e+01
8.08216858e+00
3.03144798e+01
2.01779772e+01
1.86317605e+01
1.49809520e+01
9.49401903e+00
7.15720940e+00
-5.95109634e+01
-1.10566673e+02
1.76003138e+01
2.64664650e-01
7.42439759e+00
3.41507915e+01
3.48890376e+00
5.92931032e+00
1.23210783e+01
1.42490292e+00
-3.59754455e+00
2.20078883e+01
2.81484084e+01
3.62566485e+01
6.67638874e+00
8.33955288e-01
</DataArray>
<DataArray type="Float32" Name="Stress_Mid_Principal" format="ascii">
1.07357984e+01
-2.35708290e+00
-4.77825117e+00
-1.09279245e+00
1.63269385e+01
1.96795989e+01
-1.67624750e+01
8.25372288e+00
-1.64296136e+01
-7.66181183e+01
-6.99280726e+01
-6.74309568e+01
-3.58301423e-01
-3.70319050e-01
-9.46056694e-02
-6.04666993e-01
1.25799244e-02
-6.55410886e-02
9.95997861e-02
1.21539617e-02
2.27861166e-01
3.85208279e-02
3.72478534e+00
4.06299606e-01
3.98882937e+00
-3.78034264e-01
2.00927580e+00
-1.29980543e+00
3.66273639e+00
4.41592715e+00
4.10333335e-01
-1.58597028e+00
5.24425018e+00
8.50564373e+00
1.84850322e+00
1.16409328e+00
6.72802283e+00
9.93840218e-01
3.48669922e+00
1.09632102e+01
1.03677956e+01
5.34569085e+00
1.29138150e+01
5.27326782e+00
1.49744687e+01
1.52817150e+01
1.84695590e+01
1.03370080e+01
1.70050955e+00
1.84191799e+00
-6.72561325e+00
4.93184686e-01
9.67871942e+00
-6.11922595e+00
-6.86263321e+01
9.64053392e+00
-4.55412745e+01
-3.09181567e+01
-3.00391412e+01
-3.91098270e+01
-2.08084316e+01
-3.88962097e+01
-1.05470177e+00
1.15127529e+01
-8.07792732e+00
6.52426434e+00
-9.34989004e+01
-2.77537496e+01
6.56719360e+01
7.05324300e+00
2.04614972e+01
1.14862804e+01
2.11780636e+01
9.79293752e+00
1.34610893e+01
1.40518829e+01
4.84035444e+00
-4.23352985e+01
-9.66748123e+01
-7.85372620e+00
5.23051262e-01
3.39990759e+00
1.50261497e+00
-2.35747719e+01
-5.90563533e+01
-1.40321032e+01
7.99043655e-01
-1.29897404e+00
-2.23540336e+00
-2.93881346e+00
-5.10279918e+00
-6.79452407e+00
-6.08380824e+00
-1.08961007e+01
-4.56172365e+00
-3.09981483e+00
2.01439157e+00
4.12242308e+00
-6.20002508e-01
-2.92843312e+00
-1.15752337e+01
-3.62920284e+00
-8.52542555e+00
4.73623526e+00
1.02902404e+01
-2.73789549e+00
-8.51968511e+00
-2.85747241e+01
-3.44281704e+01
4.37996038e+00
2.96818414e+01
4.70228043e+01
1.32983573e+01
-2.12592282e+01
-5.51081340e+00
-1.34156887e+02
-2.59747016e+01
-1.22148420e+01
6.52400970e+00
4.69071293e+00
-3.54182386e+01
-2.13970248e+01
-8.69546890e-01
1.42863619e+01
6.32157021e+01
4.41171646e+01
2.02328074e+00
4.75349840e+00
-1.08036923e+00
-1.44795001e-01
-5.72677732e-01
-1.26615107e+00
-6.24294859e-01
-8.35433409e-01
3.72825427e-01
3.49453853e+00
-2.34001613e+00
-2.36282924e+00
-2.99029529e+00
-2.77308512e+00
-7.26267815e+00
-8.10368836e+00
-1.15814893e+01
-1.67299314e+01
-1.10799778e+01
-1.64495820e+01
-9.09146094e+00
-8.91489768e+00
-2.34793396e+01
-2.01466880e+01
-3.48775339e+00
-1.40881934e+01
-1.00512701e+01
6.49125624e+00
1.95154958e+01
1.70825396e+01
6.36653137e+00
-9.32099628e+01
-9.90809021e+01
9.52983920e+00
3.63491862e+01
2.91585947e+01
4.65194516e+00
2.44813737e+01
-3.71413946e+00
2.54240215e+01
2.81402683e+01
2.85844326e+01
-5.86321020e+00
1.27706359e+01
8.39569441e+00
2.69500181e+00
7.97779498e+00
5.13489059e+00
1.72848845e+00
-8.48547287e+01
-1.25304291e+02
3.01518726e+00
-8.84111595e+00
3.24481094e+00
2.26000679e+01
-2.82008040e+00
-2.66174221e+00
6.72966909e+00
-3.89100075e+00
-1.58660755e+01
4.01075745e+00
8.02491760e+00
2.40925198e+01
3.54811251e+00
4.60895114e-02
</DataArray>
<DataArray type="Float32" Name="Stress_Min_Principal" format="ascii">
-4.97726518e+00
-2.62275271e+01
-4.59522686e+01
-3.04811702e+01
7.00456500e-01
-2.57255667e+00
-5.01694436e+01
-1.33553190e+01
-6.55590038e+01
-1.89498703e+02
-1.71165789e+02
-1.52791382e+02
-9.29181457e-01
-7.80090392e-01
-1.33453745e+00
-1.52198365e+00
-3.49850029e-01
-2.16286987e-01
-5.45087993e-01
-5.68073571e-01
-2.87804890e+01
-2.84095521e+01
-1.97964280e+01
-2.71497924e+01
-1.97522050e+01
-2.97513523e+01
-2.44055579e+01
-3.06023076e+01
-1.96242415e+01
-1.82693518e+01
-2.86789644e+01
-3.18859611e+01
-1.67378994e+01
-1.30811357e+01
-2.39730905e+01
-2.54240626e+01
-1.26174874e+01
-2.46710402e+01
-1.99766272e+01
-8.25806201e+00
-5.18765825e+00
-1.95636451e+01
-1.03605175e+00
-1.65654190e+01
3.68063045e+00
-2.53193760e+00
7.35838413e+00
-7.13740015e+00
-2.10736343e+01
-2.06951848e+01
-4.21787343e+01
-2.81270390e+01
-1.95710929e+01
-3.94624028e+01
-1.67835797e+02
-1.73362660e+01
-1.23015072e+02
-9.45416491e+01
-8.95784378e+01
-1.09128143e+02
-6.64214306e+01
-1.01985600e+02
-2.65934047e+01
-8.48229814e+00
-4.62472450e+01
-1.40972060e+01
-2.11002087e+02
-8.30261060e+01
6.12006950e+01
-1.65548401e+01
6.02833843e+00
-3.45953023e+00
5.31735531e+00
-9.42046094e+00
-4.43085742e+00
-1.77041626e+00
-2.19493102e+01
-1.14867719e+02
-2.28201340e+02
-4.75068466e+01
-2.72594156e+01
-3.20751848e+01
-2.84863033e+01
-6.67563725e+01
-1.56433297e+02
-4.67241243e+01
-2.44753227e+01
-3.05126836e+01
-3.13796495e+01
-3.19412122e+01
-3.86357770e+01
-4.06300449e+01
-4.08560553e+01
-4.70741552e+01
-3.63491981e+01
-3.19130182e+01
-2.21955566e+01
-1.82837102e+01
-2.55807586e+01
-3.31187229e+01
-5.08491564e+01
-4.41772814e+01
-4.25630140e+01
-1.94601202e+01
-1.20787967e+01
-3.67928855e+01
-4.40122248e+01
-8.10630376e+01
-9.75310955e+01
-2.64317203e+01
1.75672529e+01
4.55305214e+01
5.27353983e+00
-7.04059153e+01
-3.82593892e+01
-2.59336433e+02
-8.56126849e+01
-5.59309378e+01
-1.68721511e+01
-1.86199055e+01
-9.51562183e+01
-6.13201206e+01
-3.45323162e+01
-6.44496429e+00
5.69214439e+01
4.03044167e+01
-6.10240471e+00
-7.02071381e+00
-1.89371002e+00
-1.22395420e+00
-1.68804801e+00
-2.04529619e+00
-5.02782893e+00
-5.70285118e+00
-4.02548718e+00
-1.12679121e+01
-3.04808712e+01
-3.23484497e+01
-3.19629471e+01
-3.08488950e+01
-4.30340633e+01
-4.19335302e+01
-4.90264063e+01
-5.65947738e+01
-4.64652615e+01
-5.51079504e+01
-4.17931080e+01
-3.71593115e+01
-6.47303848e+01
-5.68153992e+01
-3.83104630e+01
-5.03386444e+01
-4.42637291e+01
-2.03952091e+01
3.66581964e+00
-1.74960196e+00
-1.08677845e+01
-2.14449425e+02
-2.37631149e+02
-1.04002101e+01
2.15891442e+01
2.13119082e+01
-2.86139941e+00
1.25338078e+01
-2.45435038e+01
8.34011936e+00
1.70882225e+00
2.16030097e+01
-4.95196724e+01
5.19059340e+00
-2.11826690e+00
-8.41959858e+00
-7.44418487e+00
-1.29898181e+01
-1.45168071e+01
-1.83788345e+02
-2.85317322e+02
-3.68330714e+01
-3.92278895e+01
-6.38714767e+00
6.98142942e+00
-7.15081143e+00
-2.57293043e+01
-9.01637554e+00
-3.38966260e+01
-4.96393547e+01
-1.87778549e+01
-2.69640732e+00
1.48870325e+01
-1.07938538e+01
-4.97477865e+00
</DataArray>
<DataArray type="Float32" Name="Stress_Pressure" format="ascii">
-6.81772764e+00
7.92081034e+00
1.21082726e+01
1.02135936e+01
-1.33379299e+01
-1.84226254e+01
2.32489328e+01
-1.83564663e+00
3.12285638e+01
1.11948139e+02
9.80683403e+01
8.88425827e+01
1.37395348e-01
1.37397036e-01
1.37385048e-01
1.37430586e-01
-9.45015326e-02
-9.45455432e-02
-9.45261791e-02
-9.44946259e-02
9.20502314e+00
8.97442204e+00
3.45313769e+00
8.16529754e+00
3.42187738e+00
9.83701050e+00
6.25483348e+00
1.03904178e+01
3.35404134e+00
2.12780523e+00
9.13445085e+00
1.11704048e+01
1.50666326e+00
-3.32449597e+00
6.13130426e+00
6.88337288e+00
-1.11282945e+00
6.60665172e+00
3.57646573e+00
-6.52513939e+00
-5.88348177e+00
1.04672694e+00
-8.60734224e+00
1.14042721e+00
-1.16161332e+01
-1.15079657e+01
-1.61570791e+01
-6.19414735e+00
4.35687792e+00
4.11238730e+00
1.77394042e+01
8.74715372e+00
-3.58902764e+00
1.62276026e+01
9.86816360e+01
-4.01470428e+00
6.96416864e+01
5.08999975e+01
4.82195129e+01
6.07086859e+01
3.34989452e+01
5.63594475e+01
7.85081911e+00
-7.30879405e+00
1.99717466e+01
-2.60762036e-01
1.25931395e+02
4.28950420e+01
-8.09321823e+01
-1.30159346e+00
-1.85533805e+01
-7.02395523e+00
-2.05567128e+01
-5.29242277e+00
-9.09183228e+00
-1.18878245e+01
1.78103089e-01
6.39400129e+01
1.36756504e+02
1.53372290e+01
7.76650715e+00
3.23465157e+00
4.19852829e+00
3.19985304e+01
8.37993075e+01
1.97185268e+01
6.51581049e+00
1.03502836e+01
1.09240600e+01
1.13155382e+01
1.55506432e+01
1.68634428e+01
1.69541495e+01
2.10501226e+01
1.40868239e+01
1.12545126e+01
5.03147936e+00
2.07684135e+00
7.25995159e+00
1.05448008e+01
2.19172983e+01
1.19303350e+01
1.78453882e+01
-1.46363854e-01
-6.44588648e+00
9.35582638e+00
1.58721638e+01
4.29207268e+01
5.33143036e+01
-6.42827988e-01
-3.32275683e+01
-5.83163528e+01
-1.62196716e+01
3.55972415e+01
1.49790160e+01
1.58764160e+02
4.26279821e+01
2.46942000e+01
-1.10055332e+00
2.63741684e+00
5.16054778e+01
3.01802076e+01
3.01855183e+00
-1.16777558e+01
-7.42310944e+01
-4.95999184e+01
-7.30861172e+00
-6.04724801e+00
1.58522531e-01
1.58557847e-01
1.58599287e-01
1.58607930e-01
-1.14533495e+00
1.49352733e+00
7.61698462e-01
-1.09518886e-01
1.03903532e+01
1.15364056e+01
1.13309098e+01
1.06412611e+01
1.83822122e+01
1.77575097e+01
2.22974138e+01
2.72829311e+01
2.07171769e+01
2.63244451e+01
1.77384477e+01
1.49419300e+01
3.27714310e+01
2.77099762e+01
9.13926172e+00
2.33160424e+01
1.68892648e+01
-2.81809103e+00
-1.78203359e+01
-1.35169762e+01
-7.48568439e+00
1.28456730e+02
1.43126480e+02
-9.92233245e+00
-3.52940416e+01
-2.99329799e+01
-8.10339260e+00
-2.44251052e+01
5.51306996e+00
-2.23576772e+01
-2.99779091e+01
-3.13187838e+01
1.57669048e+01
-1.60919024e+01
-8.81846809e+00
-4.30238807e+00
-5.17152071e+00
-5.46364188e-01
1.87703642e+00
1.09384674e+02
1.73729431e+02
5.40585645e+00
1.59347787e+01
-1.42735362e+00
-2.12440962e+01
2.16066271e+00
7.48724556e+00
-3.34479070e+00
1.21209087e+01
2.30343246e+01
-2.41359711e+00
-1.11589737e+01
-2.50787335e+01
1.89784139e-01
1.36491132e+00
</DataArray>
<DataArray type="Float32" Name="Stress_Tresca" format="ascii">
1.96719158e+01
3.10497072e+01
6.03579750e+01
3.14143515e+01
2.22859380e+01
4.07333914e+01
4.73545609e+01
2.39638548e+01
5.38619280e+01
1.19771103e+02
1.18054638e+02
1.06485970e+02
1.80447817e+00
1.51830876e+00
2.35152543e+00
3.23634243e+00
9.70624685e-01
7.81751752e-01
1.27415466e+00
1.40747702e+00
2.97180481e+01
2.98573174e+01
2.55086582e+01
2.93973932e+01
2.52499495e+01
3.03697062e+01
2.80373398e+01
3.13331678e+01
2.55236230e+01
2.57393601e+01
2.95442438e+01
3.18466787e+01
2.37115583e+01
2.76301165e+01
2.77037649e+01
2.90339134e+01
2.18454404e+01
2.85282849e+01
2.57371583e+01
2.51283315e+01
1.76579671e+01
3.06414175e+01
1.49803166e+01
2.44362881e+01
1.25126710e+01
2.43060589e+01
1.52849083e+01
2.25202355e+01
2.73761245e+01
2.72112916e+01
3.78648694e+01
2.95194314e+01
4.02305486e+01
3.63612243e+01
1.08253017e+02
3.70761108e+01
8.26463661e+01
6.73014648e+01
6.45374765e+01
7.52400570e+01
5.31544571e+01
7.37890663e+01
3.06890537e+01
2.73782263e+01
4.06571800e+01
2.24524331e+01
1.37708885e+02
6.51208324e+01
5.47232246e+01
2.99612192e+01
2.31419683e+01
1.65046463e+01
2.98573658e+01
2.49252522e+01
2.26761222e+01
2.51524239e+01
3.85239577e+01
8.02507057e+01
1.42807968e+02
5.68557320e+01
3.06962595e+01
5.10465088e+01
4.28744068e+01
6.10919228e+01
1.20525024e+02
4.83247738e+01
2.86041708e+01
3.12734904e+01
3.22225226e+01
3.28746223e+01
3.57224240e+01
3.74642847e+01
3.69334712e+01
4.18940438e+01
3.49996476e+01
3.31623139e+01
2.72822833e+01
2.62144734e+01
3.00016642e+01
3.75314789e+01
4.75216534e+01
5.61927671e+01
4.01152904e+01
3.46230949e+01
3.32050135e+01
4.82561849e+01
4.89276441e+01
6.19386215e+01
6.95474459e+01
5.04119685e+01
3.48663591e+01
3.68652153e+01
2.48135780e+01
5.52793355e+01
3.70925465e+01
1.76537247e+02
6.93161252e+01
4.99941168e+01
3.05219536e+01
2.46368484e+01
7.09142389e+01
5.34966421e+01
6.08785300e+01
3.36368370e+01
4.56346779e+01
2.40737495e+01
3.21073647e+01
2.74296729e+01
4.39222145e+00
2.11702991e+00
3.47297597e+00
4.88091946e+00
1.41159578e+01
7.76055384e+00
5.39305377e+00
1.93698422e+01
3.21306992e+01
3.24505129e+01
3.29234598e+01
3.25470920e+01
3.81841698e+01
3.86982188e+01
4.27420578e+01
4.80706849e+01
4.18589687e+01
4.76921501e+01
3.94623337e+01
3.84077306e+01
5.46258125e+01
5.06475582e+01
5.26908903e+01
4.48173556e+01
4.79109364e+01
4.27534323e+01
2.66138730e+01
2.69675941e+01
3.78260880e+01
1.36738625e+02
1.44963776e+02
4.10375773e+01
2.63546505e+01
1.80165286e+01
2.53810301e+01
2.37263279e+01
3.62619371e+01
2.49687729e+01
5.83758106e+01
2.21659021e+01
5.76018410e+01
2.51238861e+01
2.22962440e+01
2.70513594e+01
2.24251368e+01
2.24838371e+01
2.16740170e+01
1.24277382e+02
1.74750641e+02
5.44333865e+01
3.94925523e+01
1.38115454e+01
2.71693618e+01
1.06397152e+01
3.16586142e+01
2.13374538e+01
3.53215299e+01
4.60418091e+01
4.07857418e+01
3.08448162e+01
2.13696156e+01
1.74702425e+01
5.80873394e+00
</DataArray>
<DataArray type="Float32" Name="Stress_Third_Invariant" format="ascii">
-1.57781290e+01
-2.57965679e+01
-3.06854038e+01
-2.96983869e+01
-1.11428388e+01
-7.82762064e+00
-3.51801443e+01
-1.92501494e+01
-5.10764005e+01
-1.16007252e+02
-1.07093742e+02
-9.15399971e+01
1.33606440e+00
1.18383524e+00
-9.13350463e-01
2.45002031e+00
6.37123168e-01
6.81376636e-01
-3.02930057e-01
8.18641841e-01
-2.93496246e+01
-2.91005378e+01
-2.43554612e+01
-2.83615479e+01
-2.44251413e+01
-2.98451209e+01
-2.68137765e+01
-3.02090156e+01
-2.42429748e+01
-2.31341109e+01
-2.93105736e+01
-3.09800961e+01
-2.27298183e+01
-1.86282980e+01
-2.66551623e+01
-2.72522326e+01
-2.03394717e+01
-2.68637888e+01
-2.44404383e+01
-1.59889630e+01
-1.64021556e+01
-2.22681092e+01
-1.43093527e+01
-2.23726026e+01
-1.17937531e+01
-1.20149576e+01
-8.03258991e+00
-1.60450954e+01
-2.43218157e+01
-2.41714061e+01
-3.64827726e+01
-2.90390282e+01
-1.98533974e+01
-3.45868654e+01
-1.02547102e+02
-1.95035028e+01
-7.97916937e+01
-6.50525955e+01
-6.17323465e+01
-7.22995043e+01
-4.85042458e+01
-6.71608677e+01
-2.72146175e+01
-1.52169769e+01
-3.84986850e+01
-2.13729930e+01
-1.25103607e+02
-5.86766525e+01
5.22003632e+01
-2.24037592e+01
-6.15080472e+00
-1.56028892e+01
-4.00218618e+00
-1.67771213e+01
-1.40646811e+01
-1.00062113e+01
-2.09233875e+01
-7.55077386e+01
-1.36438435e+02
-3.31966587e+01
-2.80170316e+01
-2.42021756e+01
-2.44887643e+01
-4.33349404e+01
-9.76453915e+01
-2.74045575e+01
-2.66267881e+01
-3.01102371e+01
-3.04458529e+01
-3.05658214e+01
-3.45208874e+01
-3.53669598e+01
-3.57544742e+01
-3.83616158e+01
-3.31521139e+01
-3.05039380e+01
-2.54472966e+01
-2.29102752e+01
-2.67665024e+01
-2.97070138e+01
-3.90736313e+01
-3.09713879e+01
-3.57245958e+01
-1.94524983e+01
-1.67703401e+01
-2.85697880e+01
-3.40267270e+01
-5.58033813e+01
-6.57750715e+01
-1.93808928e+01
1.00119821e+01
3.60727654e+01
8.64496651e+00
-5.06751401e+01
-3.33944479e+01
-1.34788330e+02
-5.70644900e+01
-4.23406346e+01
-2.07124031e+01
-2.39046044e+01
-6.37612386e+01
-4.31437550e+01
-2.62238616e+01
-1.59550201e+01
4.17763863e+01
2.16642113e+01
2.60570526e+01
-9.29579854e-01
3.85696173e+00
-5.92660666e-01
2.55180407e+00
4.38759613e+00
5.23987617e+00
-2.49757028e+00
-4.70275259e+00
-1.58936418e+01
-2.97342758e+01
-3.10535393e+01
-3.05409169e+01
-2.98067412e+01
-3.68369770e+01
-3.56903074e+01
-3.95613718e+01
-4.27400107e+01
-3.77349358e+01
-4.17027125e+01
-3.51057520e+01
-3.07284198e+01
-4.49583511e+01
-3.97976913e+01
-2.72854748e+01
-3.90979080e+01
-3.28177383e+01
-1.79222505e+01
-7.68835950e+00
-1.09978664e+01
-3.59794188e+00
-1.27461491e+02
-1.41539032e+02
-6.85837428e+00
1.87043357e+00
2.74513751e+00
1.86262548e+01
2.58994466e+00
-9.78443146e-01
-1.06446438e+01
4.24331951e+00
1.63133740e+01
-4.75667992e+01
1.50321871e+01
8.53737990e-01
7.34461415e+00
-1.64346027e+01
-1.95219989e+01
-1.70980034e+01
-1.07110519e+02
-1.66402924e+02
-2.63966268e+01
-3.30069985e+01
-7.13133276e+00
-5.11498229e+00
5.35836530e+00
-2.28457357e+01
-1.71795177e+01
-3.18638659e+01
-3.68499012e+01
-1.60309649e+01
2.13689303e+01
1.07053185e+00
-1.53335242e+01
-5.32742119e+00
</DataArray>
<DataArray type="Float32" Name="Logarithmic_strain_Max_Principal" format="ascii">
2.87314828e-02
3.46900746e-02
3.96881420e-02
2.94662518e-02
3.25654573e-02
4.37836056e-02
6.10107454e-02
4.06779838e-02
4.15950427e-02
5.04325479e-02
6.88612697e-02
7.46294074e-02
2.25463209e-05
1.91767658e-05
2.60625493e-05
4.28668045e-05
1.38724045e-05
1.25260558e-05
1.69181330e-05
1.91275467e-05
3.89585886e-02
3.97858145e-02
4.23242995e-02
4.02325280e-02
4.81683649e-02
4.67351889e-02
4.77855038e-02
4.90902551e-02
4.29800786e-02
4.53652358e-02
4.37838733e-02
4.53024148e-02
4.40864582e-02
4.75404458e-02
4.24374444e-02
4.26040683e-02
4.55044163e-02
4.99054017e-02
4.00854424e-02
4.20989925e-02
4.28031199e-02
4.64036874e-02
3.49716106e-02
4.14031623e-02
4.10323944e-02
4.52270498e-02
3.56697608e-02
4.12172806e-02
4.83365669e-02
4.66423547e-02
5.16339024e-02
4.86515537e-02
4.44597001e-02
5.05074277e-02
6.20852262e-02
4.59970715e-02
5.93499895e-02
4.74946439e-02
5.55328624e-02
4.93305642e-02
5.46742529e-02
4.87564467e-02
4.73350036e-02
4.18453934e-02
5.70751269e-02
4.73580789e-02
6.92974422e-02
6.66172408e-02
1.08526781e-01
4.13206723e-02
3.26989322e-02
3.44439903e-02
4.79465605e-02
4.86817872e-02
3.24429893e-02
5.44730585e-02
5.85576426e-02
4.51342543e-02
7.05155674e-02
6.55120641e-02
3.70867439e-02
5.71325161e-02
6.11023605e-02
7.86474943e-02
7.74421319e-02
7.41797239e-02
5.95537685e-02
5.54297296e-02
5.94969769e-02
6.26756130e-02
4.94499337e-02
5.40406546e-02
4.65337299e-02
4.84071989e-02
4.28401362e-02
4.23940690e-02
4.01997110e-02
3.77651048e-02
4.19583302e-02
3.99022689e-02
6.96677491e-02
7.05887619e-02
5.77743375e-02
4.28197230e-02
3.45209406e-02
3.24409781e-02
3.37746826e-02
7.69780402e-02
7.81768958e-02
6.19698490e-02
3.61905827e-02
5.76318353e-02
1.56116228e-02
8.41354094e-02
8.85406137e-02
8.54724310e-02
8.44714070e-02
8.33794139e-02
8.19134209e-02
7.14916252e-02
8.05473663e-02
8.99254363e-02
6.41676476e-02
6.24161130e-02
9.70135778e-02
5.20388708e-02
3.76081705e-02
3.02374995e-02
6.17658661e-05
2.33419305e-05
4.42431738e-05
6.97011783e-05
1.95443764e-04
6.75736252e-05
4.15183240e-05
2.59617181e-04
6.37196526e-02
5.85644171e-02
6.52770158e-02
6.93592876e-02
5.19180931e-02
5.72558679e-02
5.28540350e-02
5.23515875e-02
5.06419577e-02
4.73141773e-02
4.72511388e-02
4.40216707e-02
5.29123470e-02
4.59522940e-02
7.58461189e-02
7.77759403e-02
6.44069808e-02
4.45679585e-02
2.90618241e-02
2.40536628e-02
2.36744070e-02
8.33036751e-02
9.00460184e-02
5.76399242e-02
2.33681777e-02
5.93008197e-03
1.01527467e-02
3.89187170e-03
9.90045187e-03
4.77050722e-03
4.21113377e-02
9.89267882e-03
5.24007827e-02
2.38634227e-03
1.69374900e-03
5.25414040e-04
2.81079501e-04
6.83713282e-04
8.22346803e-04
1.28935054e-01
1.16154104e-01
9.73002886e-02
1.10650439e-01
1.37864447e-04
1.08604699e-02
1.10632536e-04
9.82726328e-02
9.29455534e-02
8.01134296e-02
9.49720703e-02
4.36752439e-02
5.57051338e-02
1.45593979e-02
2.81457149e-04
3.52854659e-05
</DataArray>
<DataArray type="Float32" Name="Logarithmic_strain_Min_Principal" format="ascii">
-3.86867612e-02
-4.49942171e-02
-5.73466895e-02
-4.60887617e-02
-4.66061439e-02
-5.88587634e-02
-7.61377783e-02
-5.54699199e-02
-6.37257667e-02
-8.70788284e-02
-9.75906402e-02
-1.03567168e-01
-2.05635670e-05
-1.69855211e-05
-3.01715563e-05
-3.44587625e-05
-9.59100635e-06
-5.81966424e-06
-1.41764322e-05
-1.49311218e-05
-6.43982328e-02
-6.41102968e-02
-6.31422745e-02
-6.39888858e-02
-7.07778707e-02
-7.14511089e-02
-7.30665857e-02
-7.43454508e-02
-6.21287711e-02
-6.48121322e-02
-6.89194724e-02
-7.18511231e-02
-6.16939878e-02
-6.72720056e-02
-6.41944278e-02
-6.67267013e-02
-6.15433278e-02
-7.22456537e-02
-5.93674770e-02
-6.07156274e-02
-6.01171991e-02
-7.05830436e-02
-5.33451941e-02
-6.10005790e-02
-5.79314604e-02
-6.67788312e-02
-5.00113089e-02
-5.85430851e-02
-6.44843248e-02
-6.12713899e-02
-8.14286433e-02
-7.79045522e-02
-7.27022343e-02
-7.69966366e-02
-9.94842783e-02
-6.82074417e-02
-9.52249300e-02
-7.37512156e-02
-8.96634050e-02
-7.98981991e-02
-8.51637721e-02
-7.86980577e-02
-6.09331881e-02
-5.40297925e-02
-8.57473495e-02
-7.57851396e-02
-9.89261009e-02
-9.63483214e-02
-9.98968631e-02
-4.82897970e-02
-4.66932787e-02
-4.60623838e-02
-6.99820152e-02
-7.07772393e-02
-4.62702252e-02
-7.80730966e-02
-7.74773518e-02
-6.86657541e-02
-1.11366797e-01
-9.03795868e-02
-5.30298296e-02
-7.83766303e-02
-8.34391825e-02
-1.00242311e-01
-1.05989434e-01
-8.68450850e-02
-8.05521831e-02
-8.00085068e-02
-8.31257477e-02
-8.52097869e-02
-7.68839009e-02
-7.73999672e-02
-7.09728450e-02
-6.91203298e-02
-6.40402939e-02
-6.01568162e-02
-5.78427976e-02
-5.47705172e-02
-5.70331942e-02
-5.57149025e-02
-9.19692572e-02
-9.79849175e-02
-7.66609842e-02
-5.45664374e-02
-4.47466831e-02
-4.12880331e-02
-4.19544335e-02
-1.03322412e-01
-1.06844922e-01
-7.60610414e-02
-3.47408308e-02
-5.99176325e-02
-1.02465495e-02
-1.22397900e-01
-1.23653121e-01
-1.11143049e-01
-1.26144667e-01
-1.24254407e-01
-1.17505344e-01
-1.14579335e-01
-1.20258065e-01
-1.13936756e-01
-7.48442272e-02
-6.82048025e-02
-6.01475015e-02
-3.79936248e-02
-2.22162312e-02
-2.96020690e-02
-4.42554519e-05
-2.69966495e-05
-3.90988498e-05
-4.69457736e-05
-1.49114821e-04
-1.18796580e-04
-8.74068610e-05
-3.57790675e-04
-8.58393610e-02
-8.42841491e-02
-8.57881997e-02
-8.89059864e-02
-8.03918727e-02
-7.90655967e-02
-7.39699602e-02
-7.10639060e-02
-6.72112964e-02
-6.26320709e-02
-6.32832274e-02
-5.53898979e-02
-6.52579963e-02
-5.62270544e-02
-9.89733171e-02
-1.09347999e-01
-7.57275410e-02
-5.21413013e-02
-3.39733083e-02
-2.42830496e-02
-2.30045468e-02
-1.36300631e-01
-1.52244106e-01
-6.97632370e-02
-1.94120170e-02
-2.27080547e-03
-6.51487890e-03
-1.90754332e-03
-9.38687322e-03
-5.04806323e-03
-2.98830820e-02
-5.64229523e-03
-7.76370615e-02
-1.96981755e-03
-1.91455804e-03
-3.24537516e-04
-2.33819850e-04
-8.88117604e-04
-1.35290052e-03
-1.90419778e-01
-2.02197537e-01
-1.40792186e-01
-1.50254354e-01
-1.32365968e-04
-5.56036075e-03
-1.45400656e-04
-1.26960166e-01
-1.23709060e-01
-1.19363468e-01
-1.16426777e-01
-4.60774675e-02
-5.20163253e-02
-1.62353654e-02
-4.56793205e-04
-1.04220941e-04
</DataArray>
<DataArray type="Float32" Name="Plastic_strain_Max_Principal" format="ascii">
2.84604521e-02
3.45498160e-02
4.13548835e-02
2.94016600e-02
3.48908121e-02
4.11243207e-02
6.39206981e-02
4.73741596e-02
4.57342817e-02
5.07093593e-02
7.76834488e-02
7.26492591e-02
0.00000000e+00
0.00000000e+00
0.00000000e+00
0.00000000e+00
0.00000000e+00
0.00000000e+00
0.00000000e+00
0.00000000e+00
3.88889145e-02
3.96099519e-02
4.21860809e-02
4.00303407e-02
4.79538273e-02
4.66098674e-02
4.76012696e-02
4.89496645e-02
4.27748729e-02
4.51329215e-02
4.35900008e-02
4.52372842e-02
4.39083232e-02
4.63291956e-02
4.22176626e-02
4.23924066e-02
4.51628985e-02
4.97814906e-02
3.99295622e-02
4.16818494e-02
4.23904965e-02
4.61226106e-02
3.46975029e-02
4.10814444e-02
4.05861735e-02
4.47688252e-02
3.53360027e-02
4.07446101e-02
4.80299969e-02
4.64973589e-02
5.16870022e-02
4.85268142e-02
4.47166621e-02
5.03655602e-02
6.34157710e-02
4.80260210e-02
5.99889420e-02
4.78682384e-02
5.61766215e-02
4.99252081e-02
5.49947005e-02
4.91665341e-02
4.70303015e-02
4.15973235e-02
5.82623503e-02
4.70248023e-02
7.05056358e-02
6.80641614e-02
1.01855040e-01
5.92216675e-02
3.24854188e-02
3.42048495e-02
4.30112419e-02
4.32590577e-02
3.42519251e-02
6.51960139e-02
5.28115928e-02
4.64576404e-02
7.80073553e-02
6.72784410e-02
3.58849429e-02
3.86200827e-02
6.46430682e-02
8.12458247e-02
7.69127210e-02
7.37520481e-02
5.93300890e-02
5.52919693e-02
5.92887099e-02
6.25183899e-02
4.93588662e-02
5.39355376e-02
4.64179870e-02
4.82504722e-02
4.27371347e-02
4.27459474e-02
4.00797008e-02
3.75785758e-02
4.18451726e-02
3.93387396e-02
6.98559480e-02
7.44389668e-02
5.23459530e-02
4.24516969e-02
3.25203227e-02
3.17018970e-02
3.50907712e-02
8.11194927e-02
7.76565696e-02
6.48012633e-02
2.36896744e-02
5.38171083e-02
1.89470739e-02
9.80159845e-02
1.00763991e-01
8.45916048e-02
7.32187890e-02
6.42581442e-02
8.61362778e-02
6.98360167e-02
8.56930315e-02
9.06435791e-02
5.31982845e-02
5.22803753e-02
3.83588597e-02
1.89342592e-02
4.20807079e-02
2.27985895e-02
0.00000000e+00
0.00000000e+00
0.00000000e+00
0.00000000e+00
3.45067918e-05
0.00000000e+00
0.00000000e+00
6.84103240e-05
6.35469854e-02
5.83724119e-02
6.51684431e-02
6.91912659e-02
5.18362299e-02
5.71652800e-02
5.27813286e-02
5.19965058e-02
5.04932739e-02
4.83320095e-02
4.71139289e-02
4.69439095e-02
5.27541488e-02
4.84377220e-02
8.04644562e-02
7.65934512e-02
5.77362804e-02
4.86651426e-02
2.56555339e-02
1.42942031e-02
1.45768155e-02
8.18239935e-02
9.26888511e-02
6.74095328e-02
1.81160264e-02
6.52624406e-03
1.01443099e-02
2.95637066e-03
9.53924307e-03
4.54846962e-03
4.12236215e-02
2.14383639e-02
5.68693429e-02
1.89271406e-03
1.43786807e-03
1.73760720e-04
1.57464459e-04
4.68472223e-04
6.30130875e-04
1.23291448e-01
1.13578781e-01
1.05927390e-01
1.21245429e-01
5.85496425e-05
3.51028766e-03
0.00000000e+00
9.70225260e-02
9.24527869e-02
8.72516185e-02
1.01841517e-01
3.49809900e-02
3.22085358e-02
6.51275218e-03
1.32018744e-04
0.00000000e+00
</DataArray>
<DataArray type="Float32" Name="Plastic_strain_Min_Principal" format="ascii">
-3.86363189e-02
-4.05161893e-02
-6.01202268e-02
-4.55454187e-02
-3.95854610e-02
-5.12876103e-02
-8.25839713e-02
-6.76137162e-02
-6.88207187e-02
-8.18621516e-02
-1.08722866e-01
-9.47875604e-02
0.00000000e+00
0.00000000e+00
0.00000000e+00
0.00000000e+00
0.00000000e+00
0.00000000e+00
0.00000000e+00
0.00000000e+00
-6.39551766e-02
-6.34925254e-02
-6.29116530e-02
-6.33675028e-02
-7.04485662e-02
-7.08868448e-02
-7.26249907e-02
-7.37708732e-02
-6.18165210e-02
-6.44921330e-02
-6.82361852e-02
-7.12304758e-02
-6.15302864e-02
-6.54781042e-02
-6.36982229e-02
-6.62595835e-02
-6.12632101e-02
-7.19974628e-02
-5.91027727e-02
-6.06732266e-02
-5.99014591e-02
-7.02937432e-02
-5.34356516e-02
-6.05631880e-02
-5.79086673e-02
-6.67777508e-02
-5.03727291e-02
-5.82569269e-02
-6.40524272e-02
-6.10627700e-02
-8.06008605e-02
-7.74195194e-02
-7.22719548e-02
-7.52513930e-02
-9.55975994e-02
-7.12841909e-02
-9.23636220e-02
-7.21561290e-02
-8.83061085e-02
-7.76822064e-02
-8.41416419e-02
-7.66248368e-02
-6.02418413e-02
-5.41505320e-02
-8.75755729e-02
-7.53611941e-02
-9.60329790e-02
-9.61717889e-02
-1.17510624e-01
-5.64009510e-02
-4.73679756e-02
-4.60595358e-02
-4.93712352e-02
-5.34565921e-02
-4.99047711e-02
-9.96161194e-02
-6.72723204e-02
-6.81070099e-02
-1.18209798e-01
-9.08463404e-02
-5.09002004e-02
-4.49532159e-02
-9.12739448e-02
-1.03273448e-01
-1.03065868e-01
-8.82891094e-02
-8.01125355e-02
-7.94716720e-02
-8.24138718e-02
-8.46197531e-02
-7.60800205e-02
-7.64702177e-02
-7.00101871e-02
-6.79718461e-02
-6.32698322e-02
-6.03098455e-02
-5.74981123e-02
-5.46002644e-02
-5.65744359e-02
-5.46890097e-02
-8.58050217e-02
-1.03498222e-01
-6.75096197e-02
-5.38920304e-02
-4.22948383e-02
-4.00874944e-02
-4.34977220e-02
-1.07722233e-01
-1.02663040e-01
-7.94427916e-02
-2.18210926e-02
-6.52771220e-02
-1.16306939e-02
-1.45833716e-01
-1.43910185e-01
-1.04178254e-01
-9.94699099e-02
-9.24396567e-02
-1.26719983e-01
-1.11122150e-01
-1.23825118e-01
-1.13084398e-01
-6.04295500e-02
-5.55442064e-02
-3.21540125e-02
-9.82526783e-03
-2.45400290e-02
-2.09641570e-02
0.00000000e+00
0.00000000e+00
0.00000000e+00
0.00000000e+00
-5.26661446e-05
0.00000000e+00
0.00000000e+00
-9.15978841e-05
-8.52956027e-02
-8.35805945e-02
-8.52752533e-02
-8.83570910e-02
-7.94341937e-02
-7.81705771e-02
-7.28724673e-02
-6.92790337e-02
-6.60791583e-02
-6.29943395e-02
-6.23019729e-02
-5.83698871e-02
-6.36003911e-02
-5.86044118e-02
-1.05796415e-01
-1.06305253e-01
-6.54263729e-02
-5.74367922e-02
-3.01878364e-02
-1.44561291e-02
-1.07237892e-02
-1.25533722e-01
-1.46322876e-01
-8.23218028e-02
-1.42681899e-02
-4.07423083e-03
-6.73240153e-03
-1.93778645e-03
-8.85744172e-03
-5.11690299e-03
-3.06425886e-02
-1.50605529e-02
-8.36461335e-02
-1.90545931e-03
-1.86865596e-03
-1.29011047e-04
-1.47664464e-04
-5.77231578e-04
-1.02891657e-03
-1.71459481e-01
-1.82693869e-01
-1.54989382e-01
-1.65799037e-01
-4.43828879e-05
-2.85675372e-03
0.00000000e+00
-1.23948414e-01
-1.23166047e-01
-1.29858781e-01
-1.25346132e-01
-2.90299891e-02
-2.31042781e-02
-8.58233220e-03
-2.00401948e-04
0.00000000e+00
</DataArray>
</PointData>
<Cells>
<DataArray type="Int32" Name="connectivity" format="ascii">
0 1 2 3 4 5 6 7
1 8 9 2 5 10 11 6
12 13 14 15 16 17 18 19
20 21 22 23 24 25 26 27
21 28 29 22 25 30 31 26
28 32 33 29 30 34 35 31
32 36 37 33 34 38 39 35
36 40 41 37 38 42 43 39
40 44 45 41 42 46 47 43
23 22 48 49 27 26 50 51
22 29 52 48 26 31 53 50
29 33 54 52 31 35 55 53
33 37 56 54 35 39 57 55
37 41 58 56 39 43 59 57
41 45 60 58 43 47 61 59
49 48 62 63 51 50 64 65
48 52 66 62 50 53 67 64
52 54 68 66 53 55 69 67
63 62 70 71 65 64 72 73
71 70 4 74 73 72 75 76
70 77 5 4 72 78 79 75
74 4 7 80 76 75 81 82
4 5 6 7 75 79 83 81
5 10 11 6 79 84 85 83
24 25 26 27 86 87 88 89
25 30 31 26 87 90 91 88
30 34 35 31 90 92 93 91
34 38 39 35 92 94 95 93
38 42 43 39 94 96 97 95
42 46 47 43 96 98 99 97
27 26 50 51 89 88 100 101
26 31 53 50 88 91 102 100
31 35 55 53 91 93 103 102
35 39 57 55 93 95 104 103
39 43 59 57 95 97 105 104
43 47 61 59 97 99 106 105
51 50 64 65 101 100 107 108
50 53 67 64 100 102 109 107
53 55 69 67 102 103 110 109
55 57 111 69 103 104 112 110
65 64 72 73 108 107 113 114
64 67 78 72 107 109 115 113
73 72 75 76 114 113 116 117
76 75 81 82 117 116 118 119
75 79 83 81 116 120 121 118
79 84 85 83 120 122 123 121
84 124 125 85 122 126 127 123
128 129 130 131 132 133 134 135
86 87 88 89 136 137 138 139
87 90 91 88 137 140 141 138
90 92 93 91 140 142 143 141
92 94 95 93 142 144 145 143
94 96 97 95 144 146 147 145
96 98 99 97 146 148 149 147
89 88 100 101 139 138 150 151
88 91 102 100 138 141 152 150
91 93 103 102 141 143 153 152
93 95 104 103 143 145 154 153
95 97 105 104 145 147 155 154
97 99 106 105 147 149 156 155
101 100 107 108 151 150 157 158
100 102 109 107 150 152 159 157
102 103 110 109 152 153 160 159
103 104 112 110 153 154 161 160
104 105 162 112 154 155 163 161
105 106 164 162 155 156 165 163
109 110 166 115 159 160 167 168
110 112 169 166 160 161 170 167
112 162 171 169 161 163 172 170
162 164 173 171 163 165 174 172
114 113 116 117 175 176 177 178
169 171 132 126 170 172 179 180
171 173 133 132 172 174 181 179
117 116 118 119 178 177 182 183
116 120 121 118 177 184 185 182
120 122 123 121 184 186 187 185
122 126 127 123 186 180 188 187
126 132 135 127 180 179 189 188
132 133 134 135 179 181 190 189
</DataArray>
<DataArray type="Int32" Name="offsets" format="ascii">
8
16
24
32
40
48
56
64
72
80
88
96
104
112
120
128
136
144
152
160
168
176
184
192
200
208
216
224
232
240
248
256
264
272
280
288
296
304
312
320
328
336
344
352
360
368
376
384
392
400
408
416
424
432
440
448
456
464
472
480
488
496
504
512
520
528
536
544
552
560
568
576
584
592
600
608
616
624
632
</DataArray>
<DataArray type="UInt8" Name="types" format="ascii">
12
12
12
12
12
12
12
12
12
12
12
12
12
12
12
12
12
12
12
12
12
12
12
12
12
12
12
12
12
12
12
12
12
12
12
12
12
12
12
12
12
12
12
12
12
12
12
12
12
12
12
12
12
12
12
12
12
12
12
12
12
12
12
12
12
12
12
12
12
12
12
12
12
12
12
12
12
12
12
</DataArray>
</Cells>
</Piece>
</UnstructuredGrid>
</VTKFile>
