<VTKFile type="UnstructuredGrid" version="0.1" byte_order="LittleEndian">
<UnstructuredGrid>
<Piece NumberOfPoints="191" NumberOfCells="79">
<Points>
<DataArray type="Float64" NumberOfComponents="3" format="ascii">
 1.04666960e+00  5.25485039e+00  1.87460804e+00
 2.07761788e+00  5.24190187e+00  1.89737177e+00
 2.07939458e+00  6.30627441e+00  1.85187483e+00
 1.04126048e+00  6.29978085e+00  1.84300542e+00
 1.03790522e+00  5.29376554e+00  2.80779362e+00
 2.08297372e+00  5.28890753e+00  2.81904387e+00
 2.06980896e+00  6.37123823e+00  2.76318908e+00
 1.04146302e+00  6.33813667e+00  2.76982975e+00
 3.13130426e+00  5.22366810e+00  1.92088294e+00
 3.14250851e+00  6.29238367e+00  1.85534012e+00
 3.12547970e+00  5.27993870e+00  2.79594374e+00
 3.18139243e+00  6.34364176e+00  2.71153688e+00
 5.13903093e+00  5.20936918e+00  2.00003386e+00
 6.13903189e+00  5.21065140e+00  2.00003195e+00
 6.13774776e+00  6.21065998e+00  1.99998271e+00
 5.13772011e+00  6.20938396e+00  1.99996555e+00
 5.13901758e+00  5.20943117e+00  3.00002050e+00
 6.13901138e+00  5.21072197e+00  3.00004053e+00
 6.13772202e+00  6.21071291e+00  2.99997330e+00
 5.13773680e+00  6.20942068e+00  2.99997449e+00
 0.00000000e+00  0.00000000e+00  2.71846485e+00
 1.05360723e+00  0.00000000e+00  2.71648097e+00
 1.05689669e+00  1.05892682e+00  2.72235513e+00
 0.00000000e+00  1.05665541e+00  2.72762537e+00
 0.00000000e+00  0.00000000e+00  3.62259340e+00
 1.07198977e+00  0.00000000e+00  3.62347388e+00
 1.07400632e+00  1.05903804e+00  3.62505722e+00
 0.00000000e+00  1.05523491e+00  3.63387346e+00
 2.11905622e+00  0.00000000e+00  2.70202255e+00
 2.10643244e+00  1.05075729e+00  2.71112442e+00
 2.13941956e+00  0.00000000e+00  3.61299849e+00
 2.14249539e+00  1.06241286e+00  3.61265826e+00
 3.17712069e+00  0.00000000e+00  2.68613935e+00
 3.17832327e+00  1.04607677e+00  2.69009137e+00
 3.20803070e+00  0.00000000e+00  3.59583926e+00
 3.20083427e+00  1.05471504e+00  3.59773183e+00
 4.24702978e+00  0.00000000e+00  2.67249918e+00
 4.25006247e+00  1.04778600e+00  2.66749907e+00
 4.26857853e+00  0.00000000e+00  3.58344817e+00
 4.26519728e+00  1.04588103e+00  3.57664680e+00
 5.32092142e+00  0.00000000e+00  2.65580130e+00
 5.32124090e+00  1.05069244e+00  2.65808249e+00
 5.32750368e+00  0.00000000e+00  3.57436228e+00
 5.32645178e+00  1.04508984e+00  3.56232548e+00
 6.38936043e+00  0.00000000e+00  2.65060544e+00
 6.38872766e+00  1.05174720e+00  2.65209413e+00
 6.37526083e+00  0.00000000e+00  3.57082725e+00
 6.39053774e+00  1.04585934e+00  3.56252766e+00
 1.04044318e+00  2.11154151e+00  2.74384165e+00
 0.00000000e+00  2.12673712e+00  2.74731112e+00
 1.07378578e+00  2.11900592e+00  3.64863801e+00
 0.00000000e+00  2.11897850e+00  3.65023851e+00
 2.10656190e+00  2.11382556e+00  2.72203732e+00
 2.15251684e+00  2.12651062e+00  3.62108159e+00
 3.16754198e+00  2.12039232e+00  2.67855334e+00
 3.21129560e+00  2.11987662e+00  3.56405020e+00
 4.24486303e+00  2.13290310e+00  2.66724181e+00
 4.25422573e+00  2.10504866e+00  3.54526067e+00
 5.31487036e+00  2.12548113e+00  2.66981244e+00
 5.32059336e+00  2.11770439e+00  3.54604626e+00
 6.37496996e+00  2.13391638e+00  2.66422367e+00
 6.37802839e+00  2.12198758e+00  3.54501796e+00
 1.03644538e+00  3.19074583e+00  2.78896332e+00
 0.00000000e+00  3.18743396e+00  2.78505468e+00
 1.07032132e+00  3.18806815e+00  3.68523002e+00
 0.00000000e+00  3.18687296e+00  3.69471550e+00
 2.09582973e+00  3.16759682e+00  2.75746012e+00
 2.17085409e+00  3.19276667e+00  3.61082172e+00
 3.07479095e+00  3.14193559e+00  2.44178534e+00
 3.24055219e+00  3.17192221e+00  3.48741460e+00
 1.03702807e+00  4.23642683e+00  2.82245946e+00
 0.00000000e+00  4.24516106e+00  2.81451988e+00
 1.05704379e+00  4.25964689e+00  3.75067306e+00
 0.00000000e+00  4.26793623e+00  3.72765708e+00
 0.00000000e+00  5.28722286e+00  2.80332661e+00
 1.05061066e+00  5.34035110e+00  3.72837043e+00
 0.00000000e+00  5.31908083e+00  3.71400595e+00
 2.08618069e+00  4.23698330e+00  2.85812640e+00
 2.12697959e+00  4.27363777e+00  3.72607470e+00
 2.12169242e+00  5.31740856e+00  3.73394775e+00
 0.00000000e+00  6.34268665e+00  2.75821471e+00
 1.07118750e+00  6.39929819e+00  3.65506911e+00
 0.00000000e+00  6.41689253e+00  3.67472625e+00
 2.12122107e+00  6.42262220e+00  3.65852165e+00
 3.16009378e+00  5.29447174e+00  3.60280848e+00
 3.25280714e+00  6.33438921e+00  3.60560846e+00
 0.00000000e+00  0.00000000e+00  4.51795149e+00
 1.08914483e+00  0.00000000e+00  4.51517010e+00
 1.09303916e+00  1.06106150e+00  4.51834297e+00
 0.00000000e+00  1.05682349e+00  4.52157164e+00
 2.16311836e+00  0.00000000e+00  4.51029825e+00
 2.17402458e+00  1.07069111e+00  4.50889254e+00
 3.22625875e+00  0.00000000e+00  4.50145531e+00
 3.23297215e+00  1.07294381e+00  4.50085545e+00
 4.28438044e+00  0.00000000e+00  4.49263811e+00
 4.27717018e+00  1.06599581e+00  4.49224854e+00
 5.33126211e+00  0.00000000e+00  4.48836470e+00
 5.32417536e+00  1.05982327e+00  4.48386288e+00
 6.36925793e+00  0.00000000e+00  4.48537254e+00
 6.37095928e+00  1.06526506e+00  4.48682117e+00
 1.10601664e+00  2.12905478e+00  4.52548981e+00
 0.00000000e+00  2.11809993e+00  4.53318501e+00
 2.19374132e+00  2.14224005e+00  4.50817537e+00
 3.25103164e+00  2.14381957e+00  4.48059988e+00
 4.28447485e+00  2.12934923e+00  4.45752144e+00
 5.30885220e+00  2.11121368e+00  4.44461727e+00
 6.33936691e+00  2.11901402e+00  4.44468069e+00
 1.10780990e+00  3.17952728e+00  4.56436348e+00
 0.00000000e+00  3.19928598e+00  4.57994366e+00
 2.21649885e+00  3.18684721e+00  4.50125217e+00
 3.29032207e+00  3.17940235e+00  4.42449141e+00
 4.27422619e+00  3.07748032e+00  3.35327530e+00
 4.30820370e+00  3.16124177e+00  4.40106106e+00
 1.11381912e+00  4.25445461e+00  4.64392328e+00
 0.00000000e+00  4.24051380e+00  4.60085773e+00
 2.22826290e+00  4.23454571e+00  4.54353094e+00
 1.09389997e+00  5.37391663e+00  4.57284880e+00
 0.00000000e+00  5.38280678e+00  4.57342291e+00
 1.11414731e+00  6.48748541e+00  4.53792524e+00
 0.00000000e+00  6.48106766e+00  4.55243206e+00
 2.17355084e+00  5.34488821e+00  4.58044195e+00
 2.26185107e+00  6.42554331e+00  4.54884720e+00
 3.26646662e+00  5.25052929e+00  4.45478249e+00
 3.37582970e+00  6.28187418e+00  4.48637819e+00
 4.06340170e+00  5.22240448e+00  3.27492857e+00
 4.22689295e+00  6.21321058e+00  3.36769319e+00
 4.34380770e+00  5.16119957e+00  4.39978123e+00
 4.36307764e+00  6.16249037e+00  4.40011692e+00
 5.34411287e+00  5.14345884e+00  3.39993834e+00
 6.34393597e+00  5.12550354e+00  3.39991522e+00
 6.36189890e+00  6.12534666e+00  3.39995837e+00
 5.36202192e+00  6.14333773e+00  3.40003300e+00
 5.34408188e+00  5.14343786e+00  4.39993858e+00
 6.34399796e+00  5.12546349e+00  4.39993572e+00
 6.36190176e+00  6.12531805e+00  4.39995289e+00
 5.36215734e+00  6.14318037e+00  4.40002537e+00
 0.00000000e+00  0.00000000e+00  5.39996719e+00
 1.09450769e+00  0.00000000e+00  5.39996719e+00
 1.10187209e+00  1.06534970e+00  5.39996719e+00
 0.00000000e+00  1.05878639e+00  5.39996719e+00
 2.17529678e+00  0.00000000e+00  5.39996719e+00
 2.18258429e+00  1.07589900e+00  5.39996719e+00
 3.23410797e+00  0.00000000e+00  5.39996719e+00
 3.24603915e+00  1.08118200e+00  5.39996719e+00
 4.28722668e+00  0.00000000e+00  5.39996719e+00
 4.28773689e+00  1.08044255e+00  5.39996719e+00
 5.33056068e+00  0.00000000e+00  5.39996719e+00
 5.32594156e+00  1.07516539e+00  5.39996719e+00
 6.37589455e+00  0.00000000e+00  5.39996719e+00
 6.35096836e+00  1.08498418e+00  5.39996719e+00
 1.12273383e+00  2.11849213e+00  5.39996719e+00
 0.00000000e+00  2.11271644e+00  5.39996719e+00
 2.21721077e+00  2.14341283e+00  5.39996719e+00
 3.26624060e+00  2.15591264e+00  5.39996719e+00
 4.29626656e+00  2.14504004e+00  5.39996719e+00
 5.30576992e+00  2.12917471e+00  5.39996719e+00
 6.32645607e+00  2.13013744e+00  5.39996719e+00
 1.13089609e+00  3.22187018e+00  5.39996719e+00
 0.00000000e+00  3.22803950e+00  5.39996719e+00
 2.25145340e+00  3.19562912e+00  5.39996719e+00
 3.30649972e+00  3.19029975e+00  5.39996719e+00
 4.30886412e+00  3.16196060e+00  5.39996719e+00
 5.30855227e+00  3.14282894e+00  4.39925289e+00
 5.30911112e+00  3.14351511e+00  5.39996719e+00
 6.31063747e+00  3.12771177e+00  4.39856243e+00
 6.31089020e+00  3.12949109e+00  5.39996719e+00
 3.32628345e+00  4.18068218e+00  4.38242817e+00
 3.33646655e+00  4.19348383e+00  5.39996719e+00
 2.32298589e+00  4.22476006e+00  5.39996719e+00
 4.32645941e+00  4.16095686e+00  4.40022612e+00
 4.32660818e+00  4.16116381e+00  5.39996719e+00
 5.32622671e+00  4.14365530e+00  4.39992142e+00
 5.32631207e+00  4.14355755e+00  5.39996719e+00
 6.32593584e+00  4.12587690e+00  4.40001822e+00
 6.32584667e+00  4.12573385e+00  5.39996719e+00
 0.00000000e+00  4.20936441e+00  5.39996719e+00
 1.14319766e+00  4.24070311e+00  5.39996719e+00
 1.12825704e+00  5.40282249e+00  5.39996719e+00
 0.00000000e+00  5.42761326e+00  5.39996719e+00
 5.34402609e+00  5.14343643e+00  5.39996719e+00
 4.34420109e+00  5.16128111e+00  5.39996719e+00
 6.34403563e+00  5.12548923e+00  5.39996719e+00
 1.13844013e+00  6.50986385e+00  5.39996719e+00
 0.00000000e+00  6.49839640e+00  5.39996719e+00
 2.21772242e+00  5.35149574e+00  5.39996719e+00
 2.31275558e+00  6.42059612e+00  5.39996719e+00
 3.28515673e+00  5.22832537e+00  5.39996719e+00
 3.39839101e+00  6.26558113e+00  5.39996719e+00
 4.36344433e+00  6.16172028e+00  5.39996719e+00
 5.36217070e+00  6.14311886e+00  5.39996719e+00
 6.36189842e+00  6.12531567e+00  5.39996719e+00
</DataArray>
</Points>
<PointData Tensors="Stress_Components,Plastic_strain_components" Vevtors="Spatial_displacement,Reaction_force" Scalars="Equivalent_plastic_strain,Stress_Mises,Stress_Max_Principal,Stress_Mid_Principal,Stress_Min_Principal,Stress_Pressure,Stress_Tresca,Stress_Third_Invariant,Plastic_strain_Max_Principal,Plastic_strain_Min_Principal">
<DataArray type="Float32" Name="Stress_Components" NumberOfComponents="9" format="ascii">
1.77831765e+01 7.98178762e-02 1.73426416e-01 7.98178762e-02 1.48952231e+01 2.92975390e-02 1.73426416e-01 2.92975390e-02 5.51989126e+00
6.01953536e+00 -2.82860669e+00 8.99202337e-01 -2.82860669e+00 5.14568609e+00 2.50186623e+00 8.99202337e-01 2.50186623e+00 -1.54406684e+01
-1.31977911e+01 -4.43890207e-01 1.44376180e+00 -4.43890207e-01 -6.53168917e+00 -2.90848164e+00 1.44376180e+00 -2.90848164e+00 -5.06852512e+01
-3.15518290e+00 -9.21031117e-01 4.41120043e-02 -9.21031117e-01 -3.86180794e+00 -8.41887631e-02 4.41120043e-02 -8.41887631e-02 -3.76660924e+01
1.63638740e+01 5.77364974e-02 8.52922534e-01 5.77364974e-02 1.69608419e+01 -3.25416442e-01 8.52922534e-01 -3.25416442e-01 5.98767257e+00
2.36106420e+01 -2.47851031e+00 3.26876912e+00 -2.47851031e+00 2.61769524e+01 7.75360550e-02 3.26876912e+00 7.75360550e-02 1.92765410e+01
-1.24429712e+01 -1.99291781e-01 7.25101709e-01 -1.99291781e-01 1.03424263e+00 -7.14215867e-02 7.25101709e-01 -7.14215867e-02 -4.03739763e+01
1.23448874e+01 -2.96090864e-01 3.67346805e-01 -2.96090864e-01 1.09597633e+01 4.29673815e-01 3.67346805e-01 4.29673815e-01 -5.21948338e+00
-2.24210238e+01 -2.05566174e+00 -1.10873818e-01 -2.05566174e+00 -2.03714688e+01 6.37016189e+00 -1.10873818e-01 6.37016189e+00 -7.86941310e+01
-9.13876648e+01 -4.37509680e+00 -6.72697639e+00 -4.37509680e+00 -8.58736076e+01 4.89819229e+00 -6.72697639e+00 4.89819229e+00 -2.21666428e+02
-7.55238390e+01 9.14312792e+00 -2.82136852e+01 9.14312792e+00 -8.01256803e+01 -1.71637456e+00 -2.82136852e+01 -1.71637456e+00 -1.76559088e+02
-5.36367040e+01 -8.40892792e-02 -5.00807071e+00 -8.40892792e-02 -7.84453096e+01 -1.08809602e+00 -5.00807071e+00 -1.08809602e+00 -1.70885149e+02
-2.26911649e-01 -5.98167628e-01 -2.75056854e-01 -5.98167628e-01 3.36980794e-01 2.70930432e-01 -2.75056854e-01 2.70930432e-01 -4.98456478e-01
-4.34883248e-01 -3.97415273e-02 -9.12078619e-02 -3.97415273e-02 -1.20962419e-01 -2.24268368e-01 -9.12078619e-02 -2.24268368e-01 1.67604424e-01
6.89149916e-01 -1.64668702e-01 -1.29523534e-01 -1.64668702e-01 -1.13899115e-01 5.72666466e-01 -1.29523534e-01 5.72666466e-01 -9.63561684e-01
3.67167056e-01 -7.23307729e-01 4.33373451e-02 -7.23307729e-01 -1.85877167e-01 -5.16129941e-01 4.33373451e-02 -5.16129941e-01 -5.69715694e-01
2.34848633e-01 2.02780277e-01 3.80642891e-01 2.02780277e-01 5.79338558e-02 1.60138205e-01 3.80642891e-01 1.60138205e-01 -2.57740654e-02
-5.55894785e-02 2.56279930e-02 1.15510039e-01 2.56279930e-02 -1.53206378e-01 8.30365624e-03 1.15510039e-01 8.30365624e-03 4.75924611e-01
-5.56033365e-02 6.52311966e-02 -2.43386552e-01 6.52311966e-02 2.01094747e-01 -5.40409863e-01 -2.43386552e-01 -5.40409863e-01 1.21583894e-01
-3.10170501e-01 2.42401421e-01 -1.43745393e-01 2.42401421e-01 -1.32836640e-01 3.46861482e-01 -1.43745393e-01 3.46861482e-01 7.09883988e-01
1.48492765e+00 4.04681545e-02 1.40177980e-01 4.04681545e-02 2.26056147e+00 -1.61022879e-04 1.40177980e-01 -1.61022879e-04 -2.59707003e+01
2.23795997e+00 4.68315311e-01 1.53448363e-02 4.68315311e-01 2.21715286e+00 2.68276237e-01 1.53448363e-02 2.68276237e-01 -2.51471974e+01
6.70768547e+00 -1.80068999e-01 1.09482687e-02 -1.80068999e-01 7.29622556e+00 4.50340861e-01 1.09482687e-02 4.50340861e-01 -1.48174915e+01
2.03128368e+00 1.83476081e-01 1.20508783e-01 1.83476081e-01 3.43195093e+00 -1.92809705e-01 1.20508783e-01 -1.92809705e-01 -2.40687460e+01
6.85071945e+00 -3.01879514e-02 5.39273679e-01 -3.01879514e-02 5.89424133e+00 2.08964631e-01 5.39273679e-01 2.08964631e-01 -1.62077932e+01
3.26866806e-01 2.28882212e-01 -2.32710654e-01 2.28882212e-01 -4.15341854e-02 1.09670198e+00 -2.32710654e-01 1.09670198e+00 -2.96049268e+01
4.61057353e+00 3.57379321e-01 2.18191167e-01 3.57379321e-01 4.13387030e+00 3.95201139e-01 2.18191167e-01 3.95201139e-01 -2.05337135e+01
1.32169335e+00 3.38095384e-01 5.66038642e-01 3.38095384e-01 -5.14961481e-02 -6.18819665e-01 5.66038642e-01 -6.18819665e-01 -2.85683661e+01
7.27760029e+00 -7.92413183e-01 1.62691824e-01 -7.92413183e-01 6.58175278e+00 -6.95697069e-02 1.62691824e-01 -6.95697069e-02 -1.49896445e+01
6.02283084e+00 -4.81508993e-01 8.28362186e-01 -4.81508993e-01 6.02774306e+00 8.89390499e-01 8.28362186e-01 8.89390499e-01 -1.67479757e+01
9.40744877e-02 9.75209307e-02 -1.15040117e-02 9.75209307e-02 2.37440288e-01 3.17661099e-01 -1.15040117e-02 3.17661099e-01 -2.96961552e+01
-1.41826385e+00 5.99541557e-02 1.03817834e+00 5.99541557e-02 1.16509944e-01 1.80439760e+00 1.03817834e+00 1.80439760e+00 -3.11272694e+01
6.46006349e+00 1.25837350e-01 2.89115950e-01 1.25837350e-01 5.53968149e+00 6.43951416e-01 2.89115950e-01 6.43951416e-01 -1.69293113e+01
1.14281068e+01 -3.83410160e-02 5.32507738e-02 -3.83410160e-02 1.00380587e+01 -6.74682199e-02 5.32507738e-02 -6.74682199e-02 -6.78594793e+00
3.44487819e+00 -7.64700055e-01 3.25289398e-01 -7.64700055e-01 2.48110084e+00 8.55891602e-01 3.25289398e-01 8.55891602e-01 -2.35074861e+01
3.61790258e+00 -6.26087481e-01 5.41851798e-01 -6.26087481e-01 3.65617281e+00 7.53767109e-01 5.41851798e-01 7.53767109e-01 -2.19963936e+01
9.04875723e+00 8.29994539e-02 -1.90054077e-01 8.29994539e-02 7.16615143e+00 5.01711491e-01 -1.90054077e-01 5.01711491e-01 -1.23398595e+01
6.07249463e+00 -6.65774755e-03 -4.67814821e-01 -6.65774755e-03 4.00832689e+00 1.37165123e-01 -4.67814821e-01 1.37165123e-01 -1.90055295e+01
7.33592772e+00 -2.99352877e-01 -1.19306535e-01 -2.99352877e-01 5.71581483e+00 5.86679138e-01 -1.19306535e-01 5.86679138e-01 -1.58388549e+01
1.53277973e+01 -3.69381455e-01 3.36150326e-01 -3.69381455e-01 1.41811228e+01 -2.12578968e-01 3.36150326e-01 -2.12578968e-01 1.86585069e+00
1.23318330e+01 -1.97926387e-01 -4.86486177e-02 -1.97926387e-01 1.08130749e+01 4.83523589e-02 -4.86486177e-02 4.83523589e-02 -4.88688800e+00
1.02001240e+01 6.54866460e-02 -3.08062784e-01 6.54866460e-02 7.64396155e+00 1.08228506e-01 -3.08062784e-01 1.08228506e-01 -1.06022637e+01
1.71063522e+01 -1.58924389e-01 -1.35731963e-01 -1.58924389e-01 1.72654375e+01 -2.80352052e-01 -1.35731963e-01 -2.80352052e-01 7.15262985e+00
8.51000714e+00 -2.28354041e-01 -1.13419019e-01 -2.28354041e-01 7.22069082e+00 -2.89512290e-01 -1.13419019e-01 -2.89512290e-01 -1.29509167e+01
1.25017903e+01 -8.79356721e-02 -1.38986081e-01 -8.79356721e-02 1.18507762e+01 -2.46482402e-01 -1.38986081e-01 -2.46482402e-01 -3.53634834e+00
1.77587082e+01 3.64159187e-01 -4.27045548e-01 3.64159187e-01 1.57810616e+01 8.27137399e-02 -4.27045548e-01 8.27137399e-02 6.24376917e+00
1.86695896e+01 4.44244429e-01 2.91374866e-02 4.44244429e-01 1.95147827e+01 -6.75230235e-01 2.91374866e-02 -6.75230235e-01 1.13689117e+01
1.18253313e+01 5.44552222e-01 3.96770667e-01 5.44552222e-01 1.06887928e+01 -9.11898567e-01 3.96770667e-01 -9.11898567e-01 -5.47397780e+00
2.40089369e+00 -7.40707600e-01 1.32196030e+00 -7.40707600e-01 4.65318865e+00 1.10758245e-02 1.32196030e+00 1.10758245e-02 -2.18774719e+01
3.81184888e+00 -1.05782198e+00 8.43167312e-01 -1.05782198e+00 7.05724138e+00 -2.50106726e-01 8.43167312e-01 -2.50106726e-01 -1.79228537e+01
-5.05983984e+00 4.60760892e-01 2.20874881e+00 4.60760892e-01 -6.19618481e+00 2.08132370e+00 2.20874881e+00 2.08132370e+00 -4.16721289e+01
7.23196268e-01 -1.08367418e-01 3.28846700e-01 -1.08367418e-01 1.05343294e+00 -4.62213065e-02 3.28846700e-01 -4.62213065e-02 -2.81377904e+01
1.78507351e+01 3.03389012e+00 4.35682692e+00 3.03389012e+00 1.63382925e+01 3.62718207e+00 4.35682692e+00 3.62718207e+00 -9.35459137e-02
-7.04466087e+00 8.86778528e-01 -1.84294097e-01 8.86778528e-01 -6.76153019e+00 3.24980829e-01 -1.84294097e-01 3.24980829e-01 -4.34642425e+01
-8.37446190e+01 -7.31970082e+00 -1.84291464e+01 -7.31970082e+00 -8.47590782e+01 -2.14571848e+00 -1.84291464e+01 -2.14571848e+00 -1.90951689e+02
1.36735670e+01 1.44992990e+00 6.80766804e-01 1.44992990e+00 1.79324262e+01 1.26241781e+00 6.80766804e-01 1.26241781e+00 -7.32962881e-01
-5.34368401e+01 -1.38755225e+00 -3.99694809e+00 -1.38755225e+00 -4.86640482e+01 1.06113715e+00 -3.99694809e+00 1.06113715e+00 -1.39974981e+02
-3.81633900e+01 -2.03464154e+00 -1.79503999e+01 -2.03464154e+00 -4.87683292e+01 -1.43350393e+00 -1.79503999e+01 -1.43350393e+00 -1.01016363e+02
-3.56702657e+01 -1.76207462e+00 -1.60974443e-01 -1.76207462e+00 -3.10448842e+01 1.59843104e+00 -1.60974443e-01 1.59843104e+00 -1.01911152e+02
-4.81642380e+01 -4.66605156e-01 -4.24943632e+00 -4.66605156e-01 -4.24237089e+01 -1.74409227e+00 -4.24943632e+00 -1.74409227e+00 -1.27461121e+02
-3.08388176e+01 -2.88485599e+00 -7.69082129e-01 -2.88485599e+00 -2.15601168e+01 3.59235674e-01 -7.69082129e-01 3.59235674e-01 -8.57671204e+01
-4.83922195e+01 -4.61419046e+00 -4.86804700e+00 -4.61419046e+00 -3.66088753e+01 -3.76982747e+00 -4.86804700e+00 -3.76982747e+00 -1.19445663e+02
3.63766507e+00 1.36407807e-01 2.63993201e+00 1.36407807e-01 6.15920336e+00 5.74318883e-01 2.63993201e+00 5.74318883e-01 -1.87125134e+01
1.29365118e+01 5.07928547e-02 1.09044762e+00 5.07928547e-02 1.38983612e+01 -2.26851866e-01 1.09044762e+00 -2.26851866e-01 -8.31918955e-01
-1.06040467e+01 -4.06169543e-01 3.74175137e+00 -4.06169543e-01 -1.09196980e+01 1.69687793e+00 3.74175137e+00 1.69687793e+00 -5.22740263e+01
3.79606986e+00 4.24100664e-02 1.53888360e+00 4.24100664e-02 5.31156692e+00 1.04988812e-01 1.53888360e+00 1.04988812e-01 -2.01024756e+01
-1.13561358e+02 -1.24759587e+01 8.95011717e+00 -1.24759587e+01 -1.03752931e+02 -1.58913062e+01 8.95011717e+00 -1.58913062e+01 -2.37076706e+02
-2.09967064e+01 2.58521247e+00 2.61735674e+00 2.58521247e+00 -2.85454767e+01 -2.86023102e+00 2.61735674e+00 -2.86023102e+00 -8.45083586e+01
1.33151474e+02 1.51384258e+01 2.39228458e+01 1.51384258e+01 1.28822220e+02 2.34625950e+01 2.39228458e+01 2.34625950e+01 2.02941452e+02
8.37457371e+00 -5.59003986e+00 -8.16140040e+00 -5.59003986e+00 6.16528161e+00 -5.20490567e+00 -8.16140040e+00 -5.20490567e+00 -1.25928243e-01
2.48379989e+01 -6.28842158e-02 -2.45680664e+00 -6.28842158e-02 2.48728717e+01 2.06647720e-01 -2.45680664e+00 2.06647720e-01 2.29798202e+01
1.40934813e+01 -3.81349601e-01 1.19216088e+00 -3.81349601e-01 1.42908404e+01 6.62067171e-01 1.19216088e+00 6.62067171e-01 1.05884719e+00
2.15909475e+01 -5.90098205e-01 -2.79181207e-01 -5.90098205e-01 2.34789982e+01 1.02423105e+00 -2.79181207e-01 1.02423105e+00 1.95232309e+01
6.68585825e+00 -9.36974329e-01 2.47234527e+00 -9.36974329e-01 7.29493666e+00 1.81276746e+00 2.47234527e+00 1.81276746e+00 -1.41720743e+01
1.47820000e+01 -6.41416758e-02 7.22328844e-02 -6.41416758e-02 1.46626671e+01 2.54315764e-01 7.22328844e-02 2.54315764e-01 1.88867486e+00
2.18237869e+01 3.31272391e-01 1.08151732e+00 3.31272391e-01 2.25893735e+01 5.97038524e-02 1.08151732e+00 5.97038524e-02 1.81837466e+01
1.62498164e+00 1.94824935e+00 1.33673407e-01 1.94824935e+00 4.27115011e+00 1.18112195e+00 1.33673407e-01 1.18112195e+00 -2.33690562e+01
-6.16426215e+01 2.09888518e+00 6.04910848e+00 2.09888518e+00 -5.77295063e+01 1.99219856e+01 6.04910848e+00 1.99219856e+01 -1.37376518e+02
-1.07048470e+02 -3.84255809e+00 1.27580686e+01 -3.84255809e+00 -1.04139900e+02 1.22618728e+01 1.27580686e+01 1.22618728e+01 -2.54847954e+02
-5.95650973e+00 -3.04549407e+00 -3.07043257e+00 -3.04549407e+00 1.60602045e-01 5.14311657e+00 -3.07043257e+00 5.14311657e+00 -3.46691620e+01
4.44871998e+00 -4.32545215e-01 -3.06301832e-01 -4.32545215e-01 6.45722961e+00 7.61600181e-01 -3.06301832e-01 7.61600181e-01 -1.82102661e+01
8.04775715e-01 1.26276169e+00 -1.37795344e+00 1.26276169e+00 -1.04366493e+00 8.45594473e-01 -1.37795344e+00 8.45594473e-01 -3.02125883e+01
2.67192268e+00 -1.82584891e+00 2.24812746e+00 -1.82584891e+00 6.42978573e+00 -1.37351006e+00 2.24812746e+00 -1.37351006e+00 -1.98944969e+01
-2.31129198e+01 -3.59198349e+00 -4.41996640e+00 -3.59198349e+00 -1.80125704e+01 3.84684873e+00 -4.41996640e+00 3.84684873e+00 -7.02143021e+01
-8.99172262e+01 1.23509751e+01 7.31461207e-01 1.23509751e+01 -5.26132800e+01 -3.92318037e+01 7.31461207e-01 -3.92318037e+01 -1.26354312e+02
-1.60910419e+00 -4.16465902e+00 -6.94216371e-01 -4.16465902e+00 -7.33237807e+00 -3.27025787e+00 -6.94216371e-01 -3.27025787e+00 -3.57043266e+01
5.30239007e+00 -3.89544582e-02 1.94648787e-01 -3.89544582e-02 2.94574398e+00 -2.02843919e-04 1.94648787e-01 -2.02843919e-04 -2.09717960e+01
1.35573030e-01 1.24336150e-01 -8.30363622e-02 1.24336150e-01 -1.07270515e+00 7.27920622e-01 -8.30363622e-02 7.27920622e-01 -3.09390689e+01
8.74938291e-01 6.74294266e-01 2.23650297e-01 6.74294266e-01 -7.88711458e-01 3.71370766e-01 2.23650297e-01 3.71370766e-01 -2.98235748e+01
-5.45101494e-01 2.97501929e-01 3.82377867e-01 2.97501929e-01 -3.65477729e+00 -2.94997927e-01 3.82377867e-01 -2.94997927e-01 -3.43843462e+01
-5.73726791e+00 8.13031480e-01 -1.73196286e-01 8.13031480e-01 -3.99953836e+00 7.71205179e-01 -1.73196286e-01 7.71205179e-01 -4.04370441e+01
-6.57130727e+00 1.23919186e+00 4.79290514e-01 1.23919186e+00 -4.87500733e+00 1.52191052e+00 4.79290514e-01 1.52191052e+00 -4.20698758e+01
-6.80502540e+00 2.91223720e-01 5.81510939e-01 2.91223720e-01 -5.10372901e+00 3.93384621e-01 5.81510939e-01 3.93384621e-01 -4.28963714e+01
-1.39290600e+01 5.30913447e-01 7.98967145e-01 5.30913447e-01 -7.65645401e+00 1.81688521e+00 7.98967145e-01 1.81688521e+00 -5.26089598e+01
-4.47674620e+00 -1.28781977e+00 3.69970050e-01 -1.28781977e+00 -2.51982355e+00 5.85212745e-01 3.69970050e-01 5.85212745e-01 -3.74475481e+01
-2.11155160e+00 -7.02978440e-01 -9.91142038e-02 -7.02978440e-01 1.53330490e+00 -9.37853925e-02 -9.91142038e-02 -9.37853925e-02 -3.03778179e+01
5.25483830e+00 -5.24421513e-01 7.55554298e-03 -5.24421513e-01 7.50016220e+00 -5.93327872e-01 7.55554298e-03 -5.93327872e-01 -1.60748837e+01
9.80182809e+00 -1.02509361e+00 -1.63676773e-01 -1.02509361e+00 1.06846069e+01 -3.87934316e-03 -1.63676773e-01 -3.87934316e-03 -7.80896270e+00
6.63959026e-01 3.98740262e-01 8.64468992e-01 3.98740262e-01 5.26560044e+00 -1.33930776e+00 8.64468992e-01 -1.33930776e+00 -2.30694685e+01
-3.88282593e+00 -1.12472434e+00 1.98457360e-01 -1.12472434e+00 -1.12268746e-01 -2.08332467e+00 1.98457360e-01 -2.08332467e+00 -3.36089783e+01
-6.56791753e+00 1.33233851e+00 8.39452978e-01 1.33233851e+00 -1.02181821e+01 1.76120809e+00 8.39452978e-01 1.76120809e+00 -4.77505603e+01
-2.57867050e+00 7.64226869e-01 1.65402854e-01 7.64226869e-01 -6.16748953e+00 -9.08943159e-02 1.65402854e-01 -9.08943159e-02 -3.92827072e+01
-9.02020276e+00 2.86863369e+00 3.22434872e-01 2.86863369e+00 -9.18261826e+00 1.04243028e+00 3.22434872e-01 1.04243028e+00 -4.92310832e+01
6.31755567e+00 1.73428614e+00 -5.63483104e+00 1.73428614e+00 8.33788061e+00 -6.30089588e-01 -5.63483104e+00 -6.30089588e-01 -1.10030995e+01
1.29091930e+01 -2.54003949e-01 -2.43866970e+00 -2.54003949e-01 1.87101532e+01 -7.97948007e-02 -2.43866970e+00 -7.97948007e-02 2.93163126e+00
-1.17441721e+01 -2.89228686e+00 -7.61741844e+00 -2.89228686e+00 -4.61494001e+00 -1.90620359e+00 -7.61741844e+00 -1.90620359e+00 -4.39970086e+01
-6.99038760e+00 -6.19396822e+00 -9.38177244e+00 -6.19396822e+00 -1.02722311e+01 -2.28743800e+00 -9.38177244e+00 -2.28743800e+00 -4.29465307e+01
-2.49582213e+01 2.65588651e-01 4.43421827e+00 2.65588651e-01 -3.37837553e+01 4.94122008e-02 4.43421827e+00 4.94122008e-02 -9.21226055e+01
-2.86892471e+01 -1.39488967e+00 3.81071623e+00 -1.39488967e+00 -3.28039722e+01 -1.58615227e-01 3.81071623e+00 -1.58615227e-01 -9.60981175e+01
1.40227311e+01 2.38698745e+00 -6.66931530e-01 2.38698745e+00 9.79970757e+00 -4.37749386e+00 -6.66931530e-01 -4.37749386e+00 -2.83941869e+00
3.74448325e+01 1.58567236e+00 -2.12240378e+00 1.58567236e+00 3.25326417e+01 2.42195924e-02 -2.12240378e+00 2.42195924e-02 4.37147992e+01
8.16757507e+01 4.26856709e+00 2.65899715e+01 4.26856709e+00 9.97334671e+01 7.06230068e+00 2.65899715e+01 7.06230068e+00 1.28689819e+02
2.16505440e+01 -2.57440678e+00 -5.20800495e-01 -2.57440678e+00 1.52778319e+01 -3.09186881e+00 -5.20800495e-01 -3.09186881e+00 1.77434201e+01
-2.60983422e+01 -4.13278282e-01 5.65375686e-02 -4.13278282e-01 -2.33449718e+01 5.86915371e+00 5.65375686e-02 5.86915371e+00 -8.10541706e+01
2.85757192e+00 9.21466251e-02 -1.73260562e+00 9.21466251e-02 1.04653168e+00 2.90073294e+00 -1.73260562e+00 2.90073294e+00 -2.56401316e+01
-1.09061405e+02 -1.23225737e+01 1.19739571e+01 -1.23225737e+01 -1.60594891e+02 -1.33797252e+01 1.19739571e+01 -1.33797252e+01 -3.08040100e+02
-3.46279000e+01 3.20181722e-01 -1.87300476e+00 3.20181722e-01 -2.97129658e+01 4.88972704e+00 -1.87300476e+00 4.88972704e+00 -9.86129195e+01
-1.34996266e+01 -6.13426838e-01 4.01195602e+00 -6.13426838e-01 -1.05002532e+01 -2.81886545e-01 4.01195602e+00 -2.81886545e-01 -5.57215052e+01
2.17597886e+01 -2.57072657e-01 2.21625310e+00 -2.57072657e-01 2.03002259e+01 1.02891989e-01 2.21625310e+00 1.02891989e-01 1.53672407e+01
1.07323191e+01 4.95680332e-01 3.96261543e-01 4.95680332e-01 9.64776087e+00 -7.10358464e-01 3.96261543e-01 -7.10358464e-01 -7.83843899e+00
-3.30125782e+01 7.78335929e-01 -5.26246175e-01 7.78335929e-01 -4.15956104e+01 -3.70966542e+00 -5.26246175e-01 -3.70966542e+00 -1.08652073e+02
-1.16241074e+01 -1.43620649e+00 -3.28815410e+00 -1.43620649e+00 -2.14303629e+01 6.75887409e+00 -3.28815410e+00 6.75887409e+00 -6.10913565e+01
8.69470954e+00 -1.49805885e+00 -6.33647032e-01 -1.49805885e+00 -1.00235898e+01 6.24611276e+00 -6.33647032e-01 6.24611276e+00 -4.20828522e+01
1.29729934e+01 -1.86877367e+00 2.16111882e+00 -1.86877367e+00 2.13697774e+01 -3.99223594e+00 2.16111882e+00 -3.99223594e+00 9.04694921e+00
9.31156235e+01 -4.38838863e+00 6.71045959e-01 -4.38838863e+00 6.54889603e+01 2.21779461e+01 6.71045959e-01 2.21779461e+01 8.97886887e+01
4.16089249e+01 2.88892722e+00 -4.04037833e-01 2.88892722e+00 3.75498466e+01 5.77503967e+00 -4.04037833e-01 5.77503967e+00 5.51463890e+01
8.94631314e+00 -2.40816943e+00 -2.24547929e+00 -2.40816943e+00 1.01159175e+01 1.16883129e+00 -2.24547929e+00 1.16883129e+00 1.11722940e+01
4.80136389e+00 -4.67443452e+00 -1.84876781e+00 -4.67443452e+00 1.46022547e+01 -3.51460072e+00 -1.84876781e+00 -3.51460072e+00 7.64705992e+00
-1.17334950e+00 -9.47289705e-01 1.53748107e+00 -9.47289705e-01 1.18086302e+00 -1.09884346e+00 1.53748107e+00 -1.09884346e+00 -4.84391391e-01
-9.39638674e-01 1.70994356e-01 9.69077498e-02 1.70994356e-01 -1.10088624e-01 8.12579751e-01 9.69077498e-02 8.12579751e-01 5.72594583e-01
9.35313225e-01 -5.91107965e-01 3.60301822e-01 -5.91107965e-01 -4.72372204e-01 -1.46808219e+00 3.60301822e-01 -1.46808219e+00 -9.40213501e-01
4.22172844e-01 -1.71002865e+00 -1.28202116e+00 -1.71002865e+00 5.39302886e-01 1.32224464e+00 -1.28202116e+00 1.32224464e+00 -1.43872905e+00
7.10189321e+00 2.54315503e+00 1.59926538e+00 2.54315503e+00 -3.01477251e+00 9.85269356e-01 1.59926538e+00 9.85269356e-01 -7.15836017e-01
1.14219810e+00 -4.34345047e-01 -2.53529459e-01 -4.34345047e-01 -5.10470188e+00 8.87959639e-01 -2.53529459e-01 8.87959639e-01 -8.86551775e-01
-3.64591622e+00 9.11532253e-01 6.87268823e-02 9.11532253e-01 9.26440790e-01 -1.52718121e+00 6.87268823e-02 -1.52718121e+00 5.02934486e-01
-5.19118655e+00 -2.32571920e+00 -3.71843566e-01 -2.32571920e+00 2.45595181e+00 -5.83787163e-01 -3.71843566e-01 -5.83787163e-01 3.40530285e+00
2.17456985e+00 -3.57422084e-02 4.37362352e-03 -3.57422084e-02 -8.30735862e-01 3.62308882e-03 4.37362352e-03 3.62308882e-03 -2.83897743e+01
-6.96996450e-01 2.43450612e-01 -1.41097642e-02 2.43450612e-01 -2.28351581e+00 2.70516373e-01 -1.41097642e-02 2.70516373e-01 -3.31794691e+01
1.63399506e+00 8.76232669e-01 2.06851687e-01 8.76232669e-01 -3.22445393e-01 3.32352221e-01 2.06851687e-01 3.32352221e-01 -2.84657687e+01
8.14090252e-01 3.72358866e-01 1.27499208e-01 3.72358866e-01 -2.68177605e+00 -7.13610556e-03 1.27499208e-01 -7.13610556e-03 -3.18261986e+01
-8.83995378e+00 5.92677087e-01 -8.38383753e-03 5.92677087e-01 -6.57097328e+00 1.03635111e+00 -8.38383753e-03 1.03635111e+00 -4.65241375e+01
-6.56314795e+00 1.94657385e+00 2.50981878e-01 1.94657385e+00 -5.40493669e+00 6.39350580e-01 2.50981878e-01 6.39350580e-01 -4.27029412e+01
-1.16859564e+01 1.28277314e+00 2.90933729e-02 1.28277314e+00 -7.64245129e+00 5.45932174e-01 2.90933729e-02 5.45932174e-01 -5.06835098e+01
-2.35237845e+01 1.68539867e+00 1.19194143e+00 1.68539867e+00 -1.42681127e+01 1.97316125e+00 1.19194143e+00 1.97316125e+00 -6.96946239e+01
-1.23356521e+01 -7.96724617e-01 6.36625495e-02 -7.96724617e-01 -6.17000937e+00 3.52137506e-01 6.36625495e-02 3.52137506e-01 -4.95416517e+01
-1.99532756e+01 -8.69273528e-01 2.08164622e+00 -8.69273528e-01 -1.04841584e+01 1.31315537e+00 2.08164622e+00 1.31315537e+00 -6.18302889e+01
-9.66814637e+00 -2.69511856e-01 1.25236858e-01 -2.69511856e-01 -3.16762179e+00 -5.48756540e-01 1.25236858e-01 -5.48756540e-01 -4.33487091e+01
-4.65532780e+00 -2.10629484e+00 1.67584626e+00 -2.10629484e+00 2.69567585e+00 5.56725832e-02 1.67584626e+00 5.56725832e-02 -3.08256108e+01
-2.50575867e+01 -3.51803732e+00 2.29704827e-01 -3.51803732e+00 -1.39061222e+01 1.52152151e-01 2.29704827e-01 1.52152151e-01 -7.07043304e+01
-2.20707712e+01 -1.74854445e+00 2.35129249e+00 -1.74854445e+00 -7.34454250e+00 -3.89198339e+00 2.35129249e+00 -3.89198339e+00 -5.88670235e+01
1.25177574e+00 2.86074422e+00 -1.16729456e+00 2.86074422e+00 -3.27478600e+00 1.20711932e+00 -1.16729456e+00 1.20711932e+00 -3.15044975e+01
4.17497635e-01 4.32715613e-01 -6.11480802e-01 4.32715613e-01 -6.78079414e+00 1.17656883e-01 -6.11480802e-01 1.17656883e-01 -3.62177963e+01
-9.78396797e+00 5.14445484e+00 5.26076131e-01 5.14445484e+00 -9.90879798e+00 2.26373472e+00 5.26076131e-01 2.26373472e+00 -4.95751638e+01
8.68752813e+00 1.08068071e+00 1.99807535e+00 1.08068071e+00 1.21526990e+01 9.14862513e-01 1.99807535e+00 9.14862513e-01 -7.76684284e+00
2.89666905e+01 -1.13644444e+00 2.15223664e+00 -1.13644444e+00 2.74262263e+01 2.30341405e-01 2.15223664e+00 2.30341405e-01 2.92698679e+01
2.01417341e+01 4.23888415e-02 2.79430832e+00 4.23888415e-02 1.85061774e+01 -4.38049092e-01 2.79430832e+00 -4.38049092e-01 1.03951683e+01
1.59829853e+01 -5.34367527e+00 2.19503170e+00 -5.34367527e+00 7.74029255e+00 -7.75121927e-01 2.19503170e+00 -7.75121927e-01 -2.43315125e+00
-9.40312710e+01 -3.03656381e+00 5.22988749e+00 -3.03656381e+00 -1.11258579e+02 3.41657448e+00 5.22988749e+00 3.41657448e+00 -2.50680374e+02
-1.06788971e+02 -7.01768994e-02 2.67333746e+00 -7.01768994e-02 -1.11834747e+02 1.49622545e-01 2.67333746e+00 1.49622545e-01 -2.66626038e+02
2.85666458e+01 3.99257270e+00 -9.59075029e-01 3.99257270e+00 2.79384933e+01 1.34698983e+00 -9.59075029e-01 1.34698983e+00 3.20657298e+01
3.08829203e+01 -2.12746650e+00 2.83558728e+00 -2.12746650e+00 3.15982313e+01 2.01188095e+00 2.83558728e+00 2.01188095e+00 3.51106033e+01
2.72356172e+01 -1.34273060e+00 -3.18163455e-01 -1.34273060e+00 2.65627258e+01 1.69047673e+00 -3.18163455e-01 1.69047673e+00 2.91016994e+01
2.15813121e+01 9.39312577e-01 3.95955315e+00 9.39312577e-01 1.90728591e+01 -2.92082430e+00 3.95955315e+00 -2.92082430e+00 2.73410095e+01
2.10654313e+01 1.01725470e+00 2.54054042e+00 1.01725470e+00 1.53448713e+01 1.39859148e+00 2.54054042e+00 1.39859148e+00 2.41782978e+01
6.16008353e+00 -5.78267807e+00 5.58400154e-01 -5.78267807e+00 -4.01467323e-01 -9.43691075e-01 5.58400154e-01 -9.43691075e-01 9.68641901e+00
2.65099728e+01 3.40172337e+00 2.82527256e+00 3.40172337e+00 1.25874043e+01 6.58891976e-01 2.82527256e+00 6.58891976e-01 3.25206249e+01
1.04280968e+01 5.56075716e+00 -1.01104541e+01 5.56075716e+00 2.12524090e+01 2.06446152e+01 -1.01104541e+01 2.06446152e+01 6.14743338e+01
2.43439488e+01 -2.78012550e+00 3.51242229e+00 -2.78012550e+00 2.85524855e+01 -3.96010256e+00 3.51242229e+00 -3.96010256e+00 3.72203331e+01
-5.71334958e-01 1.14091005e+01 -2.92059445e+00 1.14091005e+01 1.26227560e+01 2.14158974e+01 -2.92059445e+00 2.14158974e+01 -1.77494030e+01
2.10662561e+01 4.76120249e+00 -2.77057886e+00 4.76120249e+00 2.78411994e+01 -4.86656864e+00 -2.77057886e+00 -4.86656864e+00 1.39466023e+01
1.66563298e+01 8.34474484e-01 3.04456218e+00 8.34474484e-01 8.95082188e+00 2.41542113e+00 3.04456218e+00 2.41542113e+00 6.19535279e+00
3.07093799e-01 4.60475162e+00 4.78304827e+00 4.60475162e+00 1.00564780e+01 -8.88964921e-01 4.78304827e+00 -8.88964921e-01 3.42963710e+00
1.00712150e-01 -4.38951474e+00 -5.14484540e-01 -4.38951474e+00 7.07441166e+00 2.03678611e+00 -5.14484540e-01 2.03678611e+00 9.35088286e+00
2.96360898e+00 -1.64563179e+00 -4.41668391e-01 -1.64563179e+00 -6.45719242e+00 1.36231430e-01 -4.41668391e-01 1.36231430e-01 4.93896192e+00
-2.31994677e+00 -5.31282425e-01 -1.32440689e+00 -5.31282425e-01 -6.24569419e+00 -1.16739997e+00 -1.32440689e+00 -1.16739997e+00 2.73013261e+00
-1.01724327e+02 2.88358760e+00 -3.53714299e+00 2.88358760e+00 -6.89533997e+01 1.23678923e+00 -3.53714299e+00 1.23678923e+00 -2.10678741e+02
-1.45252945e+02 6.33671093e+00 1.49803329e+00 6.33671093e+00 -1.31499435e+02 1.28314197e+00 1.49803329e+00 1.28314197e+00 -3.29494537e+02
5.21724145e+00 -1.48570553e+00 1.24078075e+00 -1.48570553e+00 3.94730568e+00 2.01881941e+00 1.24078075e+00 2.01881941e+00 -2.01770363e+01
1.07364368e+01 -2.65402699e+00 4.02433091e+00 -2.65402699e+00 -7.47392654e-01 -1.91848792e-01 4.02433091e+00 -1.91848792e-01 -1.78216820e+01
2.00925241e+00 2.04472446e+00 -3.78694921e-02 2.04472446e+00 -7.19487667e-01 -8.98182984e-01 -3.78694921e-02 -8.98182984e-01 2.91197252e+00
1.20523370e+01 1.28993289e+00 4.61793661e-01 1.28993289e+00 2.57516953e+01 5.00296454e+00 4.61793661e-01 5.00296454e+00 2.37236676e+01
2.65867889e+00 1.54741621e+00 5.35920620e-01 1.54741621e+00 -6.50984883e+00 7.86392212e-01 5.35920620e-01 7.86392212e-01 -3.18252516e+00
7.77266264e+00 -1.31379914e+00 7.44224340e-01 -1.31379914e+00 4.53504562e+00 7.35716626e-01 7.44224340e-01 7.35716626e-01 -1.60384264e+01
2.02372360e+01 1.73047590e+00 -1.22350025e+00 1.73047590e+00 1.77057972e+01 3.69117106e-03 -1.22350025e+00 3.69117106e-03 1.11805725e+01
-1.44291258e+00 -9.36200142e-01 4.46162194e-01 -9.36200142e-01 -3.48890662e+00 3.98884469e+00 4.46162194e-01 3.98884469e+00 -3.53279600e+01
-6.06271529e+00 -2.31340119e+00 -3.39564323e-01 -2.31340119e+00 -1.67621293e+01 3.19103396e+00 -3.39564323e-01 3.19103396e+00 -5.26188183e+01
1.12454362e+01 3.02694005e+00 -2.45520905e+00 3.02694005e+00 3.48635769e+00 1.05359858e+00 -2.45520905e+00 1.05359858e+00 -1.44190674e+01
1.42286952e+01 -5.71775138e-01 -1.19817554e+00 -5.71775138e-01 2.77256689e+01 2.68217334e+00 -1.19817554e+00 2.68217334e+00 1.74460945e+01
1.95170960e+01 2.66984445e+00 -2.02271003e+00 2.66984445e+00 2.32383776e+01 1.06195503e+00 -2.02271003e+00 1.06195503e+00 2.15767426e+01
-5.70477158e+00 1.38098288e+00 -1.16309905e+00 1.38098288e+00 1.77008843e+00 5.76107904e-01 -1.16309905e+00 5.76107904e-01 3.87809208e+00
-4.45515585e+00 1.27935314e+00 -4.78087515e-02 1.27935314e+00 -3.62851679e-01 -7.32876062e-02 -4.78087515e-02 -7.32876062e-02 8.61979246e-01
</DataArray>
<DataArray type="Float32" Name="Logarithmic_strain_components" NumberOfComponents="9" format="ascii">
4.08283181e-02 -8.52011277e-03 2.78136384e-03 -8.52011277e-03 3.50043008e-02 7.90063576e-03 2.78136384e-03 7.90063576e-03 -6.28568726e-02
3.91749055e-02 -1.67920323e-02 -7.96052016e-04 -1.67920323e-02 4.33619113e-02 1.79447624e-02 -7.96052016e-04 1.79447624e-02 -6.92401878e-02
4.55782795e-02 -2.51377036e-03 2.43759865e-03 -2.51377036e-03 5.99023523e-02 -7.91702350e-03 2.43759865e-03 -7.91702350e-03 -8.93681925e-02
4.17646086e-02 -1.81604951e-03 -3.14277154e-03 -1.81604951e-03 4.71561160e-02 -3.46342218e-04 -3.14277154e-03 -3.46342218e-04 -7.56928660e-02
4.09233025e-02 2.97044609e-03 1.23068748e-02 2.97044609e-03 5.06399735e-02 1.02420361e-02 1.23068748e-02 1.02420361e-02 -7.52130309e-02
4.03444730e-02 -1.38609009e-02 -1.63494091e-02 -1.38609009e-02 6.47038110e-02 1.56161001e-02 -1.63494091e-02 1.56161001e-02 -8.74846141e-02
5.81146386e-02 -9.14268754e-03 -7.79383394e-03 -9.14268754e-03 7.15223579e-02 -1.22300463e-02 -7.79383394e-03 -1.22300463e-02 -1.10347548e-01
4.55174884e-02 1.76402199e-02 5.55421726e-03 1.76402199e-02 5.58224032e-02 1.67069983e-02 5.55421726e-03 1.67069983e-02 -8.51667281e-02
5.33224316e-02 2.10800907e-04 -2.55628004e-02 2.10800907e-04 5.64109720e-02 2.38689184e-02 -2.55628004e-02 2.38689184e-02 -9.77877174e-02
6.74602054e-02 -8.67180934e-04 -2.24320926e-02 -8.67180934e-04 7.38491714e-02 2.54376060e-02 -2.24320926e-02 2.54376060e-02 -1.26990903e-01
7.17060616e-02 3.34634784e-02 -1.06028228e-01 3.34634784e-02 6.39215062e-02 -2.10205631e-02 -1.06028228e-01 -2.10205631e-02 -1.17076556e-01
1.01878699e-01 2.53851647e-02 -7.49436691e-02 2.53851647e-02 5.50567638e-02 -1.31090616e-02 -7.49436691e-02 -1.31090616e-02 -1.36662662e-01
-4.39848424e-06 -2.89583268e-05 -1.54210825e-05 -2.89583268e-05 8.87492229e-06 9.10710696e-06 -1.54210825e-05 9.10710696e-06 -9.90192575e-06
-9.22382765e-06 -2.07250673e-06 -5.78637719e-06 -2.07250673e-06 -1.31578281e-06 -1.41364208e-05 -5.78637719e-06 -1.41364208e-05 5.14611838e-06
1.78325108e-05 -7.81362814e-06 -7.72844714e-06 -7.81362814e-06 -1.03427635e-06 2.43748941e-05 -7.72844714e-06 2.43748941e-05 -2.16082717e-05
1.14145346e-05 -3.45586086e-05 -3.48838512e-07 -3.45586086e-05 -2.73963082e-06 -2.75674356e-05 -3.48838512e-07 -2.75674356e-05 -1.34935681e-05
5.01041768e-06 9.49625064e-06 1.60456711e-05 9.49625064e-06 8.00117164e-07 6.81752817e-06 1.60456711e-05 6.81752817e-06 -2.83395252e-06
-2.83740155e-06 1.08594952e-06 3.62061496e-06 1.08594952e-06 -5.39180655e-06 -3.08402093e-07 3.62061496e-06 -3.08402093e-07 1.11098952e-05
-2.80934364e-06 2.75358843e-06 -1.41671126e-05 2.75358843e-06 3.00994134e-06 -2.69286593e-05 -1.41671126e-05 -2.69286593e-05 2.33255128e-06
-8.37292919e-06 1.19119331e-05 -8.93369361e-06 1.19119331e-05 -3.63960271e-06 1.60894706e-05 -8.93369361e-06 1.60894706e-05 1.41881410e-05
5.51692750e-02 8.49537037e-06 1.00430883e-02 8.49537037e-06 5.80319725e-02 -2.18029181e-03 1.00430883e-02 -2.18029181e-03 -9.55000296e-02
5.68997534e-02 3.09310376e-03 6.43153407e-03 3.09310376e-03 5.62606556e-02 3.13360730e-03 6.43153407e-03 3.13360730e-03 -9.54992324e-02
5.49739762e-02 -9.08286736e-03 1.19216436e-02 -9.08286736e-03 5.72278332e-02 4.31035768e-03 1.19216436e-02 4.31035768e-03 -9.41124689e-02
5.34828771e-02 2.14706926e-03 1.05578224e-02 2.14706926e-03 5.95889520e-02 -5.77680569e-03 1.05578224e-02 -5.77680569e-03 -9.54145584e-02
7.02569634e-02 -1.73453664e-05 1.24848429e-02 -1.73453664e-05 5.44863846e-02 9.77064075e-04 1.24848429e-02 9.77064075e-04 -1.04721785e-01
6.77219573e-02 1.86920256e-03 1.74535150e-03 1.86920256e-03 5.75969517e-02 1.12221953e-02 1.74535150e-03 1.12221953e-02 -1.05826735e-01
6.92815287e-02 4.19674770e-03 1.49041346e-02 4.19674770e-03 5.80616142e-02 5.01561776e-03 1.49041346e-02 5.01561776e-03 -1.07055028e-01
7.12916013e-02 3.65272543e-03 1.54080712e-02 3.65272543e-03 5.76545754e-02 -9.80652240e-03 1.54080712e-02 -9.80652240e-03 -1.08751919e-01
6.11089738e-02 -1.18903122e-02 9.97187989e-03 -1.18903122e-02 5.04872268e-02 4.73107750e-04 9.97187989e-03 4.73107750e-04 -9.36288778e-02
5.97433797e-02 -1.18916572e-02 1.28504292e-02 -1.18916572e-02 5.58664780e-02 5.77242322e-03 1.28504292e-02 5.77242322e-03 -9.70545085e-02
6.37847576e-02 2.87363969e-03 -3.71162852e-04 2.87363969e-03 5.83170168e-02 5.31915092e-03 -3.71162852e-04 5.31915092e-03 -1.03277195e-01
6.27639014e-02 4.30248538e-03 1.38026396e-02 4.30248538e-03 6.21786136e-02 1.65098708e-02 1.38026396e-02 1.65098708e-02 -1.05675641e-01
6.49565272e-02 1.12621841e-03 4.33193729e-03 1.12621841e-03 4.77720527e-02 6.45973995e-03 4.33193729e-03 6.45973995e-03 -9.45550799e-02
6.57124491e-02 -5.91953241e-03 -5.91053622e-03 -5.91953241e-03 5.45775476e-02 -4.72760657e-03 -5.91053622e-03 -4.72760657e-03 -1.00446935e-01
6.24635667e-02 -6.78595691e-03 2.10324768e-03 -6.78595691e-03 5.28768562e-02 6.75865123e-03 2.10324768e-03 6.75865123e-03 -9.72143244e-02
5.97608951e-02 -5.90234478e-03 -4.72260336e-03 -5.90234478e-03 5.81222698e-02 5.71870219e-03 -4.72260336e-03 5.71870219e-03 -9.91613129e-02
6.84156474e-02 2.84132874e-03 -5.49771590e-03 2.84132874e-03 4.54948805e-02 7.81838899e-05 -5.49771590e-03 7.81838899e-05 -9.54413209e-02
6.64295908e-02 1.02417939e-03 -8.99298684e-03 1.02417939e-03 6.15186719e-02 9.85040679e-05 -8.99298684e-03 9.85040679e-05 -1.07698129e-01
6.08598981e-02 -3.15088977e-03 -7.43516581e-03 -3.15088977e-03 4.75672428e-02 5.79754589e-03 -7.43516581e-03 5.79754589e-03 -9.10269767e-02
6.03328347e-02 -1.12831935e-02 -1.22174650e-02 -1.12831935e-02 5.05233686e-02 -6.54947864e-03 -1.22174650e-02 -6.54947864e-03 -9.20703243e-02
6.63800882e-02 3.06194059e-04 2.48132373e-03 3.06194059e-04 4.70111147e-02 -2.88872223e-03 2.48132373e-03 -2.88872223e-03 -9.48839784e-02
6.67169970e-02 -1.07964322e-03 3.64905602e-04 -1.07964322e-03 6.04478125e-02 3.56993255e-03 3.64905602e-04 3.56993255e-03 -1.06602668e-01
5.46402521e-02 -1.00139520e-03 -1.30915511e-02 -1.00139520e-03 4.67661070e-02 -1.96122275e-03 -1.30915511e-02 -1.96122275e-03 -8.42873491e-02
5.79560944e-02 -3.32399734e-03 -1.12155271e-02 -3.32399734e-03 5.43449540e-02 -6.34213829e-03 -1.12155271e-02 -6.34213829e-03 -9.43275532e-02
6.40516374e-02 -6.19553524e-04 1.61536672e-03 -6.19553524e-04 4.82133981e-02 -2.36576842e-03 1.61536672e-03 -2.36576842e-03 -9.38520394e-02
6.23465972e-02 -5.85386081e-03 -3.33614479e-03 -5.85386081e-03 6.18344545e-02 -2.04168037e-03 -3.33614479e-03 -2.04168037e-03 -1.03542157e-01
5.04162163e-02 1.44792581e-02 -8.92284140e-03 1.44792581e-02 4.85184453e-02 -1.34022515e-02 -8.92284140e-03 -1.34022515e-02 -8.19815584e-02
5.67980297e-02 1.84661429e-03 -7.73874650e-03 1.84661429e-03 5.37793040e-02 -8.15098305e-03 -7.73874650e-03 -8.15098305e-03 -9.24861934e-02
5.10473717e-02 -1.57650265e-02 3.19920084e-02 -1.57650265e-02 6.25717198e-02 2.07148565e-03 3.19920084e-02 2.07148565e-03 -9.50299753e-02
4.30798754e-02 -1.42128933e-02 2.36281098e-02 -1.42128933e-02 6.66637477e-02 -3.60621256e-03 2.36281098e-02 -3.60621256e-03 -9.18833427e-02
7.39656491e-02 1.80099520e-03 4.16821172e-02 1.80099520e-03 6.22785618e-02 1.39460732e-02 4.16821172e-02 1.39460732e-02 -1.15350028e-01
7.09894225e-02 -7.57772614e-06 2.98408354e-02 -7.57772614e-06 6.32985746e-02 -1.77673824e-03 2.98408354e-02 -1.77673824e-03 -1.13040624e-01
6.37070191e-02 -2.89700759e-04 2.46207123e-02 -2.89700759e-04 5.87120221e-02 -3.46204219e-03 2.46207123e-02 -3.46204219e-03 -1.05245912e-01
6.72776569e-02 1.42563080e-02 1.22550216e-02 1.42563080e-02 6.31904327e-02 -6.30924688e-03 1.22550216e-02 -6.30924688e-03 -1.12168807e-01
7.22402841e-02 -1.75634007e-02 -6.78430313e-02 -1.75634007e-02 6.54066633e-02 -1.35898665e-03 -6.78430313e-02 -1.35898665e-03 -1.22837859e-01
5.34080443e-02 8.22505262e-03 -4.43897206e-02 8.22505262e-03 5.98149214e-02 -7.00236551e-03 -4.43897206e-02 -7.00236551e-03 -9.73749225e-02
7.16965143e-02 -2.73356168e-03 -1.98972076e-02 -2.73356168e-03 8.23151395e-02 1.24516349e-02 -1.98972076e-02 1.24516349e-02 -1.35054674e-01
6.09944940e-02 -8.03275974e-03 -6.48673682e-02 -8.03275974e-03 4.91063046e-02 7.50606018e-03 -6.48673682e-02 7.50606018e-03 -9.33464549e-02
7.04720188e-02 -5.71479951e-03 -1.54458836e-03 -5.71479951e-03 7.95953497e-02 1.18273892e-02 -1.54458836e-03 1.18273892e-02 -1.29690921e-01
6.19354779e-02 2.34572915e-03 -2.48822062e-02 2.34572915e-03 7.18462374e-02 -2.91388074e-03 -2.48822062e-02 -2.91388074e-03 -1.17248233e-01
6.32283613e-02 -5.35816466e-03 -4.45196440e-03 -5.35816466e-03 8.38434175e-02 3.73975770e-03 -4.45196440e-03 3.73975770e-03 -1.26466356e-01
5.73428217e-02 -7.97413196e-03 -2.65244059e-02 -7.97413196e-03 7.45407455e-02 -1.78622084e-02 -2.65244059e-02 -1.78622084e-02 -1.14917804e-01
4.43291374e-02 -9.59537671e-03 4.48951625e-02 -9.59537671e-03 6.13607849e-02 2.38733486e-03 4.48951625e-02 2.38733486e-03 -8.82469692e-02
3.95037327e-02 3.07333813e-03 3.49805099e-02 3.07333813e-03 6.08726665e-02 4.20911121e-03 3.49805099e-02 4.20911121e-03 -8.31975155e-02
7.82136321e-02 -4.54544372e-03 4.92625795e-02 -4.54544372e-03 6.51586130e-02 -9.16795512e-03 4.92625795e-02 -9.16795512e-03 -1.21036269e-01
6.48053708e-02 1.42183647e-03 4.84687388e-02 1.42183647e-03 6.81932606e-02 -1.04945719e-02 4.84687388e-02 -1.04945719e-02 -1.11650560e-01
5.39233554e-02 -3.02503505e-02 5.84141053e-02 -3.02503505e-02 7.36619895e-02 -6.79460620e-02 5.84141053e-02 -6.79460620e-02 -1.09042637e-01
8.40215042e-02 1.02847675e-03 2.32221451e-02 1.02847675e-03 6.48009606e-02 -5.47356091e-02 2.32221451e-02 -5.47356091e-02 -1.29201785e-01
-2.20040232e-02 -1.28434390e-01 -1.97881386e-01 -1.28434390e-01 2.21305410e-03 -1.29468098e-01 -1.97881386e-01 -1.29468098e-01 8.70584846e-02
3.81063428e-02 -1.44255405e-02 -6.25042717e-02 -1.44255405e-02 2.94722084e-02 -5.20641357e-02 -6.25042717e-02 -5.20641357e-02 -4.22427848e-02
3.85300238e-02 -3.82758187e-03 1.65804498e-02 -3.82758187e-03 4.82601342e-02 2.92835222e-02 1.65804498e-02 2.92835222e-02 -7.09886593e-02
3.83670856e-02 -8.42354563e-03 2.83984851e-02 -8.42354563e-03 5.05735697e-02 8.61962466e-03 2.83984851e-02 8.61962466e-03 -7.38487132e-02
5.46729912e-02 -1.05999463e-02 3.22931117e-02 -1.05999463e-02 6.77661262e-02 4.37956365e-02 3.22931117e-02 4.37956365e-02 -9.93025377e-02
6.03618333e-02 -7.87149137e-03 8.88507930e-03 -7.87149137e-03 6.89417599e-02 2.54639513e-02 8.88507930e-03 2.54639513e-02 -1.06680254e-01
4.00345847e-02 6.25400513e-03 -3.64642171e-03 6.25400513e-03 5.06761102e-02 4.78544831e-03 -3.64642171e-03 4.78544831e-03 -7.59103764e-02
6.27401636e-02 1.15956631e-02 -1.93719627e-02 1.15956631e-02 7.15304539e-02 3.51804045e-02 -1.93719627e-02 3.51804045e-02 -1.11567548e-01
5.62439281e-02 1.95440310e-02 1.42431804e-02 1.95440310e-02 7.95751037e-02 1.59555792e-02 1.42431804e-02 1.59555792e-02 -1.13267506e-01
3.68170748e-02 9.63070555e-03 1.97623351e-02 9.63070555e-03 5.31826084e-02 8.48211898e-02 1.97623351e-02 8.48211898e-02 -7.80961905e-02
8.76210965e-02 -1.13237295e-02 7.09506702e-02 -1.13237295e-02 7.72670768e-02 3.43958335e-02 7.09506702e-02 3.43958335e-02 -1.46645114e-01
5.33149462e-02 -2.12063193e-02 -3.94207455e-02 -2.12063193e-02 8.59116510e-02 -1.46223411e-02 -3.94207455e-02 -1.46223411e-02 -1.17950799e-01
4.18036561e-02 -4.33712197e-03 6.75170100e-03 -4.33712197e-03 5.67391440e-02 1.26489103e-02 6.75170100e-03 1.26489103e-02 -8.20368193e-02
6.84432015e-02 2.44498950e-02 -1.25731120e-02 2.44498950e-02 6.86949464e-02 2.32497884e-02 -1.25731120e-02 2.32497884e-02 -1.08778156e-01
5.79078272e-02 -1.60884717e-02 1.91925545e-02 -1.60884717e-02 8.48050565e-02 -2.17337180e-02 1.91925545e-02 -2.17337180e-02 -1.20529413e-01
7.14212665e-02 -2.66770138e-02 -5.78621794e-02 -2.66770138e-02 8.29002112e-02 5.84071889e-02 -5.78621794e-02 5.84071889e-02 -1.33268679e-01
4.10489788e-02 5.16126988e-02 -4.30429587e-03 5.16126988e-02 8.43001852e-02 -1.36073635e-01 -4.30429587e-03 -1.36073635e-01 -1.02285720e-01
8.46135309e-02 -1.22371940e-02 -1.85804359e-02 -1.22371940e-02 4.64934036e-02 -2.81533053e-02 -1.85804359e-02 -2.81533053e-02 -1.10053442e-01
8.53315964e-02 5.71500277e-06 4.06269729e-03 5.71500277e-06 5.52060455e-02 -3.10659711e-03 4.06269729e-03 -3.10659711e-03 -1.18070245e-01
7.92411212e-02 3.58206895e-03 3.54518037e-03 3.58206895e-03 6.00686884e-02 6.07923236e-03 3.54518037e-03 6.07923236e-03 -1.17547451e-01
8.21898030e-02 1.42982131e-02 8.66628502e-03 1.42982131e-02 6.11643032e-02 5.66044496e-03 8.66628502e-03 5.66044496e-03 -1.20970513e-01
8.92522335e-02 4.00575530e-03 1.02494084e-02 4.00575530e-03 5.76574272e-02 -3.65466927e-03 1.02494084e-02 -3.65466927e-03 -1.23985773e-01
6.58940235e-02 1.02099781e-02 -1.60861877e-03 1.02099781e-02 6.77135456e-02 9.07464096e-03 -1.60861877e-03 9.07464096e-03 -1.13303121e-01
6.66402560e-02 1.99888357e-02 4.94028025e-03 1.99888357e-02 6.74862787e-02 8.85460812e-03 4.94028025e-03 8.85460812e-03 -1.13846219e-01
5.65113118e-02 6.32092310e-03 -6.56504999e-04 6.32092310e-03 6.79930747e-02 2.48852267e-03 -6.56504999e-04 2.48852267e-03 -1.05885370e-01
5.11885672e-02 9.86617403e-03 7.24173617e-04 9.86617403e-03 7.01142661e-02 1.20008691e-02 7.24173617e-04 1.20008691e-02 -1.03312470e-01
5.07002771e-02 -6.85740844e-03 -4.21675759e-04 -6.85740844e-03 6.33845497e-02 1.63370772e-03 -4.21675759e-04 1.63370772e-03 -9.68016759e-02
4.51548523e-02 -5.93570583e-03 -2.94300611e-03 -5.93570583e-03 6.32375758e-02 1.35500177e-03 -2.94300611e-03 1.35500177e-03 -9.16031990e-02
4.42233384e-02 -6.77882438e-03 -4.92385472e-03 -6.77882438e-03 6.06941460e-02 -2.48459920e-03 -4.92385472e-03 -2.48459920e-03 -8.81930888e-02
4.60790996e-02 -1.10476364e-02 -9.51531576e-03 -1.10476364e-02 5.43502029e-02 -2.94401363e-03 -9.51531576e-03 -2.94401363e-03 -8.40287944e-02
3.88778374e-02 1.68630836e-03 1.54717604e-03 1.68630836e-03 6.48133457e-02 -2.96299113e-03 1.54717604e-03 -2.96299113e-03 -8.74547660e-02
4.49040551e-02 -9.44580289e-03 -3.69756483e-03 -9.44580289e-03 5.67605980e-02 -1.51942184e-02 -3.69756483e-03 -1.51942184e-02 -8.56402479e-02
9.48399305e-02 1.79822723e-02 2.55396085e-02 1.79822723e-02 5.96075733e-02 7.94134545e-03 2.55396085e-02 7.94134545e-03 -1.29777559e-01
9.75934993e-02 1.03165833e-02 3.04033419e-02 1.03165833e-02 6.52967617e-02 -8.89929757e-03 3.04033419e-02 -8.89929757e-03 -1.37204632e-01
7.37204072e-02 2.69581049e-02 3.32011619e-03 2.69581049e-02 5.96616399e-02 4.83445168e-03 3.32011619e-03 4.83445168e-03 -1.13091964e-01
4.62438483e-02 2.17752734e-02 -2.41315047e-02 2.17752734e-02 5.29074511e-02 -2.31463829e-03 -2.41315047e-02 -2.31463829e-03 -8.31494508e-02
3.17519634e-02 -1.02788662e-03 -2.84603206e-02 -1.02788662e-03 5.10694060e-02 -1.74180382e-03 -2.84603206e-02 -1.74180382e-03 -6.94349754e-02
2.93308108e-02 -1.51340442e-02 -3.43302957e-02 -1.51340442e-02 4.58620352e-02 -1.24085497e-02 -3.43302957e-02 -1.24085497e-02 -6.26344749e-02
3.35755280e-02 -2.25954745e-02 -4.00677460e-02 -2.25954745e-02 4.04489726e-02 -1.97717538e-02 -4.00677460e-02 -1.97717538e-02 -6.16411318e-02
1.05659228e-01 -2.44242915e-03 6.76777990e-02 -2.44242915e-03 5.89786805e-02 -1.53917538e-02 6.76777990e-02 -1.53917538e-02 -1.40491473e-01
1.03402779e-01 -1.80033886e-02 6.05270453e-02 -1.80033886e-02 6.60263784e-02 -1.73648534e-02 6.05270453e-02 -1.73648534e-02 -1.45703554e-01
8.70007525e-02 1.76904238e-02 1.18826869e-02 1.76904238e-02 4.38805564e-02 -4.04535995e-02 1.18826869e-02 -4.04535995e-02 -1.09853414e-01
3.94154293e-02 2.41054536e-02 -4.36444854e-02 2.41054536e-02 1.71293204e-02 -2.75775281e-02 -4.36444854e-02 -2.75775281e-02 -4.26939633e-02
1.66625753e-02 -7.88858607e-02 -9.22337323e-02 -7.88858607e-02 -3.84960659e-02 -1.03922956e-01 -9.22337323e-02 -1.03922956e-01 5.25577329e-02
2.52701843e-04 4.22690728e-03 -1.69963168e-02 4.22690728e-03 8.45059507e-03 -8.03112532e-03 -1.69963168e-02 -8.03112532e-03 -1.71110607e-03
1.01571186e-01 -5.02173847e-04 -3.38528864e-03 -5.02173847e-04 8.47474588e-02 5.51289320e-02 -3.38528864e-03 5.51289320e-02 -1.58843923e-01
1.02444433e-01 1.31142481e-02 -3.92954567e-02 1.31142481e-02 9.73701129e-02 5.04812213e-02 -3.92954567e-02 5.04812213e-02 -1.70650447e-01
1.15004126e-01 -2.50040358e-02 2.94247572e-02 -2.50040358e-02 5.93246948e-02 -6.12296183e-02 2.94247572e-02 -6.12296183e-02 -1.52524985e-01
8.99197534e-02 -6.23333904e-03 -2.76474911e-02 -6.23333904e-03 1.13716297e-01 3.71951405e-02 -2.76474911e-02 3.71951405e-02 -1.72926714e-01
8.94435458e-02 -8.13213014e-03 1.94836929e-02 -8.13213014e-03 1.14313146e-01 -6.92370435e-04 1.94836929e-02 -6.92370435e-04 -1.70643628e-01
1.02914261e-01 -5.51537517e-03 9.56109725e-03 -5.51537517e-03 8.90533086e-02 2.70575393e-02 9.56109725e-03 2.70575393e-02 -1.62180565e-01
1.00138079e-01 5.84301702e-03 1.28912833e-02 5.84301702e-03 8.65711011e-02 -1.68457050e-02 1.28912833e-02 -1.68457050e-02 -1.57807231e-01
9.67326947e-02 2.51047059e-02 -1.52895851e-02 2.51047059e-02 9.09998659e-02 -2.83917738e-02 -1.52895851e-02 -2.83917738e-02 -1.63626041e-01
1.15488889e-01 -1.53448237e-02 -3.27358837e-02 -1.53448237e-02 6.83040833e-02 5.18547986e-02 -3.27358837e-02 5.18547986e-02 -1.55598428e-01
8.70990101e-02 1.01100393e-02 1.24865335e-02 1.01100393e-02 3.33194574e-02 -4.11726697e-02 1.24865335e-02 -4.11726697e-02 -1.04829719e-01
6.60164226e-02 -2.53933999e-02 1.19653689e-02 -2.53933999e-02 4.86139432e-02 -9.88702429e-03 1.19653689e-02 -9.88702429e-03 -9.50315949e-02
-5.85113578e-02 8.24444368e-02 4.40533087e-02 8.24444368e-02 -1.92512088e-02 2.33552493e-02 4.40533087e-02 2.33552493e-02 1.52290151e-01
-1.42045226e-02 3.95990312e-02 6.83896989e-02 3.95990312e-02 -7.93026388e-03 -7.73172230e-02 6.83896989e-02 -7.73172230e-02 5.24588116e-02
1.88074945e-02 -4.03289896e-02 -1.25240842e-02 -4.03289896e-02 -2.26292488e-02 3.99043814e-02 -1.25240842e-02 3.99043814e-02 3.57791736e-03
-1.15841471e-02 -6.82834736e-02 -1.16182672e-02 -6.82834736e-02 2.04640091e-03 -1.09580935e-02 -1.16182672e-02 -1.09580935e-02 8.88779492e-03
-2.67138275e-05 -4.58299619e-05 7.41602635e-05 -4.58299619e-05 2.99251897e-05 -5.24527641e-05 7.41602635e-05 -5.24527641e-05 -9.42288443e-06
-2.08027323e-05 8.12775670e-06 4.12656618e-06 8.12775670e-06 -5.56466546e-07 3.94019007e-05 4.12656618e-06 3.94019007e-05 1.52190805e-05
2.38526336e-05 -2.84292692e-05 1.57508912e-05 -2.84292692e-05 -9.27998917e-06 -7.02298494e-05 1.57508912e-05 -7.02298494e-05 -2.00670165e-05
1.22487218e-05 -8.18238259e-05 -6.12965741e-05 -8.18238259e-05 1.53113233e-05 6.21424479e-05 -6.12965741e-05 6.21424479e-05 -3.30240073e-05
1.75651669e-04 9.24764754e-05 5.24660318e-05 9.24764754e-05 -1.26799605e-04 1.15255236e-05 5.24660318e-05 1.15255236e-05 -2.25538658e-05
4.72118609e-05 -2.08743149e-05 -1.21233309e-05 -2.08743149e-05 -1.02822765e-04 4.25325973e-05 -1.21233309e-05 4.25325973e-05 -2.26834709e-06
-7.87827303e-05 4.33445402e-05 3.35073901e-06 4.33445402e-05 3.05603089e-05 -7.22554323e-05 3.35073901e-06 -7.22554323e-05 2.00294780e-05
-1.58597592e-04 -2.65530941e-04 -5.60600104e-06 -2.65530941e-04 6.58116915e-05 -2.35631754e-05 -5.60600104e-06 -2.35631754e-05 1.13793729e-04
9.07779858e-02 -5.23056951e-06 4.38495772e-06 -5.23056951e-06 5.76117784e-02 -2.58247019e-06 4.38495772e-06 -2.58247019e-06 -1.24958627e-01
8.33274312e-02 6.77279336e-03 -1.07409760e-05 6.77279336e-03 6.25732169e-02 4.89821029e-03 -1.07409760e-05 4.89821029e-03 -1.23265237e-01
8.87538325e-02 2.09746370e-02 3.94271768e-03 2.09746370e-02 5.89216482e-02 7.98954768e-03 3.94271768e-03 7.98954768e-03 -1.24266973e-01
9.75992717e-02 6.19762670e-03 1.85852725e-03 6.19762670e-03 5.54690082e-02 -7.60005423e-06 1.85852725e-03 -7.60005423e-06 -1.28902085e-01
6.66065980e-02 6.81880163e-03 -4.76048590e-05 6.81880163e-03 7.22533204e-02 1.13285636e-02 -4.76048590e-05 1.13285636e-02 -1.18018866e-01
6.88746339e-02 2.69680333e-02 4.73270717e-03 2.69680333e-02 6.82875086e-02 7.86973897e-03 4.73270717e-03 7.86973897e-03 -1.16285155e-01
5.24711795e-02 1.13134291e-02 -3.63918753e-05 1.13134291e-02 7.60432258e-02 7.41497474e-03 -3.63918753e-05 7.41497474e-03 -1.09416012e-01
5.06305769e-02 1.74495778e-02 7.48864119e-03 1.74495778e-02 7.43537843e-02 1.22886170e-02 7.48864119e-03 1.22886170e-02 -1.07191907e-01
4.39914837e-02 4.72176223e-04 1.02111489e-05 4.72176223e-04 7.43647031e-02 2.69969879e-03 1.02111489e-05 2.69969879e-03 -1.00827128e-01
4.02864786e-02 1.61955989e-03 1.33938731e-02 1.61955989e-03 7.11083505e-02 1.00973076e-02 1.33938731e-02 1.00973076e-02 -9.56654325e-02
4.12606951e-02 -4.42636106e-03 -4.62706157e-06 -4.42636106e-03 7.04031326e-02 -6.76700845e-04 -4.62706157e-06 -6.76700845e-04 -9.49778669e-02
3.40095009e-02 -9.81472922e-03 1.43613585e-02 -9.81472922e-03 6.53769830e-02 1.79413852e-03 1.43613585e-02 1.79413852e-03 -8.44800882e-02
3.77339348e-02 -2.39299834e-02 6.28464040e-05 -2.39299834e-02 7.49970898e-02 6.43513398e-03 6.28464040e-05 6.43513398e-03 -9.69010442e-02
3.05803046e-02 -1.49170170e-02 1.82677116e-02 -1.49170170e-02 6.84474465e-02 -1.91873042e-02 1.82677116e-02 -1.91873042e-02 -8.47843811e-02
9.73930229e-02 2.72938504e-02 -9.90333455e-03 2.72938504e-02 6.93732370e-02 1.51102573e-02 -9.90333455e-03 1.51102573e-02 -1.41284447e-01
1.07659280e-01 5.34127327e-03 -4.80915909e-03 5.34127327e-03 7.27098137e-02 -8.60845466e-06 -4.80915909e-03 -8.60845466e-06 -1.53431505e-01
7.18253627e-02 4.97391000e-02 4.73247172e-04 4.97391000e-02 6.02982584e-02 2.17044912e-02 4.73247172e-04 2.17044912e-02 -1.11528547e-01
4.13845619e-02 2.99632908e-02 1.11652829e-02 2.99632908e-02 5.52509669e-02 1.43960929e-02 1.11652829e-02 1.43960929e-02 -8.14905521e-02
2.34197681e-02 -2.30462311e-03 1.50677143e-02 -2.30462311e-03 4.37328713e-02 1.16053708e-02 1.50677143e-02 1.16053708e-02 -5.52917188e-02
1.73762881e-02 -1.54812542e-02 1.73665513e-02 -1.54812542e-02 3.59515115e-02 -2.88102491e-03 1.73665513e-02 -2.88102491e-03 -4.32066722e-02
2.48410366e-02 -1.86970802e-02 1.07775028e-02 -1.86970802e-02 2.61014351e-02 -1.25785163e-02 1.07775028e-02 -1.25785163e-02 -4.13087737e-02
1.13496821e-01 -7.25749868e-03 3.86313349e-02 -7.25749868e-03 9.36768688e-02 2.01951927e-02 3.86313349e-02 2.01951927e-02 -1.86812758e-01
1.19318314e-01 -5.63451881e-03 2.57054716e-02 -5.63451881e-03 1.05675563e-01 -7.44421704e-05 2.57054716e-02 -7.44421704e-05 -2.03583866e-01
7.70246498e-02 3.16839066e-02 8.03216795e-03 3.16839066e-02 4.55260041e-02 3.20891129e-02 8.03216795e-03 3.20891129e-02 -1.04533687e-01
2.54909519e-02 1.80921778e-02 1.06617643e-02 1.80921778e-02 1.54061723e-02 1.57060092e-02 1.06617643e-02 1.57060092e-02 -2.84051821e-02
1.46832695e-04 -8.03194853e-03 8.00382186e-04 -8.03194853e-03 7.06180504e-03 7.39721858e-04 8.00382186e-04 7.39721858e-04 -2.35188486e-03
-3.76351660e-03 -7.90733538e-03 -2.17998201e-02 -7.90733538e-03 1.09646102e-02 -8.60927354e-04 -2.17998201e-02 -8.60927354e-04 -4.05643443e-03
-8.76316855e-04 -5.86807483e-03 7.18191848e-04 -5.86807483e-03 5.35538435e-03 5.53090111e-04 7.18191848e-04 5.53090111e-04 -1.23807290e-03
7.71584833e-04 -2.18165992e-02 -2.05546988e-02 -2.18165992e-02 1.73895562e-03 -3.09576011e-04 -2.05546988e-02 -3.09576011e-04 3.43010819e-04
2.41131638e-03 -1.43311252e-02 1.79304840e-03 -1.43311252e-02 -1.55282882e-03 2.16795852e-04 1.79304840e-03 2.16795852e-04 2.02614500e-03
2.70406420e-02 -2.74247490e-03 -2.70304354e-02 -2.74247490e-03 -1.74028696e-02 -6.33970574e-02 -2.70304354e-02 -6.33970574e-02 1.98638393e-03
-1.46324839e-03 -1.21563161e-03 1.27383820e-02 -1.21563161e-03 -3.94488161e-04 1.07836556e-02 1.27383820e-02 1.07836556e-02 1.33332959e-02
5.68164065e-02 3.73306610e-02 -1.06671127e-02 3.73306610e-02 6.71511963e-02 9.06495005e-02 -1.06671127e-02 9.06495005e-02 -1.11553803e-01
3.41160066e-04 -1.78237256e-04 -6.35765862e-04 -1.78237256e-04 3.40117986e-04 5.89441243e-03 -6.35765862e-04 5.89441243e-03 -7.64614621e-06
-1.81044080e-03 -4.75726598e-03 2.03669629e-04 -4.75726598e-03 1.29423660e-03 1.43562846e-04 2.03669629e-04 1.43562846e-04 1.28146056e-03
-1.83736777e-04 2.34477266e-04 2.46737667e-04 2.34477266e-04 3.78393230e-04 -1.19219585e-05 2.46737667e-04 -1.19219585e-05 -3.41241112e-05
-1.53790502e-04 -2.51825222e-04 -9.78355292e-05 -2.51825222e-04 1.92199399e-04 8.58415733e-05 -9.78355292e-05 8.58415733e-05 1.20154050e-04
2.84004777e-04 -1.11292429e-03 5.41269241e-04 -1.11292429e-03 -5.31510996e-04 1.84798484e-05 5.41269241e-04 1.84798484e-05 3.85090478e-04
4.58014081e-04 -1.27741623e-03 -1.43479694e-04 -1.27741623e-03 -1.05805585e-03 -8.92237476e-05 -1.43479694e-04 -8.92237476e-05 7.34484298e-04
1.10866420e-01 2.61480361e-02 -2.56621558e-02 2.61480361e-02 1.76069185e-01 6.43920735e-04 -2.56621558e-02 6.43920735e-04 -2.57181555e-01
1.40512556e-01 1.33580696e-02 -1.22328782e-02 1.33580696e-02 1.56794742e-01 2.52014380e-02 -1.22328782e-02 2.52014380e-02 -2.70387530e-01
1.08399813e-01 -2.76831848e-02 2.55900919e-02 -2.76831848e-02 1.17829350e-01 3.05876645e-02 2.55900919e-02 3.05876645e-02 -1.91388701e-01
1.11681104e-01 -2.18793936e-02 3.87040190e-02 -2.18793936e-02 1.25771701e-01 2.70567383e-04 3.87040190e-02 2.70567383e-04 -2.02977575e-01
7.35034855e-05 3.06903676e-05 -1.42248118e-06 3.06903676e-05 -6.37678968e-05 -5.57054009e-05 -1.42248118e-06 -5.57054009e-05 2.39004517e-05
1.30927912e-02 -1.61690166e-02 3.80657754e-05 -1.61690166e-02 -5.12220723e-03 3.60574525e-04 3.80657754e-05 3.60574525e-04 -6.03351206e-03
9.25799213e-05 7.42026496e-05 2.57910142e-05 7.42026496e-05 -1.27406100e-04 3.75374821e-05 2.57910142e-05 3.75374821e-05 -4.78799702e-05
1.24565683e-01 -2.66376650e-02 2.08103806e-02 -2.66376650e-02 8.18936564e-02 2.13186732e-02 2.08103806e-02 2.13186732e-02 -1.75915793e-01
1.29762009e-01 1.06181484e-02 1.61155518e-02 1.06181484e-02 6.85731247e-02 -2.03725765e-04 1.61155518e-02 -2.03725765e-04 -1.65404603e-01
1.02418967e-01 6.86680898e-03 6.23042230e-03 6.86680898e-03 9.33323912e-02 3.94620821e-02 6.23042230e-03 3.94620821e-02 -1.69690244e-01
1.22914221e-01 -2.92569295e-02 -3.63467913e-03 -2.92569295e-02 7.06456192e-02 4.44037225e-02 -3.63467913e-03 4.44037225e-02 -1.65334716e-01
5.78480884e-02 1.42643712e-02 -2.13910304e-02 1.42643712e-02 3.18359360e-02 1.77996261e-02 -2.13910304e-02 1.77996261e-02 -6.69928789e-02
4.29180348e-02 -1.45156896e-02 -1.51809989e-02 -1.45156896e-02 5.72129898e-02 2.15014489e-02 -1.51809989e-02 2.15014489e-02 -7.62398336e-02
-1.20699225e-02 -4.08142379e-02 -7.95720931e-04 -4.08142379e-02 9.22733601e-03 3.82068800e-04 -7.95720931e-04 3.82068800e-04 6.56886310e-03
-3.25904921e-04 -4.95790155e-05 -6.17326259e-05 -4.95790155e-05 1.30646757e-04 1.33335893e-05 -6.17326259e-05 1.33335893e-05 2.24768339e-04
-9.21784522e-05 6.17857804e-05 -2.15849741e-06 6.17857804e-05 6.10139159e-06 -3.15824263e-06 -2.15849741e-06 -3.15824263e-06 3.46369052e-05
</DataArray>
<DataArray type="Float32" Name="Plastic_strain_components" NumberOfComponents="9" format="ascii">
4.03390320e-02 -8.46958503e-03 2.78733560e-03 -8.46958503e-03 3.44836155e-02 7.91487919e-03 2.78733560e-03 7.91487919e-03 -6.27236404e-02
3.45950807e-02 -1.62235719e-02 5.98099839e-04 -1.62235719e-02 3.73192576e-02 1.74511199e-02 5.98099839e-04 1.74511199e-02 -5.81345698e-02
3.68893845e-02 7.13863192e-04 1.70032261e-03 7.13863192e-04 5.09187602e-02 -5.83678845e-03 1.70032261e-03 -5.83678845e-03 -7.10687041e-02
4.19593044e-02 -1.81918965e-03 -3.16730520e-03 -1.81918965e-03 4.74305889e-02 -3.22908629e-04 -3.16730520e-03 -3.22908629e-04 -7.53353778e-02
2.21091600e-02 4.30539760e-04 1.49853516e-02 4.30539760e-04 2.81280533e-02 6.40958489e-04 1.49853516e-02 6.40958489e-04 -3.52445580e-02
2.68497072e-02 -9.45339658e-03 -6.90497541e-03 -9.45339658e-03 4.10775374e-02 2.47668057e-02 -6.90497541e-03 2.47668057e-02 -5.09924261e-02
6.67710286e-02 -1.18681705e-02 -1.20041072e-02 -1.18681705e-02 8.50362014e-02 -1.65682209e-02 -1.20041072e-02 -1.65682209e-02 -1.31236000e-01
5.56259518e-02 1.92352750e-02 4.03207366e-03 1.92352750e-02 6.80986140e-02 2.20991471e-02 4.03207366e-03 2.20991471e-02 -1.07638521e-01
5.71921589e-02 1.65955513e-04 -2.30940536e-02 1.65955513e-04 6.24437341e-02 3.11383815e-02 -2.30940536e-02 3.11383815e-02 -1.03357952e-01
7.40828179e-02 -2.23848957e-03 -2.20531002e-02 -2.23848957e-03 8.04160461e-02 2.40313173e-02 -2.20531002e-02 2.40313173e-02 -1.31666798e-01
8.44363645e-02 3.11868756e-02 -1.15147594e-01 3.11868756e-02 8.27951251e-02 -2.78699541e-02 -1.15147594e-01 -2.78699541e-02 -1.43446331e-01
9.65823717e-02 2.65532825e-02 -7.14737307e-02 2.65532825e-02 4.74966634e-02 -1.12035203e-02 -7.14737307e-02 -1.12035203e-02 -1.17657565e-01
0.00000000e+00 0.00000000e+00 0.00000000e+00 0.00000000e+00 0.00000000e+00 0.00000000e+00 0.00000000e+00 0.00000000e+00 0.00000000e+00
0.00000000e+00 0.00000000e+00 0.00000000e+00 0.00000000e+00 0.00000000e+00 0.00000000e+00 0.00000000e+00 0.00000000e+00 0.00000000e+00
0.00000000e+00 0.00000000e+00 0.00000000e+00 0.00000000e+00 0.00000000e+00 0.00000000e+00 0.00000000e+00 0.00000000e+00 0.00000000e+00
0.00000000e+00 0.00000000e+00 0.00000000e+00 0.00000000e+00 0.00000000e+00 0.00000000e+00 0.00000000e+00 0.00000000e+00 0.00000000e+00
0.00000000e+00 0.00000000e+00 0.00000000e+00 0.00000000e+00 0.00000000e+00 0.00000000e+00 0.00000000e+00 0.00000000e+00 0.00000000e+00
0.00000000e+00 0.00000000e+00 0.00000000e+00 0.00000000e+00 0.00000000e+00 0.00000000e+00 0.00000000e+00 0.00000000e+00 0.00000000e+00
0.00000000e+00 0.00000000e+00 0.00000000e+00 0.00000000e+00 0.00000000e+00 0.00000000e+00 0.00000000e+00 0.00000000e+00 0.00000000e+00
0.00000000e+00 0.00000000e+00 0.00000000e+00 0.00000000e+00 0.00000000e+00 0.00000000e+00 0.00000000e+00 0.00000000e+00 0.00000000e+00
5.51762376e-02 8.91494483e-06 1.00890519e-02 8.91494483e-06 5.80184218e-02 -2.19027163e-03 1.00890519e-02 -2.19027163e-03 -9.53215212e-02
5.66767696e-02 3.07424302e-03 6.43891736e-03 3.07424302e-03 5.60399601e-02 3.13509197e-03 6.43891736e-03 3.13509197e-03 -9.49064568e-02
5.48669919e-02 -9.09385405e-03 1.20001201e-02 -9.09385405e-03 5.71019286e-02 4.28157172e-03 1.20001201e-02 4.28157172e-03 -9.42108948e-02
5.32528628e-02 2.15160713e-03 1.05423128e-02 2.15160713e-03 5.92920426e-02 -5.77500183e-03 1.05423128e-02 -5.77500183e-03 -9.47478861e-02
7.00129308e-02 -1.55028974e-05 1.24749653e-02 -1.55028974e-05 5.42411171e-02 9.63827217e-04 1.24749653e-02 9.63827217e-04 -1.04574695e-01
6.76107537e-02 1.85814535e-03 1.76607186e-03 1.85814535e-03 5.74886454e-02 1.11657968e-02 1.76607186e-03 1.11657968e-02 -1.05299149e-01
6.90636989e-02 4.19413962e-03 1.49236527e-02 4.19413962e-03 5.78375384e-02 4.99655830e-03 1.49236527e-02 4.99655830e-03 -1.06756513e-01
7.11418074e-02 3.63691821e-03 1.54055033e-02 3.63691821e-03 5.75152664e-02 -9.77981510e-03 1.54055033e-02 -9.77981510e-03 -1.08241083e-01
6.08679457e-02 -1.18545985e-02 9.98707907e-03 -1.18545985e-02 5.02521368e-02 4.59840434e-04 9.98707907e-03 4.59840434e-04 -9.35107805e-02
5.95100792e-02 -1.18816746e-02 1.28317115e-02 -1.18816746e-02 5.56450118e-02 5.75971252e-03 1.28317115e-02 5.75971252e-03 -9.68282251e-02
6.35387907e-02 2.87295756e-03 -3.85547210e-04 2.87295756e-03 5.80851072e-02 5.29863431e-03 -3.85547210e-04 5.29863431e-03 -1.02424929e-01
6.27628397e-02 4.31147142e-03 1.37525494e-02 4.31147142e-03 6.21407242e-02 1.64212984e-02 1.37525494e-02 1.64212984e-02 -1.05124477e-01
6.48197271e-02 1.11652765e-03 4.33075277e-03 1.11652765e-03 4.76233298e-02 6.42293185e-03 4.33075277e-03 6.42293185e-03 -9.45998318e-02
5.99119151e-02 -5.44645049e-03 -4.65662451e-03 -5.44645049e-03 4.87587848e-02 -4.68206216e-03 -4.65662451e-03 -4.68206216e-03 -8.96578757e-02
6.22237688e-02 -6.74124423e-03 2.07628537e-03 -6.74124423e-03 5.26758749e-02 6.70955610e-03 2.07628537e-03 6.70955610e-03 -9.67424102e-02
5.95151908e-02 -5.88211493e-03 -4.73041728e-03 -5.88211493e-03 5.78630152e-02 5.67034318e-03 -4.73041728e-03 5.67034318e-03 -9.87667004e-02
6.79930262e-02 2.83156219e-03 -5.47708909e-03 2.83156219e-03 4.51428974e-02 3.59061232e-05 -5.47708909e-03 3.59061232e-05 -9.51425955e-02
6.81148833e-02 8.19071312e-04 -9.53970733e-03 8.19071312e-04 6.32242719e-02 9.07491485e-05 -9.53970733e-03 9.07491485e-05 -1.11253097e-01
6.07202202e-02 -3.14524164e-03 -7.45475618e-03 -3.14524164e-03 4.74385051e-02 5.76930249e-03 -7.45475618e-03 5.76930249e-03 -9.10532121e-02
5.69990384e-02 -1.08512862e-02 -1.11669872e-02 -1.08512862e-02 4.71580359e-02 -6.56022254e-03 -1.11669872e-02 -6.56022254e-03 -8.66508288e-02
6.58564828e-02 3.13012963e-04 2.50455883e-03 3.13012963e-04 4.65698736e-02 -2.90179485e-03 2.50455883e-03 -2.90179485e-03 -9.45933983e-02
6.61178296e-02 -1.04771658e-03 4.62440745e-04 -1.04771658e-03 5.98771991e-02 3.56084130e-03 4.62440745e-04 3.56084130e-03 -1.06015303e-01
5.43088466e-02 -9.94589456e-04 -1.31281766e-02 -9.94589456e-04 4.64094337e-02 -1.95092082e-03 -1.31281766e-02 -1.95092082e-03 -8.47796388e-02
5.82735306e-02 -3.40252469e-03 -1.14527113e-02 -3.40252469e-03 5.46709416e-02 -6.30962415e-03 -1.14527113e-02 -6.30962415e-03 -9.52867493e-02
6.35525528e-02 -6.22205465e-04 1.64573395e-03 -6.22205465e-04 4.77602407e-02 -2.32570944e-03 1.64573395e-03 -2.32570944e-03 -9.36252922e-02
6.16770303e-02 -5.83680107e-03 -3.30834568e-03 -5.83680107e-03 6.11625724e-02 -2.06760588e-03 -3.30834568e-03 -2.06760588e-03 -1.03389574e-01
5.01052495e-02 1.44989449e-02 -8.95653013e-03 1.44989449e-02 4.81642932e-02 -1.34165552e-02 -8.95653013e-03 -1.34165552e-02 -8.26657861e-02
5.61486203e-02 1.86742772e-03 -7.68528815e-03 1.86742772e-03 5.31126074e-02 -8.02746369e-03 -7.68528815e-03 -8.02746369e-03 -9.18621514e-02
5.05117173e-02 -1.57089095e-02 3.17760687e-02 -1.57089095e-02 6.18877648e-02 2.09822948e-03 3.17760687e-02 2.09822948e-03 -9.39568989e-02
4.30146744e-02 -1.41846901e-02 2.37442856e-02 -1.41846901e-02 6.65722862e-02 -3.60995467e-03 2.37442856e-02 -3.60995467e-03 -9.19770002e-02
7.40768630e-02 1.79912319e-03 4.16185642e-02 1.79912319e-03 6.23816680e-02 1.38136053e-02 4.16185642e-02 1.38136053e-02 -1.14494905e-01
7.08528813e-02 2.17255329e-05 2.99053737e-02 2.17255329e-05 6.30986420e-02 -1.79799562e-03 2.99053737e-02 -1.79799562e-03 -1.12545075e-01
6.44265121e-02 -3.83840475e-04 2.43259065e-02 -3.83840475e-04 5.93754356e-02 -3.55769614e-03 2.43259065e-02 -3.55769614e-03 -1.04958751e-01
6.71041948e-02 1.40958324e-02 1.35347970e-02 1.40958324e-02 6.32816590e-02 -6.07271044e-03 1.35347970e-02 -6.07271044e-03 -1.09324493e-01
7.66248360e-02 -1.75633481e-02 -6.67945096e-02 -1.75633481e-02 7.00287122e-02 -1.09964823e-03 -6.67945096e-02 -1.09964823e-03 -1.21953745e-01
5.71180619e-02 8.65676956e-03 -4.94318727e-02 8.65676956e-03 6.24640062e-02 -8.61628566e-03 -4.94318727e-02 -8.61628566e-03 -1.01874433e-01
7.18931165e-02 -2.53921957e-03 -1.93101347e-02 -2.53921957e-03 8.24033208e-02 1.24516907e-02 -1.93101347e-02 1.24516907e-02 -1.29475040e-01
6.33019567e-02 -8.67666675e-03 -6.58828694e-02 -8.67666675e-03 5.09333494e-02 6.84537275e-03 -6.58828694e-02 6.84537275e-03 -9.44662094e-02
7.18344748e-02 -5.68103351e-03 -1.56042539e-03 -5.68103351e-03 8.09282381e-02 1.18318233e-02 -1.56042539e-03 1.18318233e-02 -1.28649432e-01
6.27701823e-02 2.44602578e-03 -2.45383135e-02 2.44602578e-03 7.25383013e-02 -2.78486998e-03 -2.45383135e-02 -2.78486998e-03 -1.13752948e-01
6.41428698e-02 -5.26680984e-03 -4.40770655e-03 -5.26680984e-03 8.46232995e-02 3.72882769e-03 -4.40770655e-03 3.72882769e-03 -1.25183325e-01
5.84547129e-02 -7.74701638e-03 -2.62750071e-02 -7.74701638e-03 7.53862634e-02 -1.76172628e-02 -2.62750071e-02 -1.76172628e-02 -1.12374838e-01
4.62663631e-02 -9.75713900e-03 4.66252549e-02 -9.75713900e-03 6.36820548e-02 3.19468702e-03 4.66252549e-02 3.19468702e-03 -9.25400906e-02
3.85600645e-02 3.17370554e-03 3.43621513e-02 3.17370554e-03 5.99167366e-02 3.80374538e-03 3.43621513e-02 3.80374538e-03 -8.22167434e-02
8.12103237e-02 -4.85056163e-03 5.15752435e-02 -4.85056163e-03 6.81128103e-02 -8.87003275e-03 5.15752435e-02 -8.87003275e-03 -1.25987781e-01
6.47294084e-02 1.39934843e-03 4.85748593e-02 1.39934843e-03 6.80143926e-02 -1.04867721e-02 4.85748593e-02 -1.04867721e-02 -1.11258933e-01
5.41584536e-02 -3.00930925e-02 6.03485415e-02 -3.00930925e-02 7.43255112e-02 -6.86579500e-02 6.03485415e-02 -6.86579500e-02 -1.04426811e-01
8.53476018e-02 -6.07470050e-05 1.49575997e-02 -6.07470050e-05 6.56561911e-02 -5.66665210e-02 1.49575997e-02 -5.66665210e-02 -1.27432777e-01
-2.52826121e-02 -1.29518658e-01 -2.27730766e-01 -1.29518658e-01 -6.66247448e-03 -1.37070522e-01 -2.27730766e-01 -1.37070522e-01 4.59683314e-02
2.37371748e-02 -6.76572074e-03 -2.45698392e-02 -6.76572074e-03 1.92007634e-02 -3.93663968e-02 -2.45698392e-02 -3.93663968e-02 -2.61562690e-02
3.40704261e-02 -3.60436969e-03 1.21005541e-02 -3.60436969e-03 4.32138415e-02 2.68721072e-02 1.21005541e-02 2.68721072e-02 -6.31275044e-02
4.07278780e-02 -8.79383436e-03 3.12632717e-02 -8.79383436e-03 5.31598423e-02 1.02256243e-02 3.12632717e-02 1.02256243e-02 -7.94716459e-02
2.41023386e-02 -6.33942933e-03 2.98571214e-02 -6.33942933e-03 3.17159587e-02 2.35638875e-02 2.98571214e-02 2.35638875e-02 -3.48599305e-02
3.93570361e-02 -6.58590824e-03 1.73350234e-02 -6.58590824e-03 4.84526651e-02 1.61657329e-02 1.73350234e-02 1.61657329e-02 -6.62935879e-02
4.23627663e-02 7.06937222e-03 -3.79192550e-03 7.06937222e-03 5.30581642e-02 5.96313935e-03 -3.79192550e-03 5.96313935e-03 -8.11020862e-02
7.64024274e-02 1.42531330e-02 -2.13638621e-02 1.42531330e-02 8.80590502e-02 4.51485130e-02 -2.13638621e-02 4.51485130e-02 -1.43236473e-01
4.32472546e-02 1.65447604e-02 8.94083572e-03 1.65447604e-02 6.27315473e-02 1.03406425e-02 8.94083572e-03 1.03406425e-02 -8.36985201e-02
3.99002931e-02 8.27451277e-03 1.87301345e-02 8.27451277e-03 5.66329062e-02 8.88643423e-02 1.87301345e-02 8.88643423e-02 -7.84677528e-02
1.03560355e-01 -1.27239381e-02 8.24275669e-02 -1.27239381e-02 9.26858354e-02 3.58183952e-02 8.24275669e-02 3.58183952e-02 -1.68479737e-01
5.46588875e-02 -2.22893368e-02 -4.10827726e-02 -2.22893368e-02 8.68836224e-02 -1.42899558e-02 -4.10827726e-02 -1.42899558e-02 -1.17907742e-01
4.00504787e-02 -4.76338016e-03 6.88636815e-03 -4.76338016e-03 5.49978763e-02 1.19245276e-02 6.88636815e-03 1.19245276e-02 -7.94625506e-02
2.29473779e-02 1.31300318e-02 -8.55046115e-03 1.31300318e-02 2.26879362e-02 -5.94681577e-03 -8.55046115e-03 -5.94681577e-03 -2.22242065e-02
5.23346607e-02 -1.36814518e-02 1.60606466e-02 -1.36814518e-02 7.57361092e-02 -1.78205627e-02 1.60606466e-02 -1.78205627e-02 -1.05744652e-01
7.71787260e-02 -2.34196745e-02 -5.74839446e-02 -2.34196745e-02 8.92635975e-02 6.47061430e-02 -5.74839446e-02 6.47061430e-02 -1.40618026e-01
3.65050212e-02 5.67224137e-02 -1.13029033e-03 5.67224137e-02 8.29037453e-02 -1.36929892e-01 -1.13029033e-03 -1.36929892e-01 -9.50142095e-02
8.24723484e-02 -8.54525296e-03 -1.30489202e-02 -8.54525296e-03 4.66113805e-02 -3.72243710e-02 -1.30489202e-02 -3.72243710e-02 -1.07379638e-01
8.50566812e-02 8.28896736e-06 4.05230187e-03 8.28896736e-06 5.49829323e-02 -3.11983353e-03 4.05230187e-03 -3.11983353e-03 -1.17741976e-01
7.91366026e-02 3.58448585e-03 3.56672879e-03 3.58448585e-03 5.99992760e-02 6.03462759e-03 3.56672879e-03 6.03462759e-03 -1.17069703e-01
8.19397802e-02 1.42570690e-02 8.65297811e-03 1.42570690e-02 6.09847847e-02 5.63179803e-03 8.65297811e-03 5.63179803e-03 -1.20208458e-01
8.91560316e-02 3.99711565e-03 1.02541770e-02 3.99711565e-03 5.76091800e-02 -3.62767628e-03 1.02541770e-02 -3.62767628e-03 -1.23375090e-01
6.58597285e-02 1.01682609e-02 -1.59728600e-03 1.01682609e-02 6.76484853e-02 9.02738667e-03 -1.59728600e-03 9.02738667e-03 -1.12396361e-01
6.66160551e-02 1.99038099e-02 4.90248590e-03 1.99038099e-02 6.74532484e-02 8.75497152e-03 4.90248590e-03 8.75497152e-03 -1.12759600e-01
5.64413955e-02 6.29784958e-03 -7.10904686e-04 6.29784958e-03 6.78579509e-02 2.45689275e-03 -7.10904686e-04 2.45689275e-03 -1.04667243e-01
5.11862943e-02 9.87515079e-03 7.50282779e-04 9.87515079e-03 6.97292779e-02 1.19556602e-02 7.50282779e-04 1.19556602e-02 -1.01517225e-01
5.06616887e-02 -6.78954634e-03 -4.48387415e-04 -6.78954634e-03 6.33157995e-02 1.60254538e-03 -4.48387415e-04 1.60254538e-03 -9.59600173e-02
4.57553086e-02 -5.80143652e-03 -3.25396832e-03 -5.80143652e-03 6.44257762e-02 1.17374338e-03 -3.25396832e-03 1.17374338e-03 -9.30224946e-02
4.41342779e-02 -6.76766259e-03 -4.93739708e-03 -6.76766259e-03 6.06039949e-02 -2.45265767e-03 -4.93739708e-03 -2.45265767e-03 -8.81452616e-02
4.68541617e-02 -1.18070680e-02 -1.00067247e-02 -1.18070680e-02 5.58932591e-02 -3.27799376e-03 -1.00067247e-02 -3.27799376e-03 -8.69605578e-02
3.88666987e-02 1.65616418e-03 1.50756130e-03 1.65616418e-03 6.47524744e-02 -2.89112050e-03 1.50756130e-03 -2.89112050e-03 -8.71136673e-02
4.49047573e-02 -9.53734841e-03 -4.05363925e-03 -9.53734841e-03 5.66990301e-02 -1.51338440e-02 -4.05363925e-03 -1.51338440e-02 -8.53829086e-02
8.20562451e-02 1.83523441e-02 2.09274993e-02 1.83523441e-02 5.20094894e-02 6.60563016e-03 2.09274993e-02 6.60563016e-03 -1.08781542e-01
8.82504340e-02 1.01168689e-02 2.89629030e-02 1.01168689e-02 5.61916800e-02 -8.47807806e-03 2.89629030e-02 -8.47807806e-03 -1.18298326e-01
6.38675923e-02 2.36071618e-02 2.13406544e-03 2.36071618e-02 5.46361402e-02 4.75359400e-03 2.13406544e-03 4.75359400e-03 -9.67394158e-02
4.42159189e-02 1.97095106e-02 -2.25908692e-02 1.97095106e-02 5.18993682e-02 -4.80649393e-03 -2.25908692e-02 -4.80649393e-03 -8.00183772e-02
2.92680423e-02 -1.26822689e-03 -3.00340482e-02 -1.26822689e-03 4.59409952e-02 -2.26007187e-03 -3.00340482e-02 -2.26007187e-03 -6.24135360e-02
2.38668175e-02 -1.07942420e-02 -3.18975950e-02 -1.07942420e-02 3.61090605e-02 -1.06750382e-02 -3.18975950e-02 -1.06750382e-02 -4.71293762e-02
3.24908793e-02 -2.11241425e-02 -3.81316952e-02 -2.11241425e-02 3.91833400e-02 -1.93720134e-02 -3.81316952e-02 -1.93720134e-02 -5.91023229e-02
1.13674669e-01 -1.71115824e-03 6.87608309e-02 -1.71115824e-03 6.33153357e-02 -1.51896796e-02 6.87608309e-02 -1.51896796e-02 -1.49437507e-01
1.07723569e-01 -1.78619263e-02 6.11483244e-02 -1.78619263e-02 7.03731577e-02 -1.76720377e-02 6.11483244e-02 -1.76720377e-02 -1.49935891e-01
8.41875449e-02 1.89954365e-02 7.12231609e-03 1.89954365e-02 4.15498170e-02 -4.72586546e-02 7.12231609e-03 -4.72586546e-02 -1.04777735e-01
9.98683398e-03 1.28350194e-02 -2.41657355e-02 1.28350194e-02 6.18936537e-03 -2.55075019e-03 -2.41657355e-02 -2.55075019e-03 -4.96313364e-03
6.17053034e-03 -7.04345033e-02 -8.40477869e-02 -7.04345033e-02 -3.94389592e-02 -9.31009874e-02 -8.40477869e-02 -9.31009874e-02 4.23386283e-02
-2.99891892e-03 3.14846177e-03 -1.53395398e-03 3.14846177e-03 3.64550995e-03 -9.37779306e-04 -1.53395398e-03 -9.37779306e-04 4.76357222e-03
1.22467939e-01 -4.04764421e-03 -6.35568798e-03 -4.04764421e-03 1.09922479e-01 6.62880158e-02 -6.35568798e-03 6.62880158e-02 -2.00764688e-01
1.18303301e-01 1.18835590e-02 -4.10438097e-02 1.18835590e-02 1.18426671e-01 5.43539499e-02 -4.10438097e-02 5.43539499e-02 -2.05233018e-01
1.16507169e-01 -2.58717500e-02 2.59957635e-02 -2.58717500e-02 5.60189728e-02 -7.16902036e-02 2.59957635e-02 -7.16902036e-02 -1.44119106e-01
6.79821426e-02 -2.08836910e-03 -1.75715442e-02 -2.08836910e-03 8.63857369e-02 2.66401605e-02 -1.75715442e-02 2.66401605e-02 -1.20811768e-01
6.91560287e-02 -5.05137286e-03 1.70500949e-02 -5.05137286e-03 7.97449187e-02 -2.40213302e-03 1.70500949e-02 -2.40213302e-03 -1.15784337e-01
1.12498287e-01 -2.58682715e-03 8.40867963e-03 -2.58682715e-03 9.88338254e-02 3.43026306e-02 8.40867963e-03 3.43026306e-02 -1.82060137e-01
1.00817338e-01 5.27589745e-03 1.35130393e-02 5.27589745e-03 8.81327540e-02 -1.76252695e-02 1.35130393e-02 -1.76252695e-02 -1.59676567e-01
1.05014773e-01 2.58244486e-02 -1.45812163e-02 2.58244486e-02 9.59501192e-02 -3.47935315e-02 -1.45812163e-02 -3.47935315e-02 -1.70264125e-01
1.17972454e-01 -1.78732108e-02 -3.08538284e-02 -1.78732108e-02 6.70893164e-02 4.72491561e-02 -3.08538284e-02 4.72491561e-02 -1.55424211e-01
6.98055950e-02 1.04280373e-02 8.08995456e-03 1.04280373e-02 2.84909485e-02 -1.59113921e-02 8.08995456e-03 -1.59113921e-02 -7.87383383e-02
4.43333178e-02 -2.53680496e-02 5.72460727e-03 -2.53680496e-02 4.22383645e-02 4.15767450e-03 5.72460727e-03 4.15767450e-03 -6.80556657e-02
-1.41737331e-02 3.47003751e-02 2.06059106e-02 3.47003751e-02 -9.55099054e-03 -1.10101840e-02 2.06059106e-02 -1.10101840e-02 3.40806171e-02
-2.49463459e-03 -6.68285601e-03 6.53193239e-03 -6.68285601e-03 -1.24174412e-02 2.24470533e-02 6.53193239e-03 2.24470533e-02 2.66370773e-02
1.80002854e-02 -4.60032720e-02 -1.28042125e-02 -4.60032720e-02 -2.32413603e-02 4.53862643e-02 -1.28042125e-02 4.53862643e-02 1.07236059e-02
-8.18157361e-03 -3.19923894e-02 3.99073500e-03 -3.19923894e-02 8.37067080e-03 -4.96976827e-02 3.99073500e-03 -4.96976827e-02 7.21064959e-03
0.00000000e+00 0.00000000e+00 0.00000000e+00 0.00000000e+00 0.00000000e+00 0.00000000e+00 0.00000000e+00 0.00000000e+00 0.00000000e+00
0.00000000e+00 0.00000000e+00 0.00000000e+00 0.00000000e+00 0.00000000e+00 0.00000000e+00 0.00000000e+00 0.00000000e+00 0.00000000e+00
0.00000000e+00 0.00000000e+00 0.00000000e+00 0.00000000e+00 0.00000000e+00 0.00000000e+00 0.00000000e+00 0.00000000e+00 0.00000000e+00
0.00000000e+00 0.00000000e+00 0.00000000e+00 0.00000000e+00 0.00000000e+00 0.00000000e+00 0.00000000e+00 0.00000000e+00 0.00000000e+00
1.92099721e-05 -2.95137870e-05 -2.37851931e-05 -2.95137870e-05 -4.01854726e-05 -3.65515836e-05 -2.37851931e-05 -3.65515836e-05 9.39507136e-06
0.00000000e+00 0.00000000e+00 0.00000000e+00 0.00000000e+00 0.00000000e+00 0.00000000e+00 0.00000000e+00 0.00000000e+00 0.00000000e+00
0.00000000e+00 0.00000000e+00 0.00000000e+00 0.00000000e+00 0.00000000e+00 0.00000000e+00 0.00000000e+00 0.00000000e+00 0.00000000e+00
-3.24466770e-05 -1.53775511e-04 1.33468808e-05 -1.53775511e-04 9.07384310e-06 4.47162499e-06 1.33468808e-05 4.47162499e-06 3.41859874e-05
9.06041637e-02 1.03382627e-06 2.73852493e-06 1.03382627e-06 5.74967787e-02 7.63597200e-07 2.73852493e-06 7.63597200e-07 -1.24511272e-01
8.31342824e-02 6.75976160e-03 -1.22906458e-05 6.75976160e-03 6.24526292e-02 4.89215110e-03 -1.22906458e-05 4.89215110e-03 -1.22505404e-01
8.86606704e-02 2.09864234e-02 3.94741271e-03 2.09864234e-02 5.88558894e-02 7.99826160e-03 3.94741271e-03 7.99826160e-03 -1.23940514e-01
9.74852033e-02 6.18866598e-03 1.85360800e-03 6.18866598e-03 5.53962514e-02 -3.73602597e-06 1.85360800e-03 -3.73602597e-06 -1.28399268e-01
6.66145049e-02 6.78570312e-03 -4.57944152e-05 6.78570312e-03 7.22386315e-02 1.12759648e-02 -4.57944152e-05 1.12759648e-02 -1.16882458e-01
6.88567702e-02 2.68663170e-02 4.72904358e-03 2.68663170e-02 6.82554636e-02 7.84343795e-03 4.72904358e-03 7.84343795e-03 -1.15257846e-01
5.25265764e-02 1.12284617e-02 -3.88061908e-05 1.12284617e-02 7.59590641e-02 7.37778842e-03 -3.88061908e-05 7.37778842e-03 -1.08062066e-01
5.06047979e-02 1.73779652e-02 7.19841826e-03 1.73779652e-02 7.34529253e-02 1.20126118e-02 7.19841826e-03 1.20126118e-02 -1.03940479e-01
4.40550130e-02 5.11733757e-04 1.35361643e-06 5.11733757e-04 7.41952956e-02 2.67416972e-03 1.35361643e-06 2.67416972e-03 -9.93707143e-02
4.24837032e-02 1.93482660e-03 1.41004610e-02 1.93482660e-03 7.56428950e-02 1.08128188e-02 1.41004610e-02 1.08128188e-02 -1.00300992e-01
4.13295012e-02 -4.41120961e-03 -1.16507399e-05 -4.41120961e-03 7.02722631e-02 -6.39965234e-04 -1.16507399e-05 -6.39965234e-04 -9.37948264e-02
3.63603160e-02 -1.29262489e-02 1.60504705e-02 -1.29262489e-02 7.20284209e-02 1.58487746e-03 1.60504705e-02 1.58487746e-03 -9.25871842e-02
3.80176380e-02 -2.36585252e-02 2.66739080e-05 -2.36585252e-02 7.47712702e-02 6.42994745e-03 2.66739080e-05 6.42994745e-03 -9.45819765e-02
3.38998707e-02 -1.67500181e-02 1.89986052e-02 -1.67500181e-02 7.49044791e-02 -2.07019476e-02 1.89986052e-02 -2.07019476e-02 -9.26531926e-02
9.22191329e-02 2.94540736e-02 -8.10010097e-03 2.94540736e-02 6.26816284e-02 1.49007894e-02 -8.10010097e-03 1.49007894e-02 -1.28463097e-01
1.21424038e-01 5.30387880e-03 -3.72767285e-03 5.30387880e-03 8.45748316e-02 9.11134754e-04 -3.72767285e-03 9.11134754e-04 -1.77641258e-01
5.42289694e-02 4.33855942e-02 5.00185743e-05 4.33855942e-02 5.12809730e-02 1.67284622e-02 5.00185743e-05 1.67284622e-02 -8.35209971e-02
3.96903688e-02 2.70487498e-02 1.24632802e-02 2.70487498e-02 5.70534035e-02 1.53382164e-02 1.24632802e-02 1.53382164e-02 -8.14439785e-02
1.69011122e-02 -3.90570247e-03 1.13621955e-02 -3.90570247e-03 2.99528438e-02 9.01346200e-03 1.13621955e-02 9.01346200e-03 -3.63617954e-02
8.89717246e-03 -5.47644151e-03 9.87493311e-03 -5.47644151e-03 1.34309146e-02 -2.23646354e-03 9.87493311e-03 -2.23646354e-03 -1.32135040e-02
1.49663303e-02 -1.48004000e-02 7.05383066e-03 -1.48004000e-02 3.53754009e-03 -6.63907299e-03 7.05383066e-03 -6.63907299e-03 -9.57050174e-03
1.16150565e-01 -8.86954676e-03 3.68622988e-02 -8.86954676e-03 9.90152657e-02 2.03103842e-02 3.68622988e-02 2.03103842e-02 -1.81510173e-01
1.14779525e-01 -5.57329180e-03 2.47612763e-02 -5.57329180e-03 1.02518722e-01 -4.99452231e-04 2.47612763e-02 -4.99452231e-04 -1.80661455e-01
9.91203586e-02 4.36857175e-02 1.04718236e-02 4.36857175e-02 5.47061997e-02 3.66700031e-02 1.04718236e-02 3.66700031e-02 -1.35315463e-01
-3.84982454e-03 -7.75187775e-03 6.04787187e-03 -7.75187775e-03 1.70113286e-03 5.96294932e-03 6.04787187e-03 5.96294932e-03 1.20296314e-02
-1.82072677e-03 -4.56225272e-03 3.06626179e-03 -4.56225272e-03 -2.78375580e-03 -3.28580390e-04 3.06626179e-03 -3.28580390e-04 7.99416533e-03
-3.99731765e-03 -9.07181004e-03 -2.10299427e-02 -9.07181004e-03 1.18347963e-02 -7.66213929e-04 -2.10299427e-02 -7.66213929e-04 -5.66400295e-03
-6.93858787e-04 9.22926614e-04 3.72941630e-03 9.22926614e-04 -3.10563149e-03 1.03392768e-03 3.72941630e-03 1.03392768e-03 6.06201272e-03
1.08054490e-03 -2.45446484e-02 -2.12183102e-02 -2.45446484e-02 2.11633620e-03 -4.05549348e-04 -2.12183102e-02 -4.05549348e-04 -6.49898109e-04
2.84404552e-04 -3.10737474e-03 4.13955707e-03 -3.10737474e-03 -2.89981277e-03 7.41216252e-04 4.13955707e-03 7.41216252e-04 4.48841788e-03
1.26075125e-02 3.12271528e-03 -2.42125019e-02 3.12271528e-03 -1.14586195e-02 -2.97387689e-02 -2.42125019e-02 -2.97387689e-02 6.97645382e-03
-1.86846349e-02 -5.43822726e-03 8.01405415e-03 -5.43822726e-03 -3.64828965e-03 6.74085971e-03 8.01405415e-03 6.74085971e-03 3.04943956e-02
6.89281896e-02 3.99408154e-02 -7.97125418e-03 3.99408154e-02 7.09682927e-02 9.30392966e-02 -7.97125418e-03 9.30392966e-02 -1.23434961e-01
9.17832270e-05 -2.39777321e-04 -3.72688247e-04 -2.39777321e-04 1.86804379e-05 5.69982585e-03 -3.72688247e-04 5.69982585e-03 -5.24227034e-05
-1.96871635e-03 -5.17544674e-03 5.23409950e-05 -5.17544674e-03 1.22724707e-03 1.33472825e-04 5.23409950e-05 1.33472825e-04 1.17201442e-03
-1.38576615e-04 1.34553263e-05 1.69760087e-05 1.34553263e-05 1.89215278e-04 3.05160793e-05 1.69760087e-05 3.05160793e-05 -6.38306881e-05
-9.23942090e-05 -4.09868130e-05 -7.30972226e-05 -4.09868130e-05 8.64399226e-05 -1.20386013e-05 -7.30972226e-05 -1.20386013e-05 -4.00298211e-05
2.17856476e-04 -1.03475060e-03 5.62900095e-04 -1.03475060e-03 -3.72850278e-04 1.17407799e-05 5.62900095e-04 1.17407799e-05 2.70714343e-04
4.90345701e-04 -1.25352328e-03 -7.96262830e-05 -1.25352328e-03 -9.33485455e-04 -3.36241756e-05 -7.96262830e-05 -3.36241756e-05 6.46212662e-04
1.03743225e-01 2.66604852e-02 -2.60565188e-02 2.66604852e-02 1.61924154e-01 -1.35604455e-03 -2.60565188e-02 -1.35604455e-03 -2.19305873e-01
1.47653773e-01 1.34958923e-02 -7.24109542e-03 1.34958923e-02 1.65094212e-01 2.42979228e-02 -7.24109542e-03 2.42979228e-02 -2.63713956e-01
1.07855114e-01 -2.82239305e-02 1.96467706e-02 -2.82239305e-02 1.15913905e-01 3.18713232e-02 1.96467706e-02 3.18713232e-02 -1.88040555e-01
1.28315397e-01 -2.36801356e-02 4.05439120e-02 -2.36801356e-02 1.51292633e-01 2.87568576e-03 4.05439120e-02 2.87568576e-03 -2.42516190e-01
4.31792522e-05 -6.73182054e-05 5.75801721e-07 -6.73182054e-05 -2.86020020e-05 -1.31662650e-05 5.75801721e-07 -1.31662650e-05 -2.74639832e-05
-2.12561210e-03 -2.09076244e-03 7.00393524e-04 -2.09076244e-03 -9.54744210e-04 3.37254821e-03 7.00393524e-04 3.37254821e-03 5.69084918e-03
0.00000000e+00 0.00000000e+00 0.00000000e+00 0.00000000e+00 0.00000000e+00 0.00000000e+00 0.00000000e+00 0.00000000e+00 0.00000000e+00
1.22417241e-01 -2.59232307e-02 2.03752816e-02 -2.59232307e-02 8.05830620e-02 2.09070286e-02 2.03752816e-02 2.09070286e-02 -1.70442678e-01
1.29206732e-01 1.06087131e-02 1.62470937e-02 1.06087131e-02 6.81355745e-02 -1.46870327e-04 1.62470937e-02 -1.46870327e-04 -1.65676534e-01
1.15063246e-01 4.64760792e-03 4.12828010e-03 4.64760792e-03 1.02801118e-01 4.24203575e-02 4.12828010e-03 4.24203575e-02 -1.87518775e-01
1.34927865e-01 -3.52292121e-02 -4.96621081e-03 -3.52292121e-02 7.64412880e-02 4.72955909e-02 -4.96621081e-03 4.72955909e-02 -1.80610880e-01
2.82843348e-02 1.66921298e-02 -1.33845243e-02 1.66921298e-02 4.57367394e-03 6.57180609e-03 -1.33845243e-02 6.57180609e-03 -1.45333018e-02
-6.83902949e-03 -2.81980750e-03 -1.03586030e-02 -2.81980750e-03 3.89019970e-02 7.77521112e-03 -1.03586030e-02 7.77521112e-03 -1.44468118e-02
-2.63098566e-03 -4.48664703e-03 -5.63389796e-04 -4.48664703e-03 -2.84745483e-03 7.08986730e-03 -5.63389796e-04 7.08986730e-03 9.62437830e-03
-1.88728663e-04 -1.15287119e-04 -5.62359264e-06 -1.15287119e-04 8.87717979e-05 -1.44043452e-05 -5.62359264e-06 -1.44043452e-05 1.31785026e-04
0.00000000e+00 0.00000000e+00 0.00000000e+00 0.00000000e+00 0.00000000e+00 0.00000000e+00 0.00000000e+00 0.00000000e+00 0.00000000e+00
</DataArray>
<DataArray type="Float32" Name="Spatial_displacement" NumberOfComponents="3" format="ascii">
4.66696322e-02 2.54850507e-01 -1.25391975e-01
7.76179880e-02 2.41902053e-01 -1.02628171e-01
7.93946758e-02 3.06274354e-01 -1.48125201e-01
4.12605032e-02 2.99780786e-01 -1.56994626e-01
3.79051715e-02 2.93765664e-01 -1.92206293e-01
8.29737410e-02 2.88907409e-01 -1.80956125e-01
6.98089451e-02 3.71238261e-01 -2.36810923e-01
4.14630249e-02 3.38136733e-01 -2.30170175e-01
1.31304339e-01 2.23667860e-01 -7.91170597e-02
1.42508447e-01 2.92383879e-01 -1.44659877e-01
1.25479594e-01 2.79938608e-01 -2.04056233e-01
1.81392446e-01 3.43641967e-01 -2.88462996e-01
1.39030904e-01 2.09369346e-01 3.39150429e-05
1.39031738e-01 2.10651562e-01 3.19778919e-05
1.37747645e-01 2.10659981e-01 -1.73151493e-05
1.37719959e-01 2.09383741e-01 -3.44514847e-05
1.39017746e-01 2.09431350e-01 2.03847885e-05
1.39011264e-01 2.10721985e-01 4.04417515e-05
1.37721941e-01 2.10713103e-01 -2.67326832e-05
1.37736902e-01 2.09420621e-01 -2.55703926e-05
0.00000000e+00 0.00000000e+00 -2.81535059e-01
5.36071882e-02 0.00000000e+00 -2.83518970e-01
5.68966493e-02 5.89267761e-02 -2.77644813e-01
0.00000000e+00 5.66553473e-02 -2.72374719e-01
0.00000000e+00 0.00000000e+00 -3.77406597e-01
7.19897822e-02 0.00000000e+00 -3.76526088e-01
7.40063414e-02 5.90380952e-02 -3.74942690e-01
0.00000000e+00 5.52348718e-02 -3.66126657e-01
1.19056232e-01 0.00000000e+00 -2.97977418e-01
1.06432319e-01 5.07573411e-02 -2.88875490e-01
1.39419615e-01 0.00000000e+00 -3.87001425e-01
1.42495498e-01 6.24128804e-02 -3.87341708e-01
1.77120596e-01 0.00000000e+00 -3.13860685e-01
1.78323194e-01 4.60767969e-02 -3.09908569e-01
2.08030760e-01 0.00000000e+00 -4.04160798e-01
2.00834244e-01 5.47150075e-02 -4.02268082e-01
2.47029558e-01 0.00000000e+00 -3.27500850e-01
2.50062495e-01 4.77859378e-02 -3.32500964e-01
2.68578470e-01 0.00000000e+00 -4.16551769e-01
2.65197277e-01 4.58810553e-02 -4.23353136e-01
3.20921600e-01 0.00000000e+00 -3.44198793e-01
3.21241081e-01 5.06924242e-02 -3.41917545e-01
3.27503890e-01 0.00000000e+00 -4.25637782e-01
3.26451898e-01 4.50898930e-02 -4.37674493e-01
3.89360398e-01 0.00000000e+00 -3.49394590e-01
3.88727605e-01 5.17472327e-02 -3.47905874e-01
3.75260890e-01 0.00000000e+00 -4.29172784e-01
3.90537590e-01 4.58593667e-02 -4.37472224e-01
4.04432267e-02 1.11541480e-01 -2.56158322e-01
0.00000000e+00 1.26737013e-01 -2.52688855e-01
7.37858266e-02 1.19005963e-01 -3.51361930e-01
0.00000000e+00 1.18978441e-01 -3.49761486e-01
1.06561884e-01 1.13825485e-01 -2.77962744e-01
1.52516767e-01 1.26510650e-01 -3.78918439e-01
1.67542085e-01 1.20392263e-01 -3.21446687e-01
2.11295724e-01 1.19876578e-01 -4.35949862e-01
2.44862840e-01 1.32903159e-01 -3.32758248e-01
2.54225969e-01 1.05048701e-01 -4.54739243e-01
3.14870417e-01 1.25481099e-01 -3.30187619e-01
3.20593357e-01 1.17704473e-01 -4.53953743e-01
3.74969780e-01 1.33916304e-01 -3.35776389e-01
3.78028393e-01 1.21987522e-01 -4.54982042e-01
3.64453793e-02 1.90745741e-01 -2.11036652e-01
0.00000000e+00 1.87433943e-01 -2.14945406e-01
7.03213066e-02 1.88068092e-01 -3.14769894e-01
0.00000000e+00 1.86873004e-01 -3.05284411e-01
9.58297849e-02 1.67596772e-01 -2.42539778e-01
1.70853987e-01 1.92766771e-01 -3.89178395e-01
7.47909918e-02 1.41935512e-01 -5.58214545e-01
2.40552127e-01 1.71922252e-01 -5.12585461e-01
3.70280147e-02 2.36426800e-01 -1.77540541e-01
0.00000000e+00 2.45161235e-01 -1.85480133e-01
5.70438504e-02 2.59646744e-01 -2.49326959e-01
0.00000000e+00 2.67936140e-01 -2.72342831e-01
0.00000000e+00 2.87222862e-01 -1.96673274e-01
5.06106392e-02 3.40351224e-01 -2.71629661e-01
0.00000000e+00 3.19080949e-01 -2.85993934e-01
8.61807987e-02 2.36983061e-01 -1.41873583e-01
1.26979664e-01 2.73637652e-01 -2.73925304e-01
1.21692523e-01 3.17408681e-01 -2.66052157e-01
0.00000000e+00 3.42686772e-01 -2.41785347e-01
7.11874738e-02 3.99298251e-01 -3.44930828e-01
0.00000000e+00 4.16892350e-01 -3.25273782e-01
1.21221051e-01 4.22622085e-01 -3.41478437e-01
1.60093769e-01 2.94471890e-01 -3.97191554e-01
2.52807140e-01 3.34389091e-01 -3.94391447e-01
0.00000000e+00 0.00000000e+00 -4.82048392e-01
8.91447961e-02 0.00000000e+00 -4.84830022e-01
9.30391550e-02 6.10615015e-02 -4.81657147e-01
0.00000000e+00 5.68234473e-02 -4.78428543e-01
1.63118407e-01 0.00000000e+00 -4.89701629e-01
1.74024493e-01 7.06910864e-02 -4.91107255e-01
2.26258695e-01 0.00000000e+00 -4.98544455e-01
2.32972115e-01 7.29438439e-02 -4.99144435e-01
2.84380436e-01 0.00000000e+00 -5.07361948e-01
2.77170330e-01 6.59958646e-02 -5.07751346e-01
3.31262052e-01 0.00000000e+00 -5.11635423e-01
3.24175268e-01 5.98233342e-02 -5.16137123e-01
3.69257927e-01 0.00000000e+00 -5.14627635e-01
3.70959342e-01 6.52650967e-02 -5.13178825e-01
1.06016681e-01 1.29054695e-01 -4.74510252e-01
0.00000000e+00 1.18100032e-01 -4.66815054e-01
1.93741426e-01 1.42240092e-01 -4.91824716e-01
2.51031578e-01 1.43819660e-01 -5.19400001e-01
2.84474909e-01 1.29349351e-01 -5.42478323e-01
3.08851987e-01 1.11213759e-01 -5.55382729e-01
3.39366853e-01 1.19013995e-01 -5.55319488e-01
1.07809946e-01 1.79527208e-01 -4.35636282e-01
0.00000000e+00 1.99285939e-01 -4.20056581e-01
2.16498882e-01 1.86847106e-01 -4.98747647e-01
2.90322125e-01 1.79402351e-01 -5.75508416e-01
2.74226069e-01 7.74801970e-02 -6.46724820e-01
3.08203518e-01 1.61241844e-01 -5.98938704e-01
1.13819174e-01 2.54454613e-01 -3.56076747e-01
0.00000000e+00 2.40513861e-01 -3.99142116e-01
2.28262797e-01 2.34545514e-01 -4.56469029e-01
9.38999280e-02 3.73916805e-01 -4.27151203e-01
0.00000000e+00 3.82806838e-01 -4.26577091e-01
1.14147291e-01 4.87485528e-01 -4.62074876e-01
0.00000000e+00 4.81067896e-01 -4.47567999e-01
1.73550934e-01 3.44888240e-01 -4.19557869e-01
2.61851072e-01 4.25543487e-01 -4.51153040e-01
2.66466558e-01 2.50529200e-01 -5.45217514e-01
3.75829756e-01 2.81874359e-01 -5.13621807e-01
6.34018183e-02 2.22404361e-01 -7.25071430e-01
2.26893052e-01 2.13210434e-01 -6.32306814e-01
3.43807757e-01 1.61199600e-01 -6.00218534e-01
3.63077670e-01 1.62490219e-01 -5.99883199e-01
3.44113052e-01 1.43458828e-01 -6.00061655e-01
3.43935758e-01 1.25503331e-01 -6.00084782e-01
3.61898959e-01 1.25346467e-01 -6.00041628e-01
3.62021893e-01 1.43337533e-01 -5.99967122e-01
3.44081700e-01 1.43437907e-01 -6.00061536e-01
3.43998164e-01 1.25463367e-01 -6.00064337e-01
3.61901790e-01 1.25318229e-01 -6.00047350e-01
3.62157226e-01 1.43180355e-01 -5.99974871e-01
0.00000000e+00 0.00000000e+00 -6.00032926e-01
9.45076868e-02 0.00000000e+00 -6.00032926e-01
1.01872057e-01 6.53497353e-02 -6.00032926e-01
0.00000000e+00 5.87863997e-02 -6.00032926e-01
1.75296813e-01 0.00000000e+00 -6.00032926e-01
1.82584316e-01 7.58990347e-02 -6.00032926e-01
2.34107941e-01 0.00000000e+00 -6.00032926e-01
2.46039093e-01 8.11819732e-02 -6.00032926e-01
2.87226468e-01 0.00000000e+00 -6.00032926e-01
2.87736833e-01 8.04425925e-02 -6.00032926e-01
3.30560625e-01 0.00000000e+00 -6.00032926e-01
3.25941741e-01 7.51653537e-02 -6.00032926e-01
3.75894785e-01 0.00000000e+00 -6.00032926e-01
3.50968480e-01 8.49841535e-02 -6.00032926e-01
1.22733861e-01 1.18492223e-01 -6.00032926e-01
0.00000000e+00 1.12716489e-01 -6.00032926e-01
2.17210650e-01 1.43412724e-01 -6.00032926e-01
2.66240537e-01 1.55912578e-01 -6.00032926e-01
2.96266556e-01 1.45040154e-01 -6.00032926e-01
3.05770159e-01 1.29174814e-01 -6.00032926e-01
3.26455832e-01 1.30137339e-01 -6.00032926e-01
1.30896062e-01 2.21870154e-01 -6.00032926e-01
0.00000000e+00 2.28039443e-01 -6.00032926e-01
2.51453370e-01 1.95629030e-01 -6.00032926e-01
3.06499779e-01 1.90299839e-01 -6.00032926e-01
3.08864176e-01 1.61960497e-01 -6.00032926e-01
3.08552474e-01 1.42828956e-01 -6.00746989e-01
3.09110999e-01 1.43515021e-01 -6.00032926e-01
3.10637623e-01 1.27711803e-01 -6.01437807e-01
3.10890377e-01 1.29491106e-01 -6.00032926e-01
3.26283455e-01 1.80682033e-01 -6.17571592e-01
3.36466491e-01 1.93483815e-01 -6.00032926e-01
3.22985858e-01 2.24759936e-01 -6.00032926e-01
3.26459467e-01 1.60956845e-01 -5.99774003e-01
3.26608002e-01 1.61163762e-01 -6.00032926e-01
3.26226652e-01 1.43655434e-01 -6.00078523e-01
3.26312304e-01 1.43557549e-01 -6.00032926e-01
3.25935960e-01 1.25876725e-01 -5.99981904e-01
3.25846612e-01 1.25733808e-01 -6.00032926e-01
0.00000000e+00 2.09364474e-01 -6.00032926e-01
1.43197626e-01 2.40703136e-01 -6.00032926e-01
1.28256992e-01 4.02822286e-01 -6.00032926e-01
0.00000000e+00 4.27613497e-01 -6.00032926e-01
3.44026089e-01 1.43436626e-01 -6.00032926e-01
3.44201028e-01 1.61280945e-01 -6.00032926e-01
3.44035804e-01 1.25489056e-01 -6.00032926e-01
1.38440177e-01 5.09863913e-01 -6.00032926e-01
0.00000000e+00 4.98396516e-01 -6.00032926e-01
2.17722505e-01 3.51495683e-01 -6.00032926e-01
3.12755525e-01 4.20595884e-01 -6.00032926e-01
2.85156786e-01 2.28325456e-01 -6.00032926e-01
3.98390949e-01 2.65581369e-01 -6.00032926e-01
3.63444448e-01 1.61720201e-01 -6.00032926e-01
3.62170756e-01 1.43118918e-01 -6.00032926e-01
3.61898333e-01 1.25315875e-01 -6.00032926e-01
</DataArray>
<DataArray type="Float32" Name="Spatial_acceleration" NumberOfComponents="3" format="ascii">
3.97364294e-11 4.84784435e-09 -2.63849884e-08
8.78175133e-09 7.15255721e-09 -1.08083089e-08
1.72456112e-08 4.21206137e-09 -5.08626297e-09
-5.56310020e-09 5.67436196e-08 3.17891446e-09
-4.17232499e-10 2.87294384e-08 6.95387525e-09
2.31606609e-08 2.52496619e-08 1.30789619e-08
8.74201422e-09 2.19345093e-08 4.70479335e-08
2.59081521e-08 4.88758101e-09 2.19345093e-08
1.91529583e-08 -4.26173186e-09 2.22524008e-08
1.89542764e-08 2.92460118e-08 -2.03450519e-08
1.19739108e-08 1.58945728e-08 5.08626297e-09
-2.06629425e-09 8.72214656e-09 2.28881838e-08
4.17629877e-08 2.77093299e-08 -2.03897557e-08
9.59634772e-09 1.09275179e-10 1.86761220e-08
2.62707474e-08 -2.93205176e-08 -1.29590427e-08
-1.87555944e-08 4.13457535e-08 1.57952300e-08
4.11638368e-08 -2.41128717e-08 -2.61254609e-08
7.85415377e-09 -1.22214354e-08 5.59414417e-08
-8.57313509e-09 -2.86549326e-08 1.52016675e-08
-3.39423600e-08 9.94714622e-09 -4.79233755e-08
0.00000000e+00 0.00000000e+00 -3.81469700e-09
-1.91132230e-08 0.00000000e+00 -1.90734859e-08
1.47024792e-09 -4.76837125e-10 -6.51677423e-09
0.00000000e+00 -2.33650201e-08 6.99361147e-09
0.00000000e+00 0.00000000e+00 -2.28881838e-08
1.11858052e-08 0.00000000e+00 2.09808348e-08
-3.69548792e-09 1.39375524e-08 3.97364275e-09
0.00000000e+00 1.63714091e-08 1.52587880e-08
-1.39474867e-08 0.00000000e+00 -5.72204595e-09
1.30534170e-08 -9.27348953e-09 -1.01725259e-08
4.01337941e-09 0.00000000e+00 3.36964909e-08
1.20600063e-08 3.01996872e-09 3.17891420e-08
2.15818474e-08 0.00000000e+00 -1.46230059e-08
1.09672547e-08 2.90075941e-09 3.49680573e-09
2.47359271e-08 0.00000000e+00 -3.81469700e-09
-1.05686482e-08 6.13927842e-09 1.52587880e-08
2.58187445e-08 0.00000000e+00 -1.58945710e-08
-5.56310020e-09 -3.89416988e-09 -2.82923374e-08
3.19282201e-08 0.00000000e+00 5.08626297e-09
3.09944159e-09 -5.32468158e-09 2.54313148e-09
2.58237129e-08 0.00000000e+00 8.58306848e-09
1.61727272e-08 -3.81966414e-09 -1.52587880e-08
2.92857489e-08 0.00000000e+00 -4.13258849e-09
2.47160585e-08 1.32918361e-08 -2.25702923e-08
3.04877759e-08 0.00000000e+00 2.67028799e-08
6.59624710e-09 5.06639486e-09 -1.17619834e-08
3.97364275e-09 0.00000000e+00 -2.03450519e-08
-1.04904174e-08 2.07126138e-08 -2.09808348e-08
-1.50998432e-08 2.57492054e-08 -1.58945710e-08
0.00000000e+00 -2.07026805e-08 -1.93913774e-08
-2.12589892e-08 2.78154999e-10 -6.67571998e-09
0.00000000e+00 -1.80800752e-09 2.35239668e-08
-4.40506698e-09 -6.49406795e-09 3.63304498e-10
1.20600063e-08 2.13781988e-08 1.90734850e-09
-1.43686929e-08 7.62939489e-09 -4.57763694e-09
1.53950275e-08 1.19890480e-08 2.17982699e-08
-3.69548792e-09 2.35637021e-08 -4.45047998e-09
2.41597498e-09 -4.06901046e-09 1.37329099e-08
3.71932991e-08 -7.15255744e-10 3.81469718e-08
-1.64906186e-08 -1.53382622e-08 9.53674295e-09
2.00966994e-08 1.16427739e-08 1.39872229e-08
9.19836296e-09 -3.16301971e-08 8.90095997e-09
1.06720699e-09 7.08443793e-09 -1.59853979e-08
0.00000000e+00 1.65700911e-08 3.27428182e-08
-1.60308105e-08 4.81378448e-09 1.58037459e-08
0.00000000e+00 -3.01996872e-09 8.90095997e-09
2.57492054e-08 1.11262004e-08 8.90095997e-09
-9.63211111e-09 -8.51949089e-09 3.56038399e-08
-1.31745767e-10 5.15387661e-08 -8.77518591e-09
2.71267364e-08 -2.37358950e-08 3.05175796e-08
-4.03267997e-08 2.95184908e-08 -1.52587880e-08
0.00000000e+00 -1.41759715e-08 1.93913774e-08
-1.60005360e-08 2.15238991e-08 1.27156579e-08
0.00000000e+00 -1.17818511e-08 2.35239668e-08
0.00000000e+00 3.62793600e-08 -2.22523999e-09
-3.79199072e-09 2.32060753e-08 3.05175760e-08
0.00000000e+00 8.92082852e-09 2.73386629e-08
6.19888318e-09 2.87691755e-08 -1.27156574e-09
1.11262000e-09 5.42004912e-08 -5.08626297e-09
-5.72204617e-10 3.64939368e-08 -1.67846679e-08
0.00000000e+00 8.90095997e-09 1.39872229e-08
3.17891435e-10 -2.62260436e-09 4.60942573e-08
0.00000000e+00 -2.94049585e-08 2.47955327e-08
2.63055160e-08 1.70071921e-08 1.14440919e-08
-2.96698688e-09 4.09020338e-08 -8.47710513e-10
2.33120385e-08 1.86496312e-08 3.34845645e-08
0.00000000e+00 0.00000000e+00 3.81469700e-09
2.32458119e-09 0.00000000e+00 -2.47955327e-08
2.29477881e-09 1.05500222e-08 -1.27156579e-08
0.00000000e+00 -7.27176674e-09 -4.57763676e-08
5.32468158e-09 0.00000000e+00 -1.78019199e-08
-9.00030095e-09 6.11941031e-09 4.76837148e-09
2.66631446e-08 0.00000000e+00 5.08626297e-09
7.62939401e-09 3.24646621e-08 -6.35782871e-10
3.09149435e-08 0.00000000e+00 -5.72204595e-09
1.46726764e-08 1.08083089e-08 -2.41597498e-08
-2.22523999e-09 0.00000000e+00 -5.18163041e-08
-6.03993744e-09 3.09944159e-09 -2.67028799e-08
1.50998432e-08 0.00000000e+00 -1.90734859e-08
-1.89145410e-08 2.40008031e-08 -4.95910655e-08
1.00930535e-08 -5.72204595e-09 1.01725259e-08
0.00000000e+00 1.31924942e-08 3.81469700e-09
2.67028799e-08 -5.31474753e-10 -3.81469700e-09
3.76701337e-08 1.60137805e-08 -2.92460118e-08
-4.99543695e-09 4.90461094e-09 -1.16257439e-08
1.33514408e-08 -3.77231189e-08 -1.01725259e-08
1.31395126e-08 -1.12321645e-08 -9.32481559e-09
-2.22523999e-09 3.00937231e-08 -2.20404726e-08
0.00000000e+00 1.48349342e-08 1.69542105e-08
1.39077505e-08 2.75505907e-09 -2.54313157e-08
2.76035728e-08 -1.61064992e-08 9.32481559e-09
-1.03070557e-08 6.95281388e-09 1.79149193e-08
-1.14440923e-09 -2.97546396e-08 2.51770018e-08
-1.65303540e-08 3.62396229e-08 -6.35782893e-09
0.00000000e+00 4.32332357e-08 -2.88221571e-08
-5.26110320e-08 6.67571998e-09 -1.78019199e-08
-8.05324962e-09 -1.24242572e-08 -1.69542105e-08
0.00000000e+00 1.54177346e-08 -3.81469700e-09
-8.90095997e-09 2.91665394e-08 -7.62939401e-09
0.00000000e+00 1.88350668e-08 -2.28881838e-08
-3.17891446e-09 -2.04046557e-08 -3.81469718e-08
1.63714091e-08 3.93390636e-08 -1.01725259e-08
1.46230059e-08 -1.82092190e-08 3.17891446e-09
2.95639033e-08 2.16960903e-08 -1.33514400e-08
-9.81130022e-09 8.58179039e-09 6.74897507e-08
3.22848166e-08 5.22629016e-08 -5.22415711e-09
1.72257426e-08 -9.19898380e-09 3.71138249e-08
1.27156574e-09 2.26762555e-08 1.48349342e-08
-3.68493325e-08 2.81585404e-08 -6.08346156e-08
7.29163503e-08 4.43682069e-09 2.21704433e-08
2.17159588e-08 -4.26024194e-08 1.53308104e-08
6.02429111e-08 -1.06965503e-08 -3.21501865e-08
2.47955323e-09 1.31686528e-08 -1.32987896e-08
4.62929428e-09 2.06364525e-08 -3.96635791e-08
3.50823015e-08 -2.28683152e-08 -2.91665394e-08
1.34574041e-08 -1.01725259e-08 5.36276223e-09
0.00000000e+00 0.00000000e+00 -0.00000000e+00
-4.29550795e-08 0.00000000e+00 -0.00000000e+00
1.74542265e-08 5.00679009e-09 -0.00000000e+00
0.00000000e+00 -2.78155010e-09 -0.00000000e+00
2.69810361e-08 0.00000000e+00 -0.00000000e+00
1.01526574e-08 7.94728616e-10 -0.00000000e+00
3.17891435e-10 0.00000000e+00 -0.00000000e+00
3.65575148e-09 -1.66893006e-08 -0.00000000e+00
3.17096713e-08 0.00000000e+00 -0.00000000e+00
2.40008031e-08 -2.63055160e-08 -0.00000000e+00
-5.34293534e-08 0.00000000e+00 -0.00000000e+00
-1.25567121e-08 1.66893006e-08 -0.00000000e+00
2.67128151e-08 0.00000000e+00 -0.00000000e+00
-3.81469700e-09 2.62260436e-08 -0.00000000e+00
7.70886732e-09 -1.49408983e-08 -0.00000000e+00
0.00000000e+00 -1.58945710e-08 -0.00000000e+00
-7.54992158e-09 2.48476861e-09 -0.00000000e+00
2.64644626e-08 1.14440919e-08 -0.00000000e+00
3.33785999e-09 5.40415446e-09 -0.00000000e+00
-2.03177333e-08 9.13937870e-10 -0.00000000e+00
3.57627861e-09 3.94185378e-08 -0.00000000e+00
-3.49680573e-09 2.55902606e-08 -0.00000000e+00
0.00000000e+00 3.34779422e-08 -0.00000000e+00
-1.13381278e-08 1.35633682e-08 -0.00000000e+00
2.57492054e-08 -1.90734850e-09 -0.00000000e+00
1.80403390e-08 1.59740452e-08 -0.00000000e+00
-4.29153424e-09 -8.86122375e-09 1.66893006e-08
-6.83466572e-09 -1.22388206e-08 -0.00000000e+00
2.79744459e-08 -1.35501228e-08 3.94185378e-08
5.14984109e-08 -2.76565544e-08 -0.00000000e+00
2.95639033e-08 2.79744459e-08 3.81469718e-08
3.99947169e-08 6.99361147e-09 -0.00000000e+00
1.94927878e-08 4.67604870e-08 -0.00000000e+00
-2.18285461e-08 -4.45047998e-09 4.94983468e-08
-1.39044394e-08 1.29275852e-08 -0.00000000e+00
2.04245243e-08 3.44117481e-08 3.53455540e-08
2.06629434e-08 -1.87357259e-08 -0.00000000e+00
4.10079934e-08 5.08626297e-09 1.52587880e-08
2.76565544e-08 -3.09944141e-08 -0.00000000e+00
0.00000000e+00 -2.13091189e-09 -0.00000000e+00
-2.51184784e-09 2.32783162e-08 -0.00000000e+00
-4.18557056e-09 -9.58972546e-09 -0.00000000e+00
0.00000000e+00 -3.25838712e-09 -0.00000000e+00
-1.67687730e-08 -2.86499660e-08 -0.00000000e+00
-3.14712523e-08 -1.82257764e-08 -0.00000000e+00
4.73757567e-08 1.52587880e-08 -0.00000000e+00
6.05881212e-08 4.73658233e-08 -0.00000000e+00
0.00000000e+00 -4.03920808e-08 -0.00000000e+00
2.43981670e-08 -4.45048016e-08 -0.00000000e+00
2.74976095e-08 8.91685445e-08 -0.00000000e+00
1.36693314e-08 -4.31140279e-09 -0.00000000e+00
4.44253274e-08 4.83194995e-08 -0.00000000e+00
-2.67028799e-08 5.65846747e-08 -0.00000000e+00
-1.73250836e-08 7.62939401e-09 -0.00000000e+00
8.33471603e-08 4.62929384e-09 -0.00000000e+00
</DataArray>
<DataArray type="Float32" Name="Spatial_velocity" NumberOfComponents="3" format="ascii">
1.34423195e-09 -1.97893684e-08 -4.25681268e-10
-1.66934344e-09 -2.41658604e-08 -9.30614918e-10
-2.69619083e-09 -2.03073913e-08 -1.31242073e-09
2.08672329e-10 -1.58281654e-08 1.78344906e-09
-1.74133952e-09 -2.07411492e-08 -6.22649532e-09
-2.43288145e-09 -2.33734561e-08 5.04366193e-09
7.23235083e-10 -2.66300404e-08 2.42856624e-09
-1.05537246e-09 -1.84222362e-08 2.92857516e-10
-2.27958719e-09 -2.03926778e-08 -2.66692979e-09
-5.65875435e-09 -2.37330013e-08 8.83097151e-09
-2.00787942e-09 -2.60063775e-08 7.21435356e-09
-2.16184026e-09 -2.38813342e-08 -7.28254124e-11
-4.17309316e-08 -5.08569258e-08 -3.01533483e-08
-4.38565984e-08 -4.29176197e-08 9.64252944e-09
-3.90501675e-08 -3.94015345e-08 1.20721539e-08
-4.36663896e-08 -5.04722166e-08 9.72229230e-09
-6.05854424e-08 -6.53143459e-08 -2.27250263e-09
-5.29638271e-08 -8.80389095e-08 -2.52043399e-08
-6.27503525e-08 -7.66573365e-08 4.41935626e-08
-5.03414412e-08 -7.82310821e-08 -1.47544128e-08
0.00000000e+00 0.00000000e+00 -3.10964143e-09
6.88553614e-09 0.00000000e+00 -1.05959268e-08
-2.43321008e-09 -3.40673001e-09 -2.62716315e-09
0.00000000e+00 -6.56234311e-09 -6.43993348e-09
0.00000000e+00 0.00000000e+00 -4.88676832e-09
-3.63308117e-09 0.00000000e+00 1.11059550e-09
-9.20923959e-09 -3.23001403e-09 -5.22823296e-09
0.00000000e+00 -1.58555558e-09 1.91518401e-09
-1.25208750e-08 0.00000000e+00 -6.71248790e-09
-3.12360182e-09 -7.74261544e-09 -6.33594599e-09
4.36739800e-09 0.00000000e+00 -1.29209310e-09
-5.01295183e-09 -4.85242424e-09 -1.40845779e-10
-1.05763105e-08 0.00000000e+00 -1.09019123e-08
-8.03899614e-09 -4.34967706e-09 -5.08068521e-09
-7.82431453e-09 0.00000000e+00 -7.03373715e-09
-7.94726951e-09 -2.09602180e-09 -4.15706136e-10
-1.61375677e-08 0.00000000e+00 -4.01257250e-09
-9.31352595e-09 4.07425566e-10 -4.44532411e-09
-1.22119221e-08 0.00000000e+00 3.75147557e-09
-1.08659695e-08 -2.27657226e-09 -2.79565981e-10
-1.21852262e-08 0.00000000e+00 -1.44684720e-09
-1.80554416e-08 -2.50162357e-09 -5.52378054e-09
-1.56892987e-08 0.00000000e+00 4.35412817e-09
-1.05324149e-08 1.02241038e-09 -2.47036613e-10
-2.15256453e-08 0.00000000e+00 8.57831139e-10
-9.81146453e-09 -1.46996060e-09 5.64141089e-09
-1.94934291e-08 0.00000000e+00 1.14305436e-08
-1.56942743e-08 -1.15958632e-09 7.75101849e-09
3.98590938e-09 -2.64347566e-09 -5.50594237e-09
0.00000000e+00 -7.65783170e-09 -8.85605278e-09
-6.88303903e-09 -1.14576695e-08 3.09861248e-09
0.00000000e+00 3.39711614e-09 -6.01752870e-09
-4.16036494e-09 -6.89414570e-09 -2.72954104e-09
-5.71696734e-09 -5.02480635e-09 8.06061551e-10
-6.28960217e-09 -1.64110503e-09 -2.73347833e-09
-9.69536540e-09 -3.14068593e-09 -5.23057020e-09
-1.40301468e-08 3.08898107e-09 -9.19381371e-09
-1.12463141e-08 3.26078470e-10 3.58964458e-09
-1.74618737e-08 1.48195012e-10 -2.53686805e-09
-1.68435523e-08 5.05037789e-09 -5.97000849e-09
-1.68882117e-08 4.37764669e-09 5.23622745e-09
-2.18190319e-08 4.37353176e-09 6.40771791e-09
-1.05072306e-09 -1.35690890e-08 4.00752431e-10
0.00000000e+00 -1.68084995e-08 -4.13925072e-09
2.64367217e-09 -1.35135192e-08 -9.56294710e-10
0.00000000e+00 -6.75311185e-09 6.06126349e-09
-2.19760743e-09 -6.53363674e-09 -3.11765591e-09
4.55414773e-09 -3.68287689e-09 -7.79414755e-10
3.98975608e-09 -7.47542472e-09 -1.34793350e-08
1.53160973e-09 -1.09104425e-09 -2.62620437e-09
-5.20755217e-10 -1.82329902e-08 4.67091255e-09
0.00000000e+00 -1.94147987e-08 -3.44554119e-09
1.03236042e-09 -1.82844300e-08 2.65072186e-09
0.00000000e+00 -1.84114413e-08 6.78557033e-09
0.00000000e+00 -2.22936727e-08 -5.26663069e-09
-6.00876904e-10 -2.10025597e-08 -5.26889199e-10
0.00000000e+00 -2.26309105e-08 3.56883190e-09
4.03556388e-09 -1.97941503e-08 -8.28353719e-10
-3.35493322e-09 -1.51286912e-08 8.17977952e-09
-4.06130285e-09 -1.90480804e-08 4.43634818e-09
0.00000000e+00 -2.39912712e-08 2.69069678e-09
-3.29132921e-09 -2.18192611e-08 6.37068753e-09
0.00000000e+00 -2.33872139e-08 3.35971762e-09
-8.12621082e-09 -2.19530030e-08 8.84724916e-09
-7.69277086e-09 -2.86780111e-08 7.11591586e-09
-6.54947208e-09 -2.44463152e-08 5.00892039e-09
0.00000000e+00 0.00000000e+00 3.97423205e-09
-5.66026337e-09 0.00000000e+00 4.36839009e-09
-3.52005847e-09 -9.04556152e-10 6.76521017e-09
0.00000000e+00 -3.07930259e-09 4.71513539e-09
-1.30490232e-08 0.00000000e+00 1.30001121e-10
-8.36240233e-09 -3.74186682e-09 4.05539158e-09
-3.75373999e-09 0.00000000e+00 2.98595526e-09
-1.20801431e-08 -8.55615401e-09 7.59718066e-09
-4.78670881e-09 0.00000000e+00 7.39573824e-09
-1.18039756e-08 -2.43406673e-09 3.88521615e-09
-1.08626264e-08 0.00000000e+00 3.56739571e-09
-1.80842950e-08 1.77472204e-11 2.98432035e-09
-1.35105953e-08 0.00000000e+00 5.71268099e-09
-1.47869557e-08 5.38266542e-09 7.01990066e-09
-3.61521435e-09 -2.27117014e-09 2.34624031e-09
0.00000000e+00 -2.60892086e-09 7.56702256e-09
-9.26694099e-09 -2.97933211e-09 3.51632234e-09
-1.05194964e-08 -2.49289744e-09 3.05307601e-09
-1.43874983e-08 -5.99238081e-09 6.84929780e-10
-1.21824275e-08 1.19813581e-09 4.92482588e-09
-1.95037977e-08 2.93899927e-09 7.45284900e-09
1.52195645e-10 -1.56058615e-08 2.37825581e-09
0.00000000e+00 -9.45755829e-09 4.23599422e-09
-5.92683191e-09 -5.35882583e-09 2.53679300e-09
-8.16894019e-09 -9.67887104e-09 3.14548654e-09
-7.45747197e-09 -6.92496593e-09 -1.04674314e-09
-1.09275815e-08 -3.17088511e-09 6.29864427e-09
2.84229351e-09 -1.55303095e-08 5.83058579e-09
0.00000000e+00 -2.19841905e-08 3.78662568e-09
-7.33246130e-09 -9.01024944e-09 -4.36421210e-09
-2.15211582e-09 -2.43597462e-08 3.73862541e-09
0.00000000e+00 -1.92356779e-08 4.93880759e-09
-3.29937411e-09 -2.50751970e-08 9.25439991e-09
0.00000000e+00 -2.69691753e-08 1.39307521e-09
-8.76100614e-09 -2.36556446e-08 5.99357453e-10
-3.79440612e-09 -2.82801782e-08 7.62907160e-09
-2.55946730e-09 -2.26756747e-08 1.05880060e-08
-5.81600546e-09 -2.77453314e-08 -2.56680499e-09
-4.50464110e-09 -3.19737481e-08 2.24554153e-09
-1.63415574e-08 -2.72779239e-08 -2.96347835e-10
-5.22943644e-09 -1.55251989e-08 4.04471745e-09
-1.58148872e-08 -1.74827282e-08 1.78653425e-09
-9.90393545e-09 -4.99073360e-09 4.79060303e-09
-1.80084996e-08 -8.33168379e-09 1.73263670e-09
-2.38665905e-08 -9.20493903e-09 -8.43148307e-09
-2.28535200e-08 -2.91656246e-08 -4.68742556e-09
-2.16168772e-08 -9.44038270e-09 7.03032121e-09
-1.78787847e-08 -4.67666572e-09 5.95466521e-09
-2.55740122e-08 -7.57255925e-10 8.77486528e-10
-2.02198969e-08 -1.59267746e-08 6.56168542e-09
0.00000000e+00 0.00000000e+00 -0.00000000e+00
-6.79261181e-09 0.00000000e+00 -0.00000000e+00
1.69110104e-09 2.45326581e-09 -0.00000000e+00
0.00000000e+00 -1.50806667e-09 -0.00000000e+00
-9.95461225e-09 0.00000000e+00 -0.00000000e+00
-1.94876959e-09 -1.06405738e-08 -0.00000000e+00
-2.26778614e-08 0.00000000e+00 -0.00000000e+00
-5.49192558e-09 -3.59100194e-09 -0.00000000e+00
-1.75436803e-08 0.00000000e+00 -0.00000000e+00
-4.34198810e-09 -2.67308575e-09 -0.00000000e+00
-8.37373726e-09 0.00000000e+00 -0.00000000e+00
-9.75736292e-09 -2.37130626e-09 -0.00000000e+00
-2.11092530e-08 0.00000000e+00 -0.00000000e+00
-1.64398823e-08 2.10830264e-09 -0.00000000e+00
-2.50304399e-09 -4.11958734e-09 -0.00000000e+00
0.00000000e+00 -1.00824167e-08 -0.00000000e+00
-7.01482250e-09 -5.25485300e-09 -0.00000000e+00
-1.02400168e-08 -6.31111163e-09 -0.00000000e+00
-1.25106405e-08 -7.22868343e-09 -0.00000000e+00
-1.08687663e-08 -6.49013909e-09 -0.00000000e+00
-1.33683686e-08 2.03143413e-09 -0.00000000e+00
-5.06403541e-09 3.20132809e-11 -0.00000000e+00
0.00000000e+00 -6.23758201e-09 -0.00000000e+00
-8.47219184e-09 2.86834223e-10 -0.00000000e+00
-9.41497280e-09 -3.97673405e-09 -0.00000000e+00
-1.04574038e-08 -5.93026250e-09 -0.00000000e+00
-1.57929918e-08 -2.24523022e-09 1.54387028e-08
-1.84435187e-08 -4.36153069e-09 -0.00000000e+00
-9.96226746e-09 -1.63003455e-09 1.13466614e-08
-1.57785056e-08 8.15402235e-09 -0.00000000e+00
-1.26508350e-08 -5.33245803e-09 7.51378693e-09
-4.77139883e-09 -6.55815047e-09 -0.00000000e+00
-1.13522516e-08 5.63066571e-09 -0.00000000e+00
-1.08819158e-08 -3.00857983e-09 1.17503287e-08
-1.30321745e-08 -8.01276556e-09 -0.00000000e+00
-1.69896293e-08 -2.65959366e-09 7.36176808e-09
-1.78961983e-08 -5.38870193e-09 -0.00000000e+00
-2.00428421e-08 -3.87575216e-09 3.88729582e-09
-2.74744103e-08 -3.80271414e-09 -0.00000000e+00
0.00000000e+00 -2.94140836e-08 -0.00000000e+00
-7.53450102e-09 -1.44519223e-08 -0.00000000e+00
-1.20706267e-09 -3.18997841e-08 -0.00000000e+00
0.00000000e+00 -2.24090577e-08 -0.00000000e+00
-1.56902100e-08 -9.25056920e-09 -0.00000000e+00
-1.03735376e-08 -1.47171813e-08 -0.00000000e+00
-1.80422752e-08 -1.39774468e-08 -0.00000000e+00
2.06869144e-09 -3.10066071e-08 -0.00000000e+00
0.00000000e+00 -2.00624051e-08 -0.00000000e+00
-4.76161777e-09 -2.57933799e-08 -0.00000000e+00
-7.55505880e-09 -2.12367315e-08 -0.00000000e+00
-7.93956811e-09 -3.40531550e-08 -0.00000000e+00
-1.64968021e-08 -2.21007355e-08 -0.00000000e+00
-2.42862797e-08 -1.32774725e-08 -0.00000000e+00
-2.11564988e-08 -8.79098305e-09 -0.00000000e+00
-1.85444762e-08 -6.35452024e-10 -0.00000000e+00
</DataArray>
<DataArray type="Float32" Name="Reaction_force" NumberOfComponents="3" format="ascii">
0.00000000e+00 0.00000000e+00 0.00000000e+00
0.00000000e+00 0.00000000e+00 0.00000000e+00
0.00000000e+00 0.00000000e+00 0.00000000e+00
0.00000000e+00 0.00000000e+00 0.00000000e+00
0.00000000e+00 0.00000000e+00 0.00000000e+00
0.00000000e+00 0.00000000e+00 0.00000000e+00
0.00000000e+00 0.00000000e+00 0.00000000e+00
0.00000000e+00 0.00000000e+00 0.00000000e+00
0.00000000e+00 0.00000000e+00 0.00000000e+00
0.00000000e+00 0.00000000e+00 0.00000000e+00
0.00000000e+00 0.00000000e+00 0.00000000e+00
0.00000000e+00 0.00000000e+00 0.00000000e+00
0.00000000e+00 0.00000000e+00 0.00000000e+00
0.00000000e+00 0.00000000e+00 0.00000000e+00
0.00000000e+00 0.00000000e+00 0.00000000e+00
0.00000000e+00 0.00000000e+00 0.00000000e+00
0.00000000e+00 0.00000000e+00 0.00000000e+00
0.00000000e+00 0.00000000e+00 0.00000000e+00
0.00000000e+00 0.00000000e+00 0.00000000e+00
0.00000000e+00 0.00000000e+00 0.00000000e+00
1.19945273e-01 -1.05215430e-01 0.00000000e+00
0.00000000e+00 1.02022243e+00 0.00000000e+00
0.00000000e+00 0.00000000e+00 0.00000000e+00
1.86078143e+00 0.00000000e+00 0.00000000e+00
4.42328990e-01 9.50917363e-01 0.00000000e+00
0.00000000e+00 1.35153830e+00 0.00000000e+00
0.00000000e+00 0.00000000e+00 0.00000000e+00
1.27116728e+00 0.00000000e+00 0.00000000e+00
0.00000000e+00 1.60087550e+00 0.00000000e+00
0.00000000e+00 0.00000000e+00 0.00000000e+00
0.00000000e+00 1.18973708e+00 0.00000000e+00
0.00000000e+00 0.00000000e+00 0.00000000e+00
0.00000000e+00 2.00971651e+00 0.00000000e+00
0.00000000e+00 0.00000000e+00 0.00000000e+00
0.00000000e+00 1.63696218e+00 0.00000000e+00
0.00000000e+00 0.00000000e+00 0.00000000e+00
0.00000000e+00 2.71042395e+00 0.00000000e+00
0.00000000e+00 0.00000000e+00 0.00000000e+00
0.00000000e+00 1.53304636e+00 0.00000000e+00
0.00000000e+00 0.00000000e+00 0.00000000e+00
0.00000000e+00 9.97423351e-01 0.00000000e+00
0.00000000e+00 0.00000000e+00 0.00000000e+00
0.00000000e+00 -2.68721998e-01 0.00000000e+00
0.00000000e+00 0.00000000e+00 0.00000000e+00
0.00000000e+00 7.25273788e-03 0.00000000e+00
0.00000000e+00 0.00000000e+00 0.00000000e+00
0.00000000e+00 -5.85756898e-01 0.00000000e+00
0.00000000e+00 0.00000000e+00 0.00000000e+00
0.00000000e+00 0.00000000e+00 0.00000000e+00
1.50656939e+00 0.00000000e+00 0.00000000e+00
0.00000000e+00 0.00000000e+00 0.00000000e+00
1.08920550e+00 0.00000000e+00 0.00000000e+00
0.00000000e+00 0.00000000e+00 0.00000000e+00
0.00000000e+00 0.00000000e+00 0.00000000e+00
0.00000000e+00 0.00000000e+00 0.00000000e+00
0.00000000e+00 0.00000000e+00 0.00000000e+00
0.00000000e+00 0.00000000e+00 0.00000000e+00
0.00000000e+00 0.00000000e+00 0.00000000e+00
0.00000000e+00 0.00000000e+00 0.00000000e+00
0.00000000e+00 0.00000000e+00 0.00000000e+00
0.00000000e+00 0.00000000e+00 0.00000000e+00
0.00000000e+00 0.00000000e+00 0.00000000e+00
0.00000000e+00 0.00000000e+00 0.00000000e+00
3.96222994e-02 0.00000000e+00 0.00000000e+00
0.00000000e+00 0.00000000e+00 0.00000000e+00
1.39677668e+00 0.00000000e+00 0.00000000e+00
0.00000000e+00 0.00000000e+00 0.00000000e+00
0.00000000e+00 0.00000000e+00 0.00000000e+00
0.00000000e+00 0.00000000e+00 0.00000000e+00
0.00000000e+00 0.00000000e+00 0.00000000e+00
0.00000000e+00 0.00000000e+00 0.00000000e+00
9.12158489e-01 0.00000000e+00 0.00000000e+00
0.00000000e+00 0.00000000e+00 0.00000000e+00
7.78732359e-01 0.00000000e+00 0.00000000e+00
4.52344477e-01 0.00000000e+00 0.00000000e+00
0.00000000e+00 0.00000000e+00 0.00000000e+00
3.46174836e-03 0.00000000e+00 0.00000000e+00
0.00000000e+00 0.00000000e+00 0.00000000e+00
0.00000000e+00 0.00000000e+00 0.00000000e+00
0.00000000e+00 0.00000000e+00 0.00000000e+00
-6.84872150e-01 0.00000000e+00 0.00000000e+00
0.00000000e+00 0.00000000e+00 0.00000000e+00
3.50226402e-01 0.00000000e+00 0.00000000e+00
0.00000000e+00 0.00000000e+00 0.00000000e+00
0.00000000e+00 0.00000000e+00 0.00000000e+00
0.00000000e+00 0.00000000e+00 0.00000000e+00
4.58847910e-01 1.39419174e+00 0.00000000e+00
0.00000000e+00 1.65253949e+00 0.00000000e+00
0.00000000e+00 0.00000000e+00 0.00000000e+00
7.51459956e-01 0.00000000e+00 0.00000000e+00
0.00000000e+00 1.83139205e-01 0.00000000e+00
0.00000000e+00 0.00000000e+00 0.00000000e+00
0.00000000e+00 3.10205549e-01 0.00000000e+00
0.00000000e+00 0.00000000e+00 0.00000000e+00
0.00000000e+00 -2.40063876e-01 0.00000000e+00
0.00000000e+00 0.00000000e+00 0.00000000e+00
0.00000000e+00 -1.91470408e+00 0.00000000e+00
0.00000000e+00 0.00000000e+00 0.00000000e+00
0.00000000e+00 -2.09793186e+00 0.00000000e+00
0.00000000e+00 0.00000000e+00 0.00000000e+00
0.00000000e+00 0.00000000e+00 0.00000000e+00
1.24721313e+00 0.00000000e+00 0.00000000e+00
0.00000000e+00 0.00000000e+00 0.00000000e+00
0.00000000e+00 0.00000000e+00 0.00000000e+00
0.00000000e+00 0.00000000e+00 0.00000000e+00
0.00000000e+00 0.00000000e+00 0.00000000e+00
0.00000000e+00 0.00000000e+00 0.00000000e+00
0.00000000e+00 0.00000000e+00 0.00000000e+00
-1.50082067e-01 0.00000000e+00 0.00000000e+00
0.00000000e+00 0.00000000e+00 0.00000000e+00
0.00000000e+00 0.00000000e+00 0.00000000e+00
0.00000000e+00 0.00000000e+00 0.00000000e+00
0.00000000e+00 0.00000000e+00 0.00000000e+00
0.00000000e+00 0.00000000e+00 0.00000000e+00
1.07605076e+00 0.00000000e+00 0.00000000e+00
0.00000000e+00 0.00000000e+00 0.00000000e+00
0.00000000e+00 0.00000000e+00 0.00000000e+00
7.27927685e-02 0.00000000e+00 0.00000000e+00
0.00000000e+00 0.00000000e+00 0.00000000e+00
9.76319671e-01 0.00000000e+00 0.00000000e+00
0.00000000e+00 0.00000000e+00 0.00000000e+00
0.00000000e+00 0.00000000e+00 0.00000000e+00
0.00000000e+00 0.00000000e+00 0.00000000e+00
0.00000000e+00 0.00000000e+00 0.00000000e+00
0.00000000e+00 0.00000000e+00 0.00000000e+00
0.00000000e+00 0.00000000e+00 0.00000000e+00
0.00000000e+00 0.00000000e+00 0.00000000e+00
0.00000000e+00 0.00000000e+00 0.00000000e+00
0.00000000e+00 0.00000000e+00 0.00000000e+00
0.00000000e+00 0.00000000e+00 0.00000000e+00
0.00000000e+00 0.00000000e+00 0.00000000e+00
0.00000000e+00 0.00000000e+00 0.00000000e+00
0.00000000e+00 0.00000000e+00 0.00000000e+00
0.00000000e+00 0.00000000e+00 0.00000000e+00
0.00000000e+00 0.00000000e+00 0.00000000e+00
0.00000000e+00 0.00000000e+00 0.00000000e+00
1.53913110e-01 6.67943060e-01 -9.52363682e+00
0.00000000e+00 9.18682098e-01 -1.91063690e+01
0.00000000e+00 0.00000000e+00 -3.76071396e+01
2.49438316e-01 0.00000000e+00 -1.93515053e+01
0.00000000e+00 8.47107172e-03 -1.92562389e+01
0.00000000e+00 0.00000000e+00 -3.82357635e+01
0.00000000e+00 -3.03627908e-01 -1.94734879e+01
0.00000000e+00 0.00000000e+00 -3.56614914e+01
0.00000000e+00 -7.89933801e-01 -1.76969070e+01
0.00000000e+00 0.00000000e+00 -3.21379509e+01
0.00000000e+00 -1.48956990e+00 -1.44613724e+01
0.00000000e+00 0.00000000e+00 -2.80766563e+01
0.00000000e+00 -1.80672109e+00 -8.07733059e+00
0.00000000e+00 0.00000000e+00 -1.58089170e+01
0.00000000e+00 0.00000000e+00 -4.28364487e+01
1.89864945e+00 0.00000000e+00 -2.33738613e+01
0.00000000e+00 0.00000000e+00 -3.17853012e+01
0.00000000e+00 0.00000000e+00 -2.38312569e+01
0.00000000e+00 0.00000000e+00 -1.98735485e+01
0.00000000e+00 0.00000000e+00 -2.03233891e+01
0.00000000e+00 0.00000000e+00 -1.26498699e+01
0.00000000e+00 0.00000000e+00 -3.17573509e+01
-8.70844424e-01 0.00000000e+00 -1.87858906e+01
0.00000000e+00 0.00000000e+00 -2.33201103e+01
0.00000000e+00 0.00000000e+00 -1.20341072e+01
0.00000000e+00 0.00000000e+00 -6.73871899e+00
0.00000000e+00 0.00000000e+00 0.00000000e+00
0.00000000e+00 0.00000000e+00 -8.34600163e+00
0.00000000e+00 0.00000000e+00 0.00000000e+00
0.00000000e+00 0.00000000e+00 -5.13193512e+00
0.00000000e+00 0.00000000e+00 0.00000000e+00
0.00000000e+00 0.00000000e+00 -3.28801441e+00
0.00000000e+00 0.00000000e+00 -1.22890425e+01
0.00000000e+00 0.00000000e+00 0.00000000e+00
0.00000000e+00 0.00000000e+00 2.38116574e+00
0.00000000e+00 0.00000000e+00 0.00000000e+00
0.00000000e+00 0.00000000e+00 5.29661608e+00
0.00000000e+00 0.00000000e+00 0.00000000e+00
0.00000000e+00 0.00000000e+00 3.25521421e+00
6.03327394e-01 0.00000000e+00 -1.80185413e+01
0.00000000e+00 0.00000000e+00 -2.10603695e+01
0.00000000e+00 0.00000000e+00 -3.34489441e+01
2.22346735e+00 0.00000000e+00 -2.20276794e+01
0.00000000e+00 0.00000000e+00 1.47418308e+00
0.00000000e+00 0.00000000e+00 -5.81980896e+00
0.00000000e+00 0.00000000e+00 -1.09620595e+00
0.00000000e+00 0.00000000e+00 -1.58482990e+01
8.40095803e-02 0.00000000e+00 -5.87436962e+00
0.00000000e+00 0.00000000e+00 -1.91315079e+01
0.00000000e+00 0.00000000e+00 -1.83182697e+01
0.00000000e+00 0.00000000e+00 -1.18621368e+01
0.00000000e+00 0.00000000e+00 -1.09098682e+01
0.00000000e+00 0.00000000e+00 -5.70508480e+00
0.00000000e+00 0.00000000e+00 6.15321219e-01
0.00000000e+00 0.00000000e+00 -8.78978819e-02
</DataArray>
<DataArray type="Float32" Name="Equivalent_plastic_strain" format="ascii">
6.42436841e-02
6.45411474e-02
7.57636158e-02
7.52011091e-02
4.70486053e-02
5.97123975e-02
1.29149510e-01
1.03481865e-01
9.95544232e-02
1.28826469e-01
1.47165559e-01
1.29161432e-01
0.00000000e+00
0.00000000e+00
0.00000000e+00
0.00000000e+00
0.00000000e+00
0.00000000e+00
0.00000000e+00
0.00000000e+00
9.54136960e-02
9.50832702e-02
9.47854621e-02
9.50050913e-02
1.05045676e-01
1.05693568e-01
1.07513593e-01
1.09013969e-01
9.40067787e-02
9.78360334e-02
1.02477927e-01
1.05582004e-01
9.52894688e-02
9.32663321e-02
9.69208367e-02
9.93414950e-02
9.60369781e-02
1.10575842e-01
9.13211238e-02
8.90958421e-02
9.51880869e-02
1.06339562e-01
8.51069503e-02
9.54159917e-02
9.44165774e-02
1.03837341e-01
8.32756050e-02
9.28789061e-02
9.79854912e-02
9.39952582e-02
1.17239377e-01
1.14253340e-01
1.01150706e-01
1.10388824e-01
1.33248252e-01
1.02723076e-01
1.30688004e-01
1.06639053e-01
1.28843471e-01
1.14428051e-01
1.25871919e-01
1.14587098e-01
9.67897070e-02
8.55778791e-02
1.29376117e-01
1.15014531e-01
1.24867918e-01
1.32361831e-01
1.18914418e-01
4.01478310e-02
6.86318124e-02
8.14942960e-02
5.93472340e-02
7.99449747e-02
8.04917421e-02
1.39063954e-01
9.38988877e-02
9.96562615e-02
1.67488482e-01
1.26977105e-01
8.09987895e-02
4.82705983e-02
1.09792408e-01
1.49017660e-01
1.35824343e-01
1.20562765e-01
1.19020924e-01
1.17807074e-01
1.21253422e-01
1.24836434e-01
1.12696605e-01
1.13767064e-01
1.04790147e-01
1.02908805e-01
9.61748082e-02
9.32947034e-02
8.85900185e-02
8.69035805e-02
8.81157778e-02
8.69023167e-02
1.17867591e-01
1.26276674e-01
1.02583607e-01
8.41134763e-02
6.57848820e-02
5.50497438e-02
6.51287896e-02
1.55760318e-01
1.55059357e-01
1.10843631e-01
2.28582642e-02
6.23611994e-02
4.28474374e-03
2.05124121e-01
1.98508109e-01
1.49154447e-01
1.36830569e-01
1.31797100e-01
1.76568817e-01
1.59056045e-01
1.72606200e-01
1.61517214e-01
7.10172697e-02
7.98254916e-02
-2.03038733e-02
1.33522032e-02
4.48757905e-02
1.09397868e-02
0.00000000e+00
0.00000000e+00
0.00000000e+00
0.00000000e+00
-6.18176799e-05
0.00000000e+00
0.00000000e+00
5.77369841e-05
1.25958472e-01
1.23203829e-01
1.25885123e-01
1.30645119e-01
1.17262095e-01
1.16602095e-01
1.09043788e-01
1.06018314e-01
1.00726798e-01
1.00197468e-01
9.50002410e-02
9.21725966e-02
9.71705317e-02
9.39756148e-02
1.33681199e-01
1.71839185e-01
9.52290157e-02
8.35232353e-02
4.24680633e-02
2.32777407e-02
2.10161875e-02
1.80986337e-01
1.84578687e-01
1.29096193e-01
3.68318672e-03
-2.52505988e-03
1.40673508e-02
-2.28137937e-03
1.58768955e-02
1.48419139e-03
3.35652884e-02
-8.26909347e-03
1.15552664e-01
-1.22842540e-04
2.71887158e-03
-7.04173913e-05
-2.45461665e-04
6.17687299e-04
1.08403456e-03
2.28273377e-01
2.62870163e-01
1.89331929e-01
2.33593933e-01
-6.87814913e-05
-1.52921894e-03
0.00000000e+00
1.73817888e-01
1.68938413e-01
1.79990575e-01
1.80938475e-01
3.68158387e-02
3.77867427e-02
-6.28140260e-04
1.69879335e-04
0.00000000e+00
</DataArray>
<DataArray type="Float32" Name="Stress_Mises" format="ascii">
1.88853283e+01
2.95012260e+01
6.38869238e+01
3.49512823e+01
2.43787700e+01
3.96371720e+01
4.19877455e+01
2.88385340e+01
6.14828305e+01
1.34262104e+02
1.20604767e+02
1.08448364e+02
1.72541136e+00
1.26075852e+00
2.08827835e+00
2.95649076e+00
8.29502463e-01
6.21390402e-01
1.05754924e+00
1.22076643e+00
2.78533974e+01
2.74333858e+01
2.30129770e+01
2.68689046e+01
2.26216817e+01
2.98295903e+01
2.83921228e+01
2.92779980e+01
2.19871957e+01
2.45196974e+01
2.98733635e+01
3.25249777e+01
2.30218184e+01
2.43993708e+01
2.65835514e+01
2.82357352e+01
2.10181261e+01
2.74969850e+01
2.24402528e+01
2.35221581e+01
1.65249586e+01
3.11997599e+01
1.60245118e+01
2.55017721e+01
1.58409443e+01
2.53432698e+01
1.74310737e+01
2.49220595e+01
2.59351005e+01
2.53871354e+01
3.74608911e+01
2.91407795e+01
4.51795860e+01
3.91841801e+01
1.21128992e+02
4.33164133e+01
8.94474792e+01
7.49908882e+01
6.88805084e+01
8.28319492e+01
6.03533363e+01
7.89441738e+01
2.44903344e+01
2.93440944e+01
4.28566433e+01
2.48892284e+01
1.48233091e+02
6.49976212e+01
9.61635361e+01
2.93245697e+01
2.72281720e+01
1.81143785e+01
2.78732905e+01
2.92584537e+01
2.24082832e+01
2.95882936e+01
3.73892615e+01
9.37153893e+01
1.52909439e+02
5.92608845e+01
4.01874523e+01
4.44747715e+01
4.37532816e+01
6.80458155e+01
1.28577669e+02
4.21841335e+01
2.51811476e+01
3.05376070e+01
2.99521632e+01
3.24140214e+01
3.56654344e+01
3.66076678e+01
3.70049324e+01
4.24470247e+01
3.41118646e+01
3.04685104e+01
2.25867374e+01
2.41294262e+01
2.65176382e+01
4.16605105e+01
4.94368696e+01
5.45977678e+01
4.33034960e+01
4.06510096e+01
4.29408206e+01
5.10712767e+01
5.71337496e+01
6.40150450e+01
6.58692843e+01
4.79932291e+01
3.77064308e+01
6.33467178e+01
2.15830580e+01
5.96712705e+01
4.54767348e+01
1.86013237e+02
7.72709866e+01
4.45980055e+01
1.96222603e+01
2.05116131e+01
7.40023460e+01
4.94529309e+01
6.67068639e+01
3.59944053e+01
4.70860672e+01
1.95004959e+01
2.66306739e+01
2.25638847e+01
4.21912479e+00
1.95378542e+00
3.28062510e+00
4.75846243e+00
1.34416174e+01
7.20454470e+00
5.38790464e+00
1.76113695e+01
2.91780701e+01
3.17321548e+01
2.92387370e+01
3.10507693e+01
3.89457474e+01
3.69454880e+01
4.12420502e+01
5.17340784e+01
4.07056770e+01
4.75531788e+01
3.73735170e+01
3.10917082e+01
5.24820518e+01
4.67446289e+01
4.87209473e+01
4.34127622e+01
4.61352818e+01
4.34246179e+01
2.47309251e+01
2.25360324e+01
3.02251711e+01
1.49377773e+02
1.57443222e+02
3.39419117e+01
2.15660739e+01
1.42498088e+01
2.30287085e+01
1.84388280e+01
2.42819519e+01
2.41054516e+01
6.64732456e+01
1.77204919e+01
4.98781853e+01
2.45643984e+01
1.93744493e+01
2.25278254e+01
1.82337093e+01
1.85507088e+01
2.00602980e+01
1.28773453e+02
1.91833847e+02
6.26497968e+01
3.95538163e+01
1.32765442e+01
2.26212622e+01
1.02408113e+01
2.47180370e+01
8.88704014e+00
3.40915203e+01
4.30181122e+01
3.56480031e+01
2.01251960e+01
1.60164285e+01
1.59293475e+01
5.30968475e+00
</DataArray>
<DataArray type="Float32" Name="Stress_Max_Principal" format="ascii">
2.16403082e+01
1.28878101e+01
5.62246799e+00
-2.04635000e+00
2.42817739e+01
4.41322877e+01
3.57722843e+00
1.78129840e+01
-1.65859138e+01
-8.28827801e+01
-6.16037038e+01
-5.31751413e+01
9.65439260e-01
6.78957880e-01
1.08096954e+00
1.76087189e+00
5.87663054e-01
4.96752799e-01
6.89044297e-01
8.21539462e-01
2.26414418e+00
2.97368687e+00
8.35252669e+00
3.58805263e+00
6.87401509e+00
4.93424594e-01
6.68164396e+00
1.42423865e+00
7.86692524e+00
7.96038297e+00
3.59090865e-01
1.29402304e+00
6.61145318e+00
1.48941474e+01
3.89585899e+00
6.04157764e+00
9.28173559e+00
7.76130986e+00
7.40997994e+00
2.09241115e+01
1.23664956e+01
1.57393711e+01
2.03983262e+01
1.10537395e+01
1.25902262e+01
2.45824876e+01
2.45189860e+01
1.67639583e+01
5.55198455e+00
8.26688516e+00
-3.94822654e+00
1.33731580e+00
3.29136378e+01
-4.10242762e+00
-7.31245331e+01
3.13851211e+01
-4.80043039e+01
-3.47602457e+01
-2.99843721e+01
-4.20941200e+01
-2.07246413e+01
-3.48594103e+01
6.99259890e+00
2.17213190e+01
-9.40840442e+00
5.44607493e+00
-9.14111433e+01
-1.76689743e+01
2.18465500e+02
1.90014124e+01
3.80386868e+01
1.71561210e+01
3.60894591e+01
1.22144253e+01
1.98810151e+01
3.65324242e+01
1.10250692e+01
-4.94065865e+01
-9.82679138e+01
1.53148522e+01
1.49699678e+01
9.07030296e+00
1.66854668e+01
-3.98695135e+00
-3.30316137e+01
6.82585346e+00
5.30308795e+00
1.92058086e-01
1.17263292e+00
-5.13918787e-01
-3.67064077e+00
-4.00611785e+00
-5.04316008e+00
-7.46601534e+00
-1.78919500e+00
1.88436547e+00
7.62644042e+00
1.45736591e+01
5.34207773e+00
5.83580810e+00
-7.57217461e-01
7.54702425e+00
-4.46584785e+00
2.09740156e+01
3.35422835e+01
4.00437260e+00
7.96781445e+00
-2.46145668e+01
-2.82149452e+01
3.19395281e+01
6.06193983e+01
1.45553757e+02
3.06578843e+01
-2.08663861e+01
1.23314171e+01
-1.03242306e+02
-2.39590065e+01
-9.62135029e+00
2.90276957e+01
1.21385057e+01
-2.99569739e+01
-8.83250868e+00
2.11590545e+01
3.45903182e+01
1.13850868e+02
5.72951660e+01
2.69938469e+01
2.09030794e+01
2.60502648e+00
9.49859202e-01
1.93799591e+00
2.96188331e+00
9.37819446e+00
1.90029166e+00
1.39745656e+00
8.20243192e+00
2.17499518e+00
-6.48660064e-01
2.04131031e+00
8.58011246e-01
-6.35461795e+00
-3.86015669e+00
-7.26880050e+00
-1.38232580e+01
-6.03854144e+00
-1.03205490e+01
-3.15524566e+00
3.73178190e+00
-1.28884764e+01
-6.98326230e+00
1.18381327e+01
5.27068329e+00
-1.56953953e+00
2.59211316e+01
4.17564367e+01
2.64838648e+01
2.46851018e+01
-9.34588165e+01
-1.06787918e+02
4.99856505e+01
4.38561668e+01
3.63361881e+01
3.69856319e+01
3.10017498e+01
1.72761216e+01
3.47422523e+01
7.22985168e+01
4.11602535e+01
2.18010998e+01
3.64232534e+01
2.19983292e+01
1.81180602e+01
1.44952276e+01
8.82163680e+00
7.43016243e+00
-6.86194077e+01
-1.29007767e+02
2.44673217e+01
1.73161545e+01
7.90311968e+00
3.27977924e+01
3.91522801e+00
1.00055828e+01
2.11467495e+01
1.02024555e+00
-4.86330140e+00
1.82074060e+01
3.23973265e+01
3.06018734e+01
6.87447524e+00
8.67625773e-01
</DataArray>
<DataArray type="Float32" Name="Stress_Mid_Principal" format="ascii">
1.53096718e+01
2.41269326e+00
-1.34377460e+01
-4.54830480e+00
1.63840352e+01
2.35622272e+01
-1.18541493e+01
1.21520042e+01
-2.36610254e+01
-9.37879105e+01
-8.05317477e+01
-7.82457027e+01
-3.71572409e-01
-3.69234196e-01
-1.39221031e-01
-6.37864172e-01
4.67030406e-02
-5.12656309e-02
1.09618418e-01
2.96721738e-02
1.48204517e+00
1.49985805e+00
6.27956861e+00
1.88812143e+00
5.88755035e+00
-1.57251775e-01
3.89355338e+00
-1.26189381e-01
5.99504483e+00
4.96070471e+00
-2.15142369e-02
-1.50256586e+00
5.43054909e+00
1.00122272e+01
2.07028580e+00
2.60471195e+00
7.21011987e+00
4.15408540e+00
5.65731025e+00
1.40663229e+01
1.07828001e+01
8.20166802e+00
1.71983910e+01
7.10938090e+00
1.18353434e+01
1.69729537e+01
1.87331194e+01
1.00912719e+01
1.67022371e+00
3.54842341e+00
-6.51501042e+00
4.78656530e-01
1.57909297e+01
-8.29527056e+00
-8.64229858e+01
1.43080680e+01
-5.38479290e+01
-4.07507595e+01
-3.66772747e+01
-4.81852951e+01
-3.16478806e+01
-4.94915886e+01
3.17202044e+00
1.29151580e+01
-1.12910227e+01
3.76553321e+00
-1.13559315e+02
-2.93877682e+01
1.30898102e+02
8.20492236e+00
2.46279052e+01
1.38776827e+01
2.18748078e+01
5.96770000e+00
1.47695220e+01
2.14113911e+01
6.35990858e-01
-5.96940667e+01
-1.10762367e+02
-7.15074053e+00
4.43805027e+00
-1.72948122e+00
2.14538765e+00
-2.82378359e+01
-6.46582387e+01
-1.09277614e+01
2.94667721e+00
-1.10613537e+00
-1.07264280e+00
-3.67788544e+00
-6.04170299e+00
-7.34293252e+00
-6.84575409e+00
-1.39642471e+01
-5.18507862e+00
-2.39301936e+00
5.14623019e+00
9.07046622e+00
7.03339577e-01
-4.57753900e+00
-1.07143500e+01
-6.23654318e+00
-1.22143584e+01
5.60699379e+00
1.34652978e+01
-1.25358698e+01
-1.30724449e+01
-3.36719015e+01
-3.30313886e+01
9.59529765e+00
3.41572367e+01
8.39366608e+01
1.65409008e+01
-2.68291799e+01
1.33134524e+00
-1.63013943e+02
-3.47675254e+01
-1.39508928e+01
2.02857494e+01
9.58731318e+00
-4.35433409e+01
-2.19708361e+01
-1.03067523e+01
1.44697649e+01
7.12474823e+01
4.15160294e+01
5.59666210e+00
9.40178394e+00
-1.08933461e+00
-1.21739432e-01
-6.69888318e-01
-1.22730362e+00
-8.71239400e-01
-8.46611644e-01
6.85853407e-01
3.63535233e+00
-8.31160188e-01
-2.32958764e+00
-7.20009565e-01
-2.72442055e+00
-9.02777791e+00
-8.09462169e+00
-1.20518744e+01
-2.38617291e+01
-1.24636450e+01
-1.99889423e+01
-9.67121506e+00
-5.60227466e+00
-2.60736942e+01
-2.19315205e+01
-4.79417348e+00
-6.55795860e+00
-1.52252328e+01
8.57527924e+00
2.92334614e+01
2.00092978e+01
6.55650234e+00
-1.11552345e+02
-1.11789505e+02
2.58637104e+01
3.32014477e+01
2.64691269e+01
1.99810756e+01
1.90538799e+01
8.15173411e+00
2.84578152e+01
2.43941135e+01
2.78838587e+01
6.44934797e+00
1.73356830e+01
1.00989630e+01
3.30655044e+00
7.98341236e+00
4.20252025e+00
1.52630675e+00
-1.01954391e+02
-1.47724991e+02
4.57123280e+00
1.78727913e+00
2.87534502e+00
2.13738062e+01
-3.16572559e+00
3.51429176e+00
1.70291462e+01
-5.44887495e+00
-1.77337189e+01
3.48023987e+00
1.74643136e+01
2.02803848e+01
3.49506477e+00
-8.84054694e-04
</DataArray>
<DataArray type="Float32" Name="Stress_Min_Principal" format="ascii">
1.24831069e+00
-1.95759490e+01
-6.25994539e+01
-3.80884295e+01
-1.35342133e+00
1.36962046e+00
-4.35057831e+01
-1.18798208e+01
-8.12396823e+01
-2.22257004e+02
-1.90073153e+02
-1.71546322e+02
-9.82254237e-01
-6.97964922e-01
-1.33005938e+00
-1.51143348e+00
-3.67357671e-01
-1.78358421e-01
-5.31587362e-01
-5.84334791e-01
-2.59714012e+01
-2.51656294e+01
-1.54456757e+01
-2.40816859e+01
-1.62243967e+01
-2.96557665e+01
-2.23644680e+01
-2.85962191e+01
-1.49922612e+01
-1.76184890e+01
-2.97022173e+01
-3.22204814e+01
-1.69715679e+01
-1.02261563e+01
-2.35476520e+01
-2.33686073e+01
-1.26168064e+01
-2.08401031e+01
-1.58544018e+01
-3.61566329e+00
-4.89127558e+00
-1.66992180e+01
3.92770243e+00
-1.53833398e+01
-3.60935068e+00
-1.77190161e+00
6.30118084e+00
-9.81508422e+00
-2.20455981e+01
-1.88690715e+01
-4.24649179e+01
-2.81771338e+01
-1.46090858e+01
-4.48727344e+01
-1.99907864e+02
-1.48201579e+01
-1.40223637e+02
-1.12437075e+02
-1.01964657e+02
-1.27769651e+02
-8.57935295e+01
-1.20095760e+02
-1.90802647e+01
-8.63352299e+00
-5.30983449e+01
-2.02064476e+01
-2.49420528e+02
-8.69938004e+01
1.15551537e+02
-1.27924065e+01
1.00240986e+01
-1.59063411e+00
6.62890768e+00
-1.83734045e+01
-3.31719494e+00
4.65309061e+00
-2.91339860e+01
-1.47647995e+02
-2.57006035e+02
-4.86291809e+01
-2.67123356e+01
-3.77923012e+01
-2.96236439e+01
-7.91150084e+01
-1.71194964e+02
-4.05439008e+01
-2.09734273e+01
-3.09621240e+01
-2.98373380e+01
-3.43924212e+01
-4.04615080e+01
-4.21671401e+01
-4.29162111e+01
-5.27642119e+01
-3.74698440e+01
-3.04474110e+01
-1.60925541e+01
-1.09666524e+01
-2.31853270e+01
-3.88623419e+01
-5.30650918e+01
-4.93393459e+01
-5.07536976e+01
-2.29286736e+01
-1.24566050e+01
-5.18246250e+01
-5.51045214e+01
-9.25781151e+01
-9.63449999e+01
-2.05518055e+01
1.89156380e+01
8.06086121e+01
7.47301083e+00
-8.28019195e+01
-3.53987910e+01
-3.11440147e+02
-1.04227254e+02
-5.61491423e+01
8.11381054e+00
-9.18417740e+00
-1.09759950e+02
-6.33424832e+01
-5.42640321e+01
-5.67036206e+00
6.32949257e+01
3.54939651e+01
-2.35598409e+00
-3.25418504e+00
-1.99256968e+00
-1.30525243e+00
-1.74538004e+00
-2.21183300e+00
-5.13567047e+00
-5.90273571e+00
-4.29985094e+00
-1.11677162e+01
-2.83897762e+01
-3.31817350e+01
-2.84755198e+01
-3.18274755e+01
-4.65526676e+01
-4.27162472e+01
-5.06912441e+01
-6.98015337e+01
-4.95451260e+01
-6.19582303e+01
-4.33580170e+01
-3.09147699e+01
-7.07058716e+01
-5.93675556e+01
-4.05714664e+01
-4.12938194e+01
-5.24731569e+01
-2.14230266e+01
1.46728868e+01
2.54991674e+00
-9.95147705e+00
-2.50959068e+02
-2.66672333e+02
1.27215055e+01
2.05341406e+01
2.00947278e+01
1.10284737e+01
1.05329711e+01
-9.98282099e+00
8.41793251e+00
-3.53778458e+00
2.10726552e+01
-3.39484291e+01
9.09512250e+00
-2.94787884e-01
-7.63140170e+00
-5.95263323e+00
-1.15787787e+01
-1.47919774e+01
-2.10782669e+02
-3.29514160e+02
-4.00510432e+01
-2.69360695e+01
-6.57672745e+00
7.35610135e+00
-7.78319764e+00
-1.72505922e+01
1.09477091e+01
-3.58311505e+01
-5.28466434e+01
-2.13749180e+01
9.53882074e+00
1.34499583e+01
-1.04261312e+01
-4.82277012e+00
</DataArray>
<DataArray type="Float32" Name="Stress_Pressure" format="ascii">
-1.27327637e+01
1.42514956e+00
2.34715767e+01
1.48943610e+01
-1.31041293e+01
-2.30213789e+01
1.72609012e+01
-6.02838945e+00
4.04955406e+01
1.32975899e+02
1.10736200e+02
1.00989052e+02
1.29462447e-01
1.29413746e-01
1.29436962e-01
1.29475262e-01
-8.90028104e-02
-8.90429169e-02
-8.90251026e-02
-8.89589489e-02
7.40840387e+00
6.89736164e+00
2.71193534e-01
6.20183718e+00
1.15427780e+00
9.77319817e+00
3.92975670e+00
9.09938979e+00
3.76763910e-01
1.56580079e+00
9.78821349e+00
1.08096747e+01
1.64318883e+00
-4.89340582e+00
5.86050224e+00
4.90743932e+00
-1.29168296e+00
2.97490275e+00
9.29037273e-01
-1.04582573e+01
-6.08600658e+00
-2.41394067e+00
-1.38414730e+01
-9.26594019e-01
-6.93873936e+00
-1.32611802e+01
-1.65177608e+01
-5.68004923e+00
4.94112992e+00
2.35125405e+00
1.76427178e+01
8.78705406e+00
-1.13651595e+01
1.90901442e+01
1.19818462e+02
-1.02910104e+01
8.06919565e+01
6.26493607e+01
5.62087660e+01
7.26830196e+01
4.60553532e+01
6.81489182e+01
2.97188159e+00
-8.66765070e+00
2.45992569e+01
3.66494632e+00
1.51463663e+02
4.46835147e+01
-1.54971710e+02
-4.80464268e+00
-2.42302299e+01
-9.81439024e+00
-2.15310591e+01
6.37598038e-02
-1.04444477e+01
-2.08656353e+01
5.82430840e+00
8.55828843e+01
1.55345436e+02
1.34883560e+01
2.43477249e+00
1.01504927e+01
3.59759712e+00
3.71132631e+01
8.96282705e+01
1.48819364e+01
4.24122059e+00
1.06254002e+01
9.91244935e+00
1.28614082e+01
1.67246168e+01
1.78387303e+01
1.82683754e+01
2.47314914e+01
1.48147055e+01
1.03186882e+01
1.10662758e+00
-4.22582433e+00
5.71330309e+00
1.25346913e+01
2.15122201e+01
1.60096216e+01
2.24779684e+01
-1.21744615e+00
-1.15169920e+01
2.01187083e+01
2.00697161e+01
5.02881955e+01
5.25304469e+01
-6.99434026e+00
-3.78974247e+01
-1.03366348e+02
-1.82239322e+01
4.34991623e+01
7.24534225e+00
1.92565468e+02
5.43179296e+01
2.65737948e+01
-1.91424187e+01
-4.18054771e+00
6.10867538e+01
3.13819429e+01
1.44705763e+01
-1.44632404e+01
-8.27977600e+01
-4.47683868e+01
-1.00781749e+01
-9.01689281e+00
1.58959284e-01
1.59044236e-01
1.59090832e-01
1.59084439e-01
-1.12376158e+00
1.61635184e+00
7.38846965e-01
-2.23356048e-01
9.01531315e+00
1.20533266e+01
9.05140662e+00
1.12312942e+01
2.06450214e+01
1.82236753e+01
2.33373055e+01
3.58288400e+01
2.26824369e+01
3.07559077e+01
1.87281590e+01
1.09284209e+01
3.65560150e+01
2.94274454e+01
1.11758366e+01
1.41936970e+01
2.30893099e+01
-4.35779524e+00
-2.85542622e+01
-1.63476934e+01
-7.09670925e+00
1.51990074e+02
1.61749924e+02
-2.95236228e+01
-3.25305854e+01
-2.76333476e+01
-2.26650604e+01
-2.01962000e+01
-5.14834514e+00
-2.38726679e+01
-3.10516148e+01
-3.00389214e+01
1.89932728e+00
-2.09513526e+01
-1.06008348e+01
-4.59773618e+00
-5.50866878e+00
-4.81792927e-01
1.94516948e+00
1.27118820e+02
2.02082306e+02
3.67082914e+00
2.61087799e+00
-1.40057912e+00
-2.05092333e+01
2.34456503e+00
1.24357319e+00
-1.63745346e+01
1.34199264e+01
2.51478872e+01
-1.04242325e-01
-1.98001535e+01
-2.14440721e+01
1.88636780e-02
1.31867611e+00
</DataArray>
<DataArray type="Float32" Name="Stress_Tresca" format="ascii">
2.03919975e+01
3.24637591e+01
6.82219210e+01
3.60420790e+01
2.56351953e+01
4.27626678e+01
4.70830107e+01
2.96928043e+01
6.46537693e+01
1.39374222e+02
1.28469449e+02
1.18371178e+02
1.94769359e+00
1.37692279e+00
2.41102898e+00
3.27230537e+00
9.55020726e-01
6.75111234e-01
1.22063160e+00
1.40587425e+00
2.82355461e+01
2.81393166e+01
2.37982026e+01
2.76697378e+01
2.30984116e+01
3.01491914e+01
2.90461123e+01
3.00204568e+01
2.28591866e+01
2.55788717e+01
3.00613089e+01
3.35145044e+01
2.35830204e+01
2.51203040e+01
2.74435112e+01
2.94101852e+01
2.18985424e+01
2.86014137e+01
2.32643816e+01
2.45397744e+01
1.72577715e+01
3.24385889e+01
1.64706240e+01
2.64370797e+01
1.61995769e+01
2.63543887e+01
1.82178049e+01
2.65790424e+01
2.75975828e+01
2.71359563e+01
3.85166912e+01
2.95144506e+01
4.75227225e+01
4.07703059e+01
1.26783328e+02
4.62052789e+01
9.22193336e+01
7.76768288e+01
7.19802876e+01
8.56755295e+01
6.50688877e+01
8.52363510e+01
2.60728640e+01
3.03548412e+01
4.36899409e+01
2.56525221e+01
1.58009386e+02
6.93248268e+01
1.02913963e+02
3.17938188e+01
2.80145882e+01
1.87467551e+01
2.94605514e+01
3.05878296e+01
2.31982102e+01
3.18793340e+01
4.01590552e+01
9.82414107e+01
1.58738113e+02
6.39440346e+01
4.16823044e+01
4.68626041e+01
4.63091106e+01
7.51280565e+01
1.38163353e+02
4.73697548e+01
2.62765150e+01
3.11541824e+01
3.10099711e+01
3.38785028e+01
3.67908678e+01
3.81610223e+01
3.78730512e+01
4.52981966e+01
3.56806493e+01
3.23317764e+01
2.37189949e+01
2.55403109e+01
2.85274057e+01
4.46981492e+01
5.23078752e+01
5.68863697e+01
4.62878499e+01
4.39026892e+01
4.59988890e+01
5.58289986e+01
6.30723356e+01
6.79635490e+01
6.81300545e+01
5.24913343e+01
4.17037601e+01
6.49451447e+01
2.31848736e+01
6.19355335e+01
4.77302094e+01
2.08197845e+02
8.02682463e+01
4.65277925e+01
2.09138849e+01
2.13226833e+01
7.98029728e+01
5.45099745e+01
7.54230876e+01
4.02606812e+01
5.05559425e+01
2.18012009e+01
2.93498311e+01
2.41572647e+01
4.59759617e+00
2.25511169e+00
3.68337584e+00
5.17371655e+00
1.45138650e+01
7.80302731e+00
5.69730759e+00
1.93701474e+01
3.05647717e+01
3.25330753e+01
3.05168295e+01
3.26854868e+01
4.01980495e+01
3.88560905e+01
4.34224434e+01
5.59782763e+01
4.35065832e+01
5.16376829e+01
4.02027702e+01
3.46465521e+01
5.78173943e+01
5.23842926e+01
5.24095993e+01
4.65645027e+01
5.09036169e+01
4.73441582e+01
2.70835495e+01
2.39339480e+01
3.46365795e+01
1.57500252e+02
1.59884415e+02
3.72641449e+01
2.33220263e+01
1.62414603e+01
2.59571586e+01
2.04687786e+01
2.72589417e+01
2.63243198e+01
7.58362999e+01
2.00875988e+01
5.57495270e+01
2.73281301e+01
2.22931169e+01
2.57494617e+01
2.04478602e+01
2.04004164e+01
2.22221394e+01
1.42163269e+02
2.00506393e+02
6.45183652e+01
4.42522221e+01
1.44798470e+01
2.54416911e+01
1.16984258e+01
2.72561741e+01
1.01990404e+01
3.68513966e+01
4.79833431e+01
3.95823231e+01
2.28585052e+01
1.71519146e+01
1.73006067e+01
5.69039583e+00
</DataArray>
<DataArray type="Float32" Name="Stress_Third_Invariant" format="ascii">
-1.03102954e+01
-1.98146529e+01
-4.01401892e+01
-3.38783518e+01
-1.08078159e+01
-1.93180299e+00
-2.59604132e+01
-1.86649117e+01
-6.03636584e+01
-1.33235977e+02
-1.15334485e+02
-9.97615604e+01
1.45048064e+00
1.08531007e+00
1.49713159e-02
2.54280758e+00
5.06517947e-01
5.91077209e-01
-4.69550014e-01
7.33585179e-01
-2.78266745e+01
-2.73402247e+01
-2.17702346e+01
-2.67208762e+01
-2.25721111e+01
-2.98123708e+01
-2.49132023e+01
-2.91795061e+01
-2.17940602e+01
-2.27278165e+01
-2.98662894e+01
-3.06097783e+01
-2.29338067e+01
-1.74668912e+01
-2.64240756e+01
-2.55502895e+01
-2.03210221e+01
-2.39714682e+01
-2.22829845e+01
-1.27659702e+01
-1.63466434e+01
-1.97386463e+01
-1.00878910e+01
-2.07785374e+01
-1.57842460e+01
-1.07078527e+01
-7.71664715e+00
-1.65479505e+01
-2.50189633e+01
-2.29019760e+01
-3.63371591e+01
-2.88501084e+01
-1.41231131e+01
-3.71537692e+01
-1.18036320e+02
-1.47859573e+01
-8.89961033e+01
-7.40415115e+01
-6.81358137e+01
-8.22219105e+01
-5.80662804e+01
-7.58018379e+01
-2.34206856e+01
-1.42897201e+01
-4.22683097e+01
-2.46394801e+01
-1.44270535e+02
-5.48817509e+01
9.33486633e+01
-1.68780111e+01
-1.44547912e+00
-1.33719151e+01
-1.49555290e+00
-2.13725237e+01
-1.29975586e+01
-3.82482576e+00
-2.56691110e+01
-9.18113737e+01
-1.51646301e+02
-3.11415535e+01
-2.35097113e+01
-2.99419105e+01
-2.41661634e+01
-4.70950093e+01
-1.02896336e+02
-2.45282917e+01
-2.49312487e+01
-3.04397111e+01
-2.97569003e+01
-3.20592784e+01
-3.54845986e+01
-3.62606119e+01
-3.69052434e+01
-4.12299470e+01
-3.37217615e+01
-2.94581363e+01
-2.22600646e+01
-1.78345255e+01
-2.55686703e+01
-3.12209768e+01
-3.90587085e+01
-3.46084108e+01
-3.94902431e+01
-1.92655424e+01
-1.12580183e+01
-3.55065490e+01
-3.56807181e+01
-6.22339088e+01
-6.54238815e+01
-1.44637896e+01
9.00542974e+00
6.31495895e+01
8.24760447e+00
-5.55919272e+01
-2.81937828e+01
-1.60481133e+02
-6.67527707e+01
-4.38774817e+01
-6.06753230e+00
-1.78709319e+01
-7.09304028e+01
-4.38250965e+01
-3.69936948e+01
-7.61328936e+00
4.55382423e+01
1.72141705e+01
1.71174645e+01
-4.30708313e+00
3.99280643e+00
-8.61823738e-01
2.84136558e+00
4.52070761e+00
5.60286698e+00
-3.76272313e+00
-5.24493003e+00
-1.59217161e+01
-2.88265800e+01
-3.16131239e+01
-2.89288760e+01
-3.05771379e+01
-3.86914997e+01
-3.63170516e+01
-4.06027832e+01
-4.93351569e+01
-3.94436302e+01
-4.52381558e+01
-3.60613203e+01
-2.74881003e+01
-4.85412636e+01
-4.07935505e+01
-2.92990761e+01
-3.20338864e+01
-3.75539260e+01
-1.67706810e+01
-3.10457611e+00
-1.07061713e+01
-5.50725794e+00
-1.46566460e+02
-1.57264313e+02
1.43837916e+01
-1.68404979e+00
9.19376627e+00
1.39309044e+01
4.77596498e+00
-1.75730581e+01
-2.06906476e+01
5.00944767e+01
1.41140609e+01
-4.40731850e+01
1.88249755e+01
6.23134740e+00
6.68423927e+00
-1.41474171e+01
-1.70897307e+01
-1.73178349e+01
-1.18468628e+02
-1.89763138e+02
-2.50623271e+01
-2.17685285e+01
-6.27068162e+00
2.98376211e+00
6.83912301e+00
-2.22720820e+01
-6.11684370e+00
-3.26280499e+01
-3.83094139e+01
-1.99342446e+01
1.58532639e+01
2.18920135e+00
-1.49137616e+01
-5.14622593e+00
</DataArray>
<DataArray type="Float32" Name="Logarithmic_strain_Max_Principal" format="ascii">
4.73213014e-02
5.49709471e-02
6.27776906e-02
4.77259047e-02
5.22775548e-02
6.78653786e-02
9.10107084e-02
6.19357321e-02
6.37843283e-02
7.47193135e-02
1.00781391e-01
1.06211420e-01
2.44035382e-05
1.80974466e-05
2.68930298e-05
4.40672611e-05
1.20514205e-05
1.13067954e-05
1.65274832e-05
1.70767125e-05
5.81963789e-02
5.98750552e-02
6.28859438e-02
6.04357477e-02
7.02583306e-02
6.80512656e-02
6.97745569e-02
7.16331825e-02
6.39084252e-02
6.66381028e-02
6.42015319e-02
6.71565966e-02
6.51110392e-02
6.93483204e-02
6.37615221e-02
6.43918929e-02
6.85255900e-02
7.30455397e-02
6.11351700e-02
6.39794129e-02
6.64692838e-02
6.97461274e-02
5.47296349e-02
6.33269013e-02
6.45024665e-02
7.04039298e-02
5.72450850e-02
6.53381357e-02
7.12625990e-02
6.97022490e-02
7.48535758e-02
7.09959194e-02
6.58780028e-02
7.40745962e-02
8.83114472e-02
6.81300557e-02
8.46070703e-02
7.07443997e-02
8.21000747e-02
7.33379312e-02
8.42883512e-02
7.61385858e-02
6.97919652e-02
6.31280299e-02
8.22132570e-02
7.15040229e-02
9.80340783e-02
9.37552065e-02
1.54781446e-01
6.15720736e-02
5.14137798e-02
5.43105137e-02
7.41174209e-02
7.47748651e-02
5.24488157e-02
8.20764527e-02
8.59966073e-02
6.97370116e-02
9.82007235e-02
9.72194001e-02
5.74459024e-02
8.28411747e-02
8.78138468e-02
1.14991555e-01
1.11364355e-01
1.07455040e-01
8.53434727e-02
7.95236174e-02
8.50367919e-02
8.93897936e-02
7.26233907e-02
7.86022777e-02
6.88330662e-02
7.23887980e-02
6.43787738e-02
6.47802991e-02
6.14327108e-02
5.84199596e-02
6.48442544e-02
6.24791505e-02
9.79112564e-02
9.84864682e-02
8.41029575e-02
6.65382296e-02
5.49205515e-02
5.19163186e-02
5.37390622e-02
1.07396473e-01
1.07002228e-01
9.09794942e-02
5.61629385e-02
9.17501599e-02
2.49997604e-02
1.16388343e-01
1.22663610e-01
1.24488883e-01
1.17454156e-01
1.15986498e-01
1.14989536e-01
1.00941502e-01
1.15644300e-01
1.29063040e-01
9.37071797e-02
9.11104660e-02
1.56434223e-01
7.70829171e-02
5.63593835e-02
4.36954887e-02
6.44440952e-05
2.44027360e-05
4.79252267e-05
7.27231381e-05
2.00367617e-04
6.54129714e-05
4.13632188e-05
2.59757728e-04
9.07779858e-02
8.39434788e-02
9.25530158e-02
9.78266038e-02
7.58772977e-02
8.30825008e-02
7.73465149e-02
7.81722944e-02
7.43665844e-02
7.16144703e-02
7.05703981e-02
6.77826209e-02
7.85125345e-02
7.09994286e-02
1.05840525e-01
1.08168688e-01
9.39607434e-02
6.92912331e-02
4.74989153e-02
4.14693737e-02
4.07588203e-02
1.15539543e-01
1.19897775e-01
8.90736704e-02
3.82884617e-02
1.00173418e-02
1.83525387e-02
7.50062497e-03
1.79141722e-02
9.28685965e-03
6.62475582e-02
1.77829526e-02
8.47232118e-02
3.61320484e-03
2.78559315e-03
5.42692000e-04
2.87303930e-04
7.92734245e-04
9.27365902e-04
1.78953514e-01
1.59189388e-01
1.31287339e-01
1.53638661e-01
1.50278516e-04
1.67345258e-02
1.22714791e-04
1.35362297e-01
1.30220413e-01
1.15967862e-01
1.36144657e-01
6.51882365e-02
8.33655931e-02
2.20790048e-02
2.83048576e-04
3.47578862e-05
</DataArray>
<DataArray type="Float32" Name="Logarithmic_strain_Min_Principal" format="ascii">
-6.40019625e-02
-7.11236596e-02
-8.96956716e-02
-7.59486314e-02
-7.62407184e-02
-8.98069739e-02
-1.12830745e-01
-8.62655379e-02
-1.00829648e-01
-1.28623910e-01
-1.40643212e-01
-1.45378351e-01
-2.25300882e-05
-1.66481050e-05
-3.00208803e-05
-3.62237834e-05
-9.25033692e-06
-5.69638678e-06
-1.46794700e-05
-1.52706707e-05
-9.56719816e-02
-9.57050417e-02
-9.45542520e-02
-9.57188923e-02
-1.04967687e-01
-1.06067665e-01
-1.07651278e-01
-1.09255075e-01
-9.38098133e-02
-9.77451131e-02
-1.03342688e-01
-1.06397393e-01
-9.47184488e-02
-1.00809167e-01
-9.73644815e-02
-9.99416709e-02
-9.55166575e-02
-1.07953997e-01
-9.11982805e-02
-9.29152127e-02
-9.49829035e-02
-1.06749409e-01
-8.46395474e-02
-9.48771564e-02
-9.43011753e-02
-1.03678210e-01
-8.24793242e-02
-9.31644607e-02
-9.76389777e-02
-9.29401536e-02
-1.18361141e-01
-1.14625324e-01
-1.07150430e-01
-1.12967193e-01
-1.41197239e-01
-1.02065101e-01
-1.35900006e-01
-1.09883697e-01
-1.30034601e-01
-1.18174719e-01
-1.26632515e-01
-1.16942134e-01
-9.26940037e-02
-8.53478871e-02
-1.26177425e-01
-1.15110075e-01
-1.38942221e-01
-1.37424858e-01
-1.34555727e-01
-7.13957225e-02
-7.53070308e-02
-7.64027946e-02
-1.08142221e-01
-1.09457396e-01
-7.66717270e-02
-1.15348720e-01
-1.14430461e-01
-1.05694754e-01
-1.54255413e-01
-1.30033360e-01
-8.27927515e-02
-1.10386362e-01
-1.21661883e-01
-1.45383658e-01
-1.47936044e-01
-1.24643023e-01
-1.18105959e-01
-1.17651541e-01
-1.21158285e-01
-1.24173176e-01
-1.13471368e-01
-1.14148742e-01
-1.05933728e-01
-1.03884575e-01
-9.68822651e-02
-9.22012888e-02
-8.82556718e-02
-8.49545011e-02
-8.75481628e-02
-8.71816948e-02
-1.31350695e-01
-1.38869159e-01
-1.13324497e-01
-8.53911582e-02
-7.19113270e-02
-6.61489262e-02
-6.72756198e-02
-1.47511194e-01
-1.50246104e-01
-1.13428568e-01
-5.29380981e-02
-8.97022337e-02
-1.61596772e-02
-1.73831552e-01
-1.74815138e-01
-1.58338867e-01
-1.75232512e-01
-1.71102870e-01
-1.64142027e-01
-1.58774532e-01
-1.70482986e-01
-1.62284460e-01
-1.11796079e-01
-1.00055920e-01
-8.45542774e-02
-5.57306856e-02
-3.43992940e-02
-4.52892701e-02
-4.59225776e-05
-2.97724036e-05
-3.95232746e-05
-5.10692153e-05
-1.51524013e-04
-1.22048258e-04
-9.41968465e-05
-3.56681790e-04
-1.24958627e-01
-1.23294316e-01
-1.24359300e-01
-1.28906772e-01
-1.18193354e-01
-1.16392594e-01
-1.09501023e-01
-1.07496131e-01
-1.00839727e-01
-9.61186979e-02
-9.49787050e-02
-8.48371144e-02
-9.69784856e-02
-8.60547535e-02
-1.41667102e-01
-1.53457940e-01
-1.12189569e-01
-8.20812397e-02
-5.63402670e-02
-4.42285240e-02
-4.22559939e-02
-1.88490890e-01
-2.04117119e-01
-1.06035483e-01
-3.03145084e-02
-3.45790245e-03
-1.13243385e-02
-3.09321968e-03
-1.57545407e-02
-8.46792152e-03
-4.49984111e-02
-9.08826897e-03
-1.23480640e-01
-3.05161321e-03
-3.34338712e-03
-3.21965916e-04
-2.23186842e-04
-1.01483836e-03
-1.49975839e-03
-2.57562578e-01
-2.70866960e-01
-1.92765529e-01
-2.04204559e-01
-1.38155835e-04
-8.79786577e-03
-1.57992297e-04
-1.76757023e-01
-1.65682048e-01
-1.71159051e-01
-1.67103752e-01
-6.89259842e-02
-7.80080743e-02
-2.48859703e-02
-4.50337378e-04
-1.01093443e-04
</DataArray>
<DataArray type="Float32" Name="Plastic_strain_Max_Principal" format="ascii">
4.67584855e-02
5.57871815e-02
5.25320699e-02
4.79897922e-02
6.02450613e-02
6.64760673e-02
1.01493726e-01
7.42416000e-02
6.96827853e-02
8.15441906e-02
1.18817990e-01
1.00983139e-01
0.00000000e+00
0.00000000e+00
0.00000000e+00
0.00000000e+00
0.00000000e+00
0.00000000e+00
0.00000000e+00
0.00000000e+00
5.81845473e-02
5.96362008e-02
6.27635461e-02
6.01403387e-02
7.00142682e-02
6.79377578e-02
6.95555499e-02
7.14811739e-02
6.36553541e-02
6.63899435e-02
6.39561303e-02
6.71235658e-02
6.49727406e-02
6.33006147e-02
6.35113241e-02
6.41117902e-02
6.81023765e-02
7.47621702e-02
6.09945646e-02
6.04109415e-02
6.59460006e-02
6.91389507e-02
5.43964775e-02
6.36611697e-02
6.40006345e-02
6.97084051e-02
5.69258519e-02
6.46102224e-02
7.05652973e-02
6.96141776e-02
7.49588031e-02
7.08588287e-02
6.65748758e-02
7.40014184e-02
9.26595509e-02
7.22104215e-02
8.46928526e-02
7.30455384e-02
8.34248904e-02
7.40647279e-02
8.50601457e-02
7.69474208e-02
7.20898621e-02
6.21358883e-02
8.50798243e-02
7.13489065e-02
9.97614656e-02
9.52218652e-02
1.37928814e-01
9.35049156e-02
4.67210902e-02
5.71467420e-02
7.95518806e-02
6.49140347e-02
5.49633084e-02
9.81873609e-02
7.03877332e-02
7.25853238e-02
1.14913974e-01
9.85602587e-02
5.57892993e-02
7.31907319e-02
7.82514960e-02
1.20522821e-01
1.11852805e-01
1.06896651e-01
8.50686952e-02
7.94190820e-02
8.47799443e-02
8.92931037e-02
7.25491717e-02
7.85202403e-02
6.86961748e-02
7.20185461e-02
6.42937087e-02
6.59873467e-02
6.13409635e-02
6.00653025e-02
6.47822954e-02
6.24567224e-02
9.68961129e-02
8.91137682e-02
7.74989759e-02
6.48028706e-02
5.25680772e-02
4.22569948e-02
5.17997233e-02
1.15350521e-01
1.11266365e-01
8.98275251e-02
2.76932878e-02
7.66566768e-02
2.58894719e-02
1.41599080e-01
1.43387206e-01
1.27543412e-01
1.04130077e-01
1.01401858e-01
1.24214893e-01
1.01563834e-01
1.24993106e-01
1.31036902e-01
8.03504391e-02
7.22591402e-02
3.64477709e-02
3.05550713e-02
6.57784864e-02
3.79498312e-02
0.00000000e+00
0.00000000e+00
0.00000000e+00
0.00000000e+00
3.45070068e-05
0.00000000e+00
0.00000000e+00
6.84109157e-05
9.06041637e-02
8.37499984e-02
9.24660563e-02
9.77121145e-02
7.58414231e-02
8.30035470e-02
7.72509128e-02
7.73154683e-02
7.41975121e-02
7.61358645e-02
7.04395585e-02
7.49014467e-02
7.82540366e-02
7.76750818e-02
1.00505158e-01
1.21775817e-01
7.58265331e-02
6.94345273e-02
3.94058265e-02
2.49885528e-02
2.68100398e-02
1.19380862e-01
1.15411930e-01
1.13157481e-01
2.36695677e-02
9.74112199e-03
1.83336450e-02
6.94627031e-03
1.89418121e-02
5.24818606e-03
4.15252196e-02
3.21095902e-02
9.44655091e-02
2.93174000e-03
2.73882536e-03
2.00379570e-04
1.56646683e-04
5.87373856e-04
7.26965955e-04
1.65263921e-01
1.67400777e-01
1.29861571e-01
1.79196402e-01
5.85493585e-05
6.19514416e-03
0.00000000e+00
1.32963154e-01
1.29665345e-01
1.28562242e-01
1.48581468e-01
5.79983145e-02
5.56834135e-02
1.09027875e-02
1.32016765e-04
0.00000000e+00
</DataArray>
<DataArray type="Float32" Name="Plastic_strain_Min_Principal" format="ascii">
-6.38723536e-02
-6.70996092e-02
-7.14605628e-02
-7.55930655e-02
-6.69761095e-02
-7.75809949e-02
-1.33770894e-01
-1.08834725e-01
-1.07022224e-01
-1.33029949e-01
-1.68322225e-01
-1.26677725e-01
0.00000000e+00
0.00000000e+00
0.00000000e+00
0.00000000e+00
0.00000000e+00
0.00000000e+00
0.00000000e+00
0.00000000e+00
-9.54952687e-02
-9.51127056e-02
-9.46558537e-02
-9.50529780e-02
-1.04820799e-01
-1.05538888e-01
-1.07354767e-01
-1.08745527e-01
-9.36926268e-02
-9.75178685e-02
-1.02490483e-01
-1.05842171e-01
-9.47622284e-02
-9.00918255e-02
-9.68915317e-02
-9.95467957e-02
-9.52174943e-02
-1.11516310e-01
-9.12247710e-02
-8.75093327e-02
-9.46928617e-02
-1.06163881e-01
-8.51333290e-02
-9.58425468e-02
-9.40717533e-02
-1.03525111e-01
-8.31639506e-02
-9.25359409e-02
-9.65694869e-02
-9.30429138e-02
-1.17506035e-01
-1.14139693e-01
-1.06811709e-01
-1.10142219e-01
-1.40106238e-01
-1.07462840e-01
-1.30307386e-01
-1.11402187e-01
-1.28993642e-01
-1.14666434e-01
-1.25350326e-01
-1.14378963e-01
-9.71352735e-02
-8.43212679e-02
-1.31134864e-01
-1.14740131e-01
-1.35609237e-01
-1.35898170e-01
-1.61472604e-01
-9.29658972e-02
-6.79311975e-02
-8.23293347e-02
-8.52062373e-02
-8.14146732e-02
-8.18742644e-02
-1.47311910e-01
-8.59541968e-02
-1.05731662e-01
-1.76681235e-01
-1.29037724e-01
-8.02288279e-02
-6.89325783e-02
-1.06670868e-01
-1.52517548e-01
-1.48372923e-01
-1.26913774e-01
-1.17777776e-01
-1.17173357e-01
-1.20396374e-01
-1.23563217e-01
-1.12564016e-01
-1.13059462e-01
-1.04715494e-01
-1.02084951e-01
-9.60403942e-02
-9.36274230e-02
-8.82078707e-02
-8.78950739e-02
-8.72053802e-02
-8.69484134e-02
-1.22227905e-01
-1.20302116e-01
-1.01030690e-01
-8.24951688e-02
-6.78336449e-02
-5.28884260e-02
-6.44764105e-02
-1.56279750e-01
-1.54400768e-01
-1.09557621e-01
-2.18236381e-02
-8.65771249e-02
-1.36796248e-02
-2.16297105e-01
-2.09230741e-01
-1.51491456e-01
-1.37830186e-01
-1.36215583e-01
-1.84218846e-01
-1.60691410e-01
-1.78089552e-01
-1.61824722e-01
-9.08758191e-02
-7.56948540e-02
-3.12083103e-02
-1.46423783e-02
-3.85905068e-02
-3.60592726e-02
0.00000000e+00
0.00000000e+00
0.00000000e+00
0.00000000e+00
-5.26663225e-05
0.00000000e+00
0.00000000e+00
-9.15982431e-05
-1.24511272e-01
-1.22534547e-01
-1.24033218e-01
-1.28403947e-01
-1.17056377e-01
-1.15365302e-01
-1.08146910e-01
-1.04235046e-01
-9.93831977e-02
-1.00784307e-01
-9.37955827e-02
-9.29906052e-02
-9.46604162e-02
-9.39564779e-02
-1.28834169e-01
-1.77660972e-01
-8.49322273e-02
-8.21725670e-02
-4.39029232e-02
-2.37291048e-02
-2.22872910e-02
-1.83102749e-01
-1.81201756e-01
-1.36885141e-01
-1.63296964e-02
-5.07702382e-03
-1.19837435e-02
-3.83452907e-03
-1.67841559e-02
-4.74187278e-03
-2.93672672e-02
-1.99330533e-02
-1.34435996e-01
-2.89036783e-03
-3.44648952e-03
-1.50968539e-04
-1.59287016e-04
-7.34515022e-04
-1.17109693e-03
-2.19750732e-01
-2.64106423e-01
-1.89350724e-01
-2.43712798e-01
-4.43834450e-05
-3.34963537e-03
0.00000000e+00
-1.71271786e-01
-1.65958658e-01
-1.89012542e-01
-1.82415225e-01
-4.64841956e-02
-3.72332321e-02
-5.91090630e-03
-2.00400726e-04
0.00000000e+00
</DataArray>
</PointData>
<Cells>
<DataArray type="Int32" Name="connectivity" format="ascii">
0 1 2 3 4 5 6 7
1 8 9 2 5 10 11 6
12 13 14 15 16 17 18 19
20 21 22 23 24 25 26 27
21 28 29 22 25 30 31 26
28 32 33 29 30 34 35 31
32 36 37 33 34 38 39 35
36 40 41 37 38 42 43 39
40 44 45 41 42 46 47 43
23 22 48 49 27 26 50 51
22 29 52 48 26 31 53 50
29 33 54 52 31 35 55 53
33 37 56 54 35 39 57 55
37 41 58 56 39 43 59 57
41 45 60 58 43 47 61 59
49 48 62 63 51 50 64 65
48 52 66 62 50 53 67 64
52 54 68 66 53 55 69 67
63 62 70 71 65 64 72 73
71 70 4 74 73 72 75 76
70 77 5 4 72 78 79 75
74 4 7 80 76 75 81 82
4 5 6 7 75 79 83 81
5 10 11 6 79 84 85 83
24 25 26 27 86 87 88 89
25 30 31 26 87 90 91 88
30 34 35 31 90 92 93 91
34 38 39 35 92 94 95 93
38 42 43 39 94 96 97 95
42 46 47 43 96 98 99 97
27 26 50 51 89 88 100 101
26 31 53 50 88 91 102 100
31 35 55 53 91 93 103 102
35 39 57 55 93 95 104 103
39 43 59 57 95 97 105 104
43 47 61 59 97 99 106 105
51 50 64 65 101 100 107 108
50 53 67 64 100 102 109 107
53 55 69 67 102 103 110 109
55 57 111 69 103 104 112 110
65 64 72 73 108 107 113 114
64 67 78 72 107 109 115 113
73 72 75 76 114 113 116 117
76 75 81 82 117 116 118 119
75 79 83 81 116 120 121 118
79 84 85 83 120 122 123 121
84 124 125 85 122 126 127 123
128 129 130 131 132 133 134 135
86 87 88 89 136 137 138 139
87 90 91 88 137 140 141 138
90 92 93 91 140 142 143 141
92 94 95 93 142 144 145 143
94 96 97 95 144 146 147 145
96 98 99 97 146 148 149 147
89 88 100 101 139 138 150 151
88 91 102 100 138 141 152 150
91 93 103 102 141 143 153 152
93 95 104 103 143 145 154 153
95 97 105 104 145 147 155 154
97 99 106 105 147 149 156 155
101 100 107 108 151 150 157 158
100 102 109 107 150 152 159 157
102 103 110 109 152 153 160 159
103 104 112 110 153 154 161 160
104 105 162 112 154 155 163 161
105 106 164 162 155 156 165 163
109 110 166 115 159 160 167 168
110 112 169 166 160 161 170 167
112 162 171 169 161 163 172 170
162 164 173 171 163 165 174 172
114 113 116 117 175 176 177 178
169 171 132 126 170 172 179 180
171 173 133 132 172 174 181 179
117 116 118 119 178 177 182 183
116 120 121 118 177 184 185 182
120 122 123 121 184 186 187 185
122 126 127 123 186 180 188 187
126 132 135 127 180 179 189 188
132 133 134 135 179 181 190 189
</DataArray>
<DataArray type="Int32" Name="offsets" format="ascii">
8
16
24
32
40
48
56
64
72
80
88
96
104
112
120
128
136
144
152
160
168
176
184
192
200
208
216
224
232
240
248
256
264
272
280
288
296
304
312
320
328
336
344
352
360
368
376
384
392
400
408
416
424
432
440
448
456
464
472
480
488
496
504
512
520
528
536
544
552
560
568
576
584
592
600
608
616
624
632
</DataArray>
<DataArray type="UInt8" Name="types" format="ascii">
12
12
12
12
12
12
12
12
12
12
12
12
12
12
12
12
12
12
12
12
12
12
12
12
12
12
12
12
12
12
12
12
12
12
12
12
12
12
12
12
12
12
12
12
12
12
12
12
12
12
12
12
12
12
12
12
12
12
12
12
12
12
12
12
12
12
12
12
12
12
12
12
12
12
12
12
12
12
12
</DataArray>
</Cells>
</Piece>
</UnstructuredGrid>
</VTKFile>
