<VTKFile type="UnstructuredGrid" version="0.1" byte_order="LittleEndian">
<UnstructuredGrid>
<Piece NumberOfPoints="191" NumberOfCells="79">
<Points>
<DataArray type="Float64" NumberOfComponents="3" format="ascii">
 1.01282787e+00  5.09256935e+00  1.95924020e+00
 2.02285409e+00  5.08902931e+00  1.97014880e+00
 2.02246022e+00  6.11038399e+00  1.95422053e+00
 1.00983357e+00  6.10687828e+00  1.94743586e+00
 1.01035714e+00  5.10560703e+00  2.93882418e+00
 2.02514076e+00  5.10626554e+00  2.94002771e+00
 2.01999331e+00  6.13462734e+00  2.91982007e+00
 1.01084304e+00  6.11897707e+00  2.92779613e+00
 3.04082131e+00  5.08293104e+00  1.97586977e+00
 3.04439688e+00  6.10778713e+00  1.95468450e+00
 3.04461265e+00  5.10054111e+00  2.93285418e+00
 3.06590724e+00  6.13350010e+00  2.88594866e+00
 5.04040527e+00  5.08657026e+00  2.00001335e+00
 6.04041004e+00  5.08969402e+00  1.99998105e+00
 6.03727150e+00  6.08970594e+00  2.00000358e+00
 5.03725338e+00  6.08657598e+00  2.00001359e+00
 5.04042912e+00  5.08656168e+00  3.00000000e+00
 6.04041529e+00  5.08970165e+00  2.99999094e+00
 6.03728056e+00  6.08968592e+00  2.99999237e+00
 5.03729820e+00  6.08654785e+00  3.00002408e+00
 0.00000000e+00  0.00000000e+00  2.88814640e+00
 1.02107096e+00  0.00000000e+00  2.88666034e+00
 1.02143538e+00  1.02247298e+00  2.89138651e+00
 0.00000000e+00  1.02199709e+00  2.89469624e+00
 0.00000000e+00  0.00000000e+00  3.84991288e+00
 1.02935719e+00  0.00000000e+00  3.84949040e+00
 1.02983570e+00  1.02135968e+00  3.85125089e+00
 0.00000000e+00  1.02037799e+00  3.85531402e+00
 2.04636908e+00  0.00000000e+00  2.87810707e+00
 2.04076481e+00  1.01770687e+00  2.88486910e+00
 2.05670142e+00  0.00000000e+00  3.84447908e+00
 2.05811810e+00  1.02225494e+00  3.84358501e+00
 3.06903696e+00  0.00000000e+00  2.86915278e+00
 3.06939745e+00  1.01414788e+00  2.87162733e+00
 3.08390689e+00  0.00000000e+00  3.83510590e+00
 3.08182168e+00  1.01965785e+00  3.83467889e+00
 4.09642029e+00  0.00000000e+00  2.86072230e+00
 4.09740925e+00  1.01511562e+00  2.85743260e+00
 4.10675383e+00  0.00000000e+00  3.82743478e+00
 4.10618019e+00  1.01576352e+00  3.82293916e+00
 5.12289715e+00  0.00000000e+00  2.84930134e+00
 5.12426805e+00  1.01675832e+00  2.85146713e+00
 5.12746477e+00  0.00000000e+00  3.82308531e+00
 5.12767506e+00  1.01399362e+00  3.81496525e+00
 6.14580202e+00  0.00000000e+00  2.84436345e+00
 6.14778709e+00  1.01522076e+00  2.84708428e+00
 6.14313269e+00  0.00000000e+00  3.82151794e+00
 6.14894342e+00  1.01215827e+00  3.81501460e+00
 1.01389718e+00  2.04154515e+00  2.90460324e+00
 0.00000000e+00  2.04822445e+00  2.90650344e+00
 1.02949607e+00  2.04489398e+00  3.86699462e+00
 0.00000000e+00  2.04527640e+00  3.86875367e+00
 2.03798366e+00  2.04074669e+00  2.88847756e+00
 2.06207848e+00  2.04659796e+00  3.84775066e+00
 3.06380272e+00  2.04501104e+00  2.86383247e+00
 3.08560944e+00  2.04296470e+00  3.81422138e+00
 4.09760427e+00  2.05064201e+00  2.85964131e+00
 4.10255814e+00  2.03630424e+00  3.80481887e+00
 5.12664270e+00  2.04509377e+00  2.85808182e+00
 5.12813330e+00  2.04127932e+00  3.80763245e+00
 6.15108633e+00  2.04238224e+00  2.85531020e+00
 6.15293121e+00  2.03838897e+00  3.80750084e+00
 1.00987232e+00  3.07216024e+00  2.92898583e+00
 0.00000000e+00  3.07066417e+00  2.92449498e+00
 1.02541757e+00  3.07099271e+00  3.88422966e+00
 0.00000000e+00  3.06878924e+00  3.89595199e+00
 2.03374338e+00  3.06375360e+00  2.90860224e+00
 2.06919742e+00  3.07454181e+00  3.84000850e+00
 3.02932739e+00  3.05605698e+00  2.76176643e+00
 3.10183001e+00  3.06239271e+00  3.78681350e+00
 1.00913715e+00  4.08774519e+00  2.94180131e+00
 0.00000000e+00  4.09127998e+00  2.94055581e+00
 1.01724839e+00  4.09661531e+00  3.91828179e+00
 0.00000000e+00  4.09765530e+00  3.91333771e+00
 0.00000000e+00  5.10216951e+00  2.93868780e+00
 1.01771915e+00  5.12209272e+00  3.91499805e+00
 0.00000000e+00  5.11457062e+00  3.90886569e+00
 2.02497578e+00  4.08776712e+00  2.95942521e+00
 2.04641390e+00  4.10211420e+00  3.90062547e+00
 2.04661822e+00  5.11728096e+00  3.90810609e+00
 0.00000000e+00  6.11961746e+00  2.92120838e+00
 1.02642131e+00  6.14935970e+00  3.87794375e+00
 0.00000000e+00  6.15472937e+00  3.88805461e+00
 2.04896927e+00  6.15889502e+00  3.87230635e+00
 3.06985164e+00  5.10570335e+00  3.83330560e+00
 3.10476112e+00  6.12786007e+00  3.84072709e+00
 0.00000000e+00  0.00000000e+00  4.80624676e+00
 1.03714728e+00  0.00000000e+00  4.80416489e+00
 1.03926265e+00  1.02219629e+00  4.80719185e+00
 0.00000000e+00  1.02058375e+00  4.80825949e+00
 2.06798673e+00  0.00000000e+00  4.80162525e+00
 2.07274580e+00  1.02643120e+00  4.80163193e+00
 3.09278989e+00  0.00000000e+00  4.79791546e+00
 3.09588599e+00  1.02826881e+00  4.79536724e+00
 4.11325550e+00  0.00000000e+00  4.79252005e+00
 4.11200142e+00  1.02550626e+00  4.79103184e+00
 5.13004351e+00  0.00000000e+00  4.79109478e+00
 5.12758827e+00  1.02174664e+00  4.78796577e+00
 6.14387751e+00  0.00000000e+00  4.79119492e+00
 6.14473343e+00  1.02273166e+00  4.78922224e+00
 1.04670930e+00  2.04951334e+00  4.81062746e+00
 0.00000000e+00  2.04386401e+00  4.81730700e+00
 2.08270216e+00  2.05473185e+00  4.79875088e+00
 3.10462952e+00  2.05313826e+00  4.78438425e+00
 4.11603212e+00  2.04688740e+00  4.77319622e+00
 5.12404633e+00  2.03995919e+00  4.76624441e+00
 6.13354015e+00  2.04019761e+00  4.76708508e+00
 1.04852104e+00  3.06683803e+00  4.83703136e+00
 0.00000000e+00  3.07636118e+00  4.84969187e+00
 2.09433484e+00  3.06953955e+00  4.79355383e+00
 3.11996770e+00  3.06484842e+00  4.76426125e+00
 4.11084175e+00  3.02786922e+00  3.73631454e+00
 4.12723351e+00  3.05650425e+00  4.75637865e+00
 1.04981947e+00  4.09125519e+00  4.88038874e+00
 0.00000000e+00  4.08271599e+00  4.86163235e+00
 2.10435081e+00  4.09155750e+00  4.80741262e+00
 1.04299760e+00  5.14200592e+00  4.84255552e+00
 0.00000000e+00  5.14482546e+00  4.84446955e+00
 1.05004883e+00  6.19353390e+00  4.82485294e+00
 0.00000000e+00  6.19146156e+00  4.83144712e+00
 2.07660627e+00  5.12706470e+00  4.83403063e+00
 2.11489129e+00  6.16558886e+00  4.82149076e+00
 3.11448717e+00  5.09016418e+00  4.77559423e+00
 3.15790224e+00  6.10299635e+00  4.78992462e+00
 4.04916811e+00  5.07673883e+00  3.70571852e+00
 4.10057020e+00  6.07952595e+00  3.74089885e+00
 4.14410734e+00  5.05681610e+00  4.75557995e+00
 4.15412855e+00  6.05827379e+00  4.75598955e+00
 5.14458656e+00  5.04828835e+00  3.75571108e+00
 6.14454031e+00  5.03955317e+00  3.75571728e+00
 6.15326881e+00  6.03952503e+00  3.75573707e+00
 5.15327120e+00  6.04828691e+00  3.75578380e+00
 5.14454031e+00  5.04827785e+00  4.75570679e+00
 6.14455843e+00  5.03954887e+00  4.75573921e+00
 6.15325594e+00  6.03951073e+00  4.75572729e+00
 5.15337515e+00  6.04815674e+00  4.75578403e+00
 0.00000000e+00  0.00000000e+00  5.75574636e+00
 1.03975856e+00  0.00000000e+00  5.75574636e+00
 1.04398084e+00  1.02502787e+00  5.75574636e+00
 0.00000000e+00  1.02163589e+00  5.75574636e+00
 2.07356381e+00  0.00000000e+00  5.75574636e+00
 2.07693052e+00  1.02972066e+00  5.75574636e+00
 3.09653783e+00  0.00000000e+00  5.75574636e+00
 3.10107279e+00  1.03196120e+00  5.75574636e+00
 4.11422491e+00  0.00000000e+00  5.75574636e+00
 4.11601353e+00  1.03203893e+00  5.75574636e+00
 5.13074684e+00  0.00000000e+00  5.75574636e+00
 5.12806129e+00  1.02917600e+00  5.75574636e+00
 6.14797258e+00  0.00000000e+00  5.75574636e+00
 6.13890839e+00  1.03312159e+00  5.75574636e+00
 1.05443549e+00  2.04392910e+00  5.75574636e+00
 0.00000000e+00  2.04096389e+00  5.75574636e+00
 2.09299684e+00  2.05453849e+00  5.75574636e+00
 3.11111927e+00  2.05781770e+00  5.75574636e+00
 4.12192631e+00  2.05305648e+00  5.75574636e+00
 5.12370014e+00  2.04643607e+00  5.75574636e+00
 6.12771320e+00  2.04399252e+00  5.75574636e+00
 1.06388617e+00  3.09169984e+00  5.75574636e+00
 0.00000000e+00  3.09692168e+00  5.75574636e+00
 2.10964179e+00  3.07732129e+00  5.75574636e+00
 3.12731433e+00  3.06834149e+00  5.75574636e+00
 4.12750959e+00  3.05709124e+00  5.75574636e+00
 5.12757826e+00  3.04772520e+00  4.75524282e+00
 5.12801027e+00  3.04805374e+00  5.75574636e+00
 6.12867403e+00  3.04087019e+00  4.75489330e+00
 6.12888813e+00  3.04204917e+00  5.75574636e+00
 3.13616228e+00  4.06632948e+00  4.75002909e+00
 3.13940549e+00  4.06962967e+00  5.75574636e+00
 2.13704777e+00  4.08684015e+00  5.75574636e+00
 4.13608170e+00  4.05644369e+00  4.75595570e+00
 4.13619280e+00  4.05665302e+00  5.75574636e+00
 5.13589811e+00  4.04834747e+00  4.75571918e+00
 5.13596630e+00  4.04824352e+00  5.75574636e+00
 6.13581085e+00  4.03991842e+00  4.75573015e+00
 6.13573980e+00  4.03973150e+00  5.75574636e+00
 0.00000000e+00  4.06529808e+00  5.75574636e+00
 1.07761550e+00  4.07805061e+00  5.75574636e+00
 1.06073630e+00  5.15875340e+00  5.75574636e+00
 0.00000000e+00  5.16374302e+00  5.75574636e+00
 5.14449310e+00  5.04827166e+00  5.75574636e+00
 4.14452934e+00  5.05689430e+00  5.75574636e+00
 6.14458466e+00  5.03957510e+00  5.75574636e+00
 1.06492221e+00  6.20380545e+00  5.75574636e+00
 0.00000000e+00  6.20614529e+00  5.75574636e+00
 2.09419584e+00  5.13097382e+00  5.75574636e+00
 2.14065742e+00  6.16289186e+00  5.75574636e+00
 3.12550282e+00  5.07970428e+00  5.75574636e+00
 3.16683197e+00  6.09547901e+00  5.75574636e+00
 4.15463352e+00  6.05745745e+00  5.75574636e+00
 5.15339136e+00  6.04808807e+00  5.75574636e+00
 6.15324306e+00  6.03952074e+00  5.75574636e+00
</DataArray>
</Points>
<PointData Tensors="Stress_Components,Plastic_strain_components" Vevtors="Spatial_displacement,Reaction_force" Scalars="Equivalent_plastic_strain,Stress_Mises,Stress_Max_Principal,Stress_Mid_Principal,Stress_Min_Principal,Stress_Pressure,Stress_Tresca,Stress_Third_Invariant,Plastic_strain_Max_Principal,Plastic_strain_Min_Principal">
<DataArray type="Float32" Name="Stress_Components" NumberOfComponents="9" format="ascii">
7.93960025e+00 -6.63097905e-01 4.00271455e-01 -6.63097905e-01 5.92786267e+00 5.97563372e-01 4.00271455e-01 5.97563372e-01 -1.43792192e+01
-8.84122252e-02 -2.39798927e+00 6.91731956e-01 -2.39798927e+00 -3.89355302e-01 2.39981754e+00 6.91731956e-01 2.39981754e+00 -2.85898310e+01
-4.06186795e+00 4.00539458e-01 1.06828505e+00 4.00539458e-01 6.42750025e-01 -7.31997102e-01 1.06828505e+00 -7.31997102e-01 -3.34270134e+01
1.32990140e+00 -3.36972882e-01 -4.97448934e-01 -3.36972882e-01 2.75102377e+00 -3.21635693e-01 -4.97448934e-01 -3.21635693e-01 -2.57133918e+01
1.59419637e+01 3.08896566e-01 1.44814572e+00 3.08896566e-01 1.73999459e+01 -3.54148748e-01 1.44814572e+00 -3.54148748e-01 6.23139071e+00
1.67158645e+01 -1.16393223e+00 1.42146658e+00 -1.16393223e+00 1.90478445e+01 1.49721481e+00 1.42146658e+00 1.49721481e+00 6.64225497e+00
-1.46659906e+01 2.67556086e-01 7.39204779e-01 2.67556086e-01 -5.57944095e+00 -7.66709104e-01 7.39204779e-01 -7.66709104e-01 -5.00092252e+01
3.56265509e+00 1.04859748e+00 1.03736771e+00 1.04859748e+00 4.53800869e+00 2.17781396e+00 1.03736771e+00 2.17781396e+00 -2.06786282e+01
-8.73077059e+00 -5.72920144e-02 -2.18502870e+00 -5.72920144e-02 -8.88027239e+00 4.48061930e+00 -2.18502870e+00 4.48061930e+00 -4.91364145e+01
-5.26343307e+01 -6.10333279e-01 -1.10477802e+00 -6.10333279e-01 -4.75723267e+01 4.44026542e+00 -1.10477802e+00 4.44026542e+00 -1.39210732e+02
-5.28794047e+01 5.45668022e+00 -2.02723714e+01 5.45668022e+00 -5.42967083e+01 -2.59149548e+00 -2.02723714e+01 -2.59149548e+00 -1.38230395e+02
-3.82778556e+01 2.38455847e+00 -8.03254151e+00 2.38455847e+00 -5.48684254e+01 -2.03698546e+00 -8.03254151e+00 -2.03698546e+00 -1.27975138e+02
3.97605598e-02 -5.89087605e-01 -8.27639108e-02 -5.89087605e-01 6.91819191e-02 -1.87929273e-02 -8.27639108e-02 -1.87929273e-02 -5.35647064e-01
-2.55538573e-01 -3.14954102e-01 -1.92259490e-01 -3.14954102e-01 3.08745801e-02 -9.07657146e-02 -1.92259490e-01 -9.07657146e-02 -2.02041810e-01
3.86082172e-01 -1.86427787e-01 1.45521700e-01 -1.86427787e-01 1.24194309e-01 3.58820989e-01 1.45521700e-01 3.58820989e-01 -9.36964810e-01
2.32980905e-01 -4.60617781e-01 -8.87652785e-02 -4.60617781e-01 -2.85931632e-01 -3.41612220e-01 -8.87652785e-02 -3.41612220e-01 -3.73835891e-01
1.67922810e-01 1.93538979e-01 3.26608181e-01 1.93538979e-01 1.60093710e-01 3.04787755e-01 3.26608181e-01 3.04787755e-01 -3.46044041e-02
-1.30842298e-01 1.06878631e-01 1.91571116e-01 1.06878631e-01 -2.18650132e-01 -7.91085437e-02 1.91571116e-01 -7.91085437e-02 6.42988086e-01
4.85311896e-02 6.68596849e-02 -3.83749843e-01 6.68596849e-02 1.34101644e-01 -4.71835136e-01 -3.83749843e-01 -4.71835136e-01 1.10796094e-01
-2.80572385e-01 1.53527796e-01 -8.13582465e-02 1.53527796e-01 -1.15081996e-01 2.73443818e-01 -8.13582465e-02 2.73443818e-01 6.89060926e-01
-2.69288063e-01 1.07911984e-02 9.16424632e-01 1.07911984e-02 3.32833290e-01 -1.63214847e-01 9.16424632e-01 -1.63214847e-01 -2.99326954e+01
1.92982126e-01 2.51474686e-01 5.57019837e-01 2.51474686e-01 2.67287046e-02 3.74584138e-01 5.57019837e-01 3.74584138e-01 -2.97267423e+01
2.12488097e+00 -9.02262907e-01 9.59616134e-01 -9.02262907e-01 2.67819313e+00 4.81009129e-01 9.59616134e-01 4.81009129e-01 -2.46348588e+01
-4.61260855e-01 1.65830661e-01 1.00900133e+00 1.65830661e-01 1.04225792e+00 -5.50729372e-01 1.00900133e+00 -5.50729372e-01 -2.93125315e+01
3.94403207e+00 -1.48305418e-02 1.06735271e+00 -1.48305418e-02 1.61659718e+00 4.16553020e-02 1.06735271e+00 4.16553020e-02 -2.38590932e+01
7.23622933e-01 1.64694447e-01 3.90463889e-01 1.64694447e-01 -8.55339527e-01 1.13618846e+00 3.90463889e-01 1.13618846e+00 -3.00088043e+01
2.09921643e+00 2.82252219e-01 1.15703506e+00 2.82252219e-01 3.85801688e-01 6.40913323e-01 1.15703506e+00 6.40913323e-01 -2.71528020e+01
1.79632097e-01 3.70015331e-01 1.34028478e+00 3.70015331e-01 -2.17519397e+00 -7.16556355e-01 1.34028478e+00 -7.16556355e-01 -3.19614100e+01
3.69701119e+00 -1.15209472e+00 5.53855896e-01 -1.15209472e+00 1.73381877e+00 1.38647290e-01 5.53855896e-01 1.38647290e-01 -2.40181887e+01
4.49786122e+00 -1.24414293e+00 1.25548477e+00 -1.24414293e+00 3.58344500e+00 9.34930446e-01 1.25548477e+00 9.34930446e-01 -2.08159747e+01
1.43181503e+00 1.92421045e-01 1.56934506e-01 1.92421045e-01 3.58147681e-01 7.13137090e-01 1.56934506e-01 7.13137090e-01 -2.80580792e+01
-1.01753868e+00 1.38663688e-01 1.34179851e+00 1.38663688e-01 -9.99315724e-01 1.90498890e+00 1.34179851e+00 1.90498890e+00 -3.19335537e+01
6.03256661e+00 1.54719388e-01 1.66720765e-01 1.54719388e-01 2.98844776e+00 7.57537480e-01 1.66720765e-01 7.57537480e-01 -2.00053209e+01
7.69937965e+00 -3.96464707e-01 -2.65642554e-02 -3.96464707e-01 5.07278451e+00 -9.12806764e-02 -2.65642554e-02 -9.12806764e-02 -1.59691634e+01
3.22741514e+00 -6.17271259e-01 1.11384019e-01 -6.17271259e-01 1.41564742e+00 1.01450461e+00 1.11384019e-01 1.01450461e+00 -2.48787613e+01
6.24578074e-01 -7.67035947e-01 -5.57016134e-02 -7.67035947e-01 1.48883909e-02 7.80910486e-01 -5.57016134e-02 7.80910486e-01 -2.91334908e+01
8.44149977e+00 3.02887052e-01 -3.10918463e-01 3.02887052e-01 4.88587549e+00 1.82596844e-01 -3.10918463e-01 1.82596844e-01 -1.52953759e+01
1.66554746e+00 3.26510438e-01 -9.02611226e-01 3.26510438e-01 -9.13796782e-01 9.56394761e-02 -9.02611226e-01 9.56394761e-02 -2.89125757e+01
3.91673613e+00 -2.93685660e-01 -7.60885224e-01 -2.93685660e-01 1.15983277e+00 7.17460260e-01 -7.60885224e-01 7.17460260e-01 -2.44017911e+01
8.75817760e+00 -8.31464276e-01 -3.00439885e-01 -8.31464276e-01 6.91912146e+00 -5.00873210e-01 -3.00439885e-01 -5.00873210e-01 -1.29678583e+01
1.14179153e+01 1.47190318e-02 2.11827874e-01 1.47190318e-02 8.70092982e+00 -3.31513837e-01 2.11827874e-01 -3.31513837e-01 -8.05587769e+00
5.10911632e+00 1.04046460e-01 -3.02992229e-01 1.04046460e-01 2.68283355e+00 5.76700787e-02 -3.02992229e-01 5.76700787e-02 -2.14352852e+01
9.63334438e+00 3.80976114e-03 -9.52565446e-01 3.80976114e-03 8.45245539e+00 -1.86695668e-01 -9.52565446e-01 -1.86695668e-01 -1.04154897e+01
5.40126590e+00 -2.89045500e-01 -8.74828866e-01 -2.89045500e-01 4.07416660e+00 -5.14494840e-01 -8.74828866e-01 -5.14494840e-01 -1.94966640e+01
1.59610786e+01 -1.00109374e-01 2.06039600e-01 -1.00109374e-01 1.42563419e+01 -5.80883473e-01 2.06039600e-01 -5.80883473e-01 2.91306305e+00
1.33189779e+01 -1.58204395e-01 -4.49923005e-01 -1.58204395e-01 1.14882912e+01 -3.05720046e-01 -4.49923005e-01 -3.05720046e-01 -3.07178974e+00
1.47597425e+01 9.69051763e-01 -4.86159343e-01 9.69051763e-01 1.45469813e+01 -8.33625942e-01 -4.86159343e-01 -8.33625942e-01 1.74837112e+00
1.07566156e+01 5.46420198e-01 -2.12426271e-01 5.46420198e-01 9.23745215e+00 -6.70181247e-01 -2.12426271e-01 -6.70181247e-01 -8.11109710e+00
1.49491572e+00 -1.52347959e+00 2.55409610e+00 -1.52347959e+00 4.74760148e+00 2.18646068e-01 2.55409610e+00 2.18646068e-01 -2.19606731e+01
7.18471289e-01 -1.29963697e+00 1.98948412e+00 -1.29963697e+00 5.30809749e+00 -3.69601257e-01 1.98948412e+00 -3.69601257e-01 -2.27503986e+01
-4.62261961e+00 1.57152280e-01 3.86376779e+00 1.57152280e-01 -6.71279651e+00 1.91400681e+00 3.86376779e+00 1.91400681e+00 -4.12403556e+01
3.36677909e-01 -1.16981495e-01 2.17814025e+00 -1.16981495e-01 -1.90643251e-01 -2.28285469e-01 2.17814025e+00 -2.28285469e-01 -2.96085393e+01
6.29934798e+00 5.52173625e-01 3.00325180e+00 5.52173625e-01 4.84332561e+00 1.49939081e+00 3.00325180e+00 1.49939081e+00 -2.12933494e+01
-2.73883854e+00 1.09026726e+00 8.33490048e-01 1.09026726e+00 -2.91403913e+00 -4.61168490e-01 8.33490048e-01 -4.61168490e-01 -3.54131946e+01
-4.67648552e+01 -2.75141212e+00 -1.07797412e+01 -2.75141212e+00 -4.70733788e+01 -1.28306939e+00 -1.07797412e+01 -1.28306939e+00 -1.23496599e+02
4.17066397e+00 1.07268112e+00 -2.53762762e+00 1.07268112e+00 6.44086429e+00 8.51788603e-01 -2.53762762e+00 8.51788603e-01 -1.97924683e+01
-3.40543709e+01 -3.64081517e-01 -3.67875028e+00 -3.64081517e-01 -3.05395927e+01 1.98332575e+00 -3.67875028e+00 1.98332575e+00 -9.93723907e+01
-1.94996619e+01 -9.81696457e-01 -1.23775994e+01 -9.81696457e-01 -2.43408607e+01 9.64059436e-01 -1.23775994e+01 9.64059436e-01 -6.70027134e+01
-2.06707163e+01 -4.87729914e-01 -1.86988220e-01 -4.87729914e-01 -1.86088433e+01 1.70237013e+00 -1.86988220e-01 1.70237013e+00 -7.24142189e+01
-2.75947280e+01 3.00191324e-01 -4.20851338e+00 3.00191324e-01 -2.39821372e+01 -7.58337468e-01 -4.20851338e+00 -7.58337468e-01 -8.53988152e+01
-1.06822782e+01 -2.49643505e-01 -5.04825570e-01 -2.49643505e-01 -6.64924043e+00 3.88764694e-01 -5.04825570e-01 3.88764694e-01 -4.85940971e+01
-2.60387583e+01 -1.06724957e+00 -4.18132019e+00 -1.06724957e+00 -2.05632362e+01 -3.71805029e+00 -4.18132019e+00 -3.71805029e+00 -7.88202534e+01
-3.28424893e+00 -6.67450596e-01 4.50135647e+00 -6.67450596e-01 1.07504647e+00 8.63616228e-01 4.50135647e+00 8.63616228e-01 -3.02250479e+01
8.65384084e+00 4.80038315e-01 2.33832563e+00 4.80038315e-01 1.20178756e+01 -4.17216660e-01 2.33832563e+00 -4.17216660e-01 -6.87479687e+00
-3.19968077e+00 -5.45631707e-01 4.23494535e+00 -5.45631707e-01 -4.18062627e+00 7.98487124e-01 4.23494535e+00 7.98487124e-01 -3.64366392e+01
7.97196317e+00 1.72263362e-01 2.30254313e+00 1.72263362e-01 9.59737366e+00 -3.91261697e-01 2.30254313e+00 -3.91261697e-01 -1.06729491e+01
-6.78267345e+01 -8.01769674e+00 1.18431874e+01 -8.01769674e+00 -6.16874790e+01 -1.31815242e+01 1.18431874e+01 -1.31815242e+01 -1.54281178e+02
-1.84586384e+01 1.73271058e+00 1.02427132e+00 1.73271058e+00 -2.44675302e+01 -4.21486374e+00 1.02427132e+00 -4.21486374e+00 -7.58901211e+01
7.23803759e+00 -5.76199198e+00 -1.87435837e+01 -5.76199198e+00 9.03329372e+00 -5.96498728e+00 -1.87435837e+01 -5.96498728e+00 3.73895226e+01
1.46902962e+01 -1.96876256e+00 -4.08349228e+00 -1.96876256e+00 1.48978726e+01 -4.58665363e+00 -4.08349228e+00 -4.58665363e+00 2.58297920e+00
1.25205693e+01 -1.49884743e-01 3.40964113e-02 -1.49884743e-01 1.41410720e+01 1.15206885e+00 3.40964113e-02 1.15206885e+00 -1.19728075e+00
8.98715252e+00 -7.35840157e-01 2.16306328e+00 -7.35840157e-01 1.13182680e+01 2.46939249e-01 2.16306328e+00 2.46939249e-01 -6.97720832e+00
1.93283016e+01 -4.52498525e-01 7.33685397e-01 -4.52498525e-01 2.20503342e+01 1.31912506e+00 7.33685397e-01 1.31912506e+00 1.60155002e+01
1.37688585e+01 -6.05798166e-01 1.93420500e+00 -6.05798166e-01 1.51569238e+01 9.43931431e-01 1.93420500e+00 9.43931431e-01 1.63596344e+00
1.05384630e+01 3.68186269e-01 -1.81642398e-02 3.68186269e-01 1.17790612e+01 7.03811985e-01 -1.81642398e-02 7.03811985e-01 -5.67249393e+00
7.15626516e+00 9.60279414e-01 3.65733325e-01 9.60279414e-01 8.51749453e+00 1.95721384e+00 3.65733325e-01 1.95721384e+00 -1.23981145e+01
7.69718146e+00 1.46158196e+00 2.13650875e-01 1.46158196e+00 1.03427807e+01 5.79229955e-01 2.13650875e-01 5.79229955e-01 -1.00934518e+01
-2.90647259e+01 5.19391172e-01 4.89796205e+00 5.19391172e-01 -2.61513598e+01 1.47603836e+01 4.89796205e+00 1.47603836e+01 -7.75762496e+01
-7.04668789e+01 -2.63591188e+00 1.44481263e+01 -2.63591188e+00 -7.48604393e+01 6.93686152e+00 1.44481263e+01 6.93686152e+00 -1.83727707e+02
-1.11245964e+01 -2.68559930e+00 -2.87538400e+00 -2.68559930e+00 -5.28957710e+00 1.95316582e+00 -2.87538400e+00 1.95316582e+00 -4.56958450e+01
-1.94344139e+00 -1.19074922e-01 3.62959146e-01 -1.19074922e-01 1.49071264e+00 1.34332465e+00 3.62959146e-01 1.34332465e+00 -3.02200899e+01
1.00354342e+01 1.12216930e+00 -6.37849122e-01 1.12216930e+00 9.95379353e+00 5.39916694e-01 -6.37849122e-01 5.39916694e-01 -8.80194283e+00
-4.18436432e+00 -1.50545691e+00 2.45847625e+00 -1.50545691e+00 1.24888420e+00 -6.70941249e-01 2.45847625e+00 -6.70941249e-01 -3.27475033e+01
-1.49814291e+01 -2.70258549e+00 -3.56338093e+00 -2.70258549e+00 -1.24794879e+01 5.36080790e+00 -3.56338093e+00 5.36080790e+00 -5.59769906e+01
-6.17525851e+01 7.39325603e+00 -3.20765962e-01 7.39325603e+00 -4.12538363e+01 -2.89500687e+01 -3.20765962e-01 -2.89500687e+01 -1.04974423e+02
-1.20102463e+01 -2.15431082e+00 -2.33980725e+00 -2.15431082e+00 -1.28110516e+01 -8.45932945e+00 -2.33980725e+00 -8.45932945e+00 -4.57902740e+01
2.80983749e+00 -1.71711165e-02 2.58372016e-01 -1.71711165e-02 -1.75908923e+00 -2.41277315e-01 2.58372016e-01 -2.41277315e-01 -2.85106344e+01
7.22954690e-01 3.22671622e-01 1.89529054e-01 3.22671622e-01 -2.29067016e+00 7.50221428e-01 1.89529054e-01 7.50221428e-01 -3.14892020e+01
5.54056183e-01 1.09842159e+00 6.88831773e-01 1.09842159e+00 -2.62248367e+00 5.57582591e-01 6.88831773e-01 5.57582591e-01 -3.19275652e+01
1.82152328e+00 3.09397575e-01 7.23006472e-01 3.09397575e-01 -2.88168991e+00 -2.68484864e-01 7.23006472e-01 -2.68484864e-01 -3.07432638e+01
-3.69696075e+00 9.46468309e-01 -2.68351417e-01 9.46468309e-01 -3.08808172e+00 1.15043087e+00 -2.68351417e-01 1.15043087e+00 -3.71936712e+01
-4.04365842e+00 1.78354949e+00 5.50529484e-01 1.78354949e+00 -3.34678393e+00 1.16813023e+00 5.50529484e-01 1.16813023e+00 -3.76042753e+01
-5.03154251e+00 6.48251355e-01 -9.57900034e-02 6.48251355e-01 -2.53643137e+00 4.03593563e-01 -9.57900034e-02 4.03593563e-01 -3.81529078e+01
-7.64408494e+00 9.24666727e-01 1.28615573e-02 9.24666727e-01 -3.11487887e+00 1.57438511e+00 1.28615573e-02 1.57438511e+00 -4.10454817e+01
-3.51198861e+00 -7.62719184e-01 -8.05427413e-03 -7.62719184e-01 -6.65944386e-01 3.61971736e-01 -8.05427413e-03 3.61971736e-01 -3.44377522e+01
-2.93904705e+00 -5.84210418e-01 -6.76465742e-01 -5.84210418e-01 9.59084272e-01 1.18581287e-01 -6.76465742e-01 1.18581287e-01 -3.17584899e+01
-5.25629818e-02 -7.10564494e-01 -4.53897409e-01 -7.10564494e-01 3.25239852e+00 -1.46184217e-01 -4.53897409e-01 -1.46184217e-01 -2.63674216e+01
2.48201039e+00 -1.25249579e+00 -1.40325119e+00 -1.25249579e+00 4.03076023e+00 -2.81055510e-01 -1.40325119e+00 -2.81055510e-01 -2.26352600e+01
-1.27109861e+00 2.55748451e-01 1.53321028e-02 2.55748451e-01 3.91423166e+00 -3.40603277e-01 1.53321028e-02 -3.40603277e-01 -2.68150969e+01
-6.21806830e-01 -1.36169626e+00 -7.03002650e-01 -1.36169626e+00 1.57047272e+00 -1.69122343e+00 -7.03002650e-01 -1.69122343e+00 -2.83158889e+01
-3.80766323e+00 1.81376451e+00 1.70943069e+00 1.81376451e+00 -9.16104615e+00 1.54829059e+00 1.70943069e+00 1.54829059e+00 -4.32091072e+01
-8.78899336e-01 8.98422047e-01 1.66322733e+00 8.98422047e-01 -6.21233368e+00 -4.45660606e-01 1.66322733e+00 -4.45660606e-01 -3.70790482e+01
-1.38367832e+00 2.19005024e+00 4.08114905e-01 2.19005024e+00 -2.16179490e+00 4.39771999e-01 4.08114905e-01 4.39771999e-01 -3.34987864e+01
5.12810186e+00 2.09317566e+00 -3.47452184e+00 2.09317566e+00 5.90195194e+00 -3.55084583e-01 -3.47452184e+00 -3.55084583e-01 -1.60954098e+01
7.40729707e+00 4.00279194e-01 -3.09416212e+00 4.00279194e-01 1.02849336e+01 -2.70606524e-01 -3.09416212e+00 -2.70606524e-01 -1.09424584e+01
-8.44084422e-01 -1.39827141e+00 -4.76778333e+00 -1.39827141e+00 2.55687916e+00 -1.88326276e+00 -4.76778333e+00 -1.88326276e+00 -2.73241854e+01
-3.24131457e+00 -4.06781240e+00 -6.92130605e+00 -4.06781240e+00 -5.73554420e+00 -4.06150691e+00 -6.92130605e+00 -4.06150691e+00 -3.63311036e+01
-1.28762200e+01 3.63139262e-02 5.84855247e+00 3.63139262e-02 -2.26408704e+01 -1.07040523e+00 5.84855247e+00 -1.07040523e+00 -6.59311034e+01
-2.32532014e+01 -1.97542433e+00 6.96035250e+00 -1.97542433e+00 -3.15250702e+01 -1.97518746e+00 6.96035250e+00 -1.97518746e+00 -8.71629690e+01
5.88219372e+00 1.89685299e+00 2.07932626e-01 1.89685299e+00 -1.39862907e+00 -3.53883449e+00 2.07932626e-01 -3.53883449e+00 -2.33583986e+01
2.52918604e+01 2.09651614e+00 -3.73668407e+00 2.09651614e+00 2.54515160e+01 1.07441201e+00 -3.73668407e+00 1.07441201e+00 2.57880144e+01
1.10949984e+01 -5.82738352e+00 -5.65787125e+00 -5.82738352e+00 4.28658772e+00 -9.92537117e+00 -5.65787125e+00 -9.92537117e+00 2.86248684e+01
1.67964949e+01 1.52013242e-02 -1.78612686e+00 1.52013242e-02 1.55894760e+01 -4.15447214e+00 -1.78612686e+00 -4.15447214e+00 9.71791525e+00
-1.42426771e+01 -1.83979258e-01 9.96444941e-01 -1.83979258e-01 -1.54643702e+01 6.26986575e+00 9.96444941e-01 6.26986575e+00 -5.77910666e+01
-5.61917130e+00 7.35754102e-01 -2.56097591e+00 7.35754102e-01 -8.34491078e+00 3.49754373e+00 -2.56097591e+00 3.49754373e+00 -4.44561488e+01
-6.01930618e+01 -5.55241418e+00 5.84008622e+00 -5.55241418e+00 -9.02621689e+01 -1.11762371e+01 5.84008622e+00 -1.11762371e+01 -1.88985199e+02
-1.69759970e+01 -5.93136636e-02 -1.09612338e+00 -5.93136636e-02 -1.32849001e+01 4.32225275e+00 -1.09612338e+00 4.32225275e+00 -6.20135727e+01
-6.83917546e+00 -1.88487532e-01 3.01619613e+00 -1.88487532e-01 -4.27215791e+00 2.96541568e-01 3.01619613e+00 2.96541568e-01 -4.19700403e+01
7.66644478e-02 -3.74932472e-01 1.44225217e+00 -3.74932472e-01 -2.54304576e+00 2.31216381e+00 1.44225217e+00 2.31216381e+00 -3.21816812e+01
3.31044483e+00 1.04590148e-01 1.84300554e+00 1.04590148e-01 2.24432802e+00 -1.32399067e+00 1.84300554e+00 -1.32399067e+00 -2.36032023e+01
-2.27944500e+01 1.29539801e+00 -1.12317747e+00 1.29539801e+00 -2.74816709e+01 -4.86973429e+00 -1.12317747e+00 -4.86973429e+00 -8.26544589e+01
-8.18523121e+00 -1.83990708e+00 -2.24452892e+00 -1.83990708e+00 -1.77833398e+01 5.73408300e+00 -2.24452892e+00 5.73408300e+00 -5.43859675e+01
1.90812486e+01 1.27392188e+00 2.67669212e-01 1.27392188e+00 5.98152065e+00 5.26267549e+00 2.67669212e-01 5.26267549e+00 -1.13281884e+01
8.26357368e+00 -1.76451217e+00 1.28752318e+00 -1.76451217e+00 1.71324446e+01 -9.68892857e-01 1.28752318e+00 -9.68892857e-01 -2.45753121e+00
6.95303268e+01 -1.05913579e+00 1.10069048e+00 -1.05913579e+00 5.35914421e+01 1.55852461e+01 1.10069048e+00 1.55852461e+01 6.93689957e+01
4.92166824e+01 1.44337475e+00 1.19003868e+00 1.44337475e+00 4.22469215e+01 9.75347996e+00 1.19003868e+00 9.75347996e+00 6.24611855e+01
7.24002647e+00 -4.21787494e+00 -1.66216730e+00 -4.21787494e+00 4.56610966e+00 4.69121665e-01 -1.66216730e+00 4.69121665e-01 9.31431532e-01
1.98138332e+00 -6.70706898e+00 -1.33590013e+00 -6.70706898e+00 1.25633837e+01 -6.23600554e+00 -1.33590013e+00 -6.23600554e+00 5.91026370e+00
-8.60458910e-01 -1.04789793e+00 1.29959667e+00 -1.04789793e+00 1.02497494e+00 -8.24724317e-01 1.29959667e+00 -8.24724317e-01 -6.96383357e-01
-8.51091087e-01 -1.45192802e-01 3.32833260e-01 -1.45192802e-01 -8.06073472e-02 4.99030709e-01 3.32833260e-01 4.99030709e-01 3.99868965e-01
7.96178997e-01 -7.02550948e-01 1.25819132e-01 -7.02550948e-01 -2.39033014e-01 -1.22381306e+00 1.25819132e-01 -1.22381306e+00 -1.08898842e+00
2.77576566e-01 -1.60564125e+00 -1.19547069e+00 -1.60564125e+00 3.57498705e-01 1.21825981e+00 -1.19547069e+00 1.21825981e+00 -1.16695070e+00
6.82924547e+00 2.73652010e+00 1.21839331e+00 2.73652010e+00 -2.59594078e+00 1.22687644e+00 1.21839331e+00 1.22687644e+00 -7.03417873e-01
1.45203696e+00 -3.38260005e-01 2.25979606e-01 -3.38260005e-01 -5.47901233e+00 1.16264677e+00 2.25979606e-01 1.16264677e+00 -3.73129606e-01
-3.18567276e+00 1.10267556e+00 -2.78640291e-01 1.10267556e+00 1.80228770e-01 -1.45139843e+00 -2.78640291e-01 -1.45139843e+00 3.97754021e-01
-5.18665747e+00 -3.01116196e+00 -5.03343781e-01 -3.01116196e+00 2.04709009e+00 -1.34296739e+00 -5.03343781e-01 -1.34296739e+00 3.19816786e+00
1.52726185e+00 -1.73653830e-02 -7.06120953e-03 -1.73653830e-02 -3.40372920e+00 9.83027741e-04 -7.06120953e-03 9.83027741e-04 -3.16344490e+01
4.43130136e-01 5.11085466e-01 -1.20436617e-02 5.11085466e-01 -2.68245327e+00 4.53196108e-01 -1.20436617e-02 4.53196108e-01 -3.22350349e+01
-3.86183083e-01 1.56284076e+00 3.83653089e-01 1.56284076e+00 -4.55993686e+00 6.83469191e-01 3.83653089e-01 6.83469191e-01 -3.48725209e+01
1.85614705e+00 4.01030943e-01 2.90187061e-01 4.01030943e-01 -3.98383522e+00 -1.04127349e-02 2.90187061e-01 -1.04127349e-02 -3.17523413e+01
-5.12795597e+00 6.02230400e-01 -9.40235052e-03 6.02230400e-01 -3.82686269e+00 1.16348773e+00 -9.40235052e-03 1.16348773e+00 -3.95349445e+01
-5.28014472e+00 2.67947087e+00 4.80267160e-01 2.67947087e+00 -4.70006487e+00 8.51106510e-01 4.80267160e-01 8.51106510e-01 -4.02420430e+01
-9.70090127e+00 1.19588137e+00 2.61051245e-02 1.19588137e+00 -4.11304438e+00 9.19503689e-01 2.61051245e-02 9.19503689e-01 -4.44431562e+01
-1.00178818e+01 1.97565299e+00 1.08403999e+00 1.97565299e+00 -4.27078965e+00 1.53080827e+00 1.08403999e+00 1.53080827e+00 -4.46113863e+01
-9.23804152e+00 8.57732967e-02 4.03038301e-02 8.57732967e-02 -2.00593317e+00 2.98659235e-01 4.03038301e-02 2.98659235e-01 -4.14951134e+01
-1.16625524e+01 -5.94711863e-03 2.11540458e+00 -5.94711863e-03 -3.78425664e+00 1.49077436e+00 2.11540458e+00 1.49077436e+00 -4.58231344e+01
-7.94665813e+00 -5.38651794e-01 5.19634373e-02 -5.38651794e-01 -1.16006607e+00 -3.18641383e-02 5.19634373e-02 -3.18641383e-02 -3.92420025e+01
-8.96305755e+00 -1.98097917e+00 2.27913377e+00 -1.98097917e+00 -3.00970912e-01 2.31050681e-01 2.27913377e+00 2.31050681e-01 -3.87329483e+01
-1.74727383e+01 -2.91929317e+00 7.44155124e-02 -2.91929317e+00 -6.64156389e+00 8.01227927e-01 7.44155124e-02 8.01227927e-01 -5.45020256e+01
-1.54612689e+01 -2.53007287e+00 3.22221422e+00 -2.53007287e+00 -4.91734612e+00 -2.91962636e+00 3.22221422e+00 -2.91962636e+00 -4.97789116e+01
1.95960307e+00 3.01627883e+00 -1.08854908e+00 3.01627883e+00 -2.99778414e+00 1.23898670e+00 -1.08854908e+00 1.23898670e+00 -3.01068258e+01
-3.77272749e+00 7.48594433e-01 -6.09345227e-01 7.48594433e-01 -1.24305577e+01 9.95109342e-02 -6.09345227e-01 9.95109342e-02 -4.64399581e+01
-9.41779017e-01 3.95294593e+00 3.77092995e-01 3.95294593e+00 -4.99333441e-01 2.22517011e+00 3.77092995e-01 2.22517011e+00 -3.01848249e+01
3.62968431e+00 2.72501245e+00 1.60607809e+00 2.72501245e+00 5.62390709e+00 1.91499215e+00 1.60607809e+00 1.91499215e+00 -1.91259987e+01
1.22315769e+01 -7.14411043e-01 1.89582117e+00 -7.14411043e-01 1.41183710e+01 1.32507295e+00 1.89582117e+00 1.32507295e+00 -1.48588800e+00
1.98032386e+01 2.75031962e-01 2.57014137e+00 2.75031962e-01 1.76156263e+01 -5.19967176e-01 2.57014137e+00 -5.19967176e-01 1.04711909e+01
1.97358784e+01 -9.14623976e-01 2.37117168e+00 -9.14623976e-01 1.14227147e+01 -2.33278483e+00 2.37117168e+00 -2.33278483e+00 3.90938187e+00
-5.90066738e+01 -7.34984517e-01 6.22639132e+00 -7.34984517e-01 -6.95052242e+01 4.35720921e+00 6.22639132e+00 4.35720921e+00 -1.68126320e+02
-7.42749939e+01 -6.17292166e-01 4.25025463e+00 -6.17292166e-01 -8.06631699e+01 9.77346525e-02 4.25025463e+00 9.77346525e-02 -1.97602402e+02
6.98824183e+00 4.53660808e+00 6.37227098e-01 4.53660808e+00 1.53610388e+00 3.59776375e+00 6.37227098e-01 3.59776375e+00 -1.90980619e+01
2.70067148e+01 -9.91860330e-01 1.17986807e+00 -9.91860330e-01 3.04409399e+01 1.41351458e+00 1.17986807e+00 1.41351458e+00 2.88872762e+01
3.00700903e+01 -2.51166651e+00 2.35359235e+00 -2.51166651e+00 2.43226536e+01 5.67811757e-01 2.35359235e+00 5.67811757e-01 2.75692945e+01
1.70926386e+00 -6.13786340e-01 -1.99774796e+00 -6.13786340e-01 6.87918019e+00 -2.88187610e+00 -1.99774796e+00 -2.88187610e+00 -7.94633947e-01
1.91045296e+01 1.37559137e-01 2.30052036e+00 1.37559137e-01 1.39175432e+01 1.94140067e+00 2.30052036e+00 1.94140067e+00 1.63764978e+01
-2.37572193e+00 -7.42893459e+00 -3.09578943e+00 -7.42893459e+00 -1.03591623e+01 -6.42734438e-01 -3.09578943e+00 -6.42734438e-01 -4.16473436e+00
1.41103091e+01 -4.24534774e+00 2.81591976e+00 -4.24534774e+00 -2.14062500e+00 8.36316146e-01 2.81591976e+00 8.36316146e-01 1.16178958e+01
4.30281925e+00 5.00135350e+00 -1.01500170e+01 5.00135350e+00 -1.11575079e+00 2.03918123e+00 -1.01500170e+01 2.03918123e+00 1.33797835e+01
2.22903442e+01 -1.48447567e+00 3.74378729e+00 -1.48447567e+00 3.17954745e+01 3.17546445e+00 3.74378729e+00 3.17546445e+00 4.56113768e+01
-1.72349701e+01 6.19943619e+00 -1.05387866e+00 6.19943619e+00 -1.21001892e+01 1.62130108e+01 -1.05387866e+00 1.62130108e+01 -6.02422409e+01
1.06020190e+01 4.47841788e+00 -2.49412807e+00 4.47841788e+00 1.79426769e+01 9.23409104e-01 -2.49412807e+00 9.23409104e-01 6.60947873e+00
6.57733337e+00 -1.71942770e+00 3.45412195e+00 -1.71942770e+00 9.19005501e+00 1.87938207e+00 3.45412195e+00 1.87938207e+00 6.63346663e+00
-1.78174281e+00 4.48124412e+00 4.54343677e+00 4.48124412e+00 1.11649761e+01 -7.44818002e-01 4.54343677e+00 -7.44818002e-01 2.22049927e+00
-1.17394501e+00 -5.11381587e+00 -1.45256890e+00 -5.11381587e+00 6.10597777e+00 2.07730946e+00 -1.45256890e+00 2.07730946e+00 8.42375918e+00
4.75251409e+00 -1.42990327e+00 -2.97985435e-01 -1.42990327e+00 -1.07358222e+01 -9.19630229e-01 -2.97985435e-01 -9.19630229e-01 6.92771614e+00
-3.85893345e-01 3.05706024e-01 -2.11820079e+00 3.05706024e-01 -8.45580745e+00 -1.29434669e+00 -2.11820079e+00 -1.29434669e+00 4.09630907e+00
-6.75059052e+01 2.44066620e+00 -2.21719861e+00 2.44066620e+00 -5.04025650e+01 6.27158761e-01 -2.21719861e+00 6.27158761e-01 -1.56202667e+02
-9.27434158e+01 1.78770351e+00 -1.01021886e+00 1.78770351e+00 -8.49160614e+01 2.65897512e+00 -1.01021886e+00 2.65897512e+00 -2.22414200e+02
-1.77053261e+00 -1.36413628e+00 1.56860085e+00 -1.36413628e+00 -2.35853322e+00 2.13655261e+00 1.56860085e+00 2.13655261e+00 -3.42830861e+01
-1.01602933e+01 -1.67254603e+00 3.35133612e+00 -1.67254603e+00 -1.27529366e+01 1.55777708e-01 3.35133612e+00 1.55777708e-01 -5.37707577e+01
1.31091216e+00 2.45681992e+00 -1.43049078e-01 2.45681992e+00 -4.85458970e-02 -7.03535408e-01 -1.43049078e-01 -7.03535408e-01 3.18107240e+00
1.18639812e+01 1.37774291e+00 3.70819251e-01 1.37774291e+00 2.50061744e+01 5.54628396e+00 3.70819251e-01 5.54628396e+00 2.16627989e+01
2.33046246e+00 1.10167432e+00 5.41095942e-01 1.10167432e+00 -5.88572049e+00 5.46670586e-01 5.41095942e-01 5.46670586e-01 -2.77837694e+00
4.31899548e-01 -2.30642670e+00 1.30753605e+00 -2.30642670e+00 -6.04940557e+00 1.00542659e+00 1.30753605e+00 1.00542659e+00 -3.49374328e+01
4.84107733e+00 1.11418855e+00 2.34032288e-01 1.11418855e+00 -7.94047177e-01 -4.44163419e-02 2.34032288e-01 -4.44163419e-02 -2.51420441e+01
-3.52065468e+00 -1.51127619e+00 3.89038519e-01 -1.51127619e+00 -2.94625664e+00 3.84405680e+00 3.89038519e-01 3.84405680e+00 -3.73825703e+01
-5.57965481e+00 -2.50003141e+00 -3.76920775e-02 -2.50003141e+00 -1.33618586e+01 4.32593846e+00 -3.76920775e-02 4.32593846e+00 -4.83235893e+01
1.71853449e+01 3.70687556e+00 -2.35380982e+00 3.70687556e+00 6.63924599e+00 4.12777901e-01 -2.35380982e+00 4.12777901e-01 -4.03620911e+00
1.88652039e-01 -1.08190280e+00 -1.67516978e+00 -1.08190280e+00 2.01163878e+01 1.33933604e+00 -1.67516978e+00 1.33933604e+00 -4.66996956e+00
2.03041258e+01 2.72587740e+00 -2.47548050e+00 2.72587740e+00 2.52907157e+01 3.13635755e+00 -2.47548050e+00 3.13635755e+00 2.51917257e+01
-7.75728953e+00 1.14760828e+00 -1.30891788e+00 1.14760828e+00 2.11933672e+00 6.31650448e-01 -1.30891788e+00 6.31650448e-01 4.68522754e+00
-4.66715384e+00 1.91860294e+00 2.08245650e-01 1.91860294e+00 -7.60217905e-01 -2.76291609e-01 2.08245650e-01 -2.76291609e-01 7.43738830e-01
</DataArray>
<DataArray type="Float32" Name="Logarithmic_strain_components" NumberOfComponents="9" format="ascii">
1.20710387e-02 -3.78707654e-03 1.07695630e-03 -3.78707654e-03 1.08248002e-02 3.89081527e-03 1.07695630e-03 3.89081527e-03 -1.91883303e-02
1.35656795e-02 -5.69110169e-03 1.14462864e-03 -5.69110169e-03 1.40948232e-02 6.27450560e-03 1.14462864e-03 6.27450560e-03 -2.34156707e-02
1.61323580e-02 -2.82045803e-05 3.19802098e-03 -2.82045803e-05 2.03029583e-02 -1.14475205e-03 3.19802098e-03 -1.14475205e-03 -3.12203788e-02
1.18594877e-02 -1.67835147e-04 -1.86848058e-03 -1.67835147e-04 1.49306562e-02 -4.65133766e-04 -1.86848058e-03 -4.65133766e-04 -2.28532362e-02
1.23029436e-02 2.88277365e-03 7.39696853e-03 2.88277365e-03 1.53977338e-02 3.09041077e-03 7.39696853e-03 3.09041077e-03 -2.25626645e-02
1.57646754e-02 -4.68557967e-03 -6.20142264e-03 -4.68557967e-03 2.29907890e-02 8.00182368e-03 -6.20142264e-03 8.00182368e-03 -3.23083308e-02
2.50511093e-02 2.30947172e-03 2.50195694e-03 2.30947172e-03 2.61595924e-02 -8.83937394e-03 2.50195694e-03 -8.83937394e-03 -4.36751321e-02
1.56141520e-02 8.02066143e-03 9.41154295e-03 8.02066143e-03 1.91902248e-02 7.39067653e-03 9.41154295e-03 7.39067653e-03 -2.94478158e-02
1.82034636e-02 8.88990762e-04 -8.81798001e-03 8.88990762e-04 1.86965852e-02 9.04952432e-03 -8.81798001e-03 9.04952432e-03 -3.24322162e-02
2.63914997e-02 1.32715754e-03 5.57770079e-04 1.32715754e-03 2.94394232e-02 1.38965803e-02 5.57770079e-04 1.38965803e-02 -5.04943449e-02
2.87463820e-02 1.32055342e-02 -4.58392923e-02 1.32055342e-02 3.09162391e-02 2.42302086e-03 -4.58392923e-02 2.42302086e-03 -5.30081863e-02
4.16871812e-02 1.94858853e-02 -3.99322957e-02 1.94858853e-02 2.84295706e-02 -7.64034007e-03 -3.99322957e-02 -7.64034007e-03 -6.14710338e-02
2.56588351e-06 -2.83537811e-05 -3.62800529e-06 -2.83537811e-05 3.05078049e-06 -9.39147640e-07 -3.62800529e-06 -9.39147640e-07 -1.10813112e-05
-4.59280795e-06 -1.52401094e-05 -9.62710510e-06 -1.52401094e-05 2.54684721e-06 -4.05784340e-06 -9.62710510e-06 -4.05784340e-06 -3.21108132e-06
1.11098632e-05 -8.67355675e-06 7.18479305e-06 -8.67355675e-06 5.02927412e-06 1.70792434e-05 7.18479305e-06 1.70792434e-05 -2.09229665e-05
7.30097167e-06 -2.18474961e-05 -4.48754054e-06 -2.18474961e-05 -5.63081142e-06 -1.64337325e-05 -4.48754054e-06 -1.64337325e-05 -7.05285242e-06
2.85650503e-06 9.14314387e-06 1.53336641e-05 9.14314387e-06 2.75276170e-06 1.43093421e-05 1.53336641e-05 1.43093421e-05 -1.85414615e-06
-4.89849390e-06 5.17054286e-06 8.84683595e-06 5.17054286e-06 -6.69037172e-06 -3.80728056e-06 8.84683595e-06 -3.80728056e-06 1.39336871e-05
2.41679743e-08 3.27337011e-06 -1.85417321e-05 3.27337011e-06 2.07004837e-06 -2.24739451e-05 -1.85417321e-05 -2.24739451e-05 1.78163373e-06
-8.50017022e-06 7.48167804e-06 -3.91943149e-06 7.48167804e-06 -3.80462279e-06 1.31278221e-05 -3.91943149e-06 1.31278221e-05 1.51961922e-05
2.17770357e-02 4.93635889e-06 6.79885317e-03 4.93635889e-06 2.26731943e-02 -1.54407992e-03 6.79885317e-03 -1.54407992e-03 -3.78169138e-02
2.23741666e-02 3.52587937e-04 4.90310392e-03 3.52587937e-04 2.16565914e-02 1.04091731e-03 4.90310392e-03 1.04091731e-03 -3.74594741e-02
2.15293705e-02 -5.63025946e-03 7.41243304e-03 -5.63025946e-03 2.18655982e-02 1.80189355e-03 7.41243304e-03 1.80189355e-03 -3.67272520e-02
2.06442531e-02 4.72511296e-04 6.79234043e-03 4.72511296e-04 2.32572951e-02 -3.43241671e-03 6.79234043e-03 -3.43241671e-03 -3.73342223e-02
2.90446524e-02 -7.67273377e-07 5.62952529e-03 -7.67273377e-07 2.02776343e-02 -4.39159921e-04 5.62952529e-03 -4.39159921e-04 -4.16850578e-02
2.81287562e-02 4.59949224e-04 1.83372889e-03 4.59949224e-04 2.12851251e-02 4.97919845e-03 1.83372889e-03 4.97919845e-03 -4.19640467e-02
2.86543556e-02 9.69348199e-04 8.99194122e-03 9.69348199e-04 2.21459814e-02 2.53736851e-03 8.99194122e-03 2.53736851e-03 -4.29851054e-02
2.94715678e-02 9.77363496e-04 9.14718315e-03 9.77363496e-04 2.24394798e-02 -4.24789800e-03 9.14718315e-03 -4.24789800e-03 -4.40612864e-02
2.43019671e-02 -5.47407800e-03 7.00918026e-03 -5.47407800e-03 1.80908144e-02 4.57545833e-04 7.00918026e-03 4.57545833e-04 -3.58529901e-02
2.38937323e-02 -8.16391944e-03 5.69275137e-03 -8.16391944e-03 2.02889254e-02 2.18093123e-03 5.69275137e-03 2.18093123e-03 -3.72567317e-02
2.60140183e-02 1.37869813e-03 -9.28836002e-04 1.37869813e-03 2.10623303e-02 3.04375844e-03 -9.28836002e-04 3.04375844e-03 -3.99759877e-02
2.61110032e-02 1.83054413e-03 5.96547083e-03 1.83054413e-03 2.33760325e-02 6.93920266e-03 5.96547083e-03 6.93920266e-03 -4.21504737e-02
2.61141644e-02 3.49577967e-04 2.56185111e-03 3.49577967e-04 1.53836287e-02 3.41692969e-03 2.56185111e-03 3.41692969e-03 -3.49598071e-02
2.60286129e-02 -3.82455105e-03 -3.32889424e-03 -3.82455105e-03 2.02762197e-02 -2.96637809e-03 -3.32889424e-03 -2.96637809e-03 -3.88626289e-02
2.43251207e-02 -2.03839288e-03 -4.38935152e-04 -2.03839288e-03 1.90044376e-02 2.74842017e-03 -4.38935152e-04 2.74842017e-03 -3.67203783e-02
2.40113286e-02 -2.24874063e-03 -3.91323847e-03 -2.24874063e-03 2.14399607e-02 2.17472290e-03 -3.91323847e-03 2.17472290e-03 -3.85626662e-02
2.60921251e-02 9.63136306e-04 -3.40734224e-03 9.63136306e-04 1.44710282e-02 -8.93160643e-04 -3.40734224e-03 -8.93160643e-04 -3.40338787e-02
2.59159906e-02 1.81589375e-03 -3.46192118e-03 1.81589375e-03 2.37895536e-02 -1.99331378e-04 -3.46192118e-03 -1.99331378e-04 -4.21283892e-02
2.27128840e-02 -5.54919723e-04 -4.65083413e-03 -5.54919723e-04 1.67760449e-02 2.01308320e-03 -4.65083413e-03 2.01308320e-03 -3.34729012e-02
2.25558630e-02 -4.81554397e-03 -6.58089801e-03 -4.81554397e-03 1.78536063e-02 -3.05474752e-03 -6.58089801e-03 -3.05474752e-03 -3.37886270e-02
2.30529816e-02 1.34074196e-03 2.23092712e-03 1.34074196e-03 1.52631267e-02 -3.10985293e-03 2.23092712e-03 -3.10985293e-03 -3.20027145e-02
2.51345842e-02 1.84130793e-03 1.91965803e-04 1.84130793e-03 2.25374347e-02 1.27464757e-03 1.91965803e-04 1.27464757e-03 -4.02497980e-02
1.90640553e-02 2.08240606e-04 -8.35954980e-03 2.08240606e-04 1.49203904e-02 4.61533426e-04 -8.35954980e-03 4.61533426e-04 -2.84297746e-02
2.01238547e-02 -1.44982067e-03 -5.53527403e-03 -1.44982067e-03 1.93989696e-02 -2.48595021e-03 -5.53527403e-03 -2.48595021e-03 -3.33295658e-02
2.14956068e-02 1.94112805e-03 2.79803958e-03 1.94112805e-03 1.39421690e-02 -3.35964005e-03 2.79803958e-03 -3.35964005e-03 -2.92757899e-02
2.30714907e-02 1.06141221e-03 -2.14612101e-04 1.06141221e-03 2.08082530e-02 -2.94820871e-03 -2.14612101e-04 -2.94820871e-03 -3.65395900e-02
1.70856230e-02 5.70625067e-03 -6.66928850e-03 5.70625067e-03 1.36071201e-02 -2.57125025e-03 -6.66928850e-03 -2.57125025e-03 -2.53335871e-02
1.95473665e-02 2.97941559e-03 -3.53620201e-03 2.97941559e-03 1.75157448e-02 -1.48482580e-03 -3.53620201e-03 -1.48482580e-03 -3.09281824e-02
1.83433049e-02 -9.31875326e-03 1.70235761e-02 -9.31875326e-03 2.39637822e-02 -8.15068042e-04 1.70235761e-02 -8.15068042e-04 -3.53793700e-02
1.53822592e-02 -6.50415279e-03 1.18538945e-02 -6.50415279e-03 2.55964259e-02 -1.92112807e-03 1.18538945e-02 -1.92112807e-03 -3.45413517e-02
3.10616903e-02 -1.49063369e-03 2.11575637e-02 -1.49063369e-03 2.48151058e-02 4.86832665e-03 2.11575637e-02 4.86832665e-03 -4.76307217e-02
2.93549672e-02 -3.76813630e-04 1.91095420e-02 -3.76813630e-04 2.41067861e-02 -1.83649408e-03 1.91095420e-02 -1.83649408e-03 -4.51673586e-02
2.56148478e-02 -1.95045546e-03 1.09060745e-02 -1.95045546e-03 2.37097953e-02 -3.74978954e-03 1.09060745e-02 -3.74978954e-03 -4.22127577e-02
2.77544807e-02 4.61244474e-03 4.97303242e-03 4.61244474e-03 2.56906275e-02 -5.80972240e-03 4.97303242e-03 -5.80972240e-03 -4.56977808e-02
3.18913817e-02 -6.48525300e-03 -3.20622522e-02 -6.48525300e-03 2.92217543e-02 -6.92619011e-05 -3.20622522e-02 -6.92619011e-05 -5.43898232e-02
2.16630511e-02 4.13629224e-03 -1.94030098e-02 4.13629224e-03 2.23997304e-02 -4.58734429e-03 -1.94030098e-02 -4.58734429e-03 -3.75337244e-02
3.10628368e-02 1.40196178e-04 -8.66602967e-03 1.40196178e-04 3.50424219e-02 7.54150000e-03 -8.66602967e-03 7.54150000e-03 -5.82463238e-02
2.44305853e-02 -3.12576620e-03 -2.84334306e-02 -3.12576620e-03 1.86264846e-02 4.99571683e-03 -2.84334306e-02 4.99571683e-03 -3.70310020e-02
3.00097228e-02 -1.78658369e-03 -2.20430869e-03 -1.78658369e-03 3.15845329e-02 5.39849279e-03 -2.20430869e-03 5.39849279e-03 -5.35332728e-02
2.53483877e-02 1.45827752e-03 -1.01926012e-02 1.45827752e-03 2.73773293e-02 1.15647650e-04 -1.01926012e-02 1.15647650e-04 -4.64927014e-02
2.72233477e-02 5.06979035e-04 -3.05685285e-03 5.06979035e-04 2.99394773e-02 2.02845247e-03 -3.05685285e-03 2.02845247e-03 -4.90491409e-02
2.48720013e-02 1.03328109e-03 -8.92085629e-03 1.03328109e-03 2.62227431e-02 -8.74849950e-03 -8.92085629e-03 -8.74849950e-03 -4.47853412e-02
1.51723291e-02 -5.27640775e-03 1.99030537e-02 -5.27640775e-03 2.32001386e-02 1.07939289e-04 1.99030537e-02 1.07939289e-04 -3.22514847e-02
1.11350724e-02 1.42711986e-03 1.58122729e-02 1.42711986e-03 2.25365353e-02 4.62076499e-03 1.58122729e-02 4.62076499e-03 -2.78316266e-02
3.19655460e-02 -2.90614717e-03 2.27372668e-02 -2.90614717e-03 2.45314091e-02 -7.79259248e-03 2.27372668e-02 -7.79259248e-03 -4.76210447e-02
2.35518320e-02 2.31518905e-03 2.59080702e-02 2.31518905e-03 2.41788002e-02 -1.21937273e-02 2.59080702e-02 -1.21937273e-02 -3.96127515e-02
2.52428039e-02 -1.27221963e-02 3.01126493e-02 -1.27221963e-02 3.18663470e-02 -3.26653973e-02 3.01126493e-02 -3.26653973e-02 -5.01428414e-02
3.81752867e-02 -1.43208448e-03 7.58840535e-03 -1.43208448e-03 2.66080044e-02 -2.25878449e-02 7.58840535e-03 -2.25878449e-02 -5.64042561e-02
-1.11621832e-02 -4.51372340e-02 -9.50455442e-02 -4.51372340e-02 9.68570006e-04 -7.12308139e-02 -9.50455442e-02 -7.12308139e-02 2.73362081e-02
1.49323583e-02 -3.17549395e-03 -2.34452492e-02 -3.17549395e-03 8.94861342e-03 -1.81697700e-02 -2.34452492e-02 -1.81697700e-02 -1.61329183e-02
1.12336221e-02 -1.61643054e-03 8.24514081e-03 -1.61643054e-03 1.60565437e-02 1.04599159e-02 8.24514081e-03 1.04599159e-02 -2.23964490e-02
9.81900340e-03 -3.49030277e-03 1.34251603e-02 -3.49030277e-03 1.63026040e-02 1.28919183e-03 1.34251603e-02 1.28919183e-03 -2.14959900e-02
1.89891690e-02 -2.83341276e-03 1.76451604e-02 -2.83341276e-03 2.29378988e-02 1.71547971e-02 1.76451604e-02 1.71547971e-02 -3.34042817e-02
1.99194413e-02 -1.02685711e-03 2.62601924e-03 -1.02685711e-03 2.54377304e-02 5.10689919e-03 2.62601924e-03 5.10689919e-03 -3.71996583e-02
1.15484528e-02 3.39119794e-03 -1.39682321e-04 3.39119794e-03 1.53419485e-02 1.27996933e-04 -1.39682321e-04 1.27996933e-04 -2.23946022e-02
2.41176047e-02 7.50430141e-03 -6.22627405e-03 7.50430141e-03 2.80261593e-02 1.50591914e-02 -6.22627405e-03 1.50591914e-02 -4.35388493e-02
2.10815372e-02 7.25958659e-03 7.37600075e-03 7.25958659e-03 3.18223825e-02 6.40117703e-03 7.37600075e-03 6.40117703e-03 -4.43726163e-02
1.22519047e-02 8.48859512e-04 6.11858862e-03 8.48859512e-04 1.90229639e-02 3.16373277e-02 6.11858862e-03 3.16373277e-02 -2.67886859e-02
4.09075543e-02 -5.91729605e-03 3.84825692e-02 -5.91729605e-03 3.21873175e-02 1.87378059e-02 3.84825692e-02 1.87378059e-02 -6.59684669e-02
2.50421133e-02 -5.21330216e-03 -1.82122745e-02 -5.21330216e-03 3.43025731e-02 -1.18547102e-02 -1.82122745e-02 -1.18547102e-02 -5.02048701e-02
1.30270696e-02 -6.41939027e-04 6.55881979e-03 -6.41939027e-04 1.98396742e-02 6.78867148e-03 6.55881979e-03 6.78867148e-03 -2.78160414e-02
2.78016878e-02 1.12078812e-02 -2.86996469e-03 1.12078812e-02 3.09730493e-02 1.04861218e-02 -2.86996469e-03 1.04861218e-02 -4.83077597e-02
2.23711841e-02 -5.14920289e-03 1.27678667e-02 -5.14920289e-03 3.63019165e-02 -1.05462247e-02 1.27678667e-02 -1.05462247e-02 -4.96583115e-02
3.25980214e-02 -7.20597780e-03 -2.24087550e-02 -7.20597780e-03 3.42534543e-02 2.57433828e-02 -2.24087550e-02 2.57433828e-02 -5.70907164e-02
2.46992197e-02 1.70819474e-02 1.97759954e-03 1.70819474e-02 3.76843524e-02 -5.97531336e-02 1.97759954e-03 -5.97531336e-02 -5.35387509e-02
3.59108641e-02 -3.11082400e-03 -7.78537213e-03 -3.11082400e-03 2.20765248e-02 -9.89629212e-03 -7.78537213e-03 -9.89629212e-03 -4.91498125e-02
3.65343932e-02 2.66082498e-06 2.11193936e-03 2.66082498e-06 2.04368709e-02 -2.18294200e-03 2.11193936e-03 -2.18294200e-03 -4.81583532e-02
3.38123599e-02 2.04000098e-03 3.17102077e-03 2.04000098e-03 2.23265211e-02 2.60762637e-03 3.17102077e-03 2.60762637e-03 -4.76003094e-02
3.49915575e-02 7.47337803e-03 5.16237499e-03 7.47337803e-03 2.36800981e-02 3.35260130e-03 5.16237499e-03 3.35260130e-03 -4.97491052e-02
3.85597572e-02 1.57757025e-03 6.43304514e-03 1.57757025e-03 2.17327089e-02 -1.12607036e-03 6.43304514e-03 -1.12607036e-03 -5.10029467e-02
2.73672547e-02 4.62882989e-03 -3.70356247e-06 4.62882989e-03 2.59748632e-02 4.93136776e-03 -3.70356247e-06 4.93136776e-03 -4.55002692e-02
2.72621156e-02 1.01498184e-02 2.09520606e-03 1.01498184e-02 2.62836530e-02 2.94457613e-03 2.09520606e-03 2.94457613e-03 -4.56570708e-02
2.14917655e-02 3.02792544e-03 -2.65283399e-03 3.02792544e-03 2.69673532e-02 1.43246921e-03 -2.65283399e-03 1.43246921e-03 -4.14476776e-02
1.98825202e-02 5.41907263e-03 -1.05994358e-03 5.41907263e-03 2.66197699e-02 3.86500966e-03 -1.05994358e-03 3.86500966e-03 -3.98193062e-02
1.81728103e-02 -1.23221381e-03 -1.54297121e-03 -1.23221381e-03 2.48971116e-02 1.29385153e-04 -1.54297121e-03 1.29385153e-04 -3.68006891e-02
1.60874362e-02 -1.77821003e-03 -2.02615070e-03 -1.77821003e-03 2.35382507e-02 9.76171978e-04 -2.02615070e-03 9.76171978e-04 -3.37366592e-02
1.63078685e-02 -2.41171208e-03 -3.23620398e-03 -2.41171208e-03 2.26136046e-02 9.31939008e-04 -3.23620398e-03 9.31939008e-04 -3.30784125e-02
1.60679457e-02 -4.30832058e-03 -5.35732787e-03 -4.30832058e-03 1.96234849e-02 -7.12890804e-04 -5.35732787e-03 -7.12890804e-04 -3.01292588e-02
1.46940635e-02 8.55464226e-04 -2.04422604e-03 8.55464226e-04 2.34286683e-02 2.48493985e-03 -2.04422604e-03 2.48493985e-03 -3.24291456e-02
1.65301079e-02 -4.16157630e-03 -2.14759354e-03 -4.16157630e-03 1.94336097e-02 -3.55184916e-03 -2.14759354e-03 -3.55184916e-03 -3.04911365e-02
4.20771171e-02 9.71564400e-03 1.52076914e-02 9.71564400e-03 2.35155462e-02 2.15876205e-03 1.52076914e-02 2.15876205e-03 -5.54676978e-02
4.42934008e-02 5.54436049e-03 1.98798215e-02 5.54436049e-03 2.60216980e-02 -7.12448987e-03 1.98798215e-02 -7.12448987e-03 -5.94566269e-02
3.03237250e-02 1.23176401e-02 -4.08422522e-04 1.23176401e-02 2.29604440e-02 1.23446473e-03 -4.08422522e-04 1.23446473e-03 -4.52706935e-02
1.68146305e-02 8.09794597e-03 -8.67329944e-03 8.09794597e-03 1.82619380e-02 -7.87109806e-04 -8.67329944e-03 -7.87109806e-04 -2.93410821e-02
1.05523743e-02 6.68150340e-04 -9.82571952e-03 6.68150340e-04 1.68222816e-02 -6.75596280e-04 -9.82571952e-03 -6.75596280e-04 -2.30349177e-02
9.18354793e-03 -4.49707301e-03 -1.46980690e-02 -4.49707301e-03 1.50366278e-02 -4.69391257e-03 -1.46980690e-02 -4.69391257e-03 -2.04381673e-02
1.07151067e-02 -8.85901290e-03 -1.61729247e-02 -8.85901290e-03 1.28978492e-02 -9.26156016e-03 -1.61729247e-02 -9.26156016e-03 -1.99493052e-02
4.77045892e-02 -1.54539368e-03 3.92756651e-02 -1.54539368e-03 2.07803507e-02 -1.00496497e-02 3.92756651e-02 -1.00496497e-02 -5.81082447e-02
4.85233714e-02 -9.04563783e-03 3.88801110e-02 -9.04563783e-03 2.43520679e-02 -1.33098755e-02 3.88801110e-02 -1.33098755e-02 -6.29640172e-02
3.46987580e-02 9.77672287e-03 2.64337236e-03 9.77672287e-03 1.65542097e-02 -1.83768085e-02 2.64337236e-03 -1.83768085e-02 -4.30212642e-02
1.40395031e-02 8.93557840e-03 -1.52194624e-02 8.93557840e-03 5.78100933e-03 -8.31886862e-03 -1.52194624e-02 -8.31886862e-03 -1.54954139e-02
3.12974164e-03 -2.66894940e-02 -3.77195999e-02 -2.66894940e-02 -1.37457354e-02 -3.47116068e-02 -3.77195999e-02 -3.47116068e-02 1.69404242e-02
5.46330283e-04 1.87437154e-03 -4.04101838e-03 1.87437154e-03 1.79978894e-03 -1.75328215e-03 -4.04101838e-03 -1.75328215e-03 -4.83206497e-04
4.56909938e-02 3.87287774e-03 -4.77725454e-03 3.87287774e-03 3.23022604e-02 2.60498682e-02 -4.77725454e-03 2.60498682e-02 -6.55479804e-02
4.67495831e-02 8.31261339e-03 -2.32807371e-02 8.31261339e-03 4.05143968e-02 2.01902358e-02 -2.32807371e-02 2.01902358e-02 -7.44249908e-02
4.80926819e-02 -2.72246031e-03 7.94187118e-03 -2.72246031e-03 2.71519050e-02 -2.62371628e-02 7.94187118e-03 -2.62371628e-02 -6.73884675e-02
4.15317304e-02 -3.73476604e-03 -8.96378696e-03 -3.73476604e-03 5.24268039e-02 1.60899895e-02 -8.96378696e-03 1.60899895e-02 -8.00804570e-02
4.17007012e-02 -2.72108038e-03 6.97524287e-03 -2.72108038e-03 5.28129339e-02 -2.07178469e-03 6.97524287e-03 -2.07178469e-03 -7.99217764e-02
4.61843554e-02 -5.19028050e-03 7.21702469e-03 -5.19028050e-03 4.09534797e-02 1.28362380e-02 7.21702469e-03 1.28362380e-02 -7.39370733e-02
4.46767360e-02 2.00818689e-03 1.06698032e-02 2.00818689e-03 4.17406578e-02 -7.10309134e-03 1.06698032e-02 -7.10309134e-03 -7.30461553e-02
4.07283129e-02 1.21567344e-02 -5.60688140e-03 1.21567344e-02 4.30442849e-02 -1.36320560e-02 -5.60688140e-03 -1.36320560e-02 -7.28770029e-02
4.73325467e-02 -6.87046419e-03 -1.02714362e-02 -6.87046419e-03 3.20669445e-02 2.45310892e-02 -1.02714362e-02 2.45310892e-02 -6.73756665e-02
3.37907327e-02 7.02963956e-03 3.66489349e-03 7.02963956e-03 1.26948388e-02 -1.35260704e-02 3.66489349e-03 -1.35260704e-02 -3.95299932e-02
2.58644322e-02 -1.09367495e-02 8.15592241e-04 -1.09367495e-02 1.93545569e-02 -3.18635954e-03 8.15592241e-04 -3.18635954e-03 -3.75616476e-02
-2.59150788e-02 2.15203464e-02 1.78614184e-02 2.15203464e-02 -7.40173878e-03 -2.37355325e-02 1.78614184e-02 -2.37355325e-02 4.62250747e-02
-6.74367649e-03 2.42296653e-03 1.83570310e-02 2.42296653e-03 -5.27197844e-04 -4.30441163e-02 1.83570310e-02 -4.30441163e-02 1.51176527e-02
6.32742610e-03 -1.21410062e-02 -4.45464728e-03 -1.21410062e-02 -8.00158000e-03 1.38313750e-02 -4.45464728e-03 1.38313750e-02 2.80917414e-03
-3.54979734e-03 -2.34423919e-02 -6.44580343e-03 -2.34423919e-02 1.06275606e-03 -4.36629619e-03 -6.44580343e-03 -4.36629619e-03 4.06803651e-03
-1.80461557e-05 -5.06776269e-05 6.24171662e-05 -5.06776269e-05 2.66923635e-05 -3.92193979e-05 6.24171662e-05 -3.92193979e-05 -1.47420396e-05
-1.81301712e-05 -7.45750731e-06 1.62057186e-05 -7.45750731e-06 5.90280422e-07 2.35557764e-05 1.62057186e-05 2.35557764e-05 1.19550141e-05
2.16703793e-05 -3.38995596e-05 5.78984100e-06 -3.38995596e-05 -3.30819148e-06 -5.87371760e-05 5.78984100e-06 -5.87371760e-05 -2.40329027e-05
8.37592688e-06 -7.64532524e-05 -5.70742268e-05 -7.64532524e-05 1.07059450e-05 5.79967927e-05 -5.70742268e-05 5.79967927e-05 -2.60960624e-05
1.68821899e-04 1.02555301e-04 3.38498608e-05 1.02555301e-04 -1.16398865e-04 2.35728898e-05 3.38498608e-05 2.35728898e-05 -2.26586699e-05
5.25022030e-05 -1.62727368e-05 1.10312567e-05 -1.62727368e-05 -1.13710374e-04 5.53750785e-05 1.10312567e-05 5.53750785e-05 8.45372157e-06
-6.63663031e-05 5.27648099e-05 -1.32963165e-05 5.27648099e-05 1.44629757e-05 -6.91026544e-05 -1.32963165e-05 -6.91026544e-05 1.95626126e-05
-1.54707411e-04 -2.99656570e-04 -1.06505383e-05 -2.99656570e-04 5.69298742e-05 -6.01577861e-05 -1.06505383e-05 -6.01577861e-05 1.11300795e-04
3.92411835e-02 -1.87769183e-06 9.95816663e-07 -1.87769183e-06 2.16622539e-02 -1.61504067e-06 9.95816663e-07 -1.61504067e-06 -5.15446067e-02
3.54192052e-02 4.07436606e-03 -2.47632124e-06 4.07436606e-03 2.40005413e-02 2.51787086e-03 -2.47632124e-06 2.51787086e-03 -5.04020583e-02
3.86173585e-02 1.10132232e-02 2.74352042e-03 1.10132232e-02 2.25934181e-02 4.52100474e-03 2.74352042e-03 4.52100474e-03 -5.18627651e-02
4.31977734e-02 3.32003436e-03 1.03280402e-03 3.32003436e-03 2.04434823e-02 -1.76403046e-06 1.03280402e-03 -1.76403046e-06 -5.37659153e-02
2.73042265e-02 3.27650353e-03 -9.55692121e-06 3.27650353e-03 2.85892803e-02 5.42177563e-03 -9.55692121e-06 5.42177563e-03 -4.77219746e-02
2.81786756e-02 1.28262200e-02 3.17559560e-03 1.28262200e-02 2.68806992e-02 4.04218060e-03 3.17559560e-03 4.04218060e-03 -4.69582854e-02
1.97282042e-02 4.44649975e-03 -7.98606197e-06 4.44649975e-03 3.10546458e-02 3.67244973e-03 -7.98606197e-06 3.67244973e-03 -4.35205493e-02
1.91461986e-02 8.29178188e-03 3.56409355e-03 8.29178188e-03 2.82652918e-02 5.06807782e-03 3.56409355e-03 5.06807782e-03 -4.06714994e-02
1.54844145e-02 1.75830972e-03 2.02489900e-07 1.75830972e-03 3.00811259e-02 9.38510435e-04 2.02489900e-07 9.38510435e-04 -3.90243847e-02
1.40827240e-02 2.45506677e-03 6.35203195e-03 2.45506677e-03 2.68503949e-02 3.94460885e-03 6.35203195e-03 3.94460885e-03 -3.52360941e-02
1.56499580e-02 -2.64286727e-03 -6.27813279e-07 -2.64286727e-03 2.76845274e-02 6.95229886e-04 -6.27813279e-07 6.95229886e-04 -3.71299852e-02
1.25761107e-02 -2.94349463e-03 7.25603674e-03 -2.94349463e-03 2.41430164e-02 4.79948183e-04 7.25603674e-03 4.79948183e-04 -3.15196263e-02
1.46153765e-02 -8.92079622e-03 1.43051730e-05 -8.92079622e-03 3.01249251e-02 4.04661568e-03 1.43051730e-05 4.04661568e-03 -3.87031138e-02
1.29835559e-02 -6.15951978e-03 1.01361917e-02 -6.15951978e-03 2.38914173e-02 -5.70792123e-03 1.01361917e-02 -5.70792123e-03 -3.18336235e-02
4.19628676e-02 1.60752020e-02 -5.44068345e-03 1.60752020e-02 2.92094117e-02 7.42839696e-03 -5.44068345e-03 7.42839696e-03 -6.02823105e-02
4.84149493e-02 2.85344699e-03 -2.74546514e-03 2.85344699e-03 3.22367949e-02 -8.26398536e-06 -2.74546514e-03 -8.26398536e-06 -6.86835721e-02
2.81581203e-02 2.27016052e-02 -3.22869011e-04 2.27016052e-02 2.36241040e-02 9.99536249e-03 -3.22869011e-04 9.99536249e-03 -4.37584464e-02
1.50551046e-02 1.22346603e-02 4.54706431e-03 1.22346603e-02 1.86253372e-02 6.36527652e-03 4.54706431e-03 6.36527652e-03 -2.84103346e-02
7.11090607e-03 1.27136300e-04 6.09355443e-03 1.27136300e-04 1.32799968e-02 5.86215185e-03 6.09355443e-03 5.86215185e-03 -1.67850931e-02
3.24594685e-03 -4.51558095e-03 6.42563705e-03 -4.51558095e-03 9.75495169e-03 -3.28444119e-04 6.42563705e-03 -3.28444119e-04 -1.02025194e-02
5.84053085e-03 -7.42994499e-03 3.76520527e-03 -7.42994499e-03 6.25482056e-03 -5.78771764e-03 3.76520527e-03 -5.78771764e-03 -9.56635876e-03
5.17978966e-02 -3.31155723e-04 2.38688430e-02 -3.31155723e-04 4.51811999e-02 1.44919660e-02 2.38688430e-02 1.44919660e-02 -8.68483447e-02
5.97335920e-02 -5.00067137e-03 1.95475183e-02 -5.00067137e-03 5.23791499e-02 -6.57169767e-06 1.95475183e-02 -6.57169767e-06 -1.01287387e-01
2.70641123e-02 9.17878305e-03 7.63003016e-03 9.17878305e-03 1.84045328e-02 1.48466313e-02 7.63003016e-03 1.48466313e-02 -3.84278384e-02
8.11455997e-03 4.01564679e-03 3.48690612e-03 4.01564679e-03 5.05543256e-03 7.29019020e-03 3.48690612e-03 7.29019020e-03 -9.46891389e-03
2.69370757e-04 -2.99243303e-03 5.96655358e-04 -2.99243303e-03 1.74705136e-03 2.88603223e-04 5.96655358e-04 2.88603223e-04 -7.33365272e-04
-8.62544717e-04 -1.86903461e-03 -4.93820201e-03 -1.86903461e-03 2.60260287e-03 -3.36892454e-04 -4.93820201e-03 -3.36892454e-04 -1.08245093e-03
2.13875543e-04 -1.38477542e-03 3.32061354e-04 -1.38477542e-03 4.37695246e-04 4.32440116e-04 3.32061354e-04 4.32440116e-04 8.65545644e-06
6.51227281e-04 -5.72494155e-03 -4.49549407e-03 -5.72494155e-03 -5.90789334e-04 -1.43130339e-04 -4.49549407e-03 -1.43130339e-04 4.28929503e-04
1.17489294e-03 -2.00475354e-03 1.18162011e-03 -2.00475354e-03 -1.82446500e-03 2.10070582e-04 1.18162011e-03 2.10070582e-04 1.14125723e-03
8.84574605e-03 -1.65298535e-03 -1.05353710e-02 -1.65298535e-03 -5.10208207e-03 -2.28110314e-02 -1.05353710e-02 -2.28110314e-02 -5.36545878e-04
-1.53886504e-03 -2.90819624e-03 3.29702848e-03 -2.90819624e-03 1.72197120e-04 3.33722157e-03 3.29702848e-03 3.33722157e-03 4.47221845e-03
1.78336706e-02 9.99849290e-03 -4.76641813e-03 9.99849290e-03 2.43122485e-02 3.23177241e-02 -4.76641813e-03 3.23177241e-02 -3.76729108e-02
8.53217462e-05 -1.19290172e-04 -2.17707158e-04 -1.19290172e-04 3.21054235e-04 1.92978221e-03 -2.17707158e-04 1.92978221e-03 -1.48753976e-05
-5.33099975e-04 -1.35475395e-03 2.08777046e-04 -1.35475395e-03 4.91411309e-04 1.10565399e-04 2.08777046e-04 1.10565399e-04 4.44376557e-04
-1.35438241e-04 2.21723574e-04 1.29091961e-04 2.21723574e-04 2.73952868e-04 -4.28516523e-05 1.29091961e-04 -4.28516523e-05 -9.53963354e-06
-1.42674091e-04 -2.16773904e-04 -1.03946299e-04 -2.16773904e-04 1.94671828e-04 6.79385848e-05 -1.03946299e-04 6.79385848e-05 7.65127429e-05
1.85169853e-04 -4.91761704e-04 2.35361906e-04 -4.91761704e-04 -3.84795479e-04 -5.68877858e-05 2.35361906e-04 -5.68877858e-05 2.56590531e-04
2.83980062e-04 -6.72332666e-04 -1.87580379e-04 -6.72332666e-04 -7.22532192e-04 -7.07900581e-05 -1.87580379e-04 -7.07900581e-05 4.95196895e-04
6.20036423e-02 1.16955005e-02 -1.60524733e-02 1.16955005e-02 8.14877525e-02 1.78977323e-04 -1.60524733e-02 1.78977323e-04 -1.27218634e-01
7.37298355e-02 -4.11495427e-03 -1.22754360e-02 -4.11495427e-03 7.64009058e-02 2.57707741e-02 -1.22754360e-02 2.57707741e-02 -1.34895578e-01
5.07662632e-02 -1.44345300e-02 1.58735203e-02 -1.44345300e-02 5.58801318e-02 1.69131060e-02 1.58735203e-02 1.69131060e-02 -9.04998928e-02
5.34824599e-02 -4.68979939e-03 1.76494289e-02 -4.68979939e-03 6.25707209e-02 1.41392811e-05 1.76494289e-02 1.41392811e-05 -9.93140675e-02
5.69764602e-05 5.19231144e-05 -6.30624641e-06 5.19231144e-05 -4.90690327e-05 -4.74595554e-05 -6.30624641e-06 -4.74595554e-05 3.05990761e-05
4.28815173e-03 -3.91798663e-03 7.11543350e-05 -3.91798663e-03 -1.47326647e-03 4.16971394e-04 7.11543350e-05 4.16971394e-04 -1.86848443e-03
8.15103813e-05 5.26686454e-05 2.61970172e-05 5.26686454e-05 -1.15309816e-04 2.61883024e-05 2.61970172e-05 2.61883024e-05 -4.14574624e-05
5.95984142e-02 -1.68279652e-02 1.00504081e-02 -1.68279652e-02 3.59168965e-02 1.40173747e-02 1.00504081e-02 1.40173747e-02 -8.11996274e-02
5.95717505e-02 -2.23713950e-03 1.41015761e-02 -2.23713950e-03 3.81921791e-02 -2.49159348e-06 1.41015761e-02 -2.49159348e-06 -8.26049745e-02
4.20495775e-02 6.72988291e-03 3.80060240e-03 6.72988291e-03 4.13047168e-02 1.68293118e-02 3.80060240e-03 1.68293118e-02 -7.14029595e-02
4.97450512e-02 -8.13112105e-03 -2.43994524e-03 -8.13112105e-03 3.19237839e-02 2.44678045e-02 -2.43994524e-03 2.44678045e-02 -6.91864211e-02
2.08304501e-02 3.73541564e-03 -1.03049069e-02 3.73541564e-03 1.15193515e-02 1.08162360e-02 -1.03049069e-02 1.08162360e-02 -2.51976522e-02
1.34502461e-02 -1.09101445e-02 -7.29845464e-03 -1.09101445e-02 2.27943668e-02 8.78925389e-03 -7.29845464e-03 8.78925389e-03 -2.87814010e-02
-4.23142282e-03 -1.34290567e-02 -8.22668488e-04 -1.34290567e-02 3.39697237e-03 5.06768294e-04 -8.22668488e-04 5.06768294e-04 2.28588510e-03
-3.70680902e-04 -6.48945716e-05 -6.82686623e-05 -6.48945716e-05 1.41858942e-04 1.62819169e-05 -6.82686623e-05 1.62819169e-05 2.47230648e-04
-9.36613360e-05 9.25395216e-05 1.03902094e-05 9.25395216e-05 3.86943611e-07 -1.31550514e-05 1.03902094e-05 -1.31550514e-05 3.62544561e-05
</DataArray>
<DataArray type="Float32" Name="Plastic_strain_components" NumberOfComponents="9" format="ascii">
1.18687183e-02 -3.75528536e-03 1.06514105e-03 -3.75528536e-03 1.06669204e-02 3.86598783e-03 1.06514105e-03 3.86598783e-03 -1.88762308e-02
1.16079503e-02 -5.12869697e-03 1.12814714e-03 -5.12869697e-03 1.17251177e-02 5.61111302e-03 1.12814714e-03 5.61111302e-03 -1.86938743e-02
1.70281460e-02 -2.94439087e-04 3.13798121e-03 -2.94439087e-04 2.12912764e-02 -9.50723850e-04 3.13798121e-03 -9.50723850e-04 -3.27253006e-02
1.17454189e-02 -1.53959903e-04 -1.85016587e-03 -1.53959903e-04 1.47843489e-02 -4.53246044e-04 -1.85016587e-03 -4.53246044e-04 -2.23428435e-02
8.99986678e-03 2.30957466e-03 7.45832961e-03 2.30957466e-03 1.14254667e-02 1.19047622e-03 7.45832961e-03 1.19047622e-03 -1.59153272e-02
1.57278835e-02 -4.36366872e-03 -5.46397744e-03 -4.36366872e-03 2.26387621e-02 8.86071034e-03 -5.46397744e-03 8.86071034e-03 -3.25104489e-02
2.49289146e-02 2.18977279e-03 2.10352769e-03 2.18977279e-03 2.60127885e-02 -9.11045843e-03 2.10352769e-03 -9.11045843e-03 -4.25370270e-02
1.72400337e-02 8.31497542e-03 9.34461756e-03 8.31497542e-03 2.11568139e-02 8.38112063e-03 9.34461756e-03 8.38112063e-03 -3.27823339e-02
1.94399180e-02 7.68064056e-04 -8.57048068e-03 7.68064056e-04 2.02913152e-02 1.06846581e-02 -8.57048068e-03 1.06846581e-02 -3.41714821e-02
2.65713176e-02 1.51334656e-03 5.75026323e-04 1.51334656e-03 2.93925880e-02 1.36223887e-02 5.75026323e-04 1.36223887e-02 -4.69707195e-02
2.99373809e-02 1.29457566e-02 -4.58497256e-02 1.29457566e-02 3.23689173e-02 1.87571642e-03 -4.58497256e-02 1.87571642e-03 -5.18738478e-02
4.15596571e-02 1.93325644e-02 -3.91452806e-02 1.93325644e-02 2.85728546e-02 -7.54300121e-03 -3.91452806e-02 -7.54300121e-03 -5.83878737e-02
0.00000000e+00 0.00000000e+00 0.00000000e+00 0.00000000e+00 0.00000000e+00 0.00000000e+00 0.00000000e+00 0.00000000e+00 0.00000000e+00
0.00000000e+00 0.00000000e+00 0.00000000e+00 0.00000000e+00 0.00000000e+00 0.00000000e+00 0.00000000e+00 0.00000000e+00 0.00000000e+00
0.00000000e+00 0.00000000e+00 0.00000000e+00 0.00000000e+00 0.00000000e+00 0.00000000e+00 0.00000000e+00 0.00000000e+00 0.00000000e+00
0.00000000e+00 0.00000000e+00 0.00000000e+00 0.00000000e+00 0.00000000e+00 0.00000000e+00 0.00000000e+00 0.00000000e+00 0.00000000e+00
0.00000000e+00 0.00000000e+00 0.00000000e+00 0.00000000e+00 0.00000000e+00 0.00000000e+00 0.00000000e+00 0.00000000e+00 0.00000000e+00
0.00000000e+00 0.00000000e+00 0.00000000e+00 0.00000000e+00 0.00000000e+00 0.00000000e+00 0.00000000e+00 0.00000000e+00 0.00000000e+00
0.00000000e+00 0.00000000e+00 0.00000000e+00 0.00000000e+00 0.00000000e+00 0.00000000e+00 0.00000000e+00 0.00000000e+00 0.00000000e+00
0.00000000e+00 0.00000000e+00 0.00000000e+00 0.00000000e+00 0.00000000e+00 0.00000000e+00 0.00000000e+00 0.00000000e+00 0.00000000e+00
2.16863714e-02 4.56716589e-06 6.76147756e-03 4.56716589e-06 2.25666203e-02 -1.53703935e-03 6.76147756e-03 -1.53703935e-03 -3.72540485e-02
2.22395523e-02 3.41889048e-04 4.87411697e-03 3.41889048e-04 2.15258910e-02 1.02554524e-03 4.87411697e-03 1.02554524e-03 -3.68422791e-02
2.14169475e-02 -5.59268169e-03 7.38045399e-03 -5.59268169e-03 2.17375595e-02 1.77908197e-03 7.38045399e-03 1.77908197e-03 -3.62836393e-02
2.05334579e-02 4.67207916e-04 6.73963118e-03 4.67207916e-04 2.31055701e-02 -3.40685959e-03 6.73963118e-03 -3.40685959e-03 -3.67251998e-02
2.88574863e-02 -5.36419975e-08 5.57810091e-03 -5.36419975e-08 2.01428365e-02 -4.40602846e-04 5.57810091e-03 -4.40602846e-04 -4.12189607e-02
2.79949140e-02 4.52168242e-04 1.81474912e-03 4.52168242e-04 2.11866321e-02 4.92517988e-03 1.81474912e-03 4.92517988e-03 -4.13791128e-02
2.84901008e-02 9.59598852e-04 8.93436746e-03 9.59598852e-04 2.20198573e-02 2.50708717e-03 8.93436746e-03 2.50708717e-03 -4.24500941e-02
2.93339533e-02 9.59530138e-04 9.08264157e-03 9.59530138e-04 2.23523318e-02 -4.21326538e-03 9.08264157e-03 -4.21326538e-03 -4.34433920e-02
2.41319044e-02 -5.41982066e-03 6.98494189e-03 -5.41982066e-03 1.79643854e-02 4.47616467e-04 6.98494189e-03 4.47616467e-04 -3.53930974e-02
2.37142618e-02 -8.10559728e-03 5.63818614e-03 -8.10559728e-03 2.01347094e-02 2.14849721e-03 5.63818614e-03 2.14849721e-03 -3.68379308e-02
2.58470983e-02 1.37034306e-03 -9.39375328e-04 1.37034306e-03 2.09267521e-02 3.00751232e-03 -9.39375328e-04 3.00751232e-03 -3.93785741e-02
2.60288885e-02 1.82652695e-03 5.89922231e-03 1.82652695e-03 2.32922318e-02 6.84954104e-03 5.89922231e-03 6.84954104e-03 -4.15139156e-02
2.59284195e-02 3.41322091e-04 2.55599647e-03 3.41322091e-04 1.52587136e-02 3.38169636e-03 2.55599647e-03 3.38169636e-03 -3.46061755e-02
2.57207791e-02 -3.79631242e-03 -3.30596612e-03 -3.79631242e-03 2.00260489e-02 -2.95607805e-03 -3.30596612e-03 -2.95607805e-03 -3.84541298e-02
2.41371463e-02 -2.00696854e-03 -4.46171885e-04 -2.00696854e-03 1.88667844e-02 2.69810460e-03 -4.46171885e-04 2.69810460e-03 -3.62039963e-02
2.38673401e-02 -2.21404902e-03 -3.90434556e-03 -2.21404902e-03 2.13089529e-02 2.13558230e-03 -3.90434556e-03 2.13558230e-03 -3.80025739e-02
2.58206874e-02 9.47043809e-04 -3.38552432e-03 9.47043809e-04 1.42921952e-02 -9.04232715e-04 -3.38552432e-03 -9.04232715e-04 -3.36979656e-02
2.57184580e-02 1.80099547e-03 -3.41826488e-03 1.80099547e-03 2.36331547e-02 -2.01750168e-04 -3.41826488e-03 -2.01750168e-04 -4.15109708e-02
2.25541592e-02 -5.41784611e-04 -4.61864530e-03 -5.41784611e-04 1.66780255e-02 1.97957945e-03 -4.61864530e-03 1.97957945e-03 -3.30175776e-02
2.22791214e-02 -4.77227871e-03 -6.55286084e-03 -4.77227871e-03 1.76230187e-02 -3.03116541e-03 -6.55286084e-03 -3.03116541e-03 -3.35319503e-02
2.27423641e-02 1.33752747e-03 2.22514954e-03 1.33752747e-03 1.50304537e-02 -3.09065139e-03 2.22514954e-03 -3.09065139e-03 -3.17702894e-02
2.49271898e-02 1.83646971e-03 2.11091621e-04 1.83646971e-03 2.23818109e-02 1.27265429e-03 2.11091621e-04 1.27265429e-03 -3.98322199e-02
1.88419595e-02 2.08544549e-04 -8.31848965e-03 2.08544549e-04 1.47242625e-02 4.69668688e-04 -8.31848965e-03 4.69668688e-04 -2.82198363e-02
1.99090100e-02 -1.43405813e-03 -5.48887883e-03 -1.43405813e-03 1.92064304e-02 -2.45800357e-03 -5.48887883e-03 -2.45800357e-03 -3.28940854e-02
2.11526118e-02 1.94461714e-03 2.79159623e-03 1.94461714e-03 1.36510902e-02 -3.32226002e-03 2.79159623e-03 -3.32226002e-03 -2.92523429e-02
2.27617584e-02 1.06922303e-03 -1.90496994e-04 1.06922303e-03 2.05349941e-02 -2.93817971e-03 -1.90496994e-04 -2.93817971e-03 -3.64476247e-02
1.68229230e-02 5.66594373e-03 -6.64972700e-03 5.66594373e-03 1.33449198e-02 -2.53544361e-03 -6.64972700e-03 -2.53544361e-03 -2.53556147e-02
1.92519333e-02 2.95259326e-03 -3.51933599e-03 2.95259326e-03 1.72491397e-02 -1.44622920e-03 -3.51933599e-03 -1.44622920e-03 -3.06890835e-02
1.81972446e-02 -9.24585562e-03 1.68952929e-02 -9.24585562e-03 2.37326263e-02 -8.09476001e-04 1.68952929e-02 -8.09476001e-04 -3.49344511e-02
1.53083643e-02 -6.44776400e-03 1.17861875e-02 -6.44776400e-03 2.54225037e-02 -1.90556294e-03 1.17861875e-02 -1.90556294e-03 -3.41431154e-02
3.10504839e-02 -1.49194372e-03 2.09795469e-02 -1.49194372e-03 2.48434322e-02 4.77842434e-03 2.09795469e-02 4.77842434e-03 -4.68349634e-02
2.92393668e-02 -3.64919921e-04 1.90229842e-02 -3.64919921e-04 2.39881817e-02 -1.83271620e-03 1.90229842e-02 -1.83271620e-03 -4.46212227e-02
2.56156964e-02 -1.97755025e-03 1.06565523e-02 -1.97755025e-03 2.37113857e-02 -3.83180140e-03 1.06565523e-02 -3.83180140e-03 -4.17552069e-02
2.75737620e-02 4.59299824e-03 5.34763032e-03 4.59299824e-03 2.55949979e-02 -5.66844572e-03 5.34763032e-03 -5.66844572e-03 -4.46383255e-02
3.23888529e-02 -6.33805072e-03 -3.10021590e-02 -6.33805072e-03 2.98423629e-02 1.42165320e-04 -3.10021590e-02 1.42165320e-04 -5.15578687e-02
2.23766301e-02 3.93009156e-03 -2.11189144e-02 3.93009156e-03 2.27491161e-02 -5.22795226e-03 -2.11189144e-02 -5.22795226e-03 -3.82256441e-02
3.14732725e-02 1.59859541e-04 -8.46248737e-03 1.59859541e-04 3.53767676e-02 7.45251072e-03 -8.46248737e-03 7.45251072e-03 -5.62683539e-02
2.45642491e-02 -3.09371029e-03 -2.78213343e-02 -3.09371029e-03 1.88667293e-02 4.94883899e-03 -2.78213343e-02 4.94883899e-03 -3.58519614e-02
3.02984933e-02 -1.76586844e-03 -2.20172241e-03 -1.76586844e-03 3.18339509e-02 5.34211109e-03 -2.20172241e-03 5.34211109e-03 -5.23123499e-02
2.56547499e-02 1.44806324e-03 -9.98092210e-03 1.44806324e-03 2.75963447e-02 1.58601295e-04 -9.98092210e-03 1.58601295e-04 -4.48430805e-02
2.73423353e-02 5.20345609e-04 -3.03883268e-03 5.20345609e-04 2.99738394e-02 2.01058679e-03 -3.03883268e-03 2.01058679e-03 -4.82556336e-02
2.51419889e-02 1.09386421e-03 -8.71298742e-03 1.09386421e-03 2.63617607e-02 -8.55308538e-03 -8.71298742e-03 -8.55308538e-03 -4.32752296e-02
1.51218218e-02 -5.22729527e-03 1.96672066e-02 -5.22729527e-03 2.30453943e-02 1.09676139e-04 1.96672066e-02 1.09676139e-04 -3.16389514e-02
1.09426964e-02 1.40616728e-03 1.57283924e-02 1.40616728e-03 2.22759345e-02 4.63411445e-03 1.57283924e-02 4.63411445e-03 -2.77010039e-02
3.17898975e-02 -2.88244108e-03 2.25239267e-02 -2.88244108e-03 2.43941482e-02 -7.79175083e-03 2.25239267e-02 -7.79175083e-03 -4.69092950e-02
2.33324110e-02 2.30472442e-03 2.57860743e-02 2.30472442e-03 2.39010626e-02 -1.21851410e-02 2.57860743e-02 -1.21851410e-02 -3.93315507e-02
2.55814339e-02 -1.23823453e-02 3.04962997e-02 -1.23823453e-02 3.22740823e-02 -3.21726101e-02 3.04962997e-02 -3.21726101e-02 -4.73676557e-02
3.92984066e-02 -1.70758609e-03 4.95828064e-03 -1.70758609e-03 2.74337396e-02 -2.31878754e-02 4.95828064e-03 -2.31878754e-02 -5.64160749e-02
-9.00558941e-03 -4.56072874e-02 -1.06201641e-01 -4.56072874e-02 7.90870748e-04 -7.43635595e-02 -1.06201641e-01 -7.43635595e-02 1.56603828e-02
7.60975045e-03 -1.75261901e-03 -7.15248846e-03 -1.75261901e-03 4.40987665e-03 -1.25328600e-02 -7.15248846e-03 -1.25328600e-02 -6.03844660e-03
1.09795550e-02 -1.61128340e-03 8.25850370e-03 -1.61128340e-03 1.57653772e-02 1.03832793e-02 8.25850370e-03 1.03832793e-02 -2.22896585e-02
9.64130589e-03 -3.45723284e-03 1.33209801e-02 -3.45723284e-03 1.60689792e-02 1.28120006e-03 1.33209801e-02 1.28120006e-03 -2.13262769e-02
1.46728044e-02 -2.47311145e-03 1.95837117e-02 -2.47311145e-03 1.72948249e-02 1.10278653e-02 1.95837117e-02 1.10278653e-02 -2.46200338e-02
1.32413861e-02 -1.11886083e-03 4.85854174e-03 -1.11886083e-03 1.84434257e-02 2.86276382e-03 4.85854174e-03 2.86276382e-03 -2.42425455e-02
1.13634798e-02 3.38156056e-03 -1.31039647e-04 3.38156056e-03 1.51365334e-02 9.88083320e-05 -1.31039647e-04 9.88083320e-05 -2.22532409e-02
2.61502613e-02 7.65086152e-03 -6.81782141e-03 7.65086152e-03 3.05705190e-02 1.73568048e-02 -6.81782141e-03 1.73568048e-02 -4.82752339e-02
2.27596646e-02 7.22818717e-03 6.82224240e-03 7.22818717e-03 3.35322884e-02 6.98071800e-03 6.82224240e-03 6.98071800e-03 -4.79359142e-02
1.25092470e-02 8.12867242e-04 5.76887641e-03 8.12867242e-04 1.91643571e-02 3.05243493e-02 5.76887641e-03 3.05243493e-02 -2.52217604e-02
4.21673805e-02 -5.88404294e-03 3.82900229e-02 -5.88404294e-03 3.34292697e-02 1.84902578e-02 3.82900229e-02 1.84902578e-02 -6.31570090e-02
2.51282088e-02 -5.30603882e-03 -1.83924135e-02 -5.30603882e-03 3.43642784e-02 -1.23016194e-02 -1.83924135e-02 -1.23016194e-02 -4.94222842e-02
1.29243331e-02 -6.41156366e-04 6.55764900e-03 -6.41156366e-04 1.96822090e-02 6.71377731e-03 6.55764900e-03 6.71377731e-03 -2.73442362e-02
2.48997351e-02 1.05946963e-02 -2.73181824e-03 1.05946963e-02 2.77986513e-02 8.29214591e-03 -2.73181824e-03 8.29214591e-03 -4.34968723e-02
2.22337674e-02 -5.07338205e-03 1.26416483e-02 -5.07338205e-03 3.59815480e-02 -1.05196326e-02 1.26416483e-02 -1.05196326e-02 -4.89284731e-02
3.30239800e-02 -6.77857362e-03 -2.20308616e-02 -6.77857362e-03 3.46614048e-02 2.61358547e-02 -2.20308616e-02 2.61358547e-02 -5.65179894e-02
2.49972908e-02 1.69831485e-02 2.21639724e-03 1.69831485e-02 3.77479984e-02 -5.89609692e-02 2.21639724e-03 -5.89609692e-02 -5.15829126e-02
3.53204800e-02 -2.28985415e-03 -6.74614869e-03 -2.28985415e-03 2.21819176e-02 -1.18020548e-02 -6.74614869e-03 -1.18020548e-02 -4.79885216e-02
3.63425277e-02 3.58746547e-06 2.09936989e-03 3.58746547e-06 2.03509368e-02 -2.17170303e-03 2.09936989e-03 -2.17170303e-03 -4.76130825e-02
3.36630419e-02 2.02655757e-03 3.16341873e-03 2.02655757e-03 2.22493336e-02 2.57112774e-03 3.16341873e-03 2.57112774e-03 -4.70067915e-02
3.48165352e-02 7.41663389e-03 5.12379990e-03 7.41663389e-03 2.35910343e-02 3.32065525e-03 5.12379990e-03 3.32065525e-03 -4.90815728e-02
3.83792920e-02 1.56421421e-03 6.39785675e-03 1.56421421e-03 2.16608485e-02 -1.11005479e-03 6.39785675e-03 -1.11005479e-03 -5.04144393e-02
2.72920677e-02 4.58345341e-03 9.00806481e-06 4.58345341e-03 2.58884858e-02 4.87443441e-03 9.00806481e-06 4.87443441e-03 -4.47605057e-02
2.71844356e-02 1.00565423e-02 2.06537138e-03 1.00565423e-02 2.61973655e-02 2.88272781e-03 2.06537138e-03 2.88272781e-03 -4.48717056e-02
2.14360310e-02 2.99474061e-03 -2.64887983e-03 2.99474061e-03 2.68495940e-02 1.40913531e-03 -2.64887983e-03 1.40913531e-03 -4.06503407e-02
1.98953534e-02 5.37529661e-03 -1.06486025e-03 5.37529661e-03 2.65291603e-02 3.78930062e-03 -1.06486025e-03 3.78930062e-03 -3.90224401e-02
1.81136564e-02 -1.19475447e-03 -1.54172545e-03 -1.19475447e-03 2.47720852e-02 1.10779292e-04 -1.54172545e-03 1.10779292e-04 -3.61011047e-02
1.60235285e-02 -1.75094587e-03 -2.00113130e-03 -1.75094587e-03 2.33827310e-02 9.68564171e-04 -2.00113130e-03 9.68564171e-04 -3.31238364e-02
1.62352249e-02 -2.38062849e-03 -3.21464293e-03 -2.38062849e-03 2.24717087e-02 9.40611630e-04 -3.21464293e-03 9.40611630e-04 -3.25758238e-02
1.59048090e-02 -4.24759614e-03 -5.28862525e-03 -4.24759614e-03 1.94221570e-02 -6.99670913e-04 -5.28862525e-03 -6.99670913e-04 -2.96767857e-02
1.46515286e-02 8.40192573e-04 -2.04159191e-03 8.40192573e-04 2.32744198e-02 2.50423822e-03 -2.04159191e-03 2.50423822e-03 -3.19089247e-02
1.63915411e-02 -4.09655212e-03 -2.11782870e-03 -4.09655212e-03 1.92413745e-02 -3.46568343e-03 -2.11782870e-03 -3.46568343e-03 -2.99378340e-02
3.82466288e-02 9.57769644e-03 1.37002010e-02 9.57769644e-03 2.13428783e-02 1.80837600e-03 1.37002010e-02 1.80837600e-03 -4.87877176e-02
4.63892631e-02 5.65321813e-03 2.05242388e-02 5.65321813e-03 2.72760070e-02 -6.94737327e-03 2.05242388e-02 -6.94737327e-03 -6.23485092e-02
2.80978023e-02 1.14475255e-02 -5.06376993e-04 1.14475255e-02 2.18626916e-02 1.17084998e-03 -5.06376993e-04 1.17084998e-03 -4.13872278e-02
1.64859127e-02 7.92479553e-03 -8.42113602e-03 7.92479553e-03 1.79862425e-02 -7.78377871e-04 -8.42113602e-03 -7.78377871e-04 -2.87676926e-02
1.05262867e-02 6.39288719e-04 -1.01255398e-02 6.39288719e-04 1.66501697e-02 -7.06386320e-04 -1.01255398e-02 -7.06386320e-04 -2.30199498e-02
9.11201040e-03 -4.43300337e-03 -1.44964774e-02 -4.43300337e-03 1.48895831e-02 -4.61043493e-03 -1.44964774e-02 -4.61043493e-03 -1.99544110e-02
1.06179002e-02 -8.66986516e-03 -1.58667127e-02 -8.66986516e-03 1.28635419e-02 -9.09503736e-03 -1.58667127e-02 -9.09503736e-03 -1.93418711e-02
4.91340434e-02 -1.51291296e-03 3.95984581e-02 -1.51291296e-03 2.18455093e-02 -9.93376937e-03 3.95984581e-02 -9.93376937e-03 -5.91402569e-02
4.81149964e-02 -9.01313871e-03 3.83580917e-02 -9.01313871e-03 2.44761126e-02 -1.32869299e-02 3.83580917e-02 -1.32869299e-02 -6.00040182e-02
3.49142017e-02 9.78943744e-03 2.59964052e-03 9.78943744e-03 1.67714981e-02 -1.82174159e-02 2.59964052e-03 -1.82174159e-02 -4.33371235e-02
1.48737587e-02 9.43135711e-03 -1.54723497e-02 9.43135711e-03 5.77359617e-03 -8.24779837e-03 -1.54723497e-02 -8.24779837e-03 -1.74017112e-02
3.35226255e-03 -2.63997242e-02 -4.04015556e-02 -2.63997242e-02 -1.36637911e-02 -3.44405547e-02 -4.04015556e-02 -3.44405547e-02 1.37362499e-02
-5.36358223e-04 1.93094261e-03 -1.56497060e-03 1.93094261e-03 1.14608032e-03 -1.27917653e-03 -1.56497060e-03 -1.27917653e-03 6.72833691e-04
4.93028779e-02 3.28292110e-03 -6.62775524e-03 3.28292110e-03 3.70347723e-02 2.89790239e-02 -6.62775524e-03 2.89790239e-02 -7.25458981e-02
5.03305631e-02 8.30885364e-03 -2.37590745e-02 8.30885364e-03 4.50005354e-02 2.09054997e-02 -2.37590745e-02 2.09054997e-02 -8.13166897e-02
4.80797067e-02 -2.35757604e-03 7.68157491e-03 -2.35757604e-03 2.80154143e-02 -2.59373458e-02 7.68157491e-03 -2.59373458e-02 -6.40639570e-02
3.64134377e-02 -2.64049069e-03 -6.85588139e-03 -2.64049069e-03 4.59284633e-02 1.34273273e-02 -6.85588139e-03 1.34273273e-02 -6.72159772e-02
3.78027940e-02 -2.68113270e-03 6.48293813e-03 -2.68113270e-03 4.66787256e-02 -2.61089823e-03 6.48293813e-03 -2.61089823e-03 -6.94178743e-02
4.62139919e-02 -5.00815082e-03 7.08529539e-03 -5.00815082e-03 4.11055991e-02 1.31107856e-02 7.08529539e-03 1.31107856e-02 -7.36170076e-02
4.43787035e-02 2.00740329e-03 1.05078899e-02 2.00740329e-03 4.14546095e-02 -6.99031167e-03 1.05078899e-02 -6.99031167e-03 -7.22452067e-02
4.23161574e-02 1.23188992e-02 -5.40822133e-03 1.23188992e-02 4.40057721e-02 -1.48477464e-02 -5.40822133e-03 -1.48477464e-02 -7.28548821e-02
4.70731733e-02 -6.93933712e-03 -9.99468425e-03 -6.93933712e-03 3.17470296e-02 2.38510154e-02 -9.99468425e-03 2.38510154e-02 -6.59844643e-02
2.99288293e-02 6.81389868e-03 3.20239735e-03 6.81389868e-03 1.16045219e-02 -8.36840924e-03 3.20239735e-03 -8.36840924e-03 -3.44059805e-02
2.41531634e-02 -1.26974955e-02 -6.99349563e-04 -1.26974955e-02 1.89140202e-02 -1.14830304e-03 -6.99349563e-04 -1.14830304e-03 -3.60498335e-02
-2.47674771e-02 2.08196379e-02 1.73039772e-02 2.08196379e-02 -8.98598135e-03 -2.54193991e-02 1.73039772e-02 -2.54193991e-02 3.64078917e-02
-3.50381597e-03 -6.90192496e-03 7.33196642e-03 -6.90192496e-03 -2.73468159e-03 -1.85035020e-02 7.33196642e-03 -1.85035020e-02 9.35569685e-03
5.82209005e-03 -1.37048206e-02 -5.19775472e-03 -1.37048206e-02 -7.87194938e-03 1.49191010e-02 -5.19775472e-03 1.49191010e-02 3.99695875e-03
-1.94947313e-03 -1.24459540e-02 -8.66734462e-04 -1.24459540e-02 1.83650415e-03 -1.25755716e-02 -8.66734462e-04 -1.25755716e-02 2.59532513e-03
0.00000000e+00 0.00000000e+00 0.00000000e+00 0.00000000e+00 0.00000000e+00 0.00000000e+00 0.00000000e+00 0.00000000e+00 0.00000000e+00
0.00000000e+00 0.00000000e+00 0.00000000e+00 0.00000000e+00 0.00000000e+00 0.00000000e+00 0.00000000e+00 0.00000000e+00 0.00000000e+00
0.00000000e+00 0.00000000e+00 0.00000000e+00 0.00000000e+00 0.00000000e+00 0.00000000e+00 0.00000000e+00 0.00000000e+00 0.00000000e+00
0.00000000e+00 0.00000000e+00 0.00000000e+00 0.00000000e+00 0.00000000e+00 0.00000000e+00 0.00000000e+00 0.00000000e+00 0.00000000e+00
1.95805485e-05 -2.86474533e-05 -2.46019637e-05 -2.86474533e-05 -3.97200574e-05 -3.53438529e-05 -2.46019637e-05 -3.53438529e-05 8.78785181e-06
0.00000000e+00 0.00000000e+00 0.00000000e+00 0.00000000e+00 0.00000000e+00 0.00000000e+00 0.00000000e+00 0.00000000e+00 0.00000000e+00
0.00000000e+00 0.00000000e+00 0.00000000e+00 0.00000000e+00 0.00000000e+00 0.00000000e+00 0.00000000e+00 0.00000000e+00 0.00000000e+00
-3.09887449e-05 -1.54724218e-04 1.34161904e-05 -1.54724218e-04 7.45163137e-06 4.29150047e-06 1.34161904e-05 4.29150047e-06 3.43129723e-05
3.90649252e-02 5.30169928e-07 1.21605990e-06 5.30169928e-07 2.16013212e-02 2.00325303e-07 1.21605990e-06 2.00325303e-07 -5.09481542e-02
3.52373831e-02 4.04765178e-03 -3.27096495e-06 4.04765178e-03 2.39044232e-02 2.49584927e-03 -3.27096495e-06 2.49584927e-03 -4.97343093e-02
3.84968780e-02 1.09530133e-02 2.72761832e-03 1.09530133e-02 2.25666366e-02 4.49263479e-03 2.72761832e-03 4.49263479e-03 -5.12290830e-02
4.30111177e-02 3.30272852e-03 1.01871736e-03 3.30272852e-03 2.03902051e-02 -7.59133400e-07 1.01871736e-03 -7.59133400e-07 -5.31650744e-02
2.72330809e-02 3.24514415e-03 -9.56131589e-06 3.24514415e-03 2.84961620e-02 5.36347763e-03 -9.56131589e-06 5.36347763e-03 -4.69050519e-02
2.81311348e-02 1.27013501e-02 3.15245287e-03 1.27013501e-02 2.68236478e-02 4.00265260e-03 3.15245287e-03 4.00265260e-03 -4.61600209e-02
1.97607763e-02 4.38717939e-03 -8.66634218e-06 4.38717939e-03 3.09509449e-02 3.62673705e-03 -8.66634218e-06 3.62673705e-03 -4.26237416e-02
1.91920444e-02 8.19548266e-03 3.51210497e-03 8.19548266e-03 2.81758602e-02 4.99497075e-03 3.51210497e-03 4.99497075e-03 -3.97731438e-02
1.55119863e-02 1.75224763e-03 -1.89939237e-06 1.75224763e-03 2.99146716e-02 9.35540651e-04 -1.89939237e-06 9.35540651e-04 -3.81377321e-02
1.41769107e-02 2.45853708e-03 6.25353935e-03 2.45853708e-03 2.67590769e-02 3.87442100e-03 6.25353935e-03 3.87442100e-03 -3.43484581e-02
1.56694599e-02 -2.61500583e-03 -2.48402830e-06 -2.61500583e-03 2.75310325e-02 6.93574199e-04 -2.48402830e-06 6.93574199e-04 -3.63009553e-02
1.26460451e-02 -2.85419250e-03 7.15115806e-03 -2.85419250e-03 2.40142178e-02 4.70047082e-04 7.15115806e-03 4.70047082e-04 -3.07773254e-02
1.47707788e-02 -8.76723416e-03 9.75436706e-06 -8.76723416e-03 2.99877636e-02 4.00121510e-03 9.75436706e-06 4.00121510e-03 -3.75251696e-02
1.31553919e-02 -6.05791528e-03 9.99165466e-03 -6.05791528e-03 2.38034548e-02 -5.57731604e-03 9.99165466e-03 -5.57731604e-03 -3.09261000e-02
4.36643269e-02 1.59362645e-02 -4.63486178e-03 1.59362645e-02 3.02343229e-02 7.49518140e-03 -4.63486178e-03 7.49518140e-03 -6.26117587e-02
4.68508173e-02 2.72619096e-03 -3.17221996e-03 2.72619096e-03 3.14191869e-02 -8.62402740e-05 -3.17221996e-03 -8.62402740e-05 -6.54184707e-02
2.90177581e-02 2.27767932e-02 -3.01365289e-04 2.27767932e-02 2.40107756e-02 9.88237280e-03 -3.01365289e-04 9.88237280e-03 -4.45662579e-02
1.57894383e-02 1.26946780e-02 4.50711488e-03 1.26946780e-02 1.88138750e-02 6.39718561e-03 4.50711488e-03 6.39718561e-03 -2.92275464e-02
6.95728743e-03 1.49916785e-04 5.94476215e-03 1.49916785e-04 1.31987344e-02 5.81110280e-03 5.94476215e-03 5.81110280e-03 -1.69348626e-02
2.92899775e-03 -4.52454726e-03 6.29527762e-03 -4.52454726e-03 9.48114361e-03 -3.05069829e-04 6.29527762e-03 -3.05069829e-04 -1.02872466e-02
5.48156560e-03 -7.39207759e-03 3.64562462e-03 -7.39207759e-03 6.09102077e-03 -5.68257878e-03 3.64562462e-03 -5.68257878e-03 -9.55992681e-03
5.14850952e-02 -3.01175518e-04 2.30265781e-02 -3.01175518e-04 4.56291754e-02 1.42421620e-02 2.30265781e-02 1.42421620e-02 -8.14493895e-02
6.16296940e-02 -4.89809178e-03 1.94349289e-02 -4.89809178e-03 5.41880541e-02 6.57355413e-05 1.94349289e-02 6.57355413e-05 -9.77335274e-02
2.85094635e-02 1.01190110e-02 7.72858815e-03 1.01190110e-02 1.86368224e-02 1.49551071e-02 7.72858815e-03 1.49551071e-02 -4.00371403e-02
1.82851500e-03 4.21939214e-04 2.99595651e-03 4.21939214e-04 3.21853280e-03 6.38552627e-03 2.99595651e-03 6.38552627e-03 -2.59007036e-03
-3.91368718e-04 -2.84473592e-03 6.82978294e-04 -2.84473592e-03 7.63581313e-04 2.10680759e-04 6.82978294e-04 2.10680759e-04 -1.09302851e-04
-8.74486643e-04 -1.83410055e-03 -4.83103668e-03 -1.83410055e-03 2.45977989e-03 -1.97901767e-04 -4.83103668e-03 -1.97901767e-04 -1.03246932e-03
-5.35786166e-05 -1.39139856e-03 2.17981020e-04 -1.39139856e-03 2.96801036e-04 3.39286496e-04 2.17981020e-04 3.39286496e-04 -1.89620509e-04
6.39071746e-04 -5.36443717e-03 -4.34497371e-03 -5.36443717e-03 -4.08857253e-04 -1.12051242e-04 -4.34497371e-03 -1.12051242e-04 4.62257711e-04
9.28231777e-04 -1.80314010e-03 1.04529233e-03 -1.80314010e-03 -1.68021157e-03 1.71383661e-04 1.04529233e-03 1.71383661e-04 9.58592398e-04
1.00476893e-02 -2.10664072e-03 -9.85784549e-03 -2.10664072e-03 -4.93135532e-03 -2.30126530e-02 -9.85784549e-03 -2.30126530e-02 -2.45489413e-03
-7.18016550e-03 -1.89165256e-03 2.49517174e-03 -1.89165256e-03 -9.55348463e-04 4.31227323e-03 2.49517174e-03 4.31227323e-03 9.79956379e-03
2.11787354e-02 9.25246906e-03 -4.38252604e-03 9.25246906e-03 2.49872915e-02 3.11263427e-02 -4.38252604e-03 3.11263427e-02 -4.01981585e-02
-2.24093286e-05 -3.32989841e-04 -9.92242967e-05 -3.32989841e-04 3.64723152e-05 1.88519796e-03 -9.92242967e-05 1.88519796e-03 -2.73229022e-05
-6.00245698e-04 -1.27346567e-03 4.35666831e-05 -1.27346567e-03 3.62654214e-04 2.14715013e-05 4.35666831e-05 2.14715013e-05 3.77370122e-04
-4.70777425e-05 6.82910547e-06 -8.92081944e-05 6.82910547e-06 5.20080034e-05 -6.85944815e-06 -8.92081944e-05 -6.85944815e-06 -1.68382353e-05
-6.15546679e-05 2.89173380e-05 -3.43424160e-05 2.89173380e-05 1.01048908e-04 -3.15502446e-05 -3.43424160e-05 -3.15502446e-05 -7.24247734e-05
7.43747078e-05 -4.23109566e-04 2.50096316e-04 -4.23109566e-04 -1.23912600e-04 -1.24465787e-05 2.50096316e-04 -1.24465787e-05 9.36205834e-05
2.74013437e-04 -6.87232881e-04 -8.55469189e-05 -6.87232881e-04 -5.39301196e-04 -8.89398507e-06 -8.55469189e-05 -8.89398507e-06 3.77646415e-04
6.18829019e-02 1.14857741e-02 -1.58572793e-02 1.14857741e-02 8.01469460e-02 -8.22790316e-05 -1.58572793e-02 -8.22790316e-05 -1.19128011e-01
7.35542104e-02 -3.71204712e-03 -1.12512503e-02 -3.71204712e-03 7.55780488e-02 2.47344431e-02 -1.12512503e-02 2.47344431e-02 -1.24719173e-01
5.33981733e-02 -1.50137420e-02 1.48431423e-02 -1.50137420e-02 5.91284658e-02 1.78450750e-02 1.48431423e-02 1.78450750e-02 -9.56632098e-02
5.52362315e-02 -4.60654940e-03 1.76906623e-02 -4.60654940e-03 6.53166678e-02 1.88086618e-04 1.76906623e-02 1.88086618e-04 -1.02193277e-01
4.37578867e-05 -6.59050989e-05 6.17709048e-07 -6.59050989e-05 -2.94596389e-05 -1.35035717e-05 6.17709048e-07 -1.35035717e-05 -2.72606549e-05
4.29379038e-03 -3.95517032e-03 5.52826010e-05 -3.95517032e-03 -1.77040603e-03 1.44604449e-04 5.52826010e-05 1.44604449e-04 -2.08061601e-03
0.00000000e+00 0.00000000e+00 0.00000000e+00 0.00000000e+00 0.00000000e+00 0.00000000e+00 0.00000000e+00 0.00000000e+00 0.00000000e+00
5.91310784e-02 -1.65689643e-02 9.89313331e-03 -1.65689643e-02 3.57436147e-02 1.38664180e-02 9.89313331e-03 1.38664180e-02 -7.95871392e-02
5.92149720e-02 -2.28221668e-03 1.40593480e-02 -2.28221668e-03 3.80286612e-02 1.24928047e-05 1.40593480e-02 1.24928047e-05 -8.17311406e-02
4.52467259e-02 5.65653294e-03 2.98036274e-03 5.65653294e-03 4.35000397e-02 1.74076632e-02 2.98036274e-03 1.74076632e-02 -7.59711936e-02
5.21119274e-02 -9.65681905e-03 -2.69541238e-03 -9.65681905e-03 3.33142346e-02 2.48023598e-02 -2.69541238e-03 2.48023598e-02 -7.23667443e-02
9.77371680e-03 7.98274804e-03 -7.14280084e-03 7.98274804e-03 4.08272189e-03 8.34849291e-03 -7.14280084e-03 8.34849291e-03 -7.45058432e-03
3.19825634e-03 -5.07518835e-03 -6.33313134e-03 -5.07518835e-03 1.68997964e-02 6.59522251e-03 -6.33313134e-03 6.59522251e-03 -1.36423660e-02
-4.38810364e-03 -1.36307369e-02 -7.00443983e-04 -1.36307369e-02 3.11764833e-03 3.43724852e-04 -7.00443983e-04 3.43724852e-04 2.03053612e-03
-1.87662401e-04 -1.20318015e-04 -5.76585808e-06 -1.20318015e-04 8.77648490e-05 -1.43253783e-05 -5.76585808e-06 -1.43253783e-05 1.31739944e-04
0.00000000e+00 0.00000000e+00 0.00000000e+00 0.00000000e+00 0.00000000e+00 0.00000000e+00 0.00000000e+00 0.00000000e+00 0.00000000e+00
</DataArray>
<DataArray type="Float32" Name="Spatial_displacement" NumberOfComponents="3" format="ascii">
1.28278844e-02 9.25695226e-02 -4.07597572e-02
2.28541344e-02 8.90293270e-02 -2.98511833e-02
2.24603191e-02 1.10383779e-01 -4.57794853e-02
9.83363390e-03 1.06878474e-01 -5.25640994e-02
1.03571527e-02 1.05606891e-01 -6.11758977e-02
2.51407325e-02 1.06265560e-01 -5.99723458e-02
1.99931934e-02 1.34627327e-01 -8.01799372e-02
1.08430013e-02 1.18977115e-01 -7.22038895e-02
4.08214070e-02 8.29311758e-02 -2.41302326e-02
4.43969183e-02 1.07787088e-01 -4.53154705e-02
4.46127392e-02 1.00540981e-01 -6.71458989e-02
6.59072027e-02 1.33500338e-01 -1.14051335e-01
4.04052772e-02 8.65703449e-02 1.34259462e-05
4.04101461e-02 8.96940678e-02 -1.89617276e-05
3.72713357e-02 8.97058547e-02 3.68058681e-06
3.72532420e-02 8.65759552e-02 1.36718154e-05
4.04289700e-02 8.65617096e-02 -8.19563866e-08
4.04153541e-02 8.97017717e-02 -9.14931297e-06
3.72804590e-02 8.96860361e-02 -7.70390034e-06
3.72982547e-02 8.65479261e-02 2.41026282e-05
0.00000000e+00 0.00000000e+00 -1.11853674e-01
2.10709013e-02 0.00000000e+00 -1.13339558e-01
2.14353278e-02 2.24729590e-02 -1.08613387e-01
0.00000000e+00 2.19971091e-02 -1.05303727e-01
0.00000000e+00 0.00000000e+00 -1.50087178e-01
2.93572433e-02 0.00000000e+00 -1.50509596e-01
2.98357233e-02 2.13597082e-02 -1.48749217e-01
0.00000000e+00 2.03780122e-02 -1.44685879e-01
4.63691205e-02 0.00000000e+00 -1.21892966e-01
4.07648720e-02 1.77068487e-02 -1.15130939e-01
5.67013398e-02 0.00000000e+00 -1.55521005e-01
5.81180863e-02 2.22549997e-02 -1.56414941e-01
6.90368563e-02 0.00000000e+00 -1.30847201e-01
6.93975389e-02 1.41478926e-02 -1.28372639e-01
8.39068517e-02 0.00000000e+00 -1.64894134e-01
8.18217844e-02 1.96578316e-02 -1.65321037e-01
9.64200720e-02 0.00000000e+00 -1.39277771e-01
9.74094644e-02 1.51156336e-02 -1.42567426e-01
1.06753960e-01 0.00000000e+00 -1.72565311e-01
1.06180429e-01 1.57635324e-02 -1.77060768e-01
1.22896977e-01 0.00000000e+00 -1.50698602e-01
1.24268167e-01 1.67583041e-02 -1.48532882e-01
1.27464712e-01 0.00000000e+00 -1.76914603e-01
1.27674967e-01 1.39936209e-02 -1.85034707e-01
1.45801902e-01 0.00000000e+00 -1.55636609e-01
1.47786915e-01 1.52207687e-02 -1.52915657e-01
1.43132895e-01 0.00000000e+00 -1.78481966e-01
1.48943394e-01 1.21583156e-02 -1.84985384e-01
1.38972215e-02 4.15452383e-02 -9.53966826e-02
0.00000000e+00 4.82245348e-02 -9.34964865e-02
2.94960830e-02 4.48938906e-02 -1.33005440e-01
0.00000000e+00 4.52763177e-02 -1.31246418e-01
3.79836150e-02 4.07466218e-02 -1.11522339e-01
6.20785430e-02 4.65980396e-02 -1.52249396e-01
6.38027564e-02 4.50110212e-02 -1.36167511e-01
8.56093615e-02 4.29647043e-02 -1.85778737e-01
9.76043344e-02 5.06420955e-02 -1.40358746e-01
1.02558196e-01 3.63041423e-02 -1.95181191e-01
1.26642525e-01 4.50938046e-02 -1.41918197e-01
1.28133476e-01 4.12793532e-02 -1.92367613e-01
1.51086241e-01 4.23823111e-02 -1.44689709e-01
1.52931333e-01 3.83889787e-02 -1.92499191e-01
9.87236202e-03 7.21602514e-02 -7.10140541e-02
0.00000000e+00 7.06642270e-02 -7.55049139e-02
2.54175663e-02 7.09927976e-02 -1.15770355e-01
0.00000000e+00 6.87893257e-02 -1.04048036e-01
3.37434299e-02 6.37535155e-02 -9.13976878e-02
6.91974461e-02 7.45418742e-02 -1.59991533e-01
2.93273814e-02 5.60570881e-02 -2.38233656e-01
1.01830021e-01 6.23926744e-02 -2.13186592e-01
9.13709402e-03 8.77453461e-02 -5.81986494e-02
0.00000000e+00 9.12797749e-02 -5.94441518e-02
1.72484480e-02 9.66150910e-02 -8.17181617e-02
0.00000000e+00 9.76553112e-02 -8.66622329e-02
0.00000000e+00 1.02169305e-01 -6.13122545e-02
1.77191570e-02 1.22092858e-01 -8.50020126e-02
0.00000000e+00 1.14570767e-01 -9.11342353e-02
2.49757841e-02 8.77669528e-02 -4.05749008e-02
4.64137830e-02 1.02114379e-01 -9.93745103e-02
4.66181561e-02 1.17281064e-01 -9.18939412e-02
0.00000000e+00 1.19617492e-01 -7.87915438e-02
2.64213197e-02 1.49359807e-01 -1.22056238e-01
0.00000000e+00 1.54729381e-01 -1.11945368e-01
4.89692315e-02 1.58894822e-01 -1.27693608e-01
6.98517039e-02 1.05703548e-01 -1.66694432e-01
1.04761183e-01 1.27860278e-01 -1.59272805e-01
0.00000000e+00 0.00000000e+00 -1.93753049e-01
3.71473432e-02 0.00000000e+00 -1.95834935e-01
3.92626673e-02 2.21963488e-02 -1.92808330e-01
0.00000000e+00 2.05837823e-02 -1.91740438e-01
6.79867119e-02 0.00000000e+00 -1.98374629e-01
7.27457404e-02 2.64311898e-02 -1.98367894e-01
9.27898437e-02 0.00000000e+00 -2.02084512e-01
9.58859921e-02 2.82687806e-02 -2.04632819e-01
1.13255404e-01 0.00000000e+00 -2.07479998e-01
1.12001255e-01 2.55062655e-02 -2.08967939e-01
1.30043358e-01 0.00000000e+00 -2.08904982e-01
1.27588123e-01 2.17466913e-02 -2.12034345e-01
1.43877327e-01 0.00000000e+00 -2.08804876e-01
1.44733340e-01 2.27316730e-02 -2.10777685e-01
4.67092395e-02 4.95133400e-02 -1.89372659e-01
0.00000000e+00 4.38640192e-02 -1.82693139e-01
8.27021301e-02 5.47319278e-02 -2.01249033e-01
1.04629412e-01 5.31383082e-02 -2.15615541e-01
1.16032071e-01 4.68874276e-02 -2.26803809e-01
1.24046259e-01 3.99592072e-02 -2.33755469e-01
1.33540034e-01 4.01976146e-02 -2.32915103e-01
4.85211015e-02 6.68379590e-02 -1.62968531e-01
0.00000000e+00 7.63611943e-02 -1.50307909e-01
9.43349302e-02 6.95395619e-02 -2.06446111e-01
1.19967587e-01 6.48483634e-02 -2.35738546e-01
1.10841624e-01 2.78691296e-02 -2.63685554e-01
1.27233356e-01 5.65042831e-02 -2.43621409e-01
4.98195067e-02 9.12553668e-02 -1.19611293e-01
0.00000000e+00 8.27158764e-02 -1.38367534e-01
1.04350895e-01 9.15574133e-02 -1.92587197e-01
4.29975651e-02 1.42006129e-01 -1.57444432e-01
0.00000000e+00 1.44825682e-01 -1.55530289e-01
5.00488691e-02 1.93534002e-01 -1.75146848e-01
0.00000000e+00 1.91461623e-01 -1.68553084e-01
7.66063631e-02 1.27064601e-01 -1.65969253e-01
1.14891380e-01 1.65588751e-01 -1.78509429e-01
1.14487052e-01 9.01643187e-02 -2.24405676e-01
1.57902345e-01 1.02996215e-01 -2.10075408e-01
4.91679125e-02 7.67389610e-02 -2.94281453e-01
1.00570068e-01 7.95257986e-02 -2.59101093e-01
1.44107401e-01 5.68162501e-02 -2.44420260e-01
1.54128596e-01 5.82738370e-02 -2.44010329e-01
1.44586504e-01 4.82881777e-02 -2.44288832e-01
1.44540399e-01 3.95529419e-02 -2.44282842e-01
1.53268605e-01 3.95252556e-02 -2.44262904e-01
1.53271109e-01 4.82868627e-02 -2.44216204e-01
1.44540280e-01 4.82780747e-02 -2.44293302e-01
1.44558251e-01 3.95489149e-02 -2.44260907e-01
1.53256088e-01 3.95108350e-02 -2.44272560e-01
1.53375357e-01 4.81565297e-02 -2.44215906e-01
0.00000000e+00 0.00000000e+00 -2.44253814e-01
3.97586077e-02 0.00000000e+00 -2.44253814e-01
4.39808741e-02 2.50278972e-02 -2.44253814e-01
0.00000000e+00 2.16358937e-02 -2.44253814e-01
7.35638291e-02 0.00000000e+00 -2.44253814e-01
7.69306123e-02 2.97206920e-02 -2.44253814e-01
9.65378135e-02 0.00000000e+00 -2.44253814e-01
1.01072878e-01 3.19611803e-02 -2.44253814e-01
1.14225008e-01 0.00000000e+00 -2.44253814e-01
1.16013467e-01 3.20389122e-02 -2.44253814e-01
1.30746663e-01 0.00000000e+00 -2.44253814e-01
1.28061175e-01 2.91759446e-02 -2.44253814e-01
1.47972465e-01 0.00000000e+00 -2.44253814e-01
1.38908222e-01 3.31215262e-02 -2.44253814e-01
5.44354655e-02 4.39291410e-02 -2.44253814e-01
0.00000000e+00 4.09638211e-02 -2.44253814e-01
9.29968059e-02 5.45384027e-02 -2.44253814e-01
1.11119226e-01 5.78177571e-02 -2.44253814e-01
1.21926256e-01 5.30564301e-02 -2.44253814e-01
1.23700276e-01 4.64360453e-02 -2.44253814e-01
1.27713278e-01 4.39925008e-02 -2.44253814e-01
6.38861656e-02 9.16998386e-02 -2.44253814e-01
0.00000000e+00 9.69217420e-02 -2.44253814e-01
1.09641805e-01 7.73212090e-02 -2.44253814e-01
1.27314359e-01 6.83414936e-02 -2.44253814e-01
1.27509400e-01 5.70912026e-02 -2.44253814e-01
1.27578124e-01 4.77250889e-02 -2.44757324e-01
1.28010467e-01 4.80537452e-02 -2.44253814e-01
1.28673896e-01 4.08702008e-02 -2.45106906e-01
1.28888264e-01 4.20491584e-02 -2.44253814e-01
1.36162162e-01 6.63293302e-02 -2.49970943e-01
1.39405429e-01 6.96295127e-02 -2.44253814e-01
1.37047768e-01 8.68403316e-02 -2.44253814e-01
1.36081487e-01 5.64437173e-02 -2.44044125e-01
1.36192873e-01 5.66528365e-02 -2.44253814e-01
1.35898232e-01 4.83475439e-02 -2.44280875e-01
1.35966271e-01 4.82434258e-02 -2.44253814e-01
1.35811001e-01 3.99185121e-02 -2.44269758e-01
1.35739893e-01 3.97314951e-02 -2.44253814e-01
0.00000000e+00 6.52981624e-02 -2.44253814e-01
7.76155517e-02 7.80504495e-02 -2.44253814e-01
6.07362539e-02 1.58753589e-01 -2.44253814e-01
0.00000000e+00 1.63742810e-01 -2.44253814e-01
1.44493133e-01 4.82718088e-02 -2.44253814e-01
1.44529194e-01 5.68942614e-02 -2.44253814e-01
1.44584477e-01 3.95748839e-02 -2.44253814e-01
6.49221987e-02 2.03805670e-01 -2.44253814e-01
0.00000000e+00 2.06145227e-01 -2.44253814e-01
9.41957384e-02 1.30973607e-01 -2.44253814e-01
1.40657365e-01 1.62891686e-01 -2.44253814e-01
1.25502899e-01 7.97040910e-02 -2.44253814e-01
1.66832015e-01 9.54792351e-02 -2.44253814e-01
1.54633522e-01 5.74572496e-02 -2.44253814e-01
1.53391570e-01 4.80879731e-02 -2.44253814e-01
1.53242886e-01 3.95208448e-02 -2.44253814e-01
</DataArray>
<DataArray type="Float32" Name="Spatial_acceleration" NumberOfComponents="3" format="ascii">
2.88049364e-07 6.41882423e-07 -4.93049640e-07
3.21547191e-07 6.40074404e-07 -4.62849925e-07
3.74078752e-07 7.82489792e-07 -7.95046503e-07
2.42392218e-07 8.58346596e-07 -4.75247703e-07
2.15133028e-07 8.29637031e-07 -8.31047657e-07
3.99544120e-07 6.94365724e-07 -6.31786520e-07
2.86102278e-07 8.56717406e-07 -6.57399482e-07
1.51395795e-07 8.99712234e-07 -9.18388366e-07
5.76813989e-07 7.08808500e-07 -4.17073551e-07
5.85953387e-07 4.09205740e-07 -6.81559243e-07
4.14212536e-07 7.16315355e-07 -6.30696604e-07
2.56220488e-07 6.02801606e-07 -3.85284409e-07
7.69382325e-07 4.24537802e-07 -3.74898320e-07
7.07447498e-07 6.08921027e-07 6.25262658e-07
1.06185678e-06 3.36610384e-07 -9.09919549e-07
8.15590226e-07 4.99347834e-07 5.78070683e-07
1.57929890e-06 7.88811576e-07 1.15211367e-06
1.47975481e-06 5.25278324e-07 -1.57355021e-06
1.06736024e-06 9.23680773e-07 1.53466806e-06
9.18732951e-07 2.38485626e-07 -1.03971240e-06
0.00000000e+00 0.00000000e+00 -3.30607094e-07
1.87536074e-07 0.00000000e+00 -4.94321171e-07
1.45703552e-07 1.19715921e-07 -5.34375488e-07
0.00000000e+00 1.92373989e-07 -4.71750894e-07
0.00000000e+00 0.00000000e+00 -4.89552804e-07
7.77840583e-08 0.00000000e+00 -5.39143855e-07
1.33544205e-07 1.38863925e-07 -6.22431457e-07
0.00000000e+00 8.52743796e-08 -6.80605581e-07
2.20676256e-07 0.00000000e+00 -5.25792416e-07
2.90423628e-07 2.08139411e-07 -5.89847559e-07
2.02972444e-07 0.00000000e+00 -5.98271697e-07
2.11497152e-07 1.73072024e-07 -5.89052831e-07
4.62392961e-07 0.00000000e+00 -4.67936189e-07
4.05152633e-07 2.51690551e-07 -4.22477711e-07
3.38221582e-07 0.00000000e+00 -5.53766881e-07
2.84771119e-07 1.71831957e-07 -5.89052831e-07
4.07973914e-07 0.00000000e+00 -4.74929806e-07
4.30623686e-07 2.03172362e-07 -3.17255655e-07
4.28676600e-07 0.00000000e+00 -5.68071982e-07
4.00940564e-07 1.59343088e-07 -5.52495294e-07
7.93635820e-07 0.00000000e+00 -3.74794013e-07
7.07288564e-07 1.67280433e-07 -3.42210143e-07
7.17759121e-07 0.00000000e+00 -5.59806836e-07
7.02699026e-07 2.21530598e-07 -4.87963348e-07
9.27845633e-07 0.00000000e+00 -2.64485664e-07
8.02040120e-07 2.00480216e-07 -3.98953745e-07
7.93377524e-07 0.00000000e+00 -6.14166254e-07
8.58823455e-07 3.06407600e-07 -5.16891475e-07
1.50044755e-07 2.54909196e-07 -6.40233338e-07
0.00000000e+00 2.00226907e-07 -5.61396291e-07
1.34468081e-07 2.64048566e-07 -7.76290904e-07
0.00000000e+00 2.63412801e-07 -6.84738154e-07
3.54221896e-07 2.64394856e-07 -5.53312759e-07
2.26537381e-07 3.68078560e-07 -6.13212592e-07
4.26864631e-07 1.83741250e-07 -3.86555996e-07
3.26905933e-07 3.65847626e-07 -4.17073551e-07
3.87519606e-07 3.15388036e-07 -3.20434566e-07
4.13767509e-07 3.05684409e-07 -5.13712564e-07
5.07126231e-07 3.20156403e-07 -3.35057564e-07
5.59329976e-07 3.05175774e-07 -5.02268449e-07
5.69457825e-07 4.73936382e-07 -4.38690194e-07
5.06485492e-07 5.02188982e-07 -4.73022453e-07
2.56992507e-07 3.92732176e-07 -6.10896507e-07
0.00000000e+00 4.67022261e-07 -7.06672665e-07
1.84149968e-07 4.58671934e-07 -7.99088241e-07
0.00000000e+00 4.43657228e-07 -8.12848384e-07
2.66551979e-07 2.79267624e-07 -5.27064003e-07
2.55076088e-07 4.20252491e-07 -4.42504899e-07
1.79727877e-07 2.31007732e-07 -3.43322739e-07
2.27398345e-07 5.26852091e-07 -4.56068250e-07
2.49272290e-07 5.96091866e-07 -6.23793824e-07
0.00000000e+00 5.34335754e-07 -7.31150294e-07
2.12298502e-07 5.08906965e-07 -8.87976739e-07
0.00000000e+00 5.72860245e-07 -1.08114875e-06
0.00000000e+00 9.47897604e-07 -7.89006549e-07
1.53791333e-07 9.12075961e-07 -9.88551506e-07
0.00000000e+00 8.84264693e-07 -1.08273821e-06
3.84807578e-07 5.81781080e-07 -6.42140719e-07
2.30868650e-07 5.70615100e-07 -5.77290848e-07
1.74140936e-07 7.06259414e-07 -6.17980959e-07
0.00000000e+00 1.10665951e-06 -8.21431456e-07
1.86920161e-07 8.51472237e-07 -8.09351604e-07
0.00000000e+00 9.66231028e-07 -8.88824445e-07
1.96377428e-07 8.93910737e-07 -7.52766937e-07
1.13169357e-07 7.34541175e-07 -3.78078880e-07
3.08354686e-07 6.20524077e-07 -7.19706236e-07
0.00000000e+00 0.00000000e+00 -7.65482582e-07
1.52200457e-07 0.00000000e+00 -7.14619944e-07
7.79430067e-08 1.20421248e-07 -7.38143910e-07
0.00000000e+00 1.56641008e-07 -7.15255737e-07
1.71264006e-07 0.00000000e+00 -7.25428265e-07
2.06212206e-07 8.14596817e-08 -7.14619944e-07
2.85089016e-07 0.00000000e+00 -8.30968190e-07
3.12209124e-07 1.29461284e-07 -6.72022509e-07
5.10374718e-07 0.00000000e+00 -7.82966595e-07
4.61051854e-07 1.48932131e-07 -7.24792471e-07
6.14861619e-07 0.00000000e+00 -8.02040120e-07
6.01609543e-07 1.82628625e-07 -7.91549667e-07
7.75814044e-07 0.00000000e+00 -8.45591217e-07
6.90460183e-07 2.33570731e-07 -7.59760553e-07
2.32060753e-08 2.72432970e-07 -7.73111992e-07
0.00000000e+00 2.50657394e-07 -8.65300478e-07
1.38839084e-07 2.64187662e-07 -8.37326013e-07
3.71138242e-07 3.48965330e-07 -7.24156678e-07
4.48669709e-07 3.62214593e-07 -6.19070875e-07
5.31673436e-07 2.74446279e-07 -5.82377140e-07
5.68601820e-07 2.90340864e-07 -5.87463376e-07
4.09550154e-08 4.17921285e-07 -9.82496431e-07
0.00000000e+00 4.02026700e-07 -1.22070310e-06
6.46644196e-08 5.87993213e-07 -7.67177994e-07
4.49551493e-07 5.47938896e-07 -1.04904177e-06
3.34540999e-07 1.40428540e-07 -8.02357988e-07
4.08299769e-07 4.84848044e-07 -9.33074944e-07
5.72204577e-08 6.50246932e-07 -1.16093952e-06
0.00000000e+00 7.70144993e-07 -1.09185112e-06
-5.64257299e-08 4.25338754e-07 -5.04811624e-07
-1.39872238e-08 7.69085375e-07 -1.05879042e-06
0.00000000e+00 7.75814044e-07 -1.08846029e-06
5.34057598e-08 8.11576854e-07 -9.66389962e-07
0.00000000e+00 7.49270100e-07 -1.07638039e-06
2.05596280e-07 8.69731082e-07 -7.23520884e-07
2.31822327e-07 8.12609983e-07 -7.69297287e-07
3.14076743e-07 7.62383138e-07 -8.13166309e-07
4.22636674e-07 7.16050465e-07 -9.32057674e-07
-5.48680646e-07 6.51001926e-07 -8.66731000e-07
1.80204708e-07 5.25156679e-07 -1.09736129e-06
5.01121065e-07 4.68512383e-07 -8.51472237e-07
4.28782585e-07 5.04599655e-07 -9.53674316e-07
4.18934377e-07 3.34279008e-07 -1.43891589e-06
7.30765350e-07 6.13098337e-07 -3.10088183e-07
3.40789541e-07 2.54611166e-07 -1.43532952e-06
5.12421138e-07 6.14928695e-07 -3.97547467e-07
4.42425403e-07 5.26944802e-07 -7.25015013e-07
3.01003467e-07 5.33819218e-07 -1.09081805e-06
6.77484991e-07 8.23676601e-07 -8.55902840e-07
4.83115514e-07 2.84035991e-07 -1.03072330e-06
0.00000000e+00 0.00000000e+00 -8.88844340e-07
1.54018394e-07 0.00000000e+00 -8.88844340e-07
1.01526574e-07 1.70675420e-07 -8.88844340e-07
0.00000000e+00 1.87079110e-07 -8.88844340e-07
2.17556945e-07 0.00000000e+00 -8.88844340e-07
2.15689340e-07 1.87953304e-07 -8.88844340e-07
3.83218122e-07 0.00000000e+00 -8.88844340e-07
3.94423807e-07 1.70230862e-07 -8.88844340e-07
4.94162236e-07 0.00000000e+00 -8.88844340e-07
4.44789720e-07 9.05990589e-08 -8.88844340e-07
6.03755325e-07 0.00000000e+00 -8.88844340e-07
6.50842992e-07 8.64664713e-08 -8.88844340e-07
8.18327067e-07 0.00000000e+00 -8.88844340e-07
6.37292828e-07 3.52859502e-08 -8.88844340e-07
7.54992158e-08 2.46365857e-07 -8.88844340e-07
0.00000000e+00 2.83082329e-07 -8.88844340e-07
1.06732053e-07 2.12452676e-07 -8.88844340e-07
4.50929008e-07 2.65280391e-07 -8.88844340e-07
4.27524242e-07 3.73204557e-07 -8.88844340e-07
4.54882780e-07 3.04083017e-07 -8.88844340e-07
7.40528094e-07 4.33762864e-07 -8.88844340e-07
-7.88370755e-08 3.84489681e-07 -8.88844340e-07
0.00000000e+00 3.25441363e-07 -8.88844340e-07
1.29593744e-07 6.02987086e-07 -8.88844340e-07
5.49475374e-07 6.65664686e-07 -8.88844340e-07
4.65710940e-07 5.28494525e-07 -8.88844340e-07
4.35352320e-07 5.31673436e-07 -8.57988994e-07
4.49657449e-07 4.62452562e-07 -8.88844340e-07
4.59671014e-07 4.41551208e-07 -8.21749381e-07
5.50905838e-07 5.08944197e-07 -8.88844340e-07
5.21659842e-07 4.49498486e-07 -9.93092840e-07
4.06861290e-07 5.22136702e-07 -8.88844340e-07
2.60829921e-07 5.44806312e-07 -8.88844340e-07
4.89870729e-07 5.25792473e-07 -8.61114927e-07
5.08520316e-07 4.63485719e-07 -8.88844340e-07
5.04801676e-07 5.34693413e-07 -9.07997276e-07
4.66267267e-07 5.24282427e-07 -8.88844340e-07
5.12599968e-07 5.37872324e-07 -8.14477573e-07
3.48250069e-07 4.81605525e-07 -8.88844340e-07
0.00000000e+00 6.44530473e-07 -8.88844340e-07
-1.25010800e-07 6.87838849e-07 -8.88844340e-07
9.50495433e-08 6.98142571e-07 -8.88844340e-07
0.00000000e+00 8.90572835e-07 -8.88844340e-07
4.60267074e-07 5.10533653e-07 -8.88844340e-07
4.97235192e-07 6.45955424e-07 -8.88844340e-07
4.99208738e-07 6.93321226e-07 -8.88844340e-07
3.05970516e-09 8.93518347e-07 -8.88844340e-07
0.00000000e+00 6.88227487e-07 -8.88844340e-07
3.59574955e-07 8.29617193e-07 -8.88844340e-07
1.77860258e-07 8.78334049e-07 -8.88844340e-07
2.50021600e-07 9.61939463e-07 -8.88844340e-07
6.55571625e-07 8.92480216e-07 -8.88844340e-07
4.38054400e-07 5.99543228e-07 -8.88844340e-07
5.62985747e-07 7.98861151e-07 -8.88844340e-07
3.27602038e-07 3.55650968e-07 -8.88844340e-07
</DataArray>
<DataArray type="Float32" Name="Spatial_velocity" NumberOfComponents="3" format="ascii">
8.37889384e-05 4.59184317e-04 -2.29134224e-04
1.37805531e-04 4.39504802e-04 -1.86986334e-04
1.42274861e-04 5.57542895e-04 -2.72924546e-04
7.36753573e-05 5.43458737e-04 -2.93655437e-04
6.83379330e-05 5.36410022e-04 -3.48927249e-04
1.52786641e-04 5.28702512e-04 -3.35366989e-04
1.32487476e-04 6.83997641e-04 -4.43819998e-04
7.68158643e-05 6.22984546e-04 -4.32223809e-04
2.42982424e-04 4.03166778e-04 -1.52900247e-04
2.61069014e-04 5.38928376e-04 -2.73402198e-04
2.34572057e-04 5.17175242e-04 -3.88871384e-04
3.28863098e-04 6.24014530e-04 -5.33931714e-04
2.46778858e-04 3.78844445e-04 -1.46002407e-07
2.46702170e-04 3.81140067e-04 6.48611405e-08
2.44458031e-04 3.81036254e-04 8.87438659e-07
2.44320341e-04 3.78976431e-04 -7.45726993e-07
2.45720381e-04 3.78659024e-04 -1.24103133e-06
2.45716306e-04 3.80930665e-04 9.75394642e-07
2.43355418e-04 3.81119171e-04 1.02049711e-07
2.43428294e-04 3.78453813e-04 1.41387943e-07
0.00000000e+00 0.00000000e+00 -5.14605315e-04
9.72732887e-05 0.00000000e+00 -5.17550798e-04
1.02665159e-04 1.06584252e-04 -5.07920864e-04
0.00000000e+00 1.02415681e-04 -4.97900823e-04
0.00000000e+00 0.00000000e+00 -6.92019821e-04
1.30322645e-04 0.00000000e+00 -6.91200781e-04
1.33960304e-04 1.08569315e-04 -6.83669699e-04
0.00000000e+00 1.00763391e-04 -6.68996188e-04
2.14911095e-04 0.00000000e+00 -5.42480557e-04
1.91491781e-04 9.03823820e-05 -5.30186517e-04
2.53256934e-04 0.00000000e+00 -7.10153661e-04
2.58488610e-04 1.13467555e-04 -7.06011662e-04
3.19006445e-04 0.00000000e+00 -5.73283061e-04
3.21643776e-04 8.11874052e-05 -5.69011085e-04
3.78065975e-04 0.00000000e+00 -7.39561685e-04
3.64874373e-04 9.86155283e-05 -7.35947571e-04
4.44812118e-04 0.00000000e+00 -6.00404688e-04
4.52712498e-04 8.57015184e-05 -6.09054754e-04
4.87522368e-04 0.00000000e+00 -7.62721465e-04
4.81238210e-04 8.16223037e-05 -7.76355620e-04
5.81465720e-04 0.00000000e+00 -6.32092182e-04
5.82590757e-04 9.18348087e-05 -6.27567468e-04
5.94569778e-04 0.00000000e+00 -7.82642222e-04
5.93089499e-04 7.91536149e-05 -8.05774587e-04
7.10288470e-04 0.00000000e+00 -6.44498679e-04
7.06238323e-04 9.39217716e-05 -6.39401143e-04
6.80886325e-04 0.00000000e+00 -7.88991631e-04
7.09795742e-04 7.94802181e-05 -8.06899625e-04
7.21158285e-05 2.01316216e-04 -4.68877290e-04
0.00000000e+00 2.28542864e-04 -4.62757307e-04
1.33387250e-04 2.15976921e-04 -6.43575215e-04
0.00000000e+00 2.15937005e-04 -6.41595456e-04
1.90159190e-04 2.04880605e-04 -5.04138065e-04
2.76120350e-04 2.29872414e-04 -6.95766241e-04
3.03245906e-04 2.17289693e-04 -5.86451788e-04
3.82847153e-04 2.17014633e-04 -8.02775030e-04
4.42154123e-04 2.40935420e-04 -6.13381562e-04
4.63359582e-04 1.91534287e-04 -8.37910629e-04
5.71334793e-04 2.29580750e-04 -6.03122811e-04
5.84562833e-04 2.13913445e-04 -8.39330023e-04
6.85591425e-04 2.47843738e-04 -6.14037213e-04
6.91381516e-04 2.20982896e-04 -8.41353671e-04
6.34869793e-05 3.48589441e-04 -3.87473439e-04
0.00000000e+00 3.39311751e-04 -3.87571868e-04
1.31087669e-04 3.40968021e-04 -5.72596793e-04
0.00000000e+00 3.42111656e-04 -5.66344534e-04
1.70122046e-04 3.00408370e-04 -4.44965786e-04
3.14088713e-04 3.50699847e-04 -7.13386165e-04
1.38527146e-04 2.64342147e-04 -1.02399488e-03
4.36794799e-04 3.18962411e-04 -9.31003306e-04
6.38109195e-05 4.28152329e-04 -3.26031615e-04
0.00000000e+00 4.44330857e-04 -3.32578638e-04
1.07821499e-04 4.78585920e-04 -4.54413937e-04
0.00000000e+00 4.95453714e-04 -5.03937772e-04
0.00000000e+00 5.24928269e-04 -3.64891428e-04
9.77679010e-05 6.29728544e-04 -5.11196791e-04
0.00000000e+00 5.92521625e-04 -5.29516721e-04
1.61660195e-04 4.32160479e-04 -2.60325236e-04
2.40533351e-04 5.02708252e-04 -5.12360362e-04
2.28362449e-04 5.89612522e-04 -4.99981747e-04
0.00000000e+00 6.27844071e-04 -4.53847693e-04
1.30950270e-04 7.38635659e-04 -6.36911136e-04
0.00000000e+00 7.73155945e-04 -6.15952595e-04
2.22142990e-04 7.72607338e-04 -6.31256378e-04
2.81731976e-04 5.47420001e-04 -7.10837368e-04
4.53521119e-04 6.12613570e-04 -7.17363146e-04
0.00000000e+00 0.00000000e+00 -8.83120811e-04
1.61966644e-04 0.00000000e+00 -8.88318114e-04
1.70106287e-04 1.12156704e-04 -8.84655514e-04
0.00000000e+00 1.03657650e-04 -8.77875951e-04
2.97873921e-04 0.00000000e+00 -8.96720332e-04
3.17390572e-04 1.29646098e-04 -9.02268570e-04
4.12302354e-04 0.00000000e+00 -9.13189200e-04
4.25841339e-04 1.33903828e-04 -9.14586184e-04
5.18568442e-04 0.00000000e+00 -9.30615352e-04
5.06125798e-04 1.20986879e-04 -9.31263901e-04
6.03570777e-04 0.00000000e+00 -9.40479862e-04
5.90313750e-04 1.09140623e-04 -9.49162932e-04
6.71662739e-04 0.00000000e+00 -9.45157488e-04
6.73313800e-04 1.19357428e-04 -9.44822445e-04
1.93177853e-04 2.36580556e-04 -8.65615846e-04
0.00000000e+00 2.18538611e-04 -8.55569087e-04
3.53474024e-04 2.60889879e-04 -8.98532220e-04
4.57518181e-04 2.60734116e-04 -9.58415330e-04
5.20603673e-04 2.33273095e-04 -1.00085640e-03
5.63750451e-04 2.00288370e-04 -1.02632307e-03
6.17109588e-04 2.11401843e-04 -1.02612225e-03
1.97408648e-04 3.31013056e-04 -8.11013568e-04
0.00000000e+00 3.68439214e-04 -7.80435163e-04
3.92600137e-04 3.40541883e-04 -9.13917902e-04
5.33499930e-04 3.23686196e-04 -1.05608848e-03
4.98501875e-04 1.54418842e-04 -1.19350012e-03
5.65880036e-04 2.88812036e-04 -1.09811360e-03
2.17760273e-04 4.76977293e-04 -6.66411011e-04
0.00000000e+00 4.50216379e-04 -7.50766485e-04
4.22125886e-04 4.23948833e-04 -8.40625900e-04
1.70170621e-04 6.97633543e-04 -7.87834288e-04
0.00000000e+00 7.10897672e-04 -8.00678506e-04
2.08829733e-04 8.94384400e-04 -8.64709087e-04
0.00000000e+00 8.88369686e-04 -8.26745760e-04
3.07452894e-04 6.42656058e-04 -7.58321257e-04
4.67996346e-04 7.88887148e-04 -8.28143733e-04
4.81211900e-04 4.65527788e-04 -9.98416683e-04
7.00490666e-04 5.25403360e-04 -9.37002944e-04
9.57182638e-05 3.95882322e-04 -1.37918687e-03
4.11491172e-04 3.93997034e-04 -1.18458329e-03
6.35517936e-04 2.88889481e-04 -1.10235403e-03
6.70279842e-04 2.88538198e-04 -1.10271922e-03
6.35353674e-04 2.54952116e-04 -1.10248977e-03
6.34940458e-04 2.21030219e-04 -1.10309420e-03
6.69041008e-04 2.20778136e-04 -1.10245298e-03
6.69274654e-04 2.54594866e-04 -1.10262027e-03
6.35455246e-04 2.54771265e-04 -1.10284484e-03
6.35358621e-04 2.20706570e-04 -1.10273540e-03
6.69039204e-04 2.20491842e-04 -1.10272190e-03
6.69414818e-04 2.54419661e-04 -1.10242656e-03
0.00000000e+00 0.00000000e+00 -1.10272225e-03
1.72740314e-04 0.00000000e+00 -1.10272225e-03
1.86238918e-04 1.19693781e-04 -1.10272225e-03
0.00000000e+00 1.08761313e-04 -1.10272225e-03
3.20598221e-04 0.00000000e+00 -1.10272225e-03
3.32895404e-04 1.38679461e-04 -1.10272225e-03
4.27997496e-04 0.00000000e+00 -1.10272225e-03
4.49810439e-04 1.50403997e-04 -1.10272225e-03
5.23789611e-04 0.00000000e+00 -1.10272225e-03
5.26516291e-04 1.49042418e-04 -1.10272225e-03
6.03485445e-04 0.00000000e+00 -1.10272225e-03
5.94522222e-04 1.36028189e-04 -1.10272225e-03
6.83758641e-04 0.00000000e+00 -1.10272225e-03
6.39613194e-04 1.55199130e-04 -1.10272225e-03
2.24947100e-04 2.19641952e-04 -1.10272225e-03
0.00000000e+00 2.07573539e-04 -1.10272225e-03
3.99343175e-04 2.64629372e-04 -1.10272225e-03
4.87306272e-04 2.82240304e-04 -1.10272225e-03
5.42602909e-04 2.60357920e-04 -1.10272225e-03
5.57985913e-04 2.34697261e-04 -1.10272225e-03
5.90417767e-04 2.34022271e-04 -1.10272225e-03
2.35896587e-04 4.01728263e-04 -1.10272225e-03
0.00000000e+00 4.10752458e-04 -1.10272225e-03
4.57768387e-04 3.60011909e-04 -1.10272225e-03
5.62629255e-04 3.40123719e-04 -1.10272225e-03
5.67396986e-04 2.92810379e-04 -1.10272225e-03
5.66828530e-04 2.52732600e-04 -1.10393448e-03
5.67893090e-04 2.55225110e-04 -1.10272225e-03
5.72784396e-04 2.25322437e-04 -1.10650226e-03
5.74206410e-04 2.30524471e-04 -1.10272225e-03
6.00134372e-04 3.26284295e-04 -1.13116787e-03
6.14567427e-04 3.47806956e-04 -1.10272225e-03
5.91018761e-04 4.11386252e-04 -1.10272225e-03
6.01355801e-04 2.88725336e-04 -1.10241899e-03
6.02079323e-04 2.89422402e-04 -1.10272225e-03
6.01559761e-04 2.55229214e-04 -1.10304332e-03
6.01796317e-04 2.54985178e-04 -1.10272225e-03
6.00765168e-04 2.20580550e-04 -1.10255054e-03
6.00429194e-04 2.20631438e-04 -1.10272225e-03
0.00000000e+00 4.11840068e-04 -1.10272225e-03
2.38920067e-04 4.63848730e-04 -1.10272225e-03
2.25573152e-04 7.45263824e-04 -1.10272225e-03
0.00000000e+00 7.88421894e-04 -1.10272225e-03
6.35439530e-04 2.54779647e-04 -1.10272225e-03
6.36366953e-04 2.88293348e-04 -1.10272225e-03
6.35236618e-04 2.20572678e-04 -1.10272225e-03
2.39123430e-04 9.38748883e-04 -1.10272225e-03
0.00000000e+00 9.08604183e-04 -1.10272225e-03
3.97256808e-04 6.58843084e-04 -1.10272225e-03
5.65758033e-04 7.86671531e-04 -1.10272225e-03
5.09227219e-04 4.25386883e-04 -1.10272225e-03
7.38125120e-04 4.98237030e-04 -1.10272225e-03
6.68469467e-04 2.87845323e-04 -1.10272225e-03
6.69493689e-04 2.54505721e-04 -1.10272225e-03
6.69285539e-04 2.20357688e-04 -1.10272225e-03
</DataArray>
<DataArray type="Float32" Name="Reaction_force" NumberOfComponents="3" format="ascii">
0.00000000e+00 0.00000000e+00 0.00000000e+00
0.00000000e+00 0.00000000e+00 0.00000000e+00
0.00000000e+00 0.00000000e+00 0.00000000e+00
0.00000000e+00 0.00000000e+00 0.00000000e+00
0.00000000e+00 0.00000000e+00 0.00000000e+00
0.00000000e+00 0.00000000e+00 0.00000000e+00
0.00000000e+00 0.00000000e+00 0.00000000e+00
0.00000000e+00 0.00000000e+00 0.00000000e+00
0.00000000e+00 0.00000000e+00 0.00000000e+00
0.00000000e+00 0.00000000e+00 0.00000000e+00
0.00000000e+00 0.00000000e+00 0.00000000e+00
0.00000000e+00 0.00000000e+00 0.00000000e+00
0.00000000e+00 0.00000000e+00 0.00000000e+00
0.00000000e+00 0.00000000e+00 0.00000000e+00
0.00000000e+00 0.00000000e+00 0.00000000e+00
0.00000000e+00 0.00000000e+00 0.00000000e+00
0.00000000e+00 0.00000000e+00 0.00000000e+00
0.00000000e+00 0.00000000e+00 0.00000000e+00
0.00000000e+00 0.00000000e+00 0.00000000e+00
0.00000000e+00 0.00000000e+00 0.00000000e+00
-1.44525707e-01 -3.82802069e-01 0.00000000e+00
0.00000000e+00 4.97534335e-01 0.00000000e+00
0.00000000e+00 0.00000000e+00 0.00000000e+00
1.23559642e+00 0.00000000e+00 0.00000000e+00
3.68846655e-02 1.22114134e+00 0.00000000e+00
0.00000000e+00 2.20470929e+00 0.00000000e+00
0.00000000e+00 0.00000000e+00 0.00000000e+00
4.85270828e-01 0.00000000e+00 0.00000000e+00
0.00000000e+00 1.29686284e+00 0.00000000e+00
0.00000000e+00 0.00000000e+00 0.00000000e+00
0.00000000e+00 2.10659957e+00 0.00000000e+00
0.00000000e+00 0.00000000e+00 0.00000000e+00
0.00000000e+00 2.27318120e+00 0.00000000e+00
0.00000000e+00 0.00000000e+00 0.00000000e+00
0.00000000e+00 1.84736645e+00 0.00000000e+00
0.00000000e+00 0.00000000e+00 0.00000000e+00
0.00000000e+00 3.69141722e+00 0.00000000e+00
0.00000000e+00 0.00000000e+00 0.00000000e+00
0.00000000e+00 1.21429813e+00 0.00000000e+00
0.00000000e+00 0.00000000e+00 0.00000000e+00
0.00000000e+00 2.73426723e+00 0.00000000e+00
0.00000000e+00 0.00000000e+00 0.00000000e+00
0.00000000e+00 1.49880528e-01 0.00000000e+00
0.00000000e+00 0.00000000e+00 0.00000000e+00
0.00000000e+00 1.15345454e+00 0.00000000e+00
0.00000000e+00 0.00000000e+00 0.00000000e+00
0.00000000e+00 1.94995105e-01 0.00000000e+00
0.00000000e+00 0.00000000e+00 0.00000000e+00
0.00000000e+00 0.00000000e+00 0.00000000e+00
1.46086335e+00 0.00000000e+00 0.00000000e+00
0.00000000e+00 0.00000000e+00 0.00000000e+00
7.04255641e-01 0.00000000e+00 0.00000000e+00
0.00000000e+00 0.00000000e+00 0.00000000e+00
0.00000000e+00 0.00000000e+00 0.00000000e+00
0.00000000e+00 0.00000000e+00 0.00000000e+00
0.00000000e+00 0.00000000e+00 0.00000000e+00
0.00000000e+00 0.00000000e+00 0.00000000e+00
0.00000000e+00 0.00000000e+00 0.00000000e+00
0.00000000e+00 0.00000000e+00 0.00000000e+00
0.00000000e+00 0.00000000e+00 0.00000000e+00
0.00000000e+00 0.00000000e+00 0.00000000e+00
0.00000000e+00 0.00000000e+00 0.00000000e+00
0.00000000e+00 0.00000000e+00 0.00000000e+00
3.82358730e-01 0.00000000e+00 0.00000000e+00
0.00000000e+00 0.00000000e+00 0.00000000e+00
1.64544594e+00 0.00000000e+00 0.00000000e+00
0.00000000e+00 0.00000000e+00 0.00000000e+00
0.00000000e+00 0.00000000e+00 0.00000000e+00
0.00000000e+00 0.00000000e+00 0.00000000e+00
0.00000000e+00 0.00000000e+00 0.00000000e+00
0.00000000e+00 0.00000000e+00 0.00000000e+00
9.45692509e-02 0.00000000e+00 0.00000000e+00
0.00000000e+00 0.00000000e+00 0.00000000e+00
7.76581287e-01 0.00000000e+00 0.00000000e+00
5.94502032e-01 0.00000000e+00 0.00000000e+00
0.00000000e+00 0.00000000e+00 0.00000000e+00
5.27591646e-01 0.00000000e+00 0.00000000e+00
0.00000000e+00 0.00000000e+00 0.00000000e+00
0.00000000e+00 0.00000000e+00 0.00000000e+00
0.00000000e+00 0.00000000e+00 0.00000000e+00
-2.17799842e-02 0.00000000e+00 0.00000000e+00
0.00000000e+00 0.00000000e+00 0.00000000e+00
1.13299811e+00 0.00000000e+00 0.00000000e+00
0.00000000e+00 0.00000000e+00 0.00000000e+00
0.00000000e+00 0.00000000e+00 0.00000000e+00
0.00000000e+00 0.00000000e+00 0.00000000e+00
3.71721536e-02 2.14627385e+00 0.00000000e+00
0.00000000e+00 3.15028238e+00 0.00000000e+00
0.00000000e+00 0.00000000e+00 0.00000000e+00
2.48568580e-01 0.00000000e+00 0.00000000e+00
0.00000000e+00 1.20757461e+00 0.00000000e+00
0.00000000e+00 0.00000000e+00 0.00000000e+00
0.00000000e+00 8.27311873e-02 0.00000000e+00
0.00000000e+00 0.00000000e+00 0.00000000e+00
0.00000000e+00 -1.04158068e+00 0.00000000e+00
0.00000000e+00 0.00000000e+00 0.00000000e+00
0.00000000e+00 -2.85788035e+00 0.00000000e+00
0.00000000e+00 0.00000000e+00 0.00000000e+00
0.00000000e+00 -2.10730100e+00 0.00000000e+00
0.00000000e+00 0.00000000e+00 0.00000000e+00
0.00000000e+00 0.00000000e+00 0.00000000e+00
1.13925707e+00 0.00000000e+00 0.00000000e+00
0.00000000e+00 0.00000000e+00 0.00000000e+00
0.00000000e+00 0.00000000e+00 0.00000000e+00
0.00000000e+00 0.00000000e+00 0.00000000e+00
0.00000000e+00 0.00000000e+00 0.00000000e+00
0.00000000e+00 0.00000000e+00 0.00000000e+00
0.00000000e+00 0.00000000e+00 0.00000000e+00
-8.90374541e-01 0.00000000e+00 0.00000000e+00
0.00000000e+00 0.00000000e+00 0.00000000e+00
0.00000000e+00 0.00000000e+00 0.00000000e+00
0.00000000e+00 0.00000000e+00 0.00000000e+00
0.00000000e+00 0.00000000e+00 0.00000000e+00
0.00000000e+00 0.00000000e+00 0.00000000e+00
1.01432836e+00 0.00000000e+00 0.00000000e+00
0.00000000e+00 0.00000000e+00 0.00000000e+00
0.00000000e+00 0.00000000e+00 0.00000000e+00
1.44978070e+00 0.00000000e+00 0.00000000e+00
0.00000000e+00 0.00000000e+00 0.00000000e+00
8.18712950e-01 0.00000000e+00 0.00000000e+00
0.00000000e+00 0.00000000e+00 0.00000000e+00
0.00000000e+00 0.00000000e+00 0.00000000e+00
0.00000000e+00 0.00000000e+00 0.00000000e+00
0.00000000e+00 0.00000000e+00 0.00000000e+00
0.00000000e+00 0.00000000e+00 0.00000000e+00
0.00000000e+00 0.00000000e+00 0.00000000e+00
0.00000000e+00 0.00000000e+00 0.00000000e+00
0.00000000e+00 0.00000000e+00 0.00000000e+00
0.00000000e+00 0.00000000e+00 0.00000000e+00
0.00000000e+00 0.00000000e+00 0.00000000e+00
0.00000000e+00 0.00000000e+00 0.00000000e+00
0.00000000e+00 0.00000000e+00 0.00000000e+00
0.00000000e+00 0.00000000e+00 0.00000000e+00
0.00000000e+00 0.00000000e+00 0.00000000e+00
0.00000000e+00 0.00000000e+00 0.00000000e+00
0.00000000e+00 0.00000000e+00 0.00000000e+00
2.68801935e-02 1.18009365e+00 -9.20655155e+00
0.00000000e+00 1.81247032e+00 -1.82850266e+01
0.00000000e+00 0.00000000e+00 -3.60475693e+01
-1.44438773e-01 0.00000000e+00 -1.84178104e+01
0.00000000e+00 4.76701856e-01 -1.78405724e+01
0.00000000e+00 0.00000000e+00 -3.48105087e+01
0.00000000e+00 -5.10033846e-01 -1.73122444e+01
0.00000000e+00 0.00000000e+00 -3.18057804e+01
0.00000000e+00 -1.03552437e+00 -1.61820488e+01
0.00000000e+00 0.00000000e+00 -2.86098175e+01
0.00000000e+00 -1.85408282e+00 -1.43572989e+01
0.00000000e+00 0.00000000e+00 -2.63855343e+01
0.00000000e+00 -1.72802556e+00 -7.21457767e+00
0.00000000e+00 0.00000000e+00 -1.41308060e+01
0.00000000e+00 0.00000000e+00 -3.84521065e+01
1.67051625e+00 0.00000000e+00 -2.14479084e+01
0.00000000e+00 0.00000000e+00 -2.91317921e+01
0.00000000e+00 0.00000000e+00 -2.38888187e+01
0.00000000e+00 0.00000000e+00 -1.87314987e+01
0.00000000e+00 0.00000000e+00 -1.81429691e+01
0.00000000e+00 0.00000000e+00 -1.16301794e+01
0.00000000e+00 0.00000000e+00 -2.54032707e+01
-7.19483793e-01 0.00000000e+00 -1.54059219e+01
0.00000000e+00 0.00000000e+00 -2.26017952e+01
0.00000000e+00 0.00000000e+00 -1.37931824e+01
0.00000000e+00 0.00000000e+00 -7.70871210e+00
0.00000000e+00 0.00000000e+00 0.00000000e+00
0.00000000e+00 0.00000000e+00 -9.38498592e+00
0.00000000e+00 0.00000000e+00 0.00000000e+00
0.00000000e+00 0.00000000e+00 -5.19138956e+00
0.00000000e+00 0.00000000e+00 0.00000000e+00
0.00000000e+00 0.00000000e+00 -4.49887562e+00
0.00000000e+00 0.00000000e+00 -9.70687675e+00
0.00000000e+00 0.00000000e+00 0.00000000e+00
0.00000000e+00 0.00000000e+00 3.45613670e+00
0.00000000e+00 0.00000000e+00 0.00000000e+00
0.00000000e+00 0.00000000e+00 5.51742887e+00
0.00000000e+00 0.00000000e+00 0.00000000e+00
0.00000000e+00 0.00000000e+00 3.55125356e+00
9.26206827e-01 0.00000000e+00 -1.53683071e+01
0.00000000e+00 0.00000000e+00 -1.56379633e+01
0.00000000e+00 0.00000000e+00 -2.93304844e+01
2.01770377e+00 0.00000000e+00 -2.05164661e+01
0.00000000e+00 0.00000000e+00 1.55123901e+00
0.00000000e+00 0.00000000e+00 -6.04916048e+00
0.00000000e+00 0.00000000e+00 -7.95420885e-01
0.00000000e+00 0.00000000e+00 -1.64009609e+01
-9.64181721e-02 0.00000000e+00 -6.96745491e+00
0.00000000e+00 0.00000000e+00 -1.63648281e+01
0.00000000e+00 0.00000000e+00 -1.64915657e+01
0.00000000e+00 0.00000000e+00 -1.05774002e+01
0.00000000e+00 0.00000000e+00 -1.03017855e+01
0.00000000e+00 0.00000000e+00 -6.32325268e+00
0.00000000e+00 0.00000000e+00 4.81162012e-01
0.00000000e+00 0.00000000e+00 -1.12972774e-01
</DataArray>
<DataArray type="Float32" Name="Equivalent_plastic_strain" format="ascii">
1.95336123e-02
2.10132853e-02
3.17566171e-02
2.23494479e-02
1.80689236e-02
3.17104456e-02
4.46840860e-02
3.31877945e-02
3.31820436e-02
4.69908509e-02
5.60227372e-02
6.23262897e-02
0.00000000e+00
0.00000000e+00
0.00000000e+00
0.00000000e+00
0.00000000e+00
0.00000000e+00
0.00000000e+00
0.00000000e+00
3.73661909e-02
3.69579503e-02
3.66757531e-02
3.69032603e-02
4.15379684e-02
4.16491423e-02
4.30243560e-02
4.39987825e-02
3.57811423e-02
3.74246412e-02
3.94792967e-02
4.16732891e-02
3.51336999e-02
3.89294191e-02
3.62981688e-02
3.82924359e-02
3.42400353e-02
4.18529403e-02
3.31746349e-02
3.40046645e-02
3.20396936e-02
3.99106648e-02
2.85421517e-02
3.32105018e-02
2.96370871e-02
3.65622547e-02
2.56858394e-02
3.10215806e-02
3.73417793e-02
3.51626333e-02
4.83559603e-02
4.59380997e-02
4.05824669e-02
4.50033569e-02
5.61202690e-02
3.91855682e-02
5.64871887e-02
4.00324717e-02
5.24155870e-02
4.48775757e-02
4.83724158e-02
4.39244732e-02
3.48474282e-02
2.94542569e-02
4.95078361e-02
4.21798853e-02
5.49170701e-02
5.82521245e-02
5.56682982e-02
1.14135314e-02
2.37825758e-02
2.34001912e-02
3.08945817e-02
2.83399002e-02
2.26686746e-02
4.93782312e-02
4.76555917e-02
3.40071521e-02
6.64031822e-02
5.38119525e-02
2.80924682e-02
4.47020438e-02
4.95679565e-02
6.04748428e-02
5.95569660e-02
5.16280209e-02
4.84669711e-02
4.75465572e-02
4.97792265e-02
5.13772797e-02
4.49405806e-02
4.54343897e-02
4.07599276e-02
3.95081076e-02
3.62170804e-02
3.35342349e-02
3.27276383e-02
3.01607873e-02
3.21150357e-02
3.04014799e-02
5.26065012e-02
6.35201288e-02
4.29852391e-02
3.00186393e-02
2.32550365e-02
2.16032695e-02
2.20971980e-02
6.50036459e-02
6.60733767e-02
4.51785016e-02
2.00421366e-02
2.61792652e-02
1.26684094e-03
8.06024829e-02
8.15234867e-02
6.32112827e-02
7.09141170e-02
7.21893627e-02
7.40977135e-02
7.25389682e-02
7.34173674e-02
6.85344953e-02
3.19842268e-02
3.82323628e-02
9.70920175e-03
8.47162120e-03
1.26305934e-02
4.33482864e-03
0.00000000e+00
0.00000000e+00
0.00000000e+00
0.00000000e+00
-6.05953363e-05
0.00000000e+00
0.00000000e+00
5.75194620e-05
5.18816635e-02
5.02086189e-02
5.24972323e-02
5.46362977e-02
4.71039247e-02
4.69374908e-02
4.31746989e-02
4.05449206e-02
3.88965718e-02
3.51643851e-02
3.68212052e-02
3.14041711e-02
3.86023074e-02
3.22046662e-02
6.29605344e-02
6.69235326e-02
4.63144640e-02
2.99656997e-02
1.75899516e-02
1.13315571e-02
1.07435458e-02
8.21658671e-02
9.74408090e-02
4.03660784e-02
5.22964241e-03
-7.14319176e-05
2.95100608e-03
2.86004604e-04
3.69635574e-03
1.10291864e-03
1.79743550e-02
-5.17808576e-03
3.93930078e-02
-7.07931019e-05
7.46134475e-04
-6.35620606e-05
-1.75781942e-04
2.35312356e-04
5.99767489e-04
1.20118834e-01
1.26410827e-01
9.48765998e-02
1.01954665e-01
-6.91908990e-05
2.36345251e-03
0.00000000e+00
8.15970451e-02
8.28142911e-02
7.34920837e-02
7.36867562e-02
1.44588770e-02
1.95961101e-02
4.05733095e-03
1.69966763e-04
0.00000000e+00
</DataArray>
<DataArray type="Float32" Name="Stress_Mises" format="ascii">
2.20777131e+01
3.06651636e+01
4.29930391e+01
2.79212834e+01
2.00630964e+01
3.74543788e+01
4.19566131e+01
2.55055914e+01
4.27055844e+01
8.96452827e+01
9.67543780e+01
8.48607445e+01
1.27792895e+00
1.78783041e+00
1.56516850e+00
2.30426359e+00
8.66354644e-01
9.15212572e-01
1.06252480e+00
1.05924273e+00
3.00124855e+01
2.99101820e+01
2.72619476e+01
2.97381206e+01
2.67796926e+01
3.00605359e+01
2.85704923e+01
3.11563330e+01
2.68901834e+01
2.52968017e+01
2.90032358e+01
3.12149398e+01
2.47371874e+01
2.65498377e+01
2.73575840e+01
2.97566556e+01
2.22135029e+01
2.95636286e+01
2.71172810e+01
2.22739543e+01
1.82948742e+01
2.68618390e+01
1.95815744e+01
2.45344751e+01
1.24560909e+01
2.05803016e+01
1.32638620e+01
1.84569513e+01
2.62042054e+01
2.64679346e+01
3.65294558e+01
3.00021019e+01
3.45603653e+01
3.30156052e+01
8.32523285e+01
2.76892194e+01
6.76678152e+01
5.44774590e+01
5.29897928e+01
6.02146111e+01
4.01453075e+01
5.69046650e+01
3.11078194e+01
2.31030025e+01
3.57015959e+01
1.99690942e+01
1.04323532e+02
5.68099098e+01
4.60273399e+01
3.36763465e+01
1.79012431e+01
1.80032504e+01
2.83304400e+01
1.99440408e+01
1.87878959e+01
2.58212376e+01
2.97608528e+01
6.13947930e+01
1.15187885e+02
4.44684296e+01
3.03358121e+01
4.75432606e+01
3.21681521e+01
4.62059438e+01
8.91255242e+01
4.66481724e+01
2.93112774e+01
3.08746448e+01
3.11497662e+01
3.05340230e+01
3.39364362e+01
3.42324505e+01
3.44763589e+01
3.62199302e+01
3.25193963e+01
3.12544374e+01
2.81694551e+01
2.64135100e+01
2.85204821e+01
2.96389552e+01
4.15662757e+01
4.39169350e+01
3.42696011e+01
2.59988810e+01
2.46388129e+01
3.22817305e+01
3.65387653e+01
5.03687760e+01
6.17520688e+01
3.56607808e+01
2.27618357e+01
3.10877800e+01
2.09204651e+01
4.71618114e+01
3.87446620e+01
1.20325119e+02
5.75751365e+01
4.70680280e+01
3.27122697e+01
2.68291960e+01
6.00248466e+01
4.54296608e+01
4.38170493e+01
3.19719833e+01
3.14197731e+01
2.47425766e+01
3.05241261e+01
2.84504716e+01
3.69784570e+00
1.52884710e+00
2.94878840e+00
4.32234526e+00
1.26207555e+01
7.24365918e+00
4.77642179e+00
1.73894332e+01
3.09918480e+01
3.12649603e+01
3.27852216e+01
3.11150599e+01
3.51901207e+01
3.56969953e+01
3.79422245e+01
3.81581640e+01
3.64299774e+01
3.90019312e+01
3.51958580e+01
3.54642267e+01
4.37842751e+01
4.17428150e+01
4.02000179e+01
3.92063503e+01
3.51569285e+01
2.61738825e+01
2.28648696e+01
2.29142210e+01
2.78217950e+01
1.05116093e+02
1.20490608e+02
3.74402154e+01
1.88469461e+01
1.42057385e+01
2.61097641e+01
1.77202103e+01
3.20174189e+01
2.20073986e+01
3.10501881e+01
2.36579132e+01
5.48091278e+01
2.33711942e+01
1.83690770e+01
2.37293992e+01
1.96062410e+01
2.26363382e+01
1.90410905e+01
9.85416107e+01
1.33882858e+02
3.50597820e+01
4.33641491e+01
1.16419032e+01
2.27303143e+01
8.22752380e+00
3.33099561e+01
2.76708870e+01
3.57573557e+01
4.08822422e+01
3.67748451e+01
3.41176629e+01
1.99559498e+01
1.80285616e+01
5.89950132e+00
</DataArray>
<DataArray type="Float32" Name="Stress_Max_Principal" format="ascii">
9.11276267e+00
4.06142876e+00
6.64507699e+00
3.00757325e+00
2.26172051e+01
3.26756404e+01
-3.76522672e+00
5.62020743e+00
-5.74141264e+00
-4.74424114e+01
-4.27663021e+01
-3.75572320e+01
6.49493441e-01
1.00322297e+00
6.13503367e-01
1.32829422e+00
6.49133563e-01
6.87454402e-01
7.40153551e-01
7.62707591e-01
3.60812664e-01
7.35543054e-01
3.70658024e+00
1.17147806e+00
3.94422168e+00
7.93402404e-01
2.18117909e+00
2.50324905e-01
4.25470571e+00
5.82096684e+00
1.48762965e+00
-2.54478000e-01
6.08560443e+00
1.01054524e+01
3.48098677e+00
1.52361892e+00
8.48091292e+00
2.31608856e+00
3.97394156e+00
9.84056193e+00
1.14327428e+01
5.99390227e+00
9.71829060e+00
6.17912605e+00
1.60707664e+01
1.58887835e+01
1.57810512e+01
1.15886065e+01
6.09928441e+00
5.82986682e+00
-4.25216688e+00
5.63525498e-01
1.04173472e+01
-1.34725440e+00
-4.19811314e+01
8.04664087e+00
-2.99288268e+01
-1.72238623e+01
-1.81089261e+01
-2.35625529e+01
-6.61375630e+00
-2.01310358e+01
2.78448629e+00
1.50947461e+01
-1.14959799e+00
9.89828163e+00
-5.14944620e+01
-1.65786729e+01
4.69138908e+01
2.69033836e+01
1.59754258e+01
1.19483480e+01
3.37349815e+01
1.91356765e+01
1.29982069e+01
1.24090209e+01
1.66258568e+01
-2.06607122e+01
-6.63026886e+01
-1.69245849e+00
1.57154417e+00
2.58165345e+01
1.89838505e+00
-6.25131905e+00
-3.29206746e+01
-2.44905758e+00
2.81180982e+00
7.87059963e-01
1.00769332e+00
1.84357223e+00
-2.26347077e+00
-1.59590958e+00
-2.37213492e+00
-2.68503667e+00
-4.33617152e-01
1.30913059e+00
3.41748434e+00
5.03922996e+00
3.92807721e+00
3.07473886e+00
-8.66035461e-01
4.26482916e+00
2.00886506e+00
1.02004302e+01
1.32098531e+01
5.30410818e+00
1.71976980e+00
-1.26182650e+01
-2.25467921e+01
1.08435287e+01
3.88954480e+01
3.33847618e+01
2.70718754e+01
-1.05434541e+01
-4.09062195e+00
-5.72514725e+01
-7.59295273e+00
1.42550278e+00
1.42590266e+00
3.41445112e+00
-1.98425264e+01
-5.52037239e+00
2.85469117e+01
2.39093119e+01
8.50351334e+01
6.77452164e+01
2.42191477e+01
2.35235783e+01
2.27566433e+00
6.73233926e-01
1.64905989e+00
2.68057299e+00
8.80389464e+00
2.11152603e+00
1.40840682e+00
7.89253096e+00
1.52732301e+00
5.37494540e-01
2.34790087e-01
1.88357997e+00
-3.23222291e+00
-2.13362844e+00
-3.86178184e+00
-3.42330863e+00
-2.00485516e+00
-3.64171602e+00
-1.11652423e+00
5.88720083e-01
-5.90453005e+00
-3.76788211e+00
8.70754790e+00
-3.63154888e+00
5.94760513e+00
9.08482409e+00
1.88015566e+01
2.70289340e+01
2.68518440e+01
-5.87368221e+01
-7.42151031e+01
1.55870207e+01
3.85801241e+01
3.61086249e+01
1.92216921e+01
2.67171454e+01
1.05562873e+01
1.80259547e+01
2.28952112e+01
4.77319851e+01
-6.33505297e+00
2.66679440e+01
1.77880688e+01
1.79825915e+01
1.44577381e+01
1.00290360e+01
7.05569983e+00
-5.00191917e+01
-8.45257950e+01
2.68928846e-01
-7.05625248e+00
6.89870387e+00
3.18630368e+01
2.85469735e+00
1.93144798e+00
5.05337858e+00
-3.03748131e-01
-3.21761787e+00
2.71702158e+01
2.64308751e+01
3.56127586e+01
7.13334990e+00
7.72119224e-01
</DataArray>
<DataArray type="Float32" Name="Stress_Mid_Principal" format="ascii">
5.05085704e+00
-3.59863341e+00
-4.43918228e+00
1.15371579e+00
1.57544774e+01
1.66265174e+01
-1.60334010e+01
2.81166053e+00
-1.04756501e+01
-5.24768105e+01
-5.69045986e+01
-5.41656375e+01
-2.65679423e-01
-4.30268906e-01
1.02965917e-01
-5.07032856e-01
-2.88072936e-02
-6.10982142e-02
3.52210067e-02
-2.86796577e-02
-2.68637657e-01
-4.79148664e-01
1.17114114e+00
-5.34749627e-01
1.66113544e+00
-8.70544657e-01
3.90289113e-01
-2.16828024e+00
1.19023186e+00
2.42754667e+00
3.23870904e-01
-1.58516195e+00
2.97714331e+00
4.69350663e+00
1.21604881e+00
-7.36771286e-01
4.86510333e+00
-1.51460868e+00
1.14661215e+00
6.53715336e+00
8.70279181e+00
2.53981256e+00
8.42140077e+00
3.41373130e+00
1.42527952e+01
1.15293309e+01
1.36710086e+01
8.50325084e+00
5.61351955e-01
3.78294945e-01
-6.48785743e+00
-2.09759474e-01
4.41135185e+00
-4.09803891e+00
-4.76005871e+01
3.99785202e+00
-3.43463602e+01
-2.04641205e+01
-2.10685501e+01
-2.76852288e+01
-1.06761687e+01
-2.56832504e+01
-4.12085665e+00
8.63498664e+00
-4.49760538e+00
7.96077108e+00
-6.89002562e+01
-2.51243824e+01
1.19903011e+01
1.42193344e+01
1.24679943e+01
8.78760731e+00
1.99090048e+01
1.33713807e+01
1.04436519e+01
6.16802381e+00
6.93055892e+00
-2.71963001e+01
-7.65038071e+01
-1.06120779e+01
-1.89772654e+00
8.86006498e+00
-4.57160091e+00
-1.96111360e+01
-4.71882318e+01
-1.54221350e+01
-1.75665224e+00
-2.32909781e+00
-3.03920141e+00
-2.87663236e+00
-4.46764678e+00
-5.70655746e+00
-5.18248758e+00
-7.90122029e+00
-3.72044009e+00
-3.12643782e+00
-2.06205457e-01
1.70641714e+00
-1.26714444e+00
-1.77194414e+00
-9.68014765e+00
-6.07969141e+00
-4.31334072e+00
2.96870244e+00
6.97405182e+00
-1.40667184e+00
-8.38196945e+00
-2.19111760e+01
-3.13102134e+01
-1.17788692e+00
2.43484482e+01
1.30202665e+01
1.12171288e+01
-1.65884660e+01
-9.31127787e+00
-9.13385162e+01
-1.71392773e+01
-6.88353050e+00
-2.99526811e+00
2.43003702e+00
-2.91571321e+01
-1.87831174e+01
6.02863455e+00
1.09004453e+01
5.52611885e+01
4.42877274e+01
-2.40862226e+00
5.08954239e+00
-1.19096172e+00
-1.16117753e-01
-4.60522145e-01
-1.28682876e+00
-5.60599893e-01
-7.17285057e-01
-8.91296417e-02
3.40167690e+00
-3.40378857e+00
-2.77051127e+00
-5.16282828e+00
-4.00770020e+00
-5.68314886e+00
-7.82081616e+00
-9.92783463e+00
-1.07729612e+01
-9.23627937e+00
-1.16336656e+01
-7.99009752e+00
-9.71119666e+00
-1.81920471e+01
-1.61607537e+01
-4.68385077e+00
-1.25577383e+01
-4.79589856e+00
1.02054116e+00
1.16895991e+01
1.85752748e+01
1.26502380e+01
-6.92057438e+01
-8.05686646e+01
-4.09630140e-01
2.98505766e+01
2.57275485e+01
-1.42528197e+00
1.58686480e+01
-2.46266747e+00
1.16048748e+01
5.97002172e+00
3.10786242e+01
-1.74073334e+01
7.73991370e+00
7.46239265e+00
2.28979960e+00
6.60981965e+00
5.43291005e+00
1.93094623e+00
-6.78376465e+01
-9.30712204e+01
-2.62460518e+00
-1.55821270e+01
3.24157694e+00
2.05060098e+01
-2.68526280e+00
-7.45194483e+00
-1.00399768e+00
-5.46681118e+00
-1.52785394e+01
6.66889477e+00
1.60359764e+00
2.21912766e+01
4.10049728e+00
1.40303262e-02
</DataArray>
<DataArray type="Float32" Name="Stress_Min_Principal" format="ascii">
-1.46753758e+01
-2.95303944e+01
-3.90520267e+01
-2.57937565e+01
1.20161760e+00
-6.89619419e+00
-5.04560293e+01
-2.10098321e+01
-5.05303955e+01
-1.39498169e+02
-1.45735607e+02
-1.29398548e+02
-8.10518622e-01
-9.99659866e-01
-1.14315763e+00
-1.24804798e+00
-3.26914191e-01
-3.32860529e-01
-4.81945634e-01
-4.40621406e-01
-2.99613247e+01
-2.97634256e+01
-2.47095062e+01
-2.93682632e+01
-2.39038215e+01
-3.00633793e+01
-2.72392521e+01
-3.20390161e+01
-2.40322959e+01
-2.09831818e+01
-2.80796170e+01
-3.21107684e+01
-2.00470539e+01
-1.79959584e+01
-2.49327338e+01
-2.92808715e+01
-1.53140168e+01
-2.89623047e+01
-2.44457757e+01
-1.36682737e+01
-8.07256734e+00
-2.21770501e+01
-1.04693808e+01
-1.96140886e+01
2.80692148e+00
-5.68263531e+00
1.60303497e+00
-8.20888627e+00
-2.23787924e+01
-2.29319912e+01
-4.18357475e+01
-2.98162709e+01
-2.49793750e+01
-3.56207786e+01
-1.27753113e+02
-2.12254320e+01
-9.96911659e+01
-7.31552532e+01
-7.25163021e+01
-8.57278996e+01
-4.86356907e+01
-7.96079636e+01
-3.10978808e+01
-9.93281317e+00
-3.81697423e+01
-1.09626644e+01
-1.63400675e+02
-7.71132355e+01
-5.24333811e+00
-8.95156829e+00
-2.97905956e+00
-7.40774298e+00
3.75015084e+00
-1.94531131e+00
-6.79682827e+00
-1.53013990e+01
-1.56099048e+01
-8.49353213e+01
-1.86248528e+02
-4.98054840e+01
-3.03466349e+01
-2.34893160e+01
-3.30097671e+01
-5.75754528e+01
-1.27871938e+02
-5.27403812e+01
-2.85150433e+01
-3.15148797e+01
-3.19644842e+01
-3.07703701e+01
-3.72475953e+01
-3.76922510e+01
-3.81662583e+01
-4.12181896e+01
-3.44616284e+01
-3.19211458e+01
-2.63788650e+01
-2.28681366e+01
-2.68328972e+01
-2.86700182e+01
-4.56316320e+01
-4.23554211e+01
-3.47397833e+01
-1.82344885e+01
-1.34341327e+01
-2.95088269e+01
-3.86457628e+01
-6.69187543e+01
-8.80842311e+01
-2.85404758e+01
1.32874937e+01
-2.39857244e+00
3.81488228e+00
-6.03661940e+01
-4.50183296e+01
-1.90850441e+02
-6.75422414e+01
-4.76233473e+01
-3.30786967e+01
-2.38929167e+01
-8.39309247e+01
-5.60510495e+01
-2.08409657e+01
-1.18712721e+01
5.21944389e+01
4.18918495e+01
-9.07295823e+00
-8.15808932e+00
-1.61657000e+00
-1.08894563e+00
-1.72038019e+00
-1.92561960e+00
-4.71340809e+00
-5.79434601e+00
-3.92696702e+00
-1.12356071e+01
-3.16344509e+01
-3.22413406e+01
-3.48906025e+01
-3.17559090e+01
-3.95743904e+01
-4.02678084e+01
-4.44674845e+01
-4.47037883e+01
-4.14979544e+01
-4.59945612e+01
-3.92421055e+01
-3.88744998e+01
-5.45197525e+01
-5.02288895e+01
-3.51687050e+01
-4.64539552e+01
-3.27776432e+01
-1.99777725e+01
-5.62709522e+00
2.28584743e+00
-4.43410683e+00
-1.68695652e+02
-1.97756790e+02
-2.57511050e+01
1.79042311e+01
2.01258650e+01
-1.00026000e+01
6.81277728e+00
-2.49932375e+01
-6.04324961e+00
-1.22983818e+01
2.08865847e+01
-6.58350143e+01
7.46316274e-01
-2.84960611e+00
-8.66865826e+00
-7.71176597e+00
-1.45175381e+01
-1.37320375e+01
-1.56254303e+02
-2.22476669e+02
-3.60564760e+01
-5.40456085e+01
-5.69684243e+00
6.16390800e+00
-6.50306940e+00
-3.50344404e+01
-2.51443958e+01
-3.80789251e+01
-4.87689457e+01
-1.40507278e+01
-1.23994026e+01
1.29825320e+01
-1.21865726e+01
-5.46978235e+00
</DataArray>
<DataArray type="Float32" Name="Stress_Pressure" format="ascii">
1.70585498e-01
9.68919965e+00
1.22820439e+01
7.21082222e+00
-1.31911001e+01
-1.41353215e+01
2.34182193e+01
4.19265544e+00
2.22491527e+01
7.98057976e+01
8.18021692e+01
7.37071409e+01
1.42234862e-01
1.42235272e-01
1.42229449e-01
1.42262202e-01
-9.78040397e-02
-9.78318825e-02
-9.78096426e-02
-9.78021845e-02
9.95638347e+00
9.83567727e+00
6.61059496e+00
9.57717845e+00
6.09948784e+00
1.00468404e+01
8.22259440e+00
1.13189905e+01
6.19578630e+00
4.24488941e+00
8.75603861e+00
1.13168027e+01
3.66143560e+00
1.06566645e+00
6.74523282e+00
9.49800801e+00
6.56000137e-01
9.38694206e+00
6.44174088e+00
-9.03146684e-01
-4.02098906e+00
4.54777861e+00
-2.55676997e+00
3.34041045e+00
-1.10434949e+01
-7.24516022e+00
-1.03516983e+01
-3.96099049e+00
5.23938552e+00
5.57460976e+00
1.75252576e+01
9.82083523e+00
3.38355817e+00
1.36886910e+01
7.24449432e+01
3.06031268e+00
5.46554508e+01
3.69477462e+01
3.72312603e+01
4.56585598e+01
2.19752049e+01
4.18074160e+01
1.08114169e+01
-4.59897316e+00
1.46056488e+01
-2.29879606e+00
9.45984631e+01
3.96054297e+01
-1.78869514e+01
-1.07237154e+01
-8.48812040e+00
-4.44273740e+00
-1.91313792e+01
-1.01872482e+01
-5.54834328e+00
-1.09188184e+00
-2.64883661e+00
4.42641125e+01
1.09685005e+02
2.07033394e+01
1.02242732e+01
-3.72909546e+00
1.18943281e+01
2.78126359e+01
6.93269475e+01
2.35371911e+01
9.15329528e+00
1.10189727e+01
1.13319975e+01
1.06011437e+01
1.46595710e+01
1.49982394e+01
1.52402945e+01
1.72681487e+01
1.28718950e+01
1.12461509e+01
7.72252848e+00
5.37416369e+00
8.05732149e+00
9.12240779e+00
1.87259386e+01
1.47234278e+01
1.23480866e+01
1.68845192e+00
-2.24992384e+00
8.53713036e+00
1.51026545e+01
3.38160647e+01
4.73137474e+01
6.29161084e+00
-2.55104641e+01
-1.46688185e+01
-1.40346284e+01
2.91660379e+01
1.94734104e+01
1.13146809e+02
3.07581558e+01
1.76937914e+01
1.15493541e+01
6.01614285e+00
4.43101935e+01
2.67848454e+01
-4.57819366e+00
-7.64616203e+00
-6.41635895e+01
-5.13082619e+01
-4.24585584e+00
-6.81834316e+00
1.77289113e-01
1.77276492e-01
1.77280813e-01
1.77291811e-01
-1.17662889e+00
1.46670167e+00
8.69230002e-01
-1.95334603e-02
1.11703053e+01
1.14914527e+01
1.32728802e+01
1.12933431e+01
1.61632543e+01
1.67407507e+01
1.94190335e+01
1.96333525e+01
1.75796957e+01
2.04233148e+01
1.61162424e+01
1.59989921e+01
2.62054424e+01
2.33858423e+01
1.03816686e+01
2.08810804e+01
1.05419791e+01
3.29080188e+00
-8.28801996e+00
-1.59633512e+01
-1.16893253e+01
9.88794060e+01
1.17513519e+02
3.52457174e+00
-2.87783098e+01
-2.73206791e+01
-2.59793681e+00
-1.64661904e+01
5.63320637e+00
-7.86252666e+00
-5.52228355e+00
-3.32323985e+01
2.98591328e+01
-1.17180584e+01
-7.46695153e+00
-3.86791074e+00
-4.45193070e+00
-3.14802766e-01
1.58179727e+00
9.13703766e+01
1.33357895e+02
1.28040504e+01
2.55613296e+01
-1.48114619e+00
-1.95109845e+01
2.11121160e+00
1.35183120e+01
7.03167152e+00
1.46164932e+01
2.24217000e+01
-6.59612656e+00
-5.21168900e+00
-2.35955224e+01
3.17575067e-01
1.56121099e+00
</DataArray>
<DataArray type="Float32" Name="Stress_Tresca" format="ascii">
2.37881384e+01
3.35918233e+01
4.56971035e+01
2.88013296e+01
2.14155872e+01
3.95718346e+01
4.66908035e+01
2.66300395e+01
4.47889843e+01
9.20557594e+01
1.02969302e+02
9.18413124e+01
1.46001208e+00
2.00288284e+00
1.75666106e+00
2.57634223e+00
9.76047754e-01
1.02031493e+00
1.22209918e+00
1.20332897e+00
3.03221369e+01
3.04989691e+01
2.84160864e+01
3.05397410e+01
2.78480434e+01
3.08567820e+01
2.94204315e+01
3.22893419e+01
2.82870026e+01
2.68041484e+01
2.95672474e+01
3.18562907e+01
2.61326585e+01
2.81014109e+01
2.84137206e+01
3.08044906e+01
2.37949295e+01
3.12783930e+01
2.84197178e+01
2.35088358e+01
1.95053105e+01
2.81709520e+01
2.01876714e+01
2.57932150e+01
1.32638450e+01
2.15714188e+01
1.41780167e+01
1.97974925e+01
2.84780765e+01
2.87618575e+01
3.75835812e+01
3.03797965e+01
3.53967220e+01
3.42735245e+01
8.57719803e+01
2.92720729e+01
6.97623386e+01
5.59313896e+01
5.44073763e+01
6.21653481e+01
4.20219345e+01
5.94769268e+01
3.38823665e+01
2.50275593e+01
3.70201449e+01
2.08609459e+01
1.11906212e+02
6.05345627e+01
5.21572304e+01
3.58549519e+01
1.89544852e+01
1.93560910e+01
2.99848305e+01
2.10809877e+01
1.97950354e+01
2.77104201e+01
3.22357616e+01
6.42746105e+01
1.19945843e+02
4.81130257e+01
3.19181786e+01
4.93058500e+01
3.49081511e+01
5.13241334e+01
9.49512660e+01
5.02913227e+01
3.13268538e+01
3.23019395e+01
3.29721775e+01
3.26139426e+01
3.49841247e+01
3.60963416e+01
3.57941236e+01
3.85331538e+01
3.40280113e+01
3.32302763e+01
2.97963486e+01
2.79073665e+01
3.07609749e+01
3.17447581e+01
4.47655963e+01
4.66202497e+01
3.67486480e+01
2.84349191e+01
2.66439860e+01
3.48129346e+01
4.03655313e+01
5.43004894e+01
6.55374387e+01
3.93840046e+01
2.56079547e+01
3.57833328e+01
2.32569931e+01
4.98227382e+01
4.09277089e+01
1.33598969e+02
5.99492893e+01
4.90488491e+01
3.45045991e+01
2.73073683e+01
6.40883992e+01
5.05306768e+01
4.93878775e+01
3.57805839e+01
3.28406944e+01
2.58533669e+01
3.32921057e+01
3.16816680e+01
3.89223433e+00
1.76217961e+00
3.36944008e+00
4.60619259e+00
1.35173028e+01
7.90587211e+00
5.33537364e+00
1.91281385e+01
3.31617737e+01
3.27788353e+01
3.51253924e+01
3.36394882e+01
3.63421688e+01
3.81341801e+01
4.06057014e+01
4.12804794e+01
3.94930992e+01
4.23528452e+01
3.81255817e+01
3.94632201e+01
4.86152229e+01
4.64610062e+01
4.38762531e+01
4.28224049e+01
3.87252479e+01
2.90625966e+01
2.44286518e+01
2.47430868e+01
3.12859516e+01
1.09958832e+02
1.23541687e+02
4.13381259e+01
2.06758928e+01
1.59827600e+01
2.92242923e+01
1.99043679e+01
3.55495253e+01
2.40692043e+01
3.51935940e+01
2.68453999e+01
5.94999619e+01
2.59216277e+01
2.06376750e+01
2.66512494e+01
2.21695039e+01
2.45465746e+01
2.07877369e+01
1.06235107e+02
1.37950867e+02
3.63254045e+01
4.69893570e+01
1.25955464e+01
2.56991285e+01
9.35776663e+00
3.69658895e+01
3.01977749e+01
3.77751789e+01
4.55513287e+01
4.12209435e+01
3.88302784e+01
2.26302261e+01
1.93199229e+01
6.24190140e+00
</DataArray>
<DataArray type="Float32" Name="Stress_Third_Invariant" format="ascii">
-2.10780374e+01
-2.74310736e+01
-3.11018829e+01
-2.77802131e+01
-1.03687666e+01
-1.08546240e+01
-3.74458210e+01
-2.44916066e+01
-4.17714468e+01
-8.93244438e+01
-9.41292966e+01
-8.07305698e+01
9.58625317e-01
1.56198508e+00
-1.35780025e+00
1.97339749e+00
7.36952484e-01
8.16758633e-01
6.80164337e-01
8.48689198e-01
-2.99972620e+01
-2.98544464e+01
-2.69161872e+01
-2.95828929e+01
-2.65590982e+01
-2.99531116e+01
-2.84335159e+01
-3.09262304e+01
-2.64799581e+01
-2.47193934e+01
-2.89495707e+01
-3.11428176e+01
-2.42542863e+01
-2.19962813e+01
-2.71271634e+01
-2.95077639e+01
-2.15207536e+01
-2.89534428e+01
-2.67812319e+01
-2.02665648e+01
-1.78242593e+01
-2.51011210e+01
-1.94536841e+01
-2.41586686e+01
-1.21478720e+01
-1.53489980e+01
-1.28270811e+01
-1.78368278e+01
-2.46477805e+01
-2.51311383e+01
-3.63374000e+01
-2.99752378e+01
-2.47436650e+01
-3.26586610e+01
-8.23655556e+01
-2.48599496e+01
-6.73239145e+01
-5.39697895e+01
-5.28027325e+01
-5.98815947e+01
-3.96785374e+01
-5.62893715e+01
-2.89483855e+01
-1.70335590e+01
-3.38833759e+01
-1.97364286e+01
-1.00893684e+02
-5.51225498e+01
3.76681061e+01
-1.61706060e+01
-1.49095474e+01
-1.73002203e+01
-5.34163864e+00
-1.26954643e+01
-1.69953955e+01
-2.01003881e+01
-1.84047151e+01
-6.02039385e+01
-1.14154701e+02
-4.16329832e+01
-2.98746901e+01
-1.84355841e+01
-3.06407156e+01
-4.10850391e+01
-8.30579001e+01
-2.95149269e+01
-2.84923868e+01
-3.04784379e+01
-3.05394883e+01
-2.96791034e+01
-3.37727752e+01
-3.36519790e+01
-3.42129369e+01
-3.53211100e+01
-3.21114388e+01
-3.05179379e+01
-2.76070852e+01
-2.58878675e+01
-2.74254332e+01
-2.86618831e+01
-3.61494709e+01
-3.30874267e+01
-3.11658937e+01
-2.11816683e+01
-1.96492598e+01
-2.83937530e+01
-3.21759903e+01
-4.81550496e+01
-5.98878441e+01
-2.50041835e+01
1.47867997e+00
1.92281857e+01
1.06963894e+01
-4.60522804e+01
-3.74013678e+01
-1.08239235e+02
-4.72282305e+01
-3.65237408e+01
-3.10787397e+01
-2.67870479e+01
-5.81972797e+01
-4.04532280e+01
-1.94764574e+01
-1.81177343e+01
3.10803947e+01
2.44795628e+01
2.87678819e+01
1.06143252e+00
3.64213014e+00
-8.61859262e-01
2.20879483e+00
4.21418285e+00
5.46654291e+00
-2.98278880e+00
-4.14640260e+00
-1.57658577e+01
-3.00902214e+01
-3.08405724e+01
-3.16830611e+01
-2.98210430e+01
-3.49687710e+01
-3.44388108e+01
-3.68139067e+01
-3.64522114e+01
-3.47237110e+01
-3.69981613e+01
-3.36355953e+01
-3.17802434e+01
-3.96178246e+01
-3.69035969e+01
-2.78677382e+01
-3.65396347e+01
-2.78731689e+01
-1.99703965e+01
-1.23538649e+01
-9.01967883e+00
-1.00153394e+01
-1.03933479e+02
-1.20112831e+02
-1.99381555e+01
-9.24839377e-01
9.82865596e+00
2.19933805e+01
3.30038154e+00
-3.44702911e+00
-1.59176674e+01
-6.95758724e+00
1.55271330e+01
-5.22031479e+01
1.98708194e+01
2.31609805e+00
7.91539097e+00
-1.36168327e+01
-2.14213791e+01
-1.58801498e+01
-9.48149872e+01
-1.33267197e+02
-3.44251916e+01
-4.13990288e+01
-7.12552088e+00
1.40280946e+00
3.73467088e+00
-2.99960041e+01
-2.61159153e+01
-3.29211363e+01
-3.65257463e+01
-1.13549147e+01
2.59672847e+01
4.66629124e+00
-1.73278165e+01
-5.78839731e+00
</DataArray>
<DataArray type="Float32" Name="Logarithmic_strain_Max_Principal" format="ascii">
1.47461701e-02
1.86982180e-02
2.14308486e-02
1.50032160e-02
1.68118367e-02
2.45831862e-02
3.65907857e-02
2.30860696e-02
2.27706581e-02
2.96803433e-02
4.24704415e-02
4.85428981e-02
1.70702069e-05
2.60949510e-05
1.64428520e-05
3.33377120e-05
1.42140861e-05
1.49352845e-05
1.67441140e-05
1.69388259e-05
2.28651753e-02
2.31517842e-02
2.50563575e-02
2.35014008e-02
2.90453453e-02
2.82471604e-02
2.87417877e-02
2.95527345e-02
2.53783818e-02
2.72280273e-02
2.61591855e-02
2.70237778e-02
2.61857328e-02
2.86072472e-02
2.46127071e-02
2.47851934e-02
2.61286572e-02
2.99762823e-02
2.27798475e-02
2.40124685e-02
2.32060077e-02
2.71011135e-02
1.90848270e-02
2.32649159e-02
2.17657620e-02
2.50067669e-02
1.88827533e-02
2.24305633e-02
2.87508497e-02
2.71799830e-02
3.16417362e-02
2.93916040e-02
2.69691109e-02
3.01662728e-02
3.85968484e-02
2.73472417e-02
3.67785357e-02
2.79733971e-02
3.27618406e-02
2.88228295e-02
3.01684393e-02
2.70095160e-02
2.80314617e-02
2.38392460e-02
3.47121028e-02
2.68901307e-02
4.32932591e-02
4.22582731e-02
6.69084787e-02
2.47167386e-02
1.75983068e-02
1.83759206e-02
2.68689512e-02
2.67085289e-02
1.66173950e-02
3.20930489e-02
3.46575314e-02
2.49165581e-02
4.49487753e-02
3.90000302e-02
2.05240166e-02
3.54318679e-02
3.73749379e-02
4.76172147e-02
4.76075287e-02
4.52841433e-02
3.65484860e-02
3.39545589e-02
3.65493032e-02
3.85988178e-02
2.95452792e-02
3.25728429e-02
2.74212887e-02
2.83161297e-02
2.49668364e-02
2.41287893e-02
2.28963448e-02
2.12422365e-02
2.34662518e-02
2.22111423e-02
4.37832363e-02
4.47739018e-02
3.49481516e-02
2.38139541e-02
1.87202544e-02
1.77755700e-02
1.87133476e-02
4.88349994e-02
5.07852050e-02
3.70013447e-02
1.95058876e-02
3.07347272e-02
8.58110974e-03
5.37709026e-02
5.67057729e-02
5.21875825e-02
5.40611626e-02
5.32621276e-02
5.21981381e-02
4.50347308e-02
4.95232809e-02
5.47641115e-02
3.72410533e-02
3.64220436e-02
4.90549840e-02
3.00542321e-02
2.06829213e-02
1.73084497e-02
5.68268333e-05
1.84684195e-05
4.20680881e-05
6.57915443e-05
1.89568300e-04
6.80735720e-05
4.37300187e-05
2.55892369e-04
3.92411835e-02
3.58102303e-02
4.05778661e-02
4.33185324e-02
3.11096739e-02
3.45660336e-02
3.14958114e-02
3.05516226e-02
3.01339775e-02
2.74222833e-02
2.78280471e-02
2.49260128e-02
3.13199945e-02
2.63685174e-02
4.80416156e-02
4.96166795e-02
3.85232894e-02
2.49261516e-02
1.52933442e-02
1.16631668e-02
1.18386736e-02
5.41467052e-02
6.05575889e-02
3.21509093e-02
1.21457576e-02
2.94173534e-03
4.58614031e-03
1.58161551e-03
4.61657369e-03
2.00245786e-03
2.26833671e-02
5.26880124e-03
2.77071148e-02
1.43407055e-03
9.98261462e-04
3.97169669e-04
2.78398698e-04
4.77134017e-04
5.81650813e-04
8.33906904e-02
7.81830922e-02
6.47766391e-02
7.16484897e-02
1.27045130e-04
5.47307048e-03
9.41123835e-05
6.41229134e-02
5.96310869e-02
4.76330668e-02
5.74445520e-02
2.57771872e-02
3.22973235e-02
7.82242569e-03
2.95846141e-04
3.69917689e-05
</DataArray>
<DataArray type="Float32" Name="Logarithmic_strain_Min_Principal" format="ascii">
-1.98105774e-02
-2.42698612e-02
-3.14312140e-02
-2.31515518e-02
-2.32225507e-02
-3.34000276e-02
-4.53702342e-02
-3.08072451e-02
-3.36426804e-02
-5.12003545e-02
-6.07141045e-02
-6.68403581e-02
-1.81011583e-05
-2.25190270e-05
-2.58393320e-05
-2.81411412e-05
-8.70638905e-06
-9.48345769e-06
-1.25207134e-05
-1.22151478e-05
-3.80172990e-02
-3.76365427e-02
-3.70891807e-02
-3.76033736e-02
-4.18135710e-02
-4.20855107e-02
-4.35203481e-02
-4.44934517e-02
-3.60844685e-02
-3.76407271e-02
-4.00344776e-02
-4.24871338e-02
-3.50592900e-02
-3.92073514e-02
-3.67930653e-02
-3.91071113e-02
-3.41087105e-02
-4.23367764e-02
-3.36276926e-02
-3.43777505e-02
-3.21271936e-02
-4.03327849e-02
-2.88485517e-02
-3.37097112e-02
-2.94853244e-02
-3.66509380e-02
-2.56639728e-02
-3.12659261e-02
-3.72298826e-02
-3.51784145e-02
-4.95095658e-02
-4.66537764e-02
-4.34580797e-02
-4.62478721e-02
-6.17972620e-02
-3.97832447e-02
-5.87246763e-02
-4.30309750e-02
-5.38178636e-02
-4.68807546e-02
-4.93081547e-02
-4.57626544e-02
-3.51408635e-02
-2.91632288e-02
-5.05220118e-02
-4.28594677e-02
-6.24243226e-02
-6.00144051e-02
-6.50710091e-02
-2.84378432e-02
-2.44505648e-02
-2.30098143e-02
-3.84238247e-02
-3.82783134e-02
-2.28599738e-02
-4.59915272e-02
-4.51646228e-02
-3.81159796e-02
-7.11117722e-02
-5.64375468e-02
-2.87606269e-02
-4.89016073e-02
-5.04958443e-02
-6.19619340e-02
-6.73449462e-02
-5.37466916e-02
-4.81887236e-02
-4.76764413e-02
-4.99029737e-02
-5.11926813e-02
-4.56126491e-02
-4.57999017e-02
-4.15114379e-02
-4.00670702e-02
-3.68635077e-02
-3.40917152e-02
-3.31371780e-02
-3.07779396e-02
-3.24930614e-02
-3.11591760e-02
-5.68370074e-02
-6.10985644e-02
-4.54173055e-02
-3.01467548e-02
-2.38339744e-02
-2.24300362e-02
-2.29148303e-02
-6.37370491e-02
-6.74276936e-02
-4.47645281e-02
-1.90147175e-02
-3.35728824e-02
-5.53149699e-03
-7.57912965e-02
-7.66872788e-02
-6.91962130e-02
-8.10014221e-02
-8.01122002e-02
-7.50791077e-02
-7.36943595e-02
-7.49670360e-02
-7.01943859e-02
-4.25989153e-02
-3.99309625e-02
-3.35041061e-02
-2.16460191e-02
-1.16809361e-02
-1.58727118e-02
-3.63448198e-05
-2.38200373e-05
-3.91220783e-05
-4.41491829e-05
-1.40644042e-04
-1.21305062e-04
-8.39708810e-05
-3.54988656e-04
-5.15446067e-02
-5.04205599e-02
-5.19399364e-02
-5.37695121e-02
-4.78204153e-02
-4.70401812e-02
-4.35739774e-02
-4.08168714e-02
-3.90284266e-02
-3.54728261e-02
-3.71322762e-02
-3.17608714e-02
-3.87802348e-02
-3.24536320e-02
-6.05237586e-02
-6.87031075e-02
-4.41250848e-02
-2.87174983e-02
-1.74752576e-02
-1.07945311e-02
-1.02519002e-02
-8.82956013e-02
-1.01906687e-01
-3.94706912e-02
-1.05076577e-02
-1.22595136e-03
-2.98969702e-03
-9.93725334e-04
-4.77525359e-03
-2.63539050e-03
-1.70059176e-02
-3.68067215e-03
-4.22302820e-02
-1.10499119e-03
-1.04455407e-03
-2.51090118e-04
-2.08590365e-04
-6.29059083e-04
-9.75592367e-04
-1.27527371e-01
-1.35858029e-01
-9.14941877e-02
-9.98119526e-02
-1.18537297e-04
-2.69723921e-03
-1.30280983e-04
-8.18026550e-02
-8.30151588e-02
-7.20499568e-02
-7.05040246e-02
-2.66663386e-02
-2.95767039e-02
-8.63411208e-03
-4.89165002e-04
-1.13042879e-04
</DataArray>
<DataArray type="Float32" Name="Plastic_strain_Max_Principal" format="ascii">
1.45174477e-02
1.62873679e-02
2.24221335e-02
1.48560985e-02
1.82652887e-02
2.42637316e-02
3.62399160e-02
2.50602346e-02
2.43983273e-02
2.97400663e-02
4.39382195e-02
4.84117642e-02
0.00000000e+00
0.00000000e+00
0.00000000e+00
0.00000000e+00
0.00000000e+00
0.00000000e+00
0.00000000e+00
0.00000000e+00
2.27586562e-02
2.30039312e-02
2.49090460e-02
2.33479431e-02
2.88581885e-02
2.81118527e-02
2.85765305e-02
2.94139651e-02
2.51957094e-02
2.70200041e-02
2.59913015e-02
2.69292046e-02
2.59989174e-02
2.82824291e-02
2.44191759e-02
2.46254294e-02
2.58567212e-02
2.97537753e-02
2.26201541e-02
2.37239578e-02
2.28954470e-02
2.68904418e-02
1.88627345e-02
2.30261842e-02
2.14216104e-02
2.46965447e-02
1.86007330e-02
2.21159575e-02
2.84911406e-02
2.69969082e-02
3.16295223e-02
2.92750676e-02
2.69786242e-02
3.00232004e-02
3.90217096e-02
2.80420197e-02
3.71054821e-02
2.80651208e-02
3.30043514e-02
2.90432740e-02
3.02050300e-02
2.71975324e-02
2.78290215e-02
2.35740049e-02
3.45059005e-02
2.66126757e-02
4.37916219e-02
4.33531083e-02
6.47942126e-02
3.20558120e-02
1.72997714e-02
1.81291404e-02
2.44919024e-02
2.21765982e-02
1.64121431e-02
3.44262246e-02
3.62404143e-02
2.48385670e-02
4.61401306e-02
3.90613798e-02
2.03658929e-02
3.20264441e-02
3.70436162e-02
4.78117429e-02
4.77076992e-02
4.48693621e-02
3.63566000e-02
3.38039431e-02
3.63630364e-02
3.84179242e-02
2.94390065e-02
3.24365634e-02
2.72994824e-02
2.82168034e-02
2.48388783e-02
2.39663390e-02
2.27509672e-02
2.10188073e-02
2.33116942e-02
2.19843378e-02
3.99605719e-02
4.68618302e-02
3.25657863e-02
2.33970957e-02
1.85834405e-02
1.75909748e-02
1.85062888e-02
5.02530479e-02
5.04686534e-02
3.71775044e-02
2.01289222e-02
2.89132632e-02
1.00736257e-02
5.82610955e-02
6.10230428e-02
5.22416756e-02
4.73013818e-02
4.71538221e-02
5.21323523e-02
4.47370857e-02
5.12595018e-02
5.43135311e-02
3.26858233e-02
3.53382691e-02
3.98335382e-02
1.54876774e-02
2.15682193e-02
1.06571821e-02
0.00000000e+00
0.00000000e+00
0.00000000e+00
0.00000000e+00
3.37742877e-05
0.00000000e+00
0.00000000e+00
6.84087863e-05
3.90649252e-02
3.56260836e-02
4.04466121e-02
4.31313347e-02
3.09963292e-02
3.44475354e-02
3.13858809e-02
3.04420665e-02
2.99678510e-02
2.73320330e-02
2.76735993e-02
2.47788504e-02
3.11640631e-02
2.62806965e-02
4.96226316e-02
4.84630335e-02
3.93161019e-02
2.56545758e-02
1.50697411e-02
1.13475091e-02
1.14996347e-02
5.38596027e-02
6.24138713e-02
3.34458034e-02
7.35310232e-03
2.00435692e-03
4.15428060e-03
1.17424053e-03
4.29906812e-03
1.67345756e-03
2.27313878e-02
1.03117789e-02
2.90054623e-02
9.85980623e-04
7.16616791e-04
9.68178185e-05
1.32552413e-04
2.47990567e-04
4.04192251e-04
8.20922330e-02
7.73355290e-02
6.81150580e-02
7.42795132e-02
5.84182853e-05
5.19874680e-03
0.00000000e+00
6.35832120e-02
5.92772476e-02
5.09982910e-02
5.98167311e-02
1.63830402e-02
2.09298539e-02
7.55991606e-03
1.31972090e-04
0.00000000e+00
</DataArray>
<DataArray type="Float32" Name="Plastic_strain_Min_Principal" format="ascii">
-1.94926294e-02
-1.97933991e-02
-3.29184583e-02
-2.26411703e-02
-2.21906847e-02
-3.37350603e-02
-4.42697387e-02
-3.41010457e-02
-3.55081293e-02
-4.76842299e-02
-5.96029063e-02
-6.37634881e-02
0.00000000e+00
0.00000000e+00
0.00000000e+00
0.00000000e+00
0.00000000e+00
0.00000000e+00
0.00000000e+00
0.00000000e+00
-3.74544654e-02
-3.70189762e-02
-3.66450101e-02
-3.69935185e-02
-4.13463973e-02
-4.14992590e-02
-4.29837829e-02
-4.38744370e-02
-3.56253767e-02
-3.72190913e-02
-3.94367818e-02
-4.18465091e-02
-3.47049190e-02
-3.87976086e-02
-3.62755023e-02
-3.85438986e-02
-3.37726595e-02
-4.17189454e-02
-3.31717255e-02
-3.41187320e-02
-3.18946424e-02
-3.99147053e-02
-2.86382963e-02
-3.32720045e-02
-2.94596823e-02
-3.65584567e-02
-2.56851576e-02
-3.10248705e-02
-3.67770758e-02
-3.47783389e-02
-4.87014446e-02
-4.61079655e-02
-4.29605991e-02
-4.51785219e-02
-5.87647095e-02
-4.08202910e-02
-5.67384828e-02
-4.17087168e-02
-5.25958948e-02
-4.52228105e-02
-4.85147629e-02
-4.42326274e-02
-3.45100380e-02
-2.90306499e-02
-4.97926160e-02
-4.25786236e-02
-5.97783467e-02
-6.01048268e-02
-7.29948804e-02
-3.00037793e-02
-2.43380440e-02
-2.28312705e-02
-3.22135926e-02
-2.79687222e-02
-2.27184310e-02
-5.07751818e-02
-4.85834880e-02
-3.62524297e-02
-6.83075674e-02
-5.54343976e-02
-2.82869525e-02
-4.39665932e-02
-4.97658588e-02
-6.13037953e-02
-6.53674056e-02
-5.33954824e-02
-4.76433877e-02
-4.70825136e-02
-4.92346287e-02
-5.06036105e-02
-4.48716190e-02
-4.50127334e-02
-4.07140693e-02
-3.92664298e-02
-3.61635797e-02
-3.34757706e-02
-3.26346103e-02
-3.03206083e-02
-3.19734681e-02
-3.05983583e-02
-5.07060689e-02
-6.39737574e-02
-4.15669689e-02
-2.95603541e-02
-2.38442887e-02
-2.19247389e-02
-2.22584680e-02
-6.47416518e-02
-6.44855499e-02
-4.50196744e-02
-2.06659281e-02
-3.49197425e-02
-6.56060206e-03
-8.28465018e-02
-8.34816583e-02
-6.58728797e-02
-6.80584852e-02
-6.96264580e-02
-7.47525226e-02
-7.28831366e-02
-7.51176830e-02
-6.87360251e-02
-3.66762083e-02
-3.87639194e-02
-3.32758091e-02
-8.71394388e-03
-1.21446558e-02
-9.48138454e-03
0.00000000e+00
0.00000000e+00
0.00000000e+00
0.00000000e+00
-5.14516276e-05
0.00000000e+00
0.00000000e+00
-9.17516203e-05
-5.09481542e-02
-4.97526694e-02
-5.13059469e-02
-5.31686042e-02
-4.70025390e-02
-4.62413924e-02
-4.26765718e-02
-3.99163654e-02
-3.81418113e-02
-3.45811807e-02
-3.63032687e-02
-3.10153267e-02
-3.76020335e-02
-3.15367328e-02
-6.28363322e-02
-6.54445123e-02
-4.49212268e-02
-2.95276139e-02
-1.76016733e-02
-1.08662127e-02
-1.02313850e-02
-8.28625150e-02
-9.83527899e-02
-4.10394892e-02
-5.90687420e-03
-1.77685912e-03
-2.72176960e-03
-9.75631265e-04
-4.24319931e-03
-2.40734435e-03
-1.74319437e-02
-7.65500194e-03
-4.40683365e-02
-9.96138699e-04
-9.38503665e-04
-6.93334846e-05
-1.06383267e-04
-2.86649098e-04
-6.66701933e-04
-1.19443163e-01
-1.25637934e-01
-9.66294756e-02
-1.02681480e-01
-4.43726116e-05
-2.66560341e-03
0.00000000e+00
-8.01838674e-02
-8.21423978e-02
-7.66067952e-02
-7.36392103e-02
-1.45269542e-02
-1.45325540e-02
-8.80330571e-03
-2.00402952e-04
0.00000000e+00
</DataArray>
</PointData>
<Cells>
<DataArray type="Int32" Name="connectivity" format="ascii">
0 1 2 3 4 5 6 7
1 8 9 2 5 10 11 6
12 13 14 15 16 17 18 19
20 21 22 23 24 25 26 27
21 28 29 22 25 30 31 26
28 32 33 29 30 34 35 31
32 36 37 33 34 38 39 35
36 40 41 37 38 42 43 39
40 44 45 41 42 46 47 43
23 22 48 49 27 26 50 51
22 29 52 48 26 31 53 50
29 33 54 52 31 35 55 53
33 37 56 54 35 39 57 55
37 41 58 56 39 43 59 57
41 45 60 58 43 47 61 59
49 48 62 63 51 50 64 65
48 52 66 62 50 53 67 64
52 54 68 66 53 55 69 67
63 62 70 71 65 64 72 73
71 70 4 74 73 72 75 76
70 77 5 4 72 78 79 75
74 4 7 80 76 75 81 82
4 5 6 7 75 79 83 81
5 10 11 6 79 84 85 83
24 25 26 27 86 87 88 89
25 30 31 26 87 90 91 88
30 34 35 31 90 92 93 91
34 38 39 35 92 94 95 93
38 42 43 39 94 96 97 95
42 46 47 43 96 98 99 97
27 26 50 51 89 88 100 101
26 31 53 50 88 91 102 100
31 35 55 53 91 93 103 102
35 39 57 55 93 95 104 103
39 43 59 57 95 97 105 104
43 47 61 59 97 99 106 105
51 50 64 65 101 100 107 108
50 53 67 64 100 102 109 107
53 55 69 67 102 103 110 109
55 57 111 69 103 104 112 110
65 64 72 73 108 107 113 114
64 67 78 72 107 109 115 113
73 72 75 76 114 113 116 117
76 75 81 82 117 116 118 119
75 79 83 81 116 120 121 118
79 84 85 83 120 122 123 121
84 124 125 85 122 126 127 123
128 129 130 131 132 133 134 135
86 87 88 89 136 137 138 139
87 90 91 88 137 140 141 138
90 92 93 91 140 142 143 141
92 94 95 93 142 144 145 143
94 96 97 95 144 146 147 145
96 98 99 97 146 148 149 147
89 88 100 101 139 138 150 151
88 91 102 100 138 141 152 150
91 93 103 102 141 143 153 152
93 95 104 103 143 145 154 153
95 97 105 104 145 147 155 154
97 99 106 105 147 149 156 155
101 100 107 108 151 150 157 158
100 102 109 107 150 152 159 157
102 103 110 109 152 153 160 159
103 104 112 110 153 154 161 160
104 105 162 112 154 155 163 161
105 106 164 162 155 156 165 163
109 110 166 115 159 160 167 168
110 112 169 166 160 161 170 167
112 162 171 169 161 163 172 170
162 164 173 171 163 165 174 172
114 113 116 117 175 176 177 178
169 171 132 126 170 172 179 180
171 173 133 132 172 174 181 179
117 116 118 119 178 177 182 183
116 120 121 118 177 184 185 182
120 122 123 121 184 186 187 185
122 126 127 123 186 180 188 187
126 132 135 127 180 179 189 188
132 133 134 135 179 181 190 189
</DataArray>
<DataArray type="Int32" Name="offsets" format="ascii">
8
16
24
32
40
48
56
64
72
80
88
96
104
112
120
128
136
144
152
160
168
176
184
192
200
208
216
224
232
240
248
256
264
272
280
288
296
304
312
320
328
336
344
352
360
368
376
384
392
400
408
416
424
432
440
448
456
464
472
480
488
496
504
512
520
528
536
544
552
560
568
576
584
592
600
608
616
624
632
</DataArray>
<DataArray type="UInt8" Name="types" format="ascii">
12
12
12
12
12
12
12
12
12
12
12
12
12
12
12
12
12
12
12
12
12
12
12
12
12
12
12
12
12
12
12
12
12
12
12
12
12
12
12
12
12
12
12
12
12
12
12
12
12
12
12
12
12
12
12
12
12
12
12
12
12
12
12
12
12
12
12
12
12
12
12
12
12
12
12
12
12
12
12
</DataArray>
</Cells>
</Piece>
</UnstructuredGrid>
</VTKFile>
