<VTKFile type="UnstructuredGrid" version="0.1" byte_order="LittleEndian">
<UnstructuredGrid>
<Piece NumberOfPoints="191" NumberOfCells="79">
<Points>
<DataArray type="Float64" NumberOfComponents="3" format="ascii">
 1.04285657e+00  5.23785305e+00  1.88371480e+00
 2.07148719e+00  5.22611904e+00  1.90530443e+00
 2.07296562e+00  6.28593779e+00  1.86279547e+00
 1.03762293e+00  6.27958727e+00  1.85387230e+00
 1.03483415e+00  5.27428675e+00  2.82189322e+00
 2.07669783e+00  5.27017403e+00  2.83182216e+00
 2.06446862e+00  6.34683132e+00  2.77941561e+00
 1.03810048e+00  6.31539392e+00  2.78644824e+00
 3.12149954e+00  5.20914936e+00  1.92655599e+00
 3.13187122e+00  6.27352238e+00  1.86574376e+00
 3.11713839e+00  5.26154089e+00  2.80998921e+00
 3.16918731e+00  6.32240057e+00  2.72885966e+00
 5.12794828e+00  5.19726229e+00  2.00003386e+00
 6.12794828e+00  5.19892502e+00  2.00003195e+00
 6.12628412e+00  6.19893265e+00  1.99998260e+00
 5.12625694e+00  6.19727612e+00  1.99996567e+00
 5.12793875e+00  5.19732618e+00  3.00002193e+00
 6.12793159e+00  5.19899750e+00  3.00004005e+00
 6.12626171e+00  6.19898844e+00  2.99997258e+00
 5.12627697e+00  6.19731522e+00  2.99997544e+00
 0.00000000e+00  0.00000000e+00  2.73525858e+00
 1.05029416e+00  0.00000000e+00  2.73327208e+00
 1.05322146e+00  1.05516732e+00  2.73916698e+00
 0.00000000e+00  1.05309021e+00  2.74431133e+00
 0.00000000e+00  0.00000000e+00  3.64501858e+00
 1.06773520e+00  0.00000000e+00  3.64572263e+00
 1.06958425e+00  1.05515206e+00  3.64749122e+00
 0.00000000e+00  1.05161333e+00  3.65587282e+00
 2.11160088e+00  0.00000000e+00  2.71928835e+00
 2.09965348e+00  1.04722822e+00  2.72822070e+00
 2.13119841e+00  0.00000000e+00  3.63571978e+00
 2.13410592e+00  1.05821562e+00  3.63537312e+00
 3.16606665e+00  0.00000000e+00  2.70387602e+00
 3.16717768e+00  1.04254842e+00  2.70760679e+00
 3.19563341e+00  0.00000000e+00  3.61917305e+00
 3.18901825e+00  1.05104899e+00  3.62078977e+00
 4.23163939e+00  0.00000000e+00  2.69040585e+00
 4.23455763e+00  1.04425728e+00  2.68560314e+00
 4.25230312e+00  0.00000000e+00  3.60703802e+00
 4.24922562e+00  1.04263484e+00  3.60032821e+00
 5.30070305e+00  0.00000000e+00  2.67389846e+00
 5.30121660e+00  1.04709661e+00  2.67627573e+00
 5.30721188e+00  0.00000000e+00  3.59818411e+00
 5.30636406e+00  1.04162788e+00  3.58636284e+00
 6.36455345e+00  0.00000000e+00  2.66845798e+00
 6.36413336e+00  1.04778111e+00  2.67028022e+00
 6.35157776e+00  0.00000000e+00  3.59477782e+00
 6.36593342e+00  1.04198039e+00  3.58643866e+00
 1.03756964e+00  2.10427475e+00  2.76016212e+00
 0.00000000e+00  2.11865091e+00  2.76350665e+00
 1.06934416e+00  2.11136556e+00  3.67063856e+00
 0.00000000e+00  2.11138487e+00  3.67230225e+00
 2.09927034e+00  2.10614944e+00  2.73855209e+00
 2.14350438e+00  2.11822796e+00  3.64338541e+00
 3.15688157e+00  2.11261749e+00  2.69640541e+00
 3.19872260e+00  2.11178041e+00  3.58785748e+00
 4.22997522e+00  2.12449265e+00  2.68560171e+00
 4.23914194e+00  2.09781742e+00  3.56989026e+00
 5.29598856e+00  2.11717510e+00  2.68773961e+00
 5.30136395e+00  2.10966372e+00  3.57086539e+00
 6.35270023e+00  2.12430120e+00  2.68234634e+00
 6.35569382e+00  2.11296701e+00  3.56988287e+00
 1.03338873e+00  3.17862463e+00  2.80360627e+00
 0.00000000e+00  3.17538738e+00  2.79970789e+00
 1.06576216e+00  3.17603445e+00  3.70564866e+00
 0.00000000e+00  3.17472100e+00  3.71552539e+00
 2.08916378e+00  3.15683627e+00  2.77279115e+00
 2.16085124e+00  3.18074059e+00  3.63313437e+00
 3.07020116e+00  3.13344479e+00  2.47234273e+00
 3.22696400e+00  3.16081238e+00  3.51690364e+00
 1.03378546e+00  4.22107077e+00  2.83517385e+00
 0.00000000e+00  4.22924566e+00  2.82811236e+00
 1.05289888e+00  4.24301291e+00  3.76839757e+00
 0.00000000e+00  4.25050974e+00  3.74727869e+00
 0.00000000e+00  5.26803780e+00  2.81778002e+00
 1.04732668e+00  5.31796837e+00  3.74803257e+00
 0.00000000e+00  5.29813623e+00  3.73447037e+00
 2.07959080e+00  4.22167063e+00  2.86915064e+00
 2.11887527e+00  4.25613880e+00  3.74370670e+00
 2.11423397e+00  5.29703903e+00  3.75199986e+00
 0.00000000e+00  6.31942749e+00  2.77518582e+00
 1.06670070e+00  6.37396955e+00  3.67798281e+00
 0.00000000e+00  6.39038229e+00  3.69653821e+00
 2.11399198e+00  6.39577627e+00  3.68022418e+00
 3.15117478e+00  5.27516460e+00  3.62550735e+00
 3.23800015e+00  6.31346655e+00  3.62890553e+00
 0.00000000e+00  0.00000000e+00  4.54628611e+00
 1.08406913e+00  0.00000000e+00  4.54350090e+00
 1.08783126e+00  1.05703413e+00  4.54673815e+00
 0.00000000e+00  1.05305684e+00  4.54977560e+00
 2.15384078e+00  0.00000000e+00  4.53881359e+00
 2.16416121e+00  1.06614721e+00  4.53753567e+00
 3.21311331e+00  0.00000000e+00  4.53044701e+00
 3.21951723e+00  1.06841922e+00  4.52952385e+00
 4.26729441e+00  0.00000000e+00  4.52181578e+00
 4.26081276e+00  1.06185210e+00  4.52123547e+00
 5.31101322e+00  0.00000000e+00  4.51771736e+00
 5.30440617e+00  1.05579960e+00  4.51322412e+00
 6.34639406e+00  0.00000000e+00  4.51511478e+00
 6.34799767e+00  1.06070065e+00  4.51595640e+00
 1.10040033e+00  2.12099242e+00  4.55370426e+00
 0.00000000e+00  2.11049104e+00  4.56143475e+00
 2.18300152e+00  2.13336229e+00  4.53660679e+00
 3.23672438e+00  2.13438034e+00  4.50989532e+00
 4.26791000e+00  2.12063289e+00  4.48777914e+00
 5.29050541e+00  2.10360408e+00  4.47534370e+00
 6.31867743e+00  2.11036181e+00  4.47541714e+00
 1.10225856e+00  3.16799283e+00  4.59164286e+00
 0.00000000e+00  3.18693757e+00  4.60727119e+00
 2.20476007e+00  3.17478871e+00  4.52967024e+00
 3.27376938e+00  3.16739392e+00  4.45766354e+00
 4.25784683e+00  3.07298493e+00  3.39038801e+00
 4.29063511e+00  3.15003991e+00  4.43576145e+00
 1.10795927e+00  4.23781204e+00  4.66831779e+00
 0.00000000e+00  4.22431183e+00  4.62736273e+00
 2.21676350e+00  4.21999311e+00  4.56887913e+00
 1.08913314e+00  5.35066462e+00  4.60018206e+00
 0.00000000e+00  5.35876322e+00  4.60066652e+00
 1.10806322e+00  6.45818758e+00  4.56651068e+00
 0.00000000e+00  6.45239067e+00  4.58028030e+00
 2.16425014e+00  5.32279921e+00  4.60591841e+00
 2.24771929e+00  6.39969063e+00  4.57595587e+00
 3.25185943e+00  5.23413134e+00  4.48603582e+00
 3.35525346e+00  6.26377344e+00  4.51615906e+00
 4.06283998e+00  5.20668268e+00  3.31587982e+00
 4.21488953e+00  6.19976711e+00  3.40319300e+00
 4.32482958e+00  5.15005922e+00  4.43447018e+00
 4.34338999e+00  6.15136719e+00  4.43481255e+00
 5.32515240e+00  5.13302660e+00  3.43461895e+00
 6.32498789e+00  5.11577940e+00  3.43459845e+00
 6.34224176e+00  6.11563540e+00  3.43464112e+00
 5.34235239e+00  6.13291740e+00  3.43471241e+00
 5.32511902e+00  5.13300562e+00  4.43461895e+00
 6.32504654e+00  5.11574173e+00  4.43461895e+00
 6.34224319e+00  6.11560726e+00  4.43463421e+00
 5.34248447e+00  6.13276148e+00  4.43470573e+00
 0.00000000e+00  0.00000000e+00  5.43464899e+00
 1.08922350e+00  0.00000000e+00  5.43464899e+00
 1.09633207e+00  1.06122124e+00  5.43464899e+00
 0.00000000e+00  1.05497575e+00  5.43464899e+00
 2.16542721e+00  0.00000000e+00  5.43464899e+00
 2.17235780e+00  1.07120633e+00  5.43464899e+00
 3.22066355e+00  0.00000000e+00  5.43464899e+00
 3.23179746e+00  1.07624698e+00  5.43464899e+00
 4.26995134e+00  0.00000000e+00  5.43464899e+00
 4.27079248e+00  1.07553768e+00  5.43464899e+00
 5.31052971e+00  0.00000000e+00  5.43464899e+00
 5.30609322e+00  1.07038999e+00  5.43464899e+00
 6.35285234e+00  0.00000000e+00  5.43464899e+00
 6.32961464e+00  1.07963121e+00  5.43464899e+00
 1.11633325e+00  2.11088872e+00  5.43464899e+00
 0.00000000e+00  2.10534239e+00  5.43464899e+00
 2.20528507e+00  2.13442135e+00  5.43464899e+00
 3.25120831e+00  2.14566779e+00  5.43464899e+00
 4.27920818e+00  2.13535094e+00  5.43464899e+00
 5.28777456e+00  2.12026906e+00  5.43464899e+00
 6.30645895e+00  2.12064648e+00  5.43464899e+00
 1.12484396e+00  3.20897746e+00  5.43464899e+00
 0.00000000e+00  3.21512103e+00  5.43464899e+00
 2.23807287e+00  3.18384743e+00  5.43464899e+00
 3.28916526e+00  3.17744803e+00  5.43464899e+00
 4.29131031e+00  3.15080500e+00  5.43464899e+00
 5.29102182e+00  3.13236570e+00  4.43394613e+00
 5.29156637e+00  3.13306093e+00  5.43464899e+00
 6.29305601e+00  3.11792278e+00  4.43330050e+00
 6.29329395e+00  3.11968184e+00  5.43464899e+00
 3.30813575e+00  4.16874361e+00  4.41840649e+00
 3.31728697e+00  4.18047047e+00  5.43464899e+00
 2.30496264e+00  4.21077156e+00  5.43464899e+00
 4.30819464e+00  4.14980030e+00  4.43490553e+00
 4.30834818e+00  4.15000820e+00  5.43464899e+00
 5.30797148e+00  4.13320780e+00  4.43459940e+00
 5.30805874e+00  4.13311052e+00  5.43464899e+00
 6.30770111e+00  4.11614847e+00  4.43469381e+00
 6.30760956e+00  4.11600208e+00  5.43464899e+00
 0.00000000e+00  4.19460917e+00  5.43464899e+00
 1.13739932e+00  4.22377539e+00  5.43464899e+00
 1.12204230e+00  5.37864161e+00  5.43464899e+00
 0.00000000e+00  5.40097141e+00  5.43464899e+00
 5.32506466e+00  5.13300323e+00  5.43464899e+00
 4.32522821e+00  5.15013695e+00  5.43464899e+00
 6.32508326e+00  5.11576653e+00  5.43464899e+00
 1.13138402e+00  6.47948599e+00  5.43464899e+00
 0.00000000e+00  6.46975136e+00  5.43464899e+00
 2.20611739e+00  5.32922268e+00  5.43464899e+00
 2.29663920e+00  6.39515448e+00  5.43464899e+00
 3.26991844e+00  5.21307611e+00  5.43464899e+00
 3.37644410e+00  6.24832630e+00  5.43464899e+00
 4.34376335e+00  6.15058851e+00  5.43464899e+00
 5.34249926e+00  6.13270044e+00  5.43464899e+00
 6.34223890e+00  6.11560488e+00  5.43464899e+00
</DataArray>
</Points>
<PointData Tensors="Stress_Components,Plastic_strain_components" Vevtors="Spatial_displacement,Reaction_force" Scalars="Equivalent_plastic_strain,Stress_Mises,Stress_Max_Principal,Stress_Mid_Principal,Stress_Min_Principal,Stress_Pressure,Stress_Tresca,Stress_Third_Invariant,Plastic_strain_Max_Principal,Plastic_strain_Min_Principal">
<DataArray type="Float32" Name="Stress_Components" NumberOfComponents="9" format="ascii">
1.71248482e+01 2.78663710e-02 1.96796753e-01 2.78663710e-02 1.42525195e+01 6.16546022e-02 1.96796753e-01 6.16546022e-02 4.13078070e+00
5.10821348e+00 -2.78600945e+00 9.02214845e-01 -2.78600945e+00 4.36588752e+00 2.44581473e+00 9.02214845e-01 2.44581473e+00 -1.73795504e+01
-1.16468763e+01 -3.41920264e-01 1.36925784e+00 -3.41920264e-01 -5.18738651e+00 -2.71972811e+00 1.36925784e+00 -2.71972811e+00 -4.76075172e+01
-2.67124957e+00 -8.63836363e-01 -2.40344070e-02 -8.63836363e-01 -3.13806349e+00 -6.27939301e-02 -2.40344070e-02 -6.27939301e-02 -3.63670053e+01
1.63096898e+01 6.87011005e-02 9.09751951e-01 6.87011005e-02 1.69915237e+01 -3.27784389e-01 9.09751951e-01 -3.27784389e-01 5.96981645e+00
2.27920767e+01 -2.35115506e+00 3.15478773e+00 -2.35115506e+00 2.53883741e+01 3.41125454e-01 3.15478773e+00 3.41125454e-01 1.78956282e+01
-1.30837468e+01 -2.15599522e-01 6.69815570e-01 -2.15599522e-01 9.66296196e-02 -3.40228546e-02 6.69815570e-01 -3.40228546e-02 -4.20872746e+01
1.18566564e+01 -2.24998698e-01 3.76757277e-01 -2.24998698e-01 1.06013871e+01 5.55809516e-01 3.76757277e-01 5.55809516e-01 -6.08533716e+00
-2.15790066e+01 -1.90924092e+00 -2.67844673e-01 -1.90924092e+00 -1.97477825e+01 6.20419905e+00 -2.67844673e-01 6.20419905e+00 -7.68965317e+01
-8.89002533e+01 -3.99425709e+00 -6.26799178e+00 -3.99425709e+00 -8.33795128e+01 4.81763721e+00 -6.26799178e+00 4.81763721e+00 -2.16366417e+02
-7.38798647e+01 8.78977617e+00 -2.76357438e+01 8.78977617e+00 -7.81433237e+01 -2.16988603e+00 -2.76357438e+01 -2.16988603e+00 -1.74149855e+02
-5.25333445e+01 5.26649952e-02 -5.15286064e+00 5.26649952e-02 -7.67099562e+01 -1.09681940e+00 -5.15286064e+00 -1.09681940e+00 -1.67815977e+02
-2.39581622e-01 -6.01176828e-01 -2.70406500e-01 -6.01176828e-01 3.11623229e-01 2.66514026e-01 -2.70406500e-01 2.66514026e-01 -4.55580443e-01
-4.31192994e-01 -4.10055108e-02 -9.47630405e-02 -4.10055108e-02 -1.12574011e-01 -2.38231108e-01 -9.47630405e-02 -2.38231108e-01 1.60352685e-01
6.95520371e-01 -1.57246053e-01 -1.20170746e-01 -1.57246053e-01 -1.06318593e-01 5.80173381e-01 -1.20170746e-01 5.80173381e-01 -9.72671747e-01
3.79301988e-01 -7.17626899e-01 2.28425264e-02 -7.17626899e-01 -1.89918200e-01 -5.19447774e-01 2.28425264e-02 -5.19447774e-01 -5.72971366e-01
2.34581873e-01 2.04113990e-01 3.75087172e-01 2.04113990e-01 6.11324050e-02 1.58611402e-01 3.75087172e-01 1.58611402e-01 -3.20765078e-02
-5.61957844e-02 2.41940729e-02 1.12064183e-01 2.41940729e-02 -1.58842161e-01 1.33976433e-02 1.12064183e-01 1.33976433e-02 4.78802949e-01
-5.12316711e-02 5.95521666e-02 -2.45439708e-01 5.95521666e-02 2.05963433e-01 -5.41226923e-01 -2.45439708e-01 -5.41226923e-01 1.08965263e-01
-3.16219777e-01 2.39498720e-01 -1.35263979e-01 2.39498720e-01 -1.29897282e-01 3.43902826e-01 -1.35263979e-01 3.43902826e-01 7.09653974e-01
1.25085235e+00 3.86352781e-02 1.69982575e-01 3.86352781e-02 2.01349068e+00 -1.97007088e-02 1.69982575e-01 -1.97007088e-02 -2.64945450e+01
1.95506603e+00 4.66457799e-01 4.76194370e-02 4.66457799e-01 1.92778400e+00 2.84023933e-01 4.76194370e-02 2.84023933e-01 -2.57666129e+01
6.32254275e+00 -2.14322569e-01 6.54159468e-02 -2.14322569e-01 6.91660067e+00 4.60464826e-01 6.54159468e-02 4.60464826e-01 -1.56423153e+01
1.76322621e+00 1.91319477e-01 1.71561800e-01 1.91319477e-01 3.18680471e+00 -2.05400027e-01 1.71561800e-01 -2.05400027e-01 -2.46234578e+01
6.65560055e+00 -2.99656959e-02 5.90839416e-01 -2.99656959e-02 5.59503841e+00 2.14281868e-01 5.90839416e-01 2.14281868e-01 -1.67373562e+01
3.74199569e-01 2.25835565e-01 -2.09671939e-01 2.25835565e-01 -6.93021417e-02 1.10712762e+00 -2.09671939e-01 1.10712762e+00 -2.95822999e+01
4.37083009e+00 3.65011166e-01 2.65534767e-01 3.65011166e-01 3.80632386e+00 4.07996626e-01 2.65534767e-01 4.07996626e-01 -2.11441029e+01
1.22462718e+00 3.55536595e-01 6.19691566e-01 3.55536595e-01 -2.40983546e-01 -6.51589300e-01 6.19691566e-01 -6.51589300e-01 -2.88697324e+01
6.96556580e+00 -8.11035082e-01 1.66082937e-01 -8.11035082e-01 6.21077740e+00 -4.99203708e-02 1.66082937e-01 -4.99203708e-02 -1.57270823e+01
6.04011810e+00 -5.08943253e-01 8.39854317e-01 -5.08943253e-01 6.00628060e+00 8.96762914e-01 8.39854317e-01 8.96762914e-01 -1.67421872e+01
2.23297000e-01 1.08579306e-01 7.75609771e-03 1.08579306e-01 2.98322797e-01 3.38267040e-01 7.75609771e-03 3.38267040e-01 -2.94903304e+01
-1.39938062e+00 6.80636761e-02 1.06920291e+00 6.80636761e-02 3.76948118e-02 1.83373811e+00 1.06920291e+00 1.83373811e+00 -3.11884005e+01
6.64918581e+00 1.30523110e-01 2.74777465e-01 1.30523110e-01 5.64856589e+00 6.26818459e-01 2.74777465e-01 6.26818459e-01 -1.66052151e+01
1.12683017e+01 -4.75560669e-02 5.88377066e-02 -4.75560669e-02 9.80005041e+00 -5.56515551e-02 5.88377066e-02 -5.56515551e-02 -7.20861292e+00
3.44337007e+00 -7.52068222e-01 3.36674765e-01 -7.52068222e-01 2.44007242e+00 8.78426543e-01 3.36674765e-01 8.78426543e-01 -2.35509326e+01
3.46534884e+00 -6.46027504e-01 5.26293268e-01 -6.46027504e-01 3.46810597e+00 7.47067530e-01 5.26293268e-01 7.47067530e-01 -2.23682843e+01
9.15591292e+00 1.05872719e-01 -1.63654750e-01 1.05872719e-01 7.19390196e+00 4.63876354e-01 -1.63654750e-01 4.63876354e-01 -1.21893312e+01
5.60027862e+00 2.05892297e-02 -4.78691017e-01 2.05892297e-02 3.48081553e+00 1.11348753e-01 -4.78691017e-01 1.11348753e-01 -2.00828686e+01
7.11267304e+00 -3.06526888e-01 -1.71070561e-01 -3.06526888e-01 5.39945889e+00 5.75839199e-01 -1.71070561e-01 5.75839199e-01 -1.64213638e+01
1.51022778e+01 -3.92785997e-01 3.26435242e-01 -3.92785997e-01 1.38925489e+01 -2.32523123e-01 3.26435242e-01 -2.32523123e-01 1.31694555e+00
1.23792619e+01 -1.89473948e-01 -2.54941513e-02 -1.89473948e-01 1.07724009e+01 1.61445588e-02 -2.54941513e-02 1.61445588e-02 -4.87332731e+00
9.79549897e+00 4.44632643e-02 -3.20368296e-01 4.44632643e-02 7.24301410e+00 8.62307763e-02 -3.20368296e-01 8.62307763e-02 -1.14688375e+01
1.65411862e+01 -1.40418534e-01 -1.39644945e-01 -1.40418534e-01 1.66284854e+01 -3.04845465e-01 -1.39644945e-01 -3.04845465e-01 5.84884834e+00
8.18727723e+00 -2.18721387e-01 -1.52916245e-01 -2.18721387e-01 6.83106208e+00 -3.25063694e-01 -1.52916245e-01 -3.25063694e-01 -1.37120507e+01
1.32774475e+01 -1.02610421e-01 -1.07233886e-01 -1.02610421e-01 1.25506105e+01 -2.82787085e-01 -1.07233886e-01 -2.82787085e-01 -1.93500423e+00
1.76246346e+01 2.91477419e-01 -4.39654927e-01 2.91477419e-01 1.56405926e+01 5.27528822e-02 -4.39654927e-01 5.27528822e-02 5.95650482e+00
1.89058568e+01 4.58484687e-01 2.64602490e-02 4.58484687e-01 1.96856496e+01 -6.93400744e-01 2.64602490e-02 -6.93400744e-01 1.18103886e+01
1.19985842e+01 5.45626029e-01 3.64070730e-01 5.45626029e-01 1.08084165e+01 -9.30618383e-01 3.64070730e-01 -9.30618383e-01 -5.15071321e+00
2.50528848e+00 -7.78513180e-01 1.37995733e+00 -7.78513180e-01 4.84869885e+00 2.73305029e-02 1.37995733e+00 2.73305029e-02 -2.15141258e+01
3.54803324e+00 -1.08023441e+00 9.33880594e-01 -1.08023441e+00 6.89927274e+00 -2.63507370e-01 9.33880594e-01 -2.63507370e-01 -1.83531712e+01
-5.03660050e+00 4.60407048e-01 2.34172169e+00 4.60407048e-01 -6.24351287e+00 2.09733446e+00 2.34172169e+00 2.09733446e+00 -4.16639469e+01
8.16344976e-01 -1.06251818e-01 4.15134189e-01 -1.06251818e-01 1.09486675e+00 -6.19864766e-02 4.15134189e-01 -6.19864766e-02 -2.79920371e+01
1.68588800e+01 2.83993647e+00 4.24217641e+00 2.83993647e+00 1.52902820e+01 3.49878700e+00 4.24217641e+00 3.49878700e+00 -2.03037017e+00
-6.68586218e+00 8.97834674e-01 -1.05790839e-01 8.97834674e-01 -6.47141796e+00 2.90836240e-01 -1.05790839e-01 2.90836240e-01 -4.28077610e+01
-8.12953667e+01 -6.89104342e+00 -1.77636321e+01 -6.89104342e+00 -8.21026390e+01 -2.11207578e+00 -1.77636321e+01 -2.11207578e+00 -1.86496623e+02
1.32790275e+01 1.43163324e+00 5.50054652e-01 1.43163324e+00 1.72862319e+01 1.35616796e+00 5.50054652e-01 1.35616796e+00 -1.78751693e+00
-5.21005468e+01 -1.32477028e+00 -4.02800116e+00 -1.32477028e+00 -4.74248805e+01 1.15026377e+00 -4.02800116e+00 1.15026377e+00 -1.37174711e+02
-3.74965031e+01 -1.94861673e+00 -1.76772263e+01 -1.94861673e+00 -4.73868502e+01 -1.31439779e+00 -1.76772263e+01 -1.31439779e+00 -9.92871132e+01
-3.46877260e+01 -1.65754011e+00 -1.25659220e-01 -1.65754011e+00 -3.02998443e+01 1.60697437e+00 -1.25659220e-01 1.60697437e+00 -1.00068222e+02
-4.67057600e+01 -3.91439840e-01 -4.34543896e+00 -3.91439840e-01 -4.10824327e+01 -1.70572756e+00 -4.34543896e+00 -1.70572756e+00 -1.24411850e+02
-2.90997686e+01 -2.62714863e+00 -7.72157639e-01 -2.62714863e+00 -2.01792421e+01 3.21140558e-01 -7.72157639e-01 3.21140558e-01 -8.24672699e+01
-4.68567495e+01 -4.38657629e+00 -4.93533587e+00 -4.38657629e+00 -3.54632092e+01 -3.76375614e+00 -4.93533587e+00 -3.76375614e+00 -1.16591656e+02
2.93319525e+00 1.18315520e-01 2.79193786e+00 1.18315520e-01 5.61616495e+00 5.98019877e-01 2.79193786e+00 5.98019877e-01 -1.99839065e+01
1.27770271e+01 9.19284290e-02 1.12713757e+00 9.19284290e-02 1.38704622e+01 -2.88450553e-01 1.12713757e+00 -2.88450553e-01 -1.02452898e+00
-9.99353886e+00 -4.15226672e-01 3.79687294e+00 -4.15226672e-01 -1.03758466e+01 1.68534735e+00 3.79687294e+00 1.68534735e+00 -5.09749140e+01
4.34971628e+00 4.86633200e-02 1.57604377e+00 4.86633200e-02 5.88149062e+00 9.47780348e-02 1.57604377e+00 9.47780348e-02 -1.88743300e+01
-1.10604336e+02 -1.21329926e+01 9.17933464e+00 -1.21329926e+01 -1.00829905e+02 -1.56941082e+01 9.17933464e+00 -1.56941082e+01 -2.31500423e+02
-2.09205475e+01 2.49766158e+00 2.49427367e+00 2.49766158e+00 -2.82472305e+01 -2.93288864e+00 2.49427367e+00 -2.93288864e+00 -8.40804421e+01
1.23997444e+02 1.31842680e+01 2.06799240e+01 1.31842680e+01 1.19693405e+02 2.17011070e+01 2.06799240e+01 2.17011070e+01 1.90498688e+02
6.73217901e+00 -5.42901018e+00 -8.53348223e+00 -5.42901018e+00 4.33433151e+00 -5.76136812e+00 -8.53348223e+00 -5.76136812e+00 -3.79379050e+00
2.41429198e+01 -6.95724381e-02 -2.36439333e+00 -6.95724381e-02 2.42693175e+01 2.42529665e-01 -2.36439333e+00 2.42529665e-01 2.15818518e+01
1.37673007e+01 -3.86408314e-01 1.24122778e+00 -3.86408314e-01 1.40842222e+01 6.66938078e-01 1.24122778e+00 6.66938078e-01 5.07374048e-01
2.14460371e+01 -5.92686246e-01 -2.27230435e-01 -5.92686246e-01 2.33894390e+01 1.08337512e+00 -2.27230435e-01 1.08337512e+00 1.93103488e+01
7.36709380e+00 -9.18935284e-01 2.42471220e+00 -9.18935284e-01 8.02297616e+00 1.73716267e+00 2.42471220e+00 1.73716267e+00 -1.26618257e+01
1.46551465e+01 -4.58448324e-02 7.87519962e-02 -4.58448324e-02 1.46400743e+01 2.52118468e-01 7.87519962e-02 2.52118468e-01 1.73251426e+00
2.07845479e+01 3.85988549e-01 1.02027369e+00 3.85988549e-01 2.16000250e+01 2.09073441e-01 1.02027369e+00 2.09073441e-01 1.60424252e+01
2.15555906e+00 1.91728188e+00 1.42651968e-01 1.91728188e+00 4.79964733e+00 1.21379060e+00 1.42651968e-01 1.21379060e+00 -2.22144722e+01
-5.84684559e+01 1.87427069e+00 6.10343083e+00 1.87427069e+00 -5.46878486e+01 1.91930610e+01 6.10343083e+00 1.91930610e+01 -1.32188616e+02
-1.04778015e+02 -3.74966484e+00 1.30570989e+01 -3.74966484e+00 -1.02180210e+02 1.18208504e+01 1.30570989e+01 1.18208504e+01 -2.50288879e+02
-5.52883713e+00 -3.06284003e+00 -2.99746816e+00 -3.06284003e+00 5.25480008e-01 5.06642761e+00 -2.99746816e+00 5.06642761e+00 -3.38104034e+01
3.68145084e+00 -4.44695711e-01 -3.26841101e-01 -4.44695711e-01 5.77099133e+00 7.99991705e-01 -3.26841101e-01 7.99991705e-01 -1.97808800e+01
1.49957609e+00 1.25537635e+00 -1.35184602e+00 1.25537635e+00 -2.59949207e-01 8.69260788e-01 -1.35184602e+00 8.69260788e-01 -2.86431885e+01
3.07667732e+00 -1.83271740e+00 2.33206719e+00 -1.83271740e+00 6.91618156e+00 -1.33696058e+00 2.33206719e+00 -1.33696058e+00 -1.89039192e+01
-2.28032141e+01 -3.56434751e+00 -4.32791498e+00 -3.56434751e+00 -1.75507269e+01 3.92879808e+00 -4.32791498e+00 3.92879808e+00 -6.93461266e+01
-8.91399066e+01 1.18720379e+01 4.28565641e-01 1.18720379e+01 -5.25713005e+01 -3.88383004e+01 4.28565641e-01 -3.88383004e+01 -1.26738050e+02
-2.42778091e+00 -3.97899540e+00 -7.86929915e-01 -3.97899540e+00 -7.84372330e+00 -3.74025981e+00 -7.86929915e-01 -3.74025981e+00 -3.64821885e+01
5.13435498e+00 -3.68186468e-02 1.98392794e-01 -3.68186468e-02 2.60900760e+00 -2.48423165e-02 1.98392794e-01 -2.48423165e-02 -2.15031738e+01
3.03579330e-01 1.27122797e-01 -5.33218253e-02 1.27122797e-01 -1.03569257e+00 7.30652275e-01 -5.33218253e-02 7.30652275e-01 -3.07111467e+01
8.12220515e-01 6.97679287e-01 2.50899064e-01 6.97679287e-01 -9.94240135e-01 3.81045551e-01 2.50899064e-01 3.81045551e-01 -3.01015106e+01
-2.31243551e-01 2.91529046e-01 3.99663080e-01 2.91529046e-01 -3.46726334e+00 -2.92798348e-01 3.99663080e-01 -2.92798348e-01 -3.38274770e+01
-5.51102525e+00 8.34687330e-01 -1.84484940e-01 8.34687330e-01 -3.86435050e+00 7.97220103e-01 -1.84484940e-01 7.97220103e-01 -4.00451148e+01
-6.42728645e+00 1.27276373e+00 4.90594375e-01 1.27276373e+00 -4.81619495e+00 1.51418057e+00 4.90594375e-01 1.51418057e+00 -4.18434839e+01
-6.66925371e+00 3.08339190e-01 5.74268050e-01 3.08339190e-01 -4.94488752e+00 3.86796586e-01 5.74268050e-01 3.86796586e-01 -4.25771875e+01
-1.33751621e+01 5.49978566e-01 7.51214024e-01 5.49978566e-01 -7.25169181e+00 1.81594445e+00 7.51214024e-01 1.81594445e+00 -5.15833875e+01
-4.42723727e+00 -1.26354071e+00 3.93569928e-01 -1.26354071e+00 -2.46413428e+00 5.75733411e-01 3.93569928e-01 5.75733411e-01 -3.73369650e+01
-2.17769396e+00 -7.08243227e-01 -1.75628509e-01 -7.08243227e-01 1.47126505e+00 -1.09685783e-01 -1.75628509e-01 -1.09685783e-01 -3.05112481e+01
4.69443631e+00 -5.45310996e-01 -2.77419491e-02 -5.45310996e-01 7.02896987e+00 -5.98531023e-01 -2.77419491e-02 -5.98531023e-01 -1.71866394e+01
8.92096829e+00 -1.07796632e+00 -2.04316654e-01 -1.07796632e+00 9.84499204e+00 -4.81803343e-02 -2.04316654e-01 -4.81803343e-02 -9.66328800e+00
5.06702900e-01 4.09302115e-01 8.31834346e-01 4.09302115e-01 5.13967538e+00 -1.36083263e+00 8.31834346e-01 -1.36083263e+00 -2.33739899e+01
-3.62962046e+00 -1.15265858e+00 1.21028364e-01 -1.15265858e+00 4.21537757e-02 -2.10190651e+00 1.21028364e-01 -2.10190651e+00 -3.31738043e+01
-6.61298208e+00 1.36987584e+00 9.10773076e-01 1.36987584e+00 -1.04230942e+01 1.77700156e+00 9.10773076e-01 1.77700156e+00 -4.79933760e+01
-2.08659697e+00 7.91929320e-01 2.46689655e-01 7.91929320e-01 -5.79251146e+00 -1.03910842e-01 2.46689655e-01 -1.03910842e-01 -3.83267708e+01
-8.42702258e+00 2.82278044e+00 3.69274843e-01 2.82278044e+00 -8.73420072e+00 1.00998561e+00 3.69274843e-01 1.00998561e+00 -4.81072215e+01
6.61895335e+00 1.70906643e+00 -5.40648288e+00 1.70906643e+00 8.55640757e+00 -6.33375518e-01 -5.40648288e+00 -6.33375518e-01 -1.05421661e+01
1.23333480e+01 -1.96941835e-01 -2.45520735e+00 -1.96941835e-01 1.78374607e+01 -5.94669591e-02 -2.45520735e+00 -5.94669591e-02 1.31799490e+00
-1.01690213e+01 -2.68837274e+00 -7.44320509e+00 -2.68837274e+00 -3.51115084e+00 -1.89904304e+00 -7.44320509e+00 -1.89904304e+00 -4.12827765e+01
-5.47420820e+00 -5.76141997e+00 -9.11856771e+00 -5.76141997e+00 -9.05008888e+00 -2.35147556e+00 -9.11856771e+00 -2.35147556e+00 -4.03542328e+01
-2.39734149e+01 2.40799730e-01 4.51218247e+00 2.40799730e-01 -3.28938680e+01 1.13568356e-02 4.51218247e+00 1.13568356e-02 -9.00380418e+01
-2.87272275e+01 -1.48281030e+00 4.01530081e+00 -1.48281030e+00 -3.30675116e+01 -2.42015330e-01 4.01530081e+00 -2.42015330e-01 -9.63645611e+01
1.33519766e+01 2.30332836e+00 -5.68166388e-01 2.30332836e+00 8.73913876e+00 -4.28910495e+00 -5.68166388e-01 -4.28910495e+00 -4.69678024e+00
3.62282829e+01 1.78082110e+00 -2.33135713e+00 1.78082110e+00 3.22132168e+01 2.82608867e-02 -2.33135713e+00 2.82608867e-02 4.22355143e+01
8.14398651e+01 4.27104664e+00 2.63583279e+01 4.27104664e+00 9.85301361e+01 7.21299219e+00 2.63583279e+01 7.21299219e+00 1.27445511e+02
2.01443616e+01 -2.52184799e+00 -9.39075613e-01 -2.52184799e+00 1.43278054e+01 -3.19600410e+00 -9.39075613e-01 -3.19600410e+00 1.54651587e+01
-2.49352521e+01 -4.54231188e-01 1.50249004e-01 -4.54231188e-01 -2.24570284e+01 5.88156208e+00 1.50249004e-01 5.88156208e+00 -7.87525983e+01
1.62697983e+00 1.00848476e-01 -1.72960188e+00 1.00848476e-01 -1.61847432e-01 2.99863264e+00 -1.72960188e+00 2.99863264e+00 -2.82460759e+01
-1.05434589e+02 -1.19983926e+01 1.14086318e+01 -1.19983926e+01 -1.55921593e+02 -1.33411205e+01 1.14086318e+01 -1.33411205e+01 -2.99393791e+02
-3.31858931e+01 3.23404396e-01 -1.81619649e+00 3.23404396e-01 -2.83960904e+01 4.89458772e+00 -1.81619649e+00 4.89458772e+00 -9.56397877e+01
-1.32053109e+01 -5.59970789e-01 3.89452320e+00 -5.59970789e-01 -1.02253566e+01 -1.96938600e-01 3.89452320e+00 -1.96938600e-01 -5.51341805e+01
1.94181796e+01 -2.39166602e-01 2.18394511e+00 -2.39166602e-01 1.77901310e+01 3.60709682e-01 2.18394511e+00 3.60709682e-01 1.01924639e+01
9.59276462e+00 4.66372997e-01 4.87545997e-01 4.66372997e-01 8.47171640e+00 -7.41883215e-01 4.87545997e-01 -7.41883215e-01 -1.03374653e+01
-3.18186457e+01 7.94166684e-01 -5.43069839e-01 7.94166684e-01 -4.01100132e+01 -3.78664219e+00 -5.43069839e-01 -3.78664219e+00 -1.05812295e+02
-1.16011627e+01 -1.46540253e+00 -3.20741117e+00 -1.46540253e+00 -2.15432594e+01 6.76374656e+00 -3.20741117e+00 6.76374656e+00 -6.11901448e+01
1.00225892e+01 -1.24096480e+00 -4.79461811e-01 -1.24096480e+00 -8.22847390e+00 6.33514148e+00 -4.79461811e-01 6.33514148e+00 -3.84386690e+01
1.27925315e+01 -1.89196314e+00 2.11713171e+00 -1.89196314e+00 2.09903872e+01 -3.70777193e+00 2.11713171e+00 -3.70777193e+00 8.16155589e+00
9.15509338e+01 -4.08366966e+00 8.39001894e-01 -4.08366966e+00 6.42563248e+01 2.20831776e+01 8.39001894e-01 2.20831776e+01 8.86775131e+01
4.25546341e+01 2.73186302e+00 -2.66681135e-01 2.73186302e+00 3.83300934e+01 6.14861250e+00 -2.66681135e-01 6.14861250e+00 5.62445297e+01
8.97942209e+00 -2.55348803e+00 -2.19767392e+00 -2.55348803e+00 9.88356656e+00 7.87550852e-01 -2.19767392e+00 7.87550852e-01 1.00513066e+01
4.14750028e+00 -4.93661650e+00 -1.84917369e+00 -4.93661650e+00 1.40708703e+01 -3.78423865e+00 -1.84917369e+00 -3.78423865e+00 6.98813852e+00
-1.15766144e+00 -9.53445077e-01 1.52171743e+00 -9.53445077e-01 1.17279506e+00 -1.08542478e+00 1.52171743e+00 -1.08542478e+00 -4.87446934e-01
-9.36345935e-01 1.47160366e-01 1.17194556e-01 1.47160366e-01 -1.06021971e-01 7.97368228e-01 1.17194556e-01 7.97368228e-01 5.69829524e-01
9.25364971e-01 -6.02677047e-01 3.43409061e-01 -6.02677047e-01 -4.46161836e-01 -1.43984079e+00 3.43409061e-01 -1.43984079e+00 -9.51886594e-01
4.01002765e-01 -1.70390809e+00 -1.27870870e+00 -1.70390809e+00 5.29782057e-01 1.30807614e+00 -1.27870870e+00 1.30807614e+00 -1.40344775e+00
7.08172628e+00 2.55327461e+00 1.59625733e+00 2.55327461e+00 -2.98498645e+00 9.74298203e-01 1.59625733e+00 9.74298203e-01 -7.06180951e-01
1.19156983e+00 -4.32939053e-01 -2.20305522e-01 -4.32939053e-01 -5.13471393e+00 9.12796319e-01 -2.20305522e-01 9.12796319e-01 -8.34290688e-01
-3.58532023e+00 9.25254792e-01 3.17349881e-02 9.25254792e-01 8.67888868e-01 -1.51978517e+00 3.17349881e-02 -1.51978517e+00 4.91250917e-01
-5.19624881e+00 -2.39272738e+00 -3.60672365e-01 -2.39272738e+00 2.40772430e+00 -6.70542081e-01 -3.60672365e-01 -6.70542081e-01 3.38641551e+00
2.08789492e+00 -3.35817710e-02 3.32731754e-03 -3.35817710e-02 -1.08973336e+00 2.81833857e-03 3.32731754e-03 2.81833857e-03 -2.87465687e+01
-4.94243741e-01 2.55988531e-01 -1.25966449e-02 2.55988531e-01 -2.22662163e+00 2.79890269e-01 -1.25966449e-02 2.79890269e-01 -3.28894444e+01
1.43735790e+00 9.11302336e-01 2.14139156e-01 9.11302336e-01 -7.03595161e-01 3.59802136e-01 2.14139156e-01 3.59802136e-01 -2.90720060e+01
1.02708960e+00 3.66924688e-01 1.34682525e-01 3.66924688e-01 -2.62826443e+00 -7.27061462e-03 1.34682525e-01 -7.27061462e-03 -3.15181665e+01
-8.46405733e+00 5.89465827e-01 -8.75250110e-03 5.89465827e-01 -6.31540096e+00 1.06041172e+00 -8.75250110e-03 1.06041172e+00 -4.58429489e+01
-6.50196174e+00 2.00076662e+00 2.47859053e-01 2.00076662e+00 -5.37937064e+00 6.51948880e-01 2.47859053e-01 6.51948880e-01 -4.25900686e+01
-1.16642750e+01 1.29120928e+00 3.02643417e-02 1.29120928e+00 -7.53104424e+00 5.83451599e-01 3.02643417e-02 5.83451599e-01 -5.05257883e+01
-2.21443758e+01 1.68066698e+00 1.16296157e+00 1.68066698e+00 -1.33037269e+01 1.95394281e+00 1.16296157e+00 1.95394281e+00 -6.72128272e+01
-1.21000323e+01 -7.34659225e-01 6.57634847e-02 -7.34659225e-01 -5.92468327e+00 3.64360139e-01 6.57634847e-02 3.64360139e-01 -4.90189142e+01
-1.96327586e+01 -8.45070802e-01 2.06180671e+00 -8.45070802e-01 -1.01119066e+01 1.36328967e+00 2.06180671e+00 1.36328967e+00 -6.10679460e+01
-9.59074020e+00 -2.56644487e-01 1.16583597e-01 -2.56644487e-01 -3.04852909e+00 -5.23149446e-01 1.16583597e-01 -5.23149446e-01 -4.31304951e+01
-5.28661895e+00 -2.18050133e+00 1.70732594e+00 -2.18050133e+00 2.24550414e+00 8.34587449e-02 1.70732594e+00 8.34587449e-02 -3.19554795e+01
-2.48155308e+01 -3.50137925e+00 2.20552862e-01 -3.50137925e+00 -1.35595713e+01 1.58076212e-01 2.20552862e-01 1.58076212e-01 -7.00374527e+01
-2.15960340e+01 -1.71015143e+00 2.39866877e+00 -1.71015143e+00 -7.08739662e+00 -3.87384856e+00 2.39866877e+00 -3.87384856e+00 -5.81213284e+01
1.45434368e+00 2.90099078e+00 -1.18410920e+00 2.90099078e+00 -3.12460136e+00 1.21027976e+00 -1.18410920e+00 1.21027976e+00 -3.10953217e+01
-5.97370148e-01 4.32193428e-01 -5.79760849e-01 4.32193428e-01 -8.02564240e+00 1.25725679e-01 -5.79760849e-01 1.25725679e-01 -3.86248932e+01
-9.20066732e+00 5.06403455e+00 5.63385144e-01 5.06403455e+00 -9.30876052e+00 2.29848862e+00 5.63385144e-01 2.29848862e+00 -4.83094044e+01
8.59091425e+00 1.14738902e+00 1.86573827e+00 1.14738902e+00 1.22764854e+01 9.32443144e-01 1.86573827e+00 9.32443144e-01 -7.63578701e+00
2.79633770e+01 -1.15661489e+00 2.07572341e+00 -1.15661489e+00 2.64056394e+01 3.00925568e-01 2.07572341e+00 3.00925568e-01 2.72010822e+01
1.95021596e+01 -3.80158424e-04 2.66346768e+00 -3.80158424e-04 1.79683666e+01 -4.84373789e-01 2.66346768e+00 -4.84373789e-01 9.20190501e+00
1.55716457e+01 -5.50868732e+00 1.94928721e+00 -5.50868732e+00 7.16373634e+00 -7.83218086e-01 1.94928721e+00 -7.83218086e-01 -3.24405289e+00
-9.12488270e+01 -2.90109020e+00 5.38270378e+00 -2.90109020e+00 -1.08437159e+02 3.49277055e+00 5.38270378e+00 3.49277055e+00 -2.44582542e+02
-1.04545738e+02 -6.41269535e-02 2.72646499e+00 -6.41269535e-02 -1.09901192e+02 1.42073423e-01 2.72646499e+00 1.42073423e-01 -2.62097748e+02
2.63862500e+01 4.32404081e+00 -9.32460343e-01 4.32404081e+00 2.55634789e+01 1.60047086e+00 -9.32460343e-01 1.60047086e+00 2.72920599e+01
3.13399427e+01 -2.31804293e+00 2.97385692e+00 -2.31804293e+00 3.15462396e+01 1.97996096e+00 2.97385692e+00 1.97996096e+00 3.54274578e+01
2.84472992e+01 -1.27356400e+00 1.00832470e-01 -1.27356400e+00 2.75346566e+01 1.76213231e+00 1.00832470e-01 1.76213231e+00 3.07165782e+01
2.04248920e+01 8.75263155e-01 3.67705220e+00 8.75263155e-01 1.82306529e+01 -2.96648659e+00 3.67705220e+00 -2.96648659e+00 2.51403651e+01
2.14092283e+01 1.05913861e+00 2.78497341e+00 1.05913861e+00 1.56238744e+01 1.30517898e+00 2.78497341e+00 1.30517898e+00 2.47390159e+01
4.27240422e+00 -6.55131477e+00 -1.68515682e-01 -6.55131477e+00 -2.50183630e+00 -9.04456586e-01 -1.68515682e-01 -9.04456586e-01 6.34513736e+00
2.71715667e+01 3.69969342e+00 3.11798859e+00 3.69969342e+00 1.32930756e+01 5.63189909e-01 3.11798859e+00 5.63189909e-01 3.31239488e+01
1.04951859e+01 5.58633041e+00 -1.00866699e+01 5.58633041e+00 2.12375450e+01 1.98156371e+01 -1.00866699e+01 1.98156371e+01 5.98852785e+01
2.47586222e+01 -2.58548796e+00 3.45980686e+00 -2.58548796e+00 2.88776379e+01 -3.79113740e+00 3.45980686e+00 -3.79113740e+00 3.81670227e+01
-1.53824461e+00 1.08242922e+01 -2.67686272e+00 1.08242922e+01 1.09608011e+01 2.10874596e+01 -2.67686272e+00 2.10874596e+01 -2.07383614e+01
2.07603483e+01 4.85530259e+00 -2.87229482e+00 4.85530259e+00 2.79997463e+01 -4.51939034e+00 -2.87229482e+00 -4.51939034e+00 1.38732244e+01
1.55314949e+01 5.48540354e-01 3.10800950e+00 5.48540354e-01 8.22966894e+00 2.54234109e+00 3.10800950e+00 2.54234109e+00 5.69539165e+00
8.56859088e-02 4.57881430e+00 4.82959247e+00 4.57881430e+00 1.02328413e+01 -8.68641555e-01 4.82959247e+00 -8.68641555e-01 3.32893419e+00
-4.60923165e-02 -4.38852870e+00 -5.05022898e-01 -4.38852870e+00 6.87533736e+00 2.08022535e+00 -5.05022898e-01 2.08022535e+00 9.53497690e+00
3.16441643e+00 -1.76734781e+00 -5.83921075e-01 -1.76734781e+00 -6.80601978e+00 7.16837598e-02 -5.83921075e-01 7.16837598e-02 5.12232092e+00
-2.26238251e+00 -4.42884684e-01 -1.38471621e+00 -4.42884684e-01 -6.43526757e+00 -1.22482401e+00 -1.38471621e+00 -1.22482401e+00 2.87624803e+00
-9.82538300e+01 2.71265459e+00 -3.32730985e+00 2.71265459e+00 -6.71007538e+01 1.18438697e+00 -3.32730985e+00 1.18438697e+00 -2.05222961e+02
-1.43373352e+02 5.90714693e+00 1.15104747e+00 5.90714693e+00 -1.29283875e+02 1.34948325e+00 1.15104747e+00 1.34948325e+00 -3.25018921e+02
6.10415824e+00 -1.44563228e+00 1.28527313e+00 -1.44563228e+00 4.46990267e+00 2.03585391e+00 1.28527313e+00 2.03585391e+00 -1.86282399e+01
7.83257389e+00 -2.57015508e+00 3.97442967e+00 -2.57015508e+00 -2.64816666e+00 -1.41758315e-01 3.97442967e+00 -1.41758315e-01 -2.30471745e+01
1.90304564e+00 2.08915001e+00 -6.94758398e-02 2.08915001e+00 -6.52845979e-01 -8.65315884e-01 -6.94758398e-02 -8.65315884e-01 2.97436039e+00
1.21291851e+01 1.32533614e+00 4.00936921e-01 1.32533614e+00 2.60315784e+01 5.12675341e+00 4.00936921e-01 5.12675341e+00 2.37991581e+01
2.63446259e+00 1.54873770e+00 5.18142402e-01 1.54873770e+00 -6.45516014e+00 7.60068297e-01 5.18142402e-01 7.60068297e-01 -3.10783231e+00
7.15514374e+00 -1.43900710e+00 7.57150926e-01 -1.43900710e+00 3.57538891e+00 7.29583785e-01 7.57150926e-01 7.29583785e-01 -1.77014341e+01
1.88542080e+01 1.69627106e+00 -1.09645212e+00 1.69627106e+00 1.59173279e+01 9.07983817e-03 -1.09645212e+00 9.07983817e-03 7.81238508e+00
-1.24344254e+00 -9.90147054e-01 3.84231508e-01 -9.90147054e-01 -2.92271996e+00 3.97045219e+00 3.84231508e-01 3.97045219e+00 -3.45500088e+01
-5.99684143e+00 -2.28932678e+00 -2.81962205e-01 -2.28932678e+00 -1.64874558e+01 3.28177059e+00 -2.81962205e-01 3.28177059e+00 -5.22431030e+01
1.17451773e+01 3.02367717e+00 -2.42337024e+00 3.02367717e+00 3.54868221e+00 9.67202902e-01 -2.42337024e+00 9.67202902e-01 -1.36900368e+01
1.29018316e+01 -6.67771578e-01 -1.26527971e+00 -6.67771578e-01 2.68744974e+01 2.59200215e+00 -1.26527971e+00 2.59200215e+00 1.52129445e+01
2.01594121e+01 2.84456008e+00 -2.10425536e+00 2.84456008e+00 2.37410803e+01 1.22544165e+00 -2.10425536e+00 1.22544165e+00 2.22826412e+01
-5.84228384e+00 1.39712787e+00 -1.15950263e+00 1.39712787e+00 1.79930115e+00 6.09480754e-01 -1.15950263e+00 6.09480754e-01 3.87587532e+00
-4.47413063e+00 1.30363464e+00 -5.01546636e-02 1.30363464e+00 -3.80458951e-01 -8.45726505e-02 -5.01546636e-02 -8.45726505e-02 8.74665916e-01
</DataArray>
<DataArray type="Float32" Name="Logarithmic_strain_components" NumberOfComponents="9" format="ascii">
3.76306358e-02 -7.96829084e-03 2.65867470e-03 -7.96829084e-03 3.23760947e-02 7.50925370e-03 2.65867470e-03 7.50925370e-03 -5.80447982e-02
3.65211156e-02 -1.54778147e-02 -4.62560478e-04 -1.54778147e-02 4.02538243e-02 1.65692073e-02 -4.62560478e-04 1.65692073e-02 -6.44099829e-02
4.25359076e-02 -2.07549601e-03 2.80393218e-03 -2.07549601e-03 5.57506066e-02 -7.03210360e-03 2.80393218e-03 -7.03210360e-03 -8.33155736e-02
3.84477889e-02 -1.57624972e-03 -3.01777414e-03 -1.57624972e-03 4.38243551e-02 -2.77555897e-04 -3.01777414e-03 -2.77555897e-04 -7.00150281e-02
3.78551818e-02 3.14314695e-03 1.21373789e-02 3.14314695e-03 4.69757896e-02 9.57202239e-03 1.21373789e-02 9.57202239e-03 -6.96663707e-02
3.79119303e-02 -1.28136889e-02 -1.51865580e-02 -1.28136889e-02 6.04126757e-02 1.48315792e-02 -1.51865580e-02 1.48315792e-02 -8.18424672e-02
5.48322280e-02 -7.61345541e-03 -6.41336957e-03 -7.61345541e-03 6.69010663e-02 -1.20020420e-02 -6.41336957e-03 -1.20020420e-02 -1.03586430e-01
4.23959317e-02 1.68203286e-02 6.26438286e-03 1.68203286e-02 5.20427162e-02 1.59573590e-02 6.26438286e-03 1.59573590e-02 -7.93806966e-02
4.97756284e-02 3.31399846e-04 -2.34784411e-02 3.31399846e-04 5.25602149e-02 2.21630302e-02 -2.34784411e-02 2.21630302e-02 -9.10540074e-02
6.33896124e-02 -4.28792322e-04 -1.92952920e-02 -4.28792322e-04 6.95530176e-02 2.43303194e-02 -1.92952920e-02 2.43303194e-02 -1.19514380e-01
6.74321813e-02 3.13096841e-02 -9.96860340e-02 3.13096841e-02 6.10201880e-02 -1.85305452e-02 -9.96860340e-02 -1.85305452e-02 -1.11177653e-01
9.57395248e-02 2.50116074e-02 -7.16850813e-02 2.50116074e-02 5.26532214e-02 -1.25722147e-02 -7.16850813e-02 -1.25722147e-02 -1.29233737e-01
-4.05027936e-06 -2.91871675e-05 -1.28490265e-05 -2.91871675e-05 9.27408780e-06 1.32011855e-05 -1.28490265e-05 1.32011855e-05 -9.13003214e-06
-9.23426194e-06 -1.65864026e-06 -4.49670006e-06 -1.65864026e-06 -1.74104775e-06 -1.15495006e-05 -4.49670006e-06 -1.15495006e-05 5.57053784e-06
1.83138072e-05 -7.25579389e-06 -5.06464016e-06 -7.25579389e-06 -1.07939894e-06 2.82993783e-05 -5.06464016e-06 2.82993783e-05 -2.16963026e-05
1.10700021e-05 -3.51396830e-05 8.02177965e-07 -3.51396830e-05 -2.73390242e-06 -2.50240701e-05 8.02177965e-07 -2.50240701e-05 -1.30489509e-05
4.34118692e-06 9.40959853e-06 1.75581717e-05 9.40959853e-06 6.13901534e-07 8.40253051e-06 1.75581717e-05 8.40253051e-06 -1.48708602e-06
-2.50136327e-06 5.46330625e-07 4.96607572e-06 5.46330625e-07 -4.51238157e-06 9.93498816e-07 4.96607572e-06 9.93498816e-07 1.07020105e-05
-2.34466711e-06 3.03242086e-06 -1.13109045e-05 3.03242086e-06 4.06063646e-06 -2.46391610e-05 -1.13109045e-05 -2.46391610e-05 2.29857096e-06
-8.27497479e-06 1.14166924e-05 -7.24428673e-06 1.14166924e-05 -3.60881381e-06 1.66788086e-05 -7.24428673e-06 1.66788086e-05 1.52421371e-05
5.18196933e-02 8.70186250e-06 9.87187913e-03 8.70186250e-06 5.44528160e-02 -2.17109092e-03 9.87187913e-03 -2.17109092e-03 -8.97021443e-02
5.34159150e-02 2.76142790e-03 6.42047671e-03 2.76142790e-03 5.27492594e-02 2.95379682e-03 6.42047671e-03 2.95379682e-03 -8.96366816e-02
5.15740020e-02 -8.88344541e-03 1.16950249e-02 -8.88344541e-03 5.36160790e-02 4.05211814e-03 1.16950249e-02 4.05211814e-03 -8.82723806e-02
5.01311542e-02 1.97221956e-03 1.03670821e-02 1.97221956e-03 5.59093868e-02 -5.60900220e-03 1.03670821e-02 -5.60900220e-03 -8.95130113e-02
6.62163273e-02 -1.47379251e-05 1.19434642e-02 -1.47379251e-05 5.09849284e-02 7.77398469e-04 1.19434642e-02 7.77398469e-04 -9.84174386e-02
6.38441043e-02 1.71961662e-03 1.94006058e-03 1.71961662e-03 5.39010596e-02 1.06655052e-02 1.94006058e-03 1.06655052e-02 -9.94544756e-02
6.53103772e-02 3.85166859e-03 1.45692029e-02 3.85166859e-03 5.44137326e-02 4.84095915e-03 1.45692029e-02 4.84095915e-03 -1.00683635e-01
6.71951631e-02 3.41057195e-03 1.50255519e-02 3.41057195e-03 5.40929120e-02 -9.26789152e-03 1.50255519e-02 -9.26789152e-03 -1.02321327e-01
5.74171357e-02 -1.12943004e-02 9.73228551e-03 -1.12943004e-02 4.70973970e-02 5.53741280e-04 9.73228551e-03 5.53741280e-04 -8.77191238e-02
5.61526786e-02 -1.17560409e-02 1.22050253e-02 -1.17560409e-02 5.21882013e-02 5.38620765e-03 1.22050253e-02 5.38620765e-03 -9.09573119e-02
6.00780258e-02 2.72685755e-03 -3.76675969e-04 2.72685755e-03 5.44857839e-02 5.23719867e-03 -3.76675969e-04 5.23719867e-03 -9.69112217e-02
5.91896973e-02 4.03184749e-03 1.31126973e-02 4.03184749e-03 5.82200172e-02 1.56202506e-02 1.31126973e-02 1.56202506e-02 -9.93398707e-02
6.10948578e-02 1.04450210e-03 4.06553480e-03 1.04450210e-03 4.42804005e-02 6.16022407e-03 4.06553480e-03 6.16022407e-03 -8.83842651e-02
6.17785794e-02 -5.75358717e-03 -5.70618547e-03 -5.75358717e-03 5.10622361e-02 -4.54577475e-03 -5.70618547e-03 -4.54577475e-03 -9.42424359e-02
5.86349405e-02 -6.26072474e-03 1.78679917e-03 -6.26072474e-03 4.93785236e-02 6.44319635e-03 1.78679917e-03 6.44319635e-03 -9.10587199e-02
5.61948055e-02 -5.58522675e-03 -4.79295326e-03 -5.58522675e-03 5.43311732e-02 5.38637904e-03 -4.79295326e-03 5.38637904e-03 -9.29955868e-02
6.41761804e-02 2.74415297e-03 -5.24914672e-03 2.74415297e-03 4.21761861e-02 -1.45900180e-04 -5.24914672e-03 -1.45900180e-04 -8.90940931e-02
6.23955629e-02 1.24188575e-03 -8.47274765e-03 1.24188575e-03 5.77015202e-02 5.14503918e-05 -8.47274765e-03 5.14503918e-05 -1.01108129e-01
5.69685400e-02 -2.87937996e-03 -7.29449361e-03 -2.87937996e-03 4.43080775e-02 5.40368873e-03 -7.29449361e-03 5.40368873e-03 -8.50585289e-02
5.64821162e-02 -1.06663242e-02 -1.17957141e-02 -1.06663242e-02 4.71362113e-02 -6.26820030e-03 -1.17957141e-02 -6.26820030e-03 -8.60820785e-02
6.20213151e-02 4.89256759e-04 2.57193373e-03 4.89256759e-04 4.36349334e-02 -3.12663957e-03 2.57193373e-03 -3.12663957e-03 -8.83895326e-02
6.25424488e-02 -6.56587828e-04 3.70264577e-04 -6.56587828e-04 5.66262687e-02 3.28015594e-03 3.70264577e-04 3.28015594e-03 -9.99254184e-02
5.09687075e-02 -8.10475773e-04 -1.27843639e-02 -8.10475773e-04 4.32959991e-02 -1.72379390e-03 -1.27843639e-02 -1.72379390e-03 -7.83692319e-02
5.40570342e-02 -3.12950454e-03 -1.07627602e-02 -3.12950454e-03 5.07143852e-02 -6.05247599e-03 -1.07627602e-02 -6.05247599e-03 -8.80067274e-02
5.97779192e-02 -4.17842108e-04 1.96786225e-03 -4.17842108e-04 4.44756690e-02 -2.74821557e-03 1.96786225e-03 -2.74821557e-03 -8.70724991e-02
5.83720868e-02 -5.02036426e-03 -2.94790603e-03 -5.02036426e-03 5.76474695e-02 -2.31124767e-03 -2.94790603e-03 -2.31124767e-03 -9.67028551e-02
4.69514374e-02 1.36544309e-02 -8.92395340e-03 1.36544309e-02 4.45897765e-02 -1.23521765e-02 -8.92395340e-03 -1.23521765e-02 -7.58040212e-02
5.29386997e-02 2.11902615e-03 -7.40988468e-03 2.11902615e-03 4.99366121e-02 -7.56651425e-03 -7.40988468e-03 -7.56651425e-03 -8.60033277e-02
4.76103690e-02 -1.53349567e-02 3.07837389e-02 -1.53349567e-02 5.87012824e-02 1.76071917e-03 3.07837389e-02 1.76071917e-03 -8.88967011e-02
4.01607603e-02 -1.35008299e-02 2.27107196e-02 -1.35008299e-02 6.25296636e-02 -3.46569176e-03 2.27107196e-02 -3.46569176e-03 -8.60056914e-02
6.97835418e-02 1.42442250e-03 4.00339370e-02 1.42442250e-03 5.85108884e-02 1.30573115e-02 4.00339370e-02 1.30573115e-02 -1.08649176e-01
6.68974696e-02 -4.75558545e-05 2.91801384e-02 -4.75558545e-05 5.93534578e-02 -1.83571616e-03 2.91801384e-02 -1.83571616e-03 -1.06276710e-01
5.99396623e-02 -5.78393761e-04 2.34379812e-02 -5.78393761e-04 5.52145296e-02 -3.54088677e-03 2.34379812e-02 -3.54088677e-03 -9.89188722e-02
6.34022537e-02 1.32956302e-02 1.15431433e-02 1.32956302e-02 5.94988349e-02 -6.47412793e-03 1.15431433e-02 -6.47412793e-03 -1.05561480e-01
6.84373058e-02 -1.63683435e-02 -6.44686537e-02 -1.63683435e-02 6.21062353e-02 -1.31172352e-03 -6.44686537e-02 -1.31172352e-03 -1.16462395e-01
5.02966642e-02 7.84807323e-03 -4.17457800e-02 7.84807323e-03 5.61266573e-02 -6.84609104e-03 -4.17457800e-02 -6.84609104e-03 -9.14191731e-02
6.78256545e-02 -2.39963818e-03 -1.89614010e-02 -2.39963818e-03 7.77706280e-02 1.21604704e-02 -1.89614010e-02 1.21604704e-02 -1.27704803e-01
5.73668346e-02 -7.44118835e-03 -6.15324672e-02 -7.44118835e-03 4.61871224e-02 7.48799336e-03 -6.15324672e-02 7.48799336e-03 -8.78997743e-02
6.66699614e-02 -5.21271478e-03 -1.60514819e-03 -5.21271478e-03 7.48768635e-02 1.13195762e-02 -1.60514819e-03 1.13195762e-02 -1.22376405e-01
5.83558502e-02 2.33786117e-03 -2.36026281e-02 2.33786117e-03 6.74231909e-02 -2.55677686e-03 -2.36026281e-02 -2.55677686e-03 -1.10267427e-01
5.98573908e-02 -4.37424541e-03 -4.31573973e-03 -4.37424541e-03 7.84643404e-02 3.68154480e-03 -4.31573973e-03 3.68154480e-03 -1.18918739e-01
5.42501584e-02 -6.74505858e-03 -2.49199448e-02 -6.74505858e-03 6.96477666e-02 -1.71422948e-02 -2.49199448e-02 -1.71422948e-02 -1.07997738e-01
4.11955323e-02 -9.28642687e-03 4.25761220e-02 -9.28642687e-03 5.75168489e-02 2.08944950e-03 4.25761220e-02 2.08944950e-03 -8.24322871e-02
3.63600682e-02 3.01513675e-03 3.33431712e-02 3.01513675e-03 5.70112886e-02 4.17826197e-03 3.33431712e-02 4.17826197e-03 -7.73700457e-02
7.37404877e-02 -4.39200394e-03 4.68781170e-02 -4.39200394e-03 6.11210923e-02 -9.17163544e-03 4.68781170e-02 -9.17163544e-03 -1.13822111e-01
6.06861720e-02 1.53201260e-03 4.67266031e-02 1.53201260e-03 6.37911586e-02 -1.08651419e-02 4.67266031e-02 -1.08651419e-02 -1.04409834e-01
5.13692342e-02 -2.85434779e-02 5.60111543e-02 -2.85434779e-02 6.96667992e-02 -6.46722422e-02 5.60111543e-02 -6.46722422e-02 -1.03658028e-01
7.97308929e-02 9.24168201e-04 2.15597548e-02 9.24168201e-04 6.10974081e-02 -5.14084611e-02 2.15597548e-02 -5.14084611e-02 -1.22247736e-01
-2.13746149e-02 -1.19480565e-01 -1.89159855e-01 -1.19480565e-01 2.04377901e-03 -1.25596121e-01 -1.89159855e-01 -1.25596121e-01 8.05525333e-02
3.56530392e-02 -1.28122896e-02 -5.80694899e-02 -1.28122896e-02 2.75785837e-02 -4.81410834e-02 -5.80694899e-02 -4.81410834e-02 -3.99392775e-02
3.55675604e-02 -3.50017239e-03 1.60466125e-02 -3.50017239e-03 4.48873581e-02 2.73308544e-02 1.60466125e-02 2.73308544e-02 -6.58045502e-02
3.51266423e-02 -7.90192001e-03 2.70671869e-02 -7.90192001e-03 4.70619742e-02 7.62615912e-03 2.70671869e-02 7.62615912e-03 -6.81981109e-02
5.10679899e-02 -9.77584127e-03 3.11557139e-02 -9.77584127e-03 6.32322636e-02 4.12474147e-02 3.11557139e-02 4.12474147e-02 -9.25833980e-02
5.62962973e-02 -7.14615919e-03 8.45706195e-03 -7.14615919e-03 6.46554790e-02 2.32131011e-02 8.45706195e-03 2.32131011e-02 -9.97676551e-02
3.69407875e-02 5.99253061e-03 -3.13678011e-03 5.99253061e-03 4.70134867e-02 4.38160228e-03 -3.13678011e-03 4.38160228e-03 -7.02258553e-02
5.89499830e-02 1.13060261e-02 -1.77595634e-02 1.13060261e-02 6.72625080e-02 3.32968585e-02 -1.77595634e-02 3.32968585e-02 -1.04911778e-01
5.28008267e-02 1.83082749e-02 1.36315587e-02 1.83082749e-02 7.49412943e-02 1.49755378e-02 1.36315587e-02 1.49755378e-02 -1.06587334e-01
3.45143150e-02 8.54552069e-03 1.84043569e-02 8.54552069e-03 4.97366088e-02 7.95032093e-02 1.84043569e-02 7.95032093e-02 -7.30066234e-02
8.33494253e-02 -1.08369952e-02 6.82552941e-02 -1.08369952e-02 7.29566608e-02 3.27360360e-02 6.82552941e-02 3.27360360e-02 -1.39170315e-01
5.06174158e-02 -1.96428597e-02 -3.71343374e-02 -1.96428597e-02 8.07997592e-02 -1.44240685e-02 -3.71343374e-02 -1.44240685e-02 -1.11254218e-01
3.87821812e-02 -3.86304420e-03 7.08765490e-03 -3.86304420e-03 5.29345218e-02 1.21970717e-02 7.08765490e-03 1.21970717e-02 -7.64207467e-02
6.44483985e-02 2.30568064e-02 -1.12795018e-02 2.30568064e-02 6.51752586e-02 2.22748936e-02 -1.12795018e-02 2.22748936e-02 -1.03143064e-01
5.43804727e-02 -1.50785064e-02 1.88101437e-02 -1.50785064e-02 8.02151933e-02 -2.03969991e-02 1.88101437e-02 -2.03969991e-02 -1.13644563e-01
6.76927194e-02 -2.48701363e-02 -5.39963618e-02 -2.48701363e-02 7.81059694e-02 5.53848683e-02 -5.39963618e-02 5.53848683e-02 -1.25698494e-01
3.97903249e-02 4.77658734e-02 -3.87341793e-03 4.77658734e-02 7.99940427e-02 -1.29127149e-01 -3.87341793e-03 -1.29127149e-01 -9.82070578e-02
8.00248332e-02 -1.11559820e-02 -1.77223943e-02 -1.11559820e-02 4.40854027e-02 -2.58868160e-02 -1.77223943e-02 -2.58868160e-02 -1.04179454e-01
8.06693509e-02 5.81300992e-06 3.89106933e-03 5.81300992e-06 5.16440105e-02 -3.09185323e-03 3.89106933e-03 -3.09185323e-03 -1.11187447e-01
7.48916212e-02 3.47605470e-03 3.59455554e-03 3.47605470e-03 5.62168891e-02 5.78192408e-03 3.59455554e-03 5.78192408e-03 -1.10640042e-01
7.76809901e-02 1.37398496e-02 8.47010722e-03 1.37398496e-02 5.74157829e-02 5.50184856e-03 8.47010722e-03 5.50184856e-03 -1.14027419e-01
8.44505224e-02 3.77260306e-03 1.00644889e-02 3.77260306e-03 5.40303579e-02 -3.41604429e-03 1.00644889e-02 -3.41604429e-03 -1.16868572e-01
6.21418441e-02 9.69768222e-03 -1.45445036e-03 9.69768222e-03 6.35071080e-02 8.78825219e-03 -1.45445036e-03 8.78825219e-03 -1.06574088e-01
6.27979795e-02 1.91389860e-02 4.71203108e-03 1.91389860e-02 6.33709310e-02 8.29334425e-03 4.71203108e-03 8.29334425e-03 -1.07114439e-01
5.29655572e-02 6.05320721e-03 -1.00914488e-03 6.05320721e-03 6.39121039e-02 2.46668351e-03 -1.00914488e-03 2.46668351e-03 -9.94191915e-02
4.80631264e-02 9.50261431e-03 4.32267552e-04 9.50261431e-03 6.56903787e-02 1.11839811e-02 4.32267552e-04 1.11839811e-02 -9.68994349e-02
4.73328233e-02 -6.18555443e-03 -6.28664187e-04 -6.18555443e-03 5.95093723e-02 1.43128121e-03 -6.28664187e-04 1.43128121e-03 -9.06885304e-02
4.21352149e-02 -5.48911130e-03 -2.96027178e-03 -5.48911130e-03 5.91387986e-02 1.36012222e-03 -2.96027178e-03 1.36012222e-03 -8.56087096e-02
4.12942125e-02 -6.33783010e-03 -4.88566735e-03 -6.33783010e-03 5.67432167e-02 -2.02924106e-03 -4.88566735e-03 -2.02924106e-03 -8.24627671e-02
4.28776462e-02 -1.03703166e-02 -9.21360124e-03 -1.03703166e-02 5.07025523e-02 -2.76487898e-03 -9.21360124e-03 -2.76487898e-03 -7.83270095e-02
3.63160428e-02 1.59068318e-03 8.84522597e-04 1.59068318e-03 6.04782905e-02 -2.21303885e-03 8.84522597e-04 -2.21303885e-03 -8.16686824e-02
4.18899432e-02 -8.90620262e-03 -3.65079660e-03 -8.90620262e-03 5.27505912e-02 -1.40128196e-02 -3.65079660e-03 -1.40128196e-02 -7.97197856e-02
8.98833824e-02 1.73082993e-02 2.47798381e-02 1.73082993e-02 5.60255507e-02 7.37750996e-03 2.47798381e-02 7.37750996e-03 -1.22653387e-01
9.26453769e-02 9.93111008e-03 2.97709601e-02 9.93111008e-03 6.14440069e-02 -8.87284614e-03 2.97709601e-02 -8.87284614e-03 -1.29816234e-01
6.94922041e-02 2.55216558e-02 2.96080562e-03 2.55216558e-02 5.59746642e-02 4.37765043e-03 2.96080562e-03 4.37765043e-03 -1.06363745e-01
4.32686887e-02 2.03808697e-02 -2.24557470e-02 2.03808697e-02 4.92495578e-02 -2.15879653e-03 -2.24557470e-02 -2.15879653e-03 -7.75200799e-02
2.95488965e-02 -7.69779685e-04 -2.65284191e-02 -7.69779685e-04 4.73792244e-02 -1.60887644e-03 -2.65284191e-02 -1.60887644e-03 -6.44859288e-02
2.71246104e-02 -1.39338786e-02 -3.24611515e-02 -1.39338786e-02 4.24819716e-02 -1.16646643e-02 -3.24611515e-02 -1.16646643e-02 -5.80315652e-02
3.10606255e-02 -2.11370196e-02 -3.77379842e-02 -2.11370196e-02 3.73479600e-02 -1.89659890e-02 -3.77379842e-02 -1.89659890e-02 -5.70160734e-02
1.00290060e-01 -2.38827880e-03 6.53846065e-02 -2.38827880e-03 5.51661868e-02 -1.50389925e-02 6.53846065e-02 -1.50389925e-02 -1.32590033e-01
9.83792643e-02 -1.73278755e-02 5.89922778e-02 -1.73278755e-02 6.18847845e-02 -1.73299120e-02 5.89922778e-02 -1.73299120e-02 -1.37862546e-01
8.19314780e-02 1.69882850e-02 1.08284085e-02 1.69882850e-02 4.10611747e-02 -3.81218468e-02 1.08284085e-02 -3.81218468e-02 -1.03182948e-01
3.69804373e-02 2.26512828e-02 -4.07092444e-02 2.26512828e-02 1.59751591e-02 -2.53733724e-02 -4.07092444e-02 -2.53733724e-02 -4.01453273e-02
1.48788616e-02 -7.29892775e-02 -8.85402560e-02 -7.29892775e-02 -3.57801057e-02 -9.71001908e-02 -8.85402560e-02 -9.71001908e-02 4.84008789e-02
3.35728249e-04 4.01165624e-03 -1.56035995e-02 4.01165624e-03 7.64071064e-03 -7.26974681e-03 -1.56035995e-02 -7.26974681e-03 -1.59482145e-03
9.64546818e-02 -2.25213589e-05 -3.40968929e-03 -2.25213589e-05 7.96111589e-02 5.24958372e-02 -3.40968929e-03 5.24958372e-02 -1.49926452e-01
9.74917759e-02 1.27433961e-02 -3.79281281e-02 1.27433961e-02 9.18046633e-02 4.76370441e-02 -3.79281281e-02 4.76370441e-02 -1.61641434e-01
1.08649496e-01 -2.25571871e-02 2.67649135e-02 -2.25571871e-02 5.62220570e-02 -5.76529857e-02 2.67649135e-02 -5.76529857e-02 -1.44535743e-01
8.54617779e-02 -6.03312363e-03 -2.57096705e-02 -6.03312363e-03 1.07995701e-01 3.54401224e-02 -2.57096705e-02 3.54401224e-02 -1.64290088e-01
8.50499775e-02 -7.45106547e-03 1.82695505e-02 -7.45106547e-03 1.08615180e-01 -5.83264104e-04 1.82695505e-02 -5.83264104e-04 -1.62317451e-01
9.76574365e-02 -5.55013819e-03 9.30234650e-03 -5.55013819e-03 8.44755322e-02 2.57694500e-02 9.30234650e-03 2.57694500e-02 -1.53876148e-01
9.49020721e-02 5.30791841e-03 1.29428855e-02 5.30791841e-03 8.25430192e-02 -1.58825899e-02 1.29428855e-02 -1.58825899e-02 -1.49957843e-01
9.13767647e-02 2.38893049e-02 -1.44949842e-02 2.38893049e-02 8.66753608e-02 -2.69347699e-02 -1.44949842e-02 -2.69347699e-02 -1.55105896e-01
1.09051717e-01 -1.44106550e-02 -3.03659537e-02 -1.44106550e-02 6.49194531e-02 4.97398027e-02 -3.03659537e-02 4.97398027e-02 -1.47298597e-01
8.20658440e-02 1.03839156e-02 1.15340184e-02 1.03839156e-02 3.13163730e-02 -3.82437850e-02 1.15340184e-02 -3.82437850e-02 -9.84590035e-02
6.23231314e-02 -2.37326148e-02 1.07936065e-02 -2.37326148e-02 4.57216492e-02 -8.80593807e-03 1.07936065e-02 -8.80593807e-03 -8.95185433e-02
-5.73674887e-02 7.60813579e-02 4.22982164e-02 7.60813579e-02 -1.77684464e-02 1.50151439e-02 4.22982164e-02 1.50151439e-02 1.41681984e-01
-1.40798250e-02 3.58316004e-02 6.24480732e-02 3.58316004e-02 -6.85317302e-03 -7.56571442e-02 6.24480732e-02 -7.56571442e-02 4.86332253e-02
1.75325921e-02 -3.73905581e-02 -1.17326431e-02 -3.73905581e-02 -2.12847187e-02 3.74550685e-02 -1.17326431e-02 3.74550685e-02 3.78762059e-03
-1.07307131e-02 -6.39793083e-02 -1.14726875e-02 -6.39793083e-02 1.88139473e-03 -1.03377521e-02 -1.14726875e-02 -1.03377521e-02 8.68769635e-03
-2.66006100e-05 -4.64259028e-05 7.31893451e-05 -4.64259028e-05 2.96023209e-05 -5.19097048e-05 7.31893451e-05 -5.19097048e-05 -1.01262121e-05
-2.09072969e-05 7.15954775e-06 4.90566936e-06 7.15954775e-06 -6.36864456e-07 3.83125262e-05 4.90566936e-06 3.83125262e-05 1.53436558e-05
2.43270279e-05 -2.90865519e-05 1.55175694e-05 -2.90865519e-05 -8.73493536e-06 -6.87388965e-05 1.55175694e-05 -6.87388965e-05 -2.05965625e-05
1.16721549e-05 -8.14602245e-05 -6.07931652e-05 -8.14602245e-05 1.47067622e-05 6.20750870e-05 -6.07931652e-05 6.20750870e-05 -3.28425594e-05
1.75368294e-04 9.29272079e-05 5.26573356e-05 9.29272079e-05 -1.25986160e-04 1.07105021e-05 5.26573356e-05 1.07105021e-05 -2.19519671e-05
4.84218587e-05 -2.07367411e-05 -1.08892091e-05 -2.07367411e-05 -1.03850141e-04 4.37814003e-05 -1.08892091e-05 4.37814003e-05 -1.13213658e-06
-7.74742584e-05 4.41110624e-05 6.64364961e-07 4.41110624e-05 2.90338021e-05 -7.24780402e-05 6.64364961e-07 -7.24780402e-05 1.99847673e-05
-1.58410610e-04 -2.68543319e-04 -4.35459939e-06 -2.68543319e-04 6.51496060e-05 -2.78303038e-05 -4.35459939e-06 -2.78303038e-05 1.13597453e-04
8.59104693e-02 -4.96182474e-06 3.97104304e-06 -4.96182474e-06 5.39760776e-02 -2.39654037e-06 3.97104304e-06 -2.39654037e-06 -1.17828801e-01
7.87625648e-02 6.56764559e-03 -9.79596734e-06 6.56764559e-03 5.86744100e-02 4.73321136e-03 -9.79596734e-06 4.73321136e-03 -1.16122909e-01
8.40064436e-02 2.01360560e-02 3.87058669e-03 2.01360560e-02 5.52761573e-02 7.73283013e-03 3.87058669e-03 7.73283013e-03 -1.17245181e-01
9.25091133e-02 5.91896940e-03 1.82416057e-03 5.91896940e-03 5.19177783e-02 -7.38025483e-06 1.82416057e-03 -7.38025483e-06 -1.21626977e-01
6.27924129e-02 6.50938437e-03 -4.35271613e-05 6.50938437e-03 6.78923763e-02 1.08262370e-02 -4.35271613e-05 1.08262370e-02 -1.11084647e-01
6.48765424e-02 2.57347603e-02 4.62587795e-03 2.57347603e-02 6.41729683e-02 7.57354673e-03 4.62587795e-03 7.57354673e-03 -1.09432982e-01
4.91350442e-02 1.05934665e-02 -3.36775247e-05 1.05934665e-02 7.16468915e-02 7.16002285e-03 -3.36775247e-05 7.16002285e-03 -1.02867242e-01
4.74907765e-02 1.66444876e-02 7.16004765e-03 1.66444876e-02 6.96543958e-02 1.15935046e-02 7.16004765e-03 1.15935046e-02 -1.00439299e-01
4.10098936e-02 7.92707986e-04 8.58836393e-06 7.92707986e-04 6.99678585e-02 2.52898887e-03 8.58836393e-06 2.52898887e-03 -9.45593826e-02
3.75720430e-02 1.78988929e-03 1.27519653e-02 1.78988929e-03 6.65647909e-02 9.56497481e-03 1.27519653e-02 9.56497481e-03 -8.94285813e-02
3.85883376e-02 -4.26339265e-03 -4.74040280e-06 -4.26339265e-03 6.60391226e-02 -4.69428865e-04 -4.74040280e-06 -4.69428865e-04 -8.90224800e-02
3.17123742e-02 -9.06096597e-03 1.37212581e-02 -9.06096597e-03 6.10431600e-02 1.71155247e-03 1.37212581e-02 1.71155247e-03 -7.88779296e-02
3.52840498e-02 -2.23673768e-02 5.70332668e-05 -2.23673768e-02 7.04827979e-02 6.27575815e-03 5.70332668e-05 6.27575815e-03 -9.09482986e-02
2.87373327e-02 -1.39649692e-02 1.76409073e-02 -1.39649692e-02 6.36666641e-02 -1.76838292e-02 1.76409073e-02 -1.76838292e-02 -7.91306086e-02
9.21904985e-02 2.64399655e-02 -9.51201702e-03 2.64399655e-02 6.55078785e-02 1.44889278e-02 -9.51201702e-03 1.44889278e-02 -1.33591812e-01
1.02241814e-01 5.14837867e-03 -4.62395744e-03 5.14837867e-03 6.88326601e-02 -9.19928061e-06 -4.62395744e-03 -9.19928061e-06 -1.45520426e-01
6.75350297e-02 4.72126137e-02 4.29848064e-04 4.72126137e-02 5.67157697e-02 2.07092399e-02 4.29848064e-04 2.07092399e-02 -1.04888342e-01
3.87035240e-02 2.82068460e-02 1.04764034e-02 2.82068460e-02 5.13271587e-02 1.37632326e-02 1.04764034e-02 1.37632326e-02 -7.58749042e-02
2.16011466e-02 -2.00109548e-03 1.41786244e-02 -2.00109548e-03 4.03710078e-02 1.11321136e-02 1.41786244e-02 1.11321136e-02 -5.10103516e-02
1.56723305e-02 -1.42836068e-02 1.61628048e-02 -1.42836068e-02 3.29578272e-02 -2.56121694e-03 1.61628048e-02 -2.56121694e-03 -3.93469334e-02
2.25997930e-02 -1.74663072e-02 9.99393919e-03 -1.74663072e-02 2.36820201e-02 -1.19315782e-02 9.99393919e-03 -1.19315782e-02 -3.74753661e-02
1.07836604e-01 -6.46413164e-03 3.75792310e-02 -6.46413164e-03 8.91593434e-02 1.98977897e-02 3.75792310e-02 1.98977897e-02 -1.77476257e-01
1.14078283e-01 -5.63621428e-03 2.53457613e-02 -5.63621428e-03 1.00811407e-01 -6.73555915e-05 2.53457613e-02 -6.73555915e-05 -1.94412351e-01
7.20220568e-02 2.91875273e-02 8.37346166e-03 2.91875273e-02 4.28610295e-02 3.07499661e-02 8.37346166e-03 3.07499661e-02 -9.78523865e-02
2.37091994e-02 1.63604507e-02 9.85937659e-03 1.63604507e-02 1.43411678e-02 1.49866131e-02 9.85937659e-03 1.49866131e-02 -2.65302728e-02
1.86651770e-04 -7.45976827e-03 8.35454339e-04 -7.45976827e-03 6.45513102e-03 7.45018668e-04 8.35454339e-04 7.45018668e-04 -2.21852996e-03
-3.39843157e-03 -7.17445029e-03 -1.97910314e-02 -7.17445029e-03 9.96987789e-03 -8.41279121e-04 -1.97910314e-02 -8.41279121e-04 -3.73787682e-03
-7.39875036e-04 -5.33795598e-03 7.22668017e-04 -5.33795598e-03 4.73913385e-03 5.40862689e-04 7.22668017e-04 5.40862689e-04 -1.08828547e-03
8.19746609e-04 -1.99196829e-02 -1.86043038e-02 -1.99196829e-02 1.37850828e-03 -3.14058430e-04 -1.86043038e-02 -3.14058430e-04 3.50182207e-04
2.32928665e-03 -1.28128881e-02 1.77056360e-03 -1.28128881e-02 -1.69582333e-03 2.06831617e-04 1.77056360e-03 2.06831617e-04 1.94078294e-03
2.52921693e-02 -2.44150497e-03 -2.55343374e-02 -2.44150497e-03 -1.61192296e-02 -5.95723372e-02 -2.55343374e-02 -5.95723372e-02 1.47862732e-03
-1.43569428e-03 -1.72123738e-03 1.16756610e-02 -1.72123738e-03 -3.55118245e-04 9.68836481e-03 1.16756610e-02 9.68836481e-03 1.22995009e-02
5.27381971e-02 3.41247395e-02 -9.96382907e-03 3.41247395e-02 6.27169833e-02 8.47143978e-02 -9.96382907e-03 8.47143978e-02 -1.03691690e-01
2.92916484e-04 -1.42482326e-04 -6.28486921e-04 -1.42482326e-04 3.58598991e-04 5.46231111e-03 -6.28486921e-04 5.46231111e-03 -5.67997631e-06
-1.61657911e-03 -4.38239924e-03 2.05473048e-04 -4.38239924e-03 1.16670302e-03 1.49223061e-04 2.05473048e-04 1.49223061e-04 1.17541478e-03
-1.85374251e-04 2.32276889e-04 2.40438947e-04 2.32276889e-04 3.77614333e-04 -1.34215879e-05 2.40438947e-04 -1.34215879e-05 -3.43576667e-05
-1.55195442e-04 -2.48365257e-04 -9.70140500e-05 -2.48365257e-04 1.89087859e-04 8.64797512e-05 -9.70140500e-05 8.64797512e-05 1.22873040e-04
2.79725503e-04 -1.07769434e-03 5.11051301e-04 -1.07769434e-03 -5.24228883e-04 1.41184823e-05 5.11051301e-04 1.41184823e-05 3.77707218e-04
4.47402686e-04 -1.23856681e-03 -1.46634316e-04 -1.23856681e-03 -1.04296509e-03 -9.02519023e-05 -1.46634316e-04 -9.02519023e-05 7.25099806e-04
1.06780842e-01 2.45504454e-02 -2.47461796e-02 2.45504454e-02 1.67090431e-01 5.86852664e-04 -2.47461796e-02 5.86852664e-04 -2.45066017e-01
1.34577036e-01 1.12523101e-02 -1.25000887e-02 1.12523101e-02 1.49677217e-01 2.54360642e-02 -1.25000887e-02 2.54360642e-02 -2.58292317e-01
1.03223612e-01 -2.64937822e-02 2.49326366e-02 -2.64937822e-02 1.12117735e-01 2.94929085e-02 2.49326366e-02 2.94929085e-02 -1.82261030e-01
1.06416881e-01 -1.98216084e-02 3.67301777e-02 -1.98216084e-02 1.19976990e-01 2.31170678e-04 3.67301777e-02 2.31170678e-04 -1.93470649e-01
7.10311897e-05 3.30279909e-05 -2.53112319e-06 3.30279909e-05 -6.19994589e-05 -5.40184992e-05 -2.53112319e-06 -5.40184992e-05 2.55042935e-05
1.23016849e-02 -1.49696459e-02 4.00053759e-05 -1.49696459e-02 -4.78878526e-03 3.69784345e-04 4.00053759e-05 3.69784345e-04 -5.63436163e-03
9.19638442e-05 7.46989572e-05 2.49742652e-05 7.46989572e-05 -1.26753752e-04 3.63445524e-05 2.49742652e-05 3.63445524e-05 -4.65309386e-05
1.18737631e-01 -2.60271896e-02 1.99109521e-02 -2.60271896e-02 7.73502365e-02 2.06081234e-02 1.99109521e-02 2.06081234e-02 -1.66974641e-01
1.23067513e-01 9.04202275e-03 1.61802433e-02 9.04202275e-03 6.61951676e-02 -1.74945570e-04 1.61802433e-02 -1.74945570e-04 -1.58002764e-01
9.66398567e-02 6.93626050e-03 6.06924831e-03 6.93626050e-03 8.87500681e-02 3.76610383e-02 6.06924831e-03 3.76610383e-02 -1.60518743e-01
1.16081614e-01 -2.70001837e-02 -3.36924638e-03 -2.70001837e-02 6.70897309e-02 4.30335179e-02 -3.36924638e-03 4.30335179e-02 -1.56327173e-01
5.41398805e-02 1.35576515e-02 -2.03336542e-02 1.35576515e-02 2.97881057e-02 1.72558464e-02 -2.03336542e-02 1.72558464e-02 -6.28533550e-02
3.99998646e-02 -1.42100942e-02 -1.44528612e-02 -1.42100942e-02 5.38463965e-02 2.02624789e-02 -1.44528612e-02 2.02624789e-02 -7.16562066e-02
-1.12345295e-02 -3.82440641e-02 -8.02501978e-04 -3.82440641e-02 8.61575961e-03 3.85888387e-04 -8.02501978e-04 3.85888387e-04 6.15854599e-03
-3.29114992e-04 -4.90659877e-05 -6.10452771e-05 -4.90659877e-05 1.30986256e-04 1.48350528e-05 -6.10452771e-05 1.48350528e-05 2.24601728e-04
-9.27649235e-05 6.18632184e-05 -2.80890822e-06 6.18632184e-05 5.48054095e-06 -3.99716919e-06 -2.80890822e-06 -3.99716919e-06 3.56736273e-05
</DataArray>
<DataArray type="Float32" Name="Plastic_strain_components" NumberOfComponents="9" format="ascii">
3.73257021e-02 -7.97941989e-03 2.69380899e-03 -7.97941989e-03 3.21202795e-02 7.54825569e-03 2.69380899e-03 7.54825569e-03 -5.82781187e-02
3.20576535e-02 -1.48507744e-02 6.94394577e-04 -1.48507744e-02 3.43760578e-02 1.61146658e-02 6.94394577e-04 1.61146658e-02 -5.36087202e-02
3.57022653e-02 4.29679290e-04 2.07386632e-03 4.29679290e-04 4.87789996e-02 -5.18881646e-03 2.07386632e-03 -5.18881646e-03 -6.89397780e-02
3.85089042e-02 -1.54460993e-03 -3.05053807e-03 -1.54460993e-03 4.39158129e-02 -2.74781138e-04 -3.05053807e-03 -2.74781138e-04 -6.94300104e-02
2.04242300e-02 7.38914125e-04 1.44910409e-02 7.38914125e-04 2.60588459e-02 5.98575396e-04 1.44910409e-02 5.98575396e-04 -3.25773424e-02
2.56087842e-02 -8.82626145e-03 -6.62195542e-03 -8.82626145e-03 3.89567248e-02 2.33121754e-02 -6.62195542e-03 2.33121754e-02 -4.87540396e-02
6.24766629e-02 -9.99295106e-03 -1.02382630e-02 -9.99295106e-03 7.88855851e-02 -1.60222892e-02 -1.02382630e-02 -1.60222892e-02 -1.22006845e-01
5.17667606e-02 1.83049217e-02 4.94957791e-03 1.83049217e-02 6.34525102e-02 2.10061964e-02 4.94957791e-03 2.10061964e-02 -1.00229731e-01
5.32107670e-02 3.38342739e-04 -2.13011263e-02 3.38342739e-04 5.79156280e-02 2.86475681e-02 -2.13011263e-02 2.86475681e-02 -9.59373992e-02
6.90532662e-02 -1.50150317e-03 -1.89241976e-02 -1.50150317e-03 7.50778094e-02 2.31881579e-02 -1.89241976e-02 2.31881579e-02 -1.22655395e-01
7.90595040e-02 2.92154681e-02 -1.07691302e-01 2.92154681e-02 7.82534077e-02 -2.48067255e-02 -1.07691302e-01 -2.48067255e-02 -1.34842905e-01
9.10289176e-02 2.60148477e-02 -6.85168989e-02 2.60148477e-02 4.59461678e-02 -1.08228007e-02 -6.85168989e-02 -1.08228007e-02 -1.12000585e-01
0.00000000e+00 0.00000000e+00 0.00000000e+00 0.00000000e+00 0.00000000e+00 0.00000000e+00 0.00000000e+00 0.00000000e+00 0.00000000e+00
0.00000000e+00 0.00000000e+00 0.00000000e+00 0.00000000e+00 0.00000000e+00 0.00000000e+00 0.00000000e+00 0.00000000e+00 0.00000000e+00
0.00000000e+00 0.00000000e+00 0.00000000e+00 0.00000000e+00 0.00000000e+00 0.00000000e+00 0.00000000e+00 0.00000000e+00 0.00000000e+00
0.00000000e+00 0.00000000e+00 0.00000000e+00 0.00000000e+00 0.00000000e+00 0.00000000e+00 0.00000000e+00 0.00000000e+00 0.00000000e+00
0.00000000e+00 0.00000000e+00 0.00000000e+00 0.00000000e+00 0.00000000e+00 0.00000000e+00 0.00000000e+00 0.00000000e+00 0.00000000e+00
0.00000000e+00 0.00000000e+00 0.00000000e+00 0.00000000e+00 0.00000000e+00 0.00000000e+00 0.00000000e+00 0.00000000e+00 0.00000000e+00
0.00000000e+00 0.00000000e+00 0.00000000e+00 0.00000000e+00 0.00000000e+00 0.00000000e+00 0.00000000e+00 0.00000000e+00 0.00000000e+00
0.00000000e+00 0.00000000e+00 0.00000000e+00 0.00000000e+00 0.00000000e+00 0.00000000e+00 0.00000000e+00 0.00000000e+00 0.00000000e+00
5.18146176e-02 8.65506854e-06 9.90988221e-03 8.65506854e-06 5.44265732e-02 -2.17893184e-03 9.90988221e-03 -2.17893184e-03 -8.94650668e-02
5.32073239e-02 2.74259940e-03 6.42394170e-03 2.74259940e-03 5.25427181e-02 2.95317540e-03 6.42394170e-03 2.95317540e-03 -8.90392475e-02
5.14649223e-02 -8.89147964e-03 1.17616843e-02 -8.89147964e-03 5.34879696e-02 4.02424761e-03 1.17616843e-02 4.02424761e-03 -8.83032912e-02
4.99184746e-02 1.97525957e-03 1.03485061e-02 1.97525957e-03 5.56334602e-02 -5.60458482e-03 1.03485061e-02 -5.60458482e-03 -8.88586789e-02
6.59767166e-02 -1.29484251e-05 1.19277742e-02 -1.29484251e-05 5.07495217e-02 7.64409982e-04 1.19277742e-02 7.64409982e-04 -9.82331857e-02
6.37305584e-02 1.70869651e-03 1.95735187e-03 1.70869651e-03 5.37925502e-02 1.06096831e-02 1.95735187e-03 1.06096831e-02 -9.89201441e-02
6.51002731e-02 3.84776585e-03 1.45806798e-02 3.84776585e-03 5.42009389e-02 4.82184236e-03 1.45806798e-02 4.82184236e-03 -1.00357112e-01
6.70463834e-02 3.39375151e-03 1.50146647e-02 3.39375151e-03 5.39600849e-02 -9.23904032e-03 1.50146647e-02 -9.23904032e-03 -1.01799345e-01
5.71854822e-02 -1.12578480e-02 9.74436803e-03 -1.12578480e-02 4.68736039e-02 5.41201720e-04 9.74436803e-03 5.41201720e-04 -8.75639394e-02
5.59227564e-02 -1.17430552e-02 1.21835359e-02 -1.17430552e-02 5.19697429e-02 5.37249358e-03 1.21835359e-02 5.37249358e-03 -9.07164309e-02
5.98438140e-02 2.72541546e-03 -3.90492809e-04 2.72541546e-03 5.42668253e-02 5.21540548e-03 -3.90492809e-04 5.21540548e-03 -9.60956588e-02
5.91810537e-02 4.03921527e-03 1.30600483e-02 4.03921527e-03 5.81767578e-02 1.55313497e-02 1.30600483e-02 1.55313497e-02 -9.87750739e-02
6.09471267e-02 1.03495305e-03 4.06392652e-03 1.03495305e-03 4.41249879e-02 6.12559461e-03 4.06392652e-03 6.12559461e-03 -8.83933641e-02
5.68282895e-02 -5.35999442e-03 -4.62142465e-03 -5.35999442e-03 4.60995249e-02 -4.51478921e-03 -4.62142465e-03 -4.51478921e-03 -8.50987199e-02
5.84018910e-02 -6.21736702e-03 1.76066058e-03 -6.21736702e-03 4.91819913e-02 6.39376941e-03 1.76066058e-03 6.39376941e-03 -9.05813985e-02
5.59590580e-02 -5.56299888e-03 -4.80003248e-03 -5.56299888e-03 5.40842102e-02 5.34019558e-03 -4.80003248e-03 5.34019558e-03 -9.25940787e-02
6.37677554e-02 2.73356063e-03 -5.23008022e-03 2.73356063e-03 4.18385332e-02 -1.83966680e-04 -5.23008022e-03 -1.83966680e-04 -8.88047218e-02
6.35986039e-02 1.09728531e-03 -8.86963573e-03 1.09728531e-03 5.89215350e-02 4.72873799e-05 -8.86963573e-03 4.72873799e-05 -1.03655382e-01
5.68252038e-02 -2.87236273e-03 -7.30866462e-03 -2.87236273e-03 4.41789692e-02 5.37670226e-03 -7.30866462e-03 5.37670226e-03 -8.50295350e-02
5.42721404e-02 -1.03978298e-02 -1.11498238e-02 -1.03978298e-02 4.49175118e-02 -6.26937598e-03 -1.11498238e-02 -6.26937598e-03 -8.28406569e-02
6.15170430e-02 4.95083470e-04 2.59159977e-03 4.95083470e-04 4.32122694e-02 -3.13201646e-03 2.59159977e-03 -3.13201646e-03 -8.81142952e-02
6.20446219e-02 -6.36711091e-04 4.39092837e-04 -6.36711091e-04 5.61614498e-02 3.27361147e-03 4.39092837e-04 3.27361147e-03 -9.94839165e-02
5.06459009e-02 -8.04211129e-04 -1.28144373e-02 -8.04211129e-04 4.29527862e-02 -1.71229379e-03 -1.28144373e-02 -1.71229379e-03 -7.87810534e-02
5.41066984e-02 -3.16683105e-03 -1.08930324e-02 -3.16683105e-03 5.07717938e-02 -6.02118953e-03 -1.08930324e-02 -6.02118953e-03 -8.83955844e-02
5.92839252e-02 -4.19323231e-04 1.99354801e-03 -4.19323231e-04 4.40290514e-02 -2.70531606e-03 1.99354801e-03 -2.70531606e-03 -8.68930109e-02
5.77453813e-02 -5.00716212e-03 -2.92078039e-03 -5.00716212e-03 5.70232244e-02 -2.33213940e-03 -2.92078039e-03 -2.33213940e-03 -9.65994745e-02
4.66312170e-02 1.36686168e-02 -8.95270100e-03 1.36686168e-02 4.42300253e-02 -1.23598552e-02 -8.95270100e-03 -1.23598552e-02 -7.64301568e-02
5.23329312e-02 2.13189912e-03 -7.36447790e-03 2.13189912e-03 4.93185883e-02 -7.45174958e-03 -7.36447790e-03 -7.45174958e-03 -8.54632463e-02
4.71474142e-02 -1.52819337e-02 3.05950252e-02 -1.52819337e-02 5.81035689e-02 1.78880291e-03 3.05950252e-02 1.78880291e-03 -8.79755467e-02
4.00924142e-02 -1.34695619e-02 2.28044011e-02 -1.34695619e-02 6.24278802e-02 -3.46676575e-03 2.28044011e-02 -3.46676575e-03 -8.60380605e-02
6.98850621e-02 1.42154282e-03 3.99571490e-02 1.42154282e-03 5.86095736e-02 1.29296910e-02 3.99571490e-02 1.29296910e-02 -1.07801529e-01
6.67628264e-02 -2.04515627e-05 2.92307574e-02 -2.04515627e-05 5.91607839e-02 -1.85367357e-03 2.92307574e-02 -1.85367357e-03 -1.05787700e-01
6.05845105e-02 -6.99830591e-04 2.30380623e-02 -6.99830591e-04 5.58083680e-02 -3.67713294e-03 2.30380623e-02 -3.67713294e-03 -9.86729850e-02
6.31269510e-02 1.31680838e-02 1.28770901e-02 1.31680838e-02 5.94812785e-02 -6.23884040e-03 1.28770901e-02 -6.23884040e-03 -1.02779185e-01
7.21287429e-02 -1.61756686e-02 -6.28529895e-02 -1.61756686e-02 6.60335746e-02 -8.63101892e-04 -6.28529895e-02 -8.63101892e-04 -1.14783123e-01
5.40401457e-02 8.08144886e-03 -4.72070023e-02 8.08144886e-03 5.87791769e-02 -8.48407245e-03 -4.72070023e-02 -8.48407245e-03 -9.62161975e-02
6.81997761e-02 -2.24330602e-03 -1.84582949e-02 -2.24330602e-03 7.80431200e-02 1.21486557e-02 -1.84582949e-02 1.21486557e-02 -1.22790817e-01
5.89261733e-02 -7.66194407e-03 -6.16339894e-02 -7.66194407e-03 4.76214111e-02 7.37820985e-03 -6.16339894e-02 7.37820985e-03 -8.79669070e-02
6.78871544e-02 -5.17258456e-03 -1.61115872e-03 -5.17258456e-03 7.60573670e-02 1.13177201e-02 -1.61115872e-03 1.13177201e-02 -1.21214699e-01
5.92467049e-02 2.40961227e-03 -2.33060047e-02 2.40961227e-03 6.81750383e-02 -2.43384019e-03 -2.33060047e-02 -2.43384019e-03 -1.07169934e-01
6.06827289e-02 -4.28626360e-03 -4.27290366e-03 -4.28626360e-03 7.91546181e-02 3.67184321e-03 -4.27290366e-03 3.67184321e-03 -1.17677219e-01
5.52748349e-02 -6.52546715e-03 -2.46641533e-02 -6.52546715e-03 7.04129748e-02 -1.69019988e-02 -2.46641533e-02 -1.69019988e-02 -1.05533864e-01
4.26716467e-02 -9.40257720e-03 4.39152526e-02 -9.40257720e-03 5.92881548e-02 2.74332240e-03 4.39152526e-02 2.74332240e-03 -8.56624767e-02
3.55515182e-02 3.09382577e-03 3.28409616e-02 3.09382577e-03 5.61881289e-02 3.85165738e-03 3.28409616e-02 3.85165738e-03 -7.66039155e-02
7.64274054e-02 -4.66943126e-03 4.89552186e-02 -4.66943126e-03 6.37606962e-02 -8.89923982e-03 4.89552186e-02 -8.89923982e-03 -1.18225594e-01
6.05722815e-02 1.51270704e-03 4.67897430e-02 1.51270704e-03 6.35801163e-02 -1.08652478e-02 4.67897430e-02 -1.08652478e-02 -1.04020061e-01
5.16621490e-02 -2.81738723e-02 5.81842186e-02 -2.81738723e-02 7.03164414e-02 -6.49866981e-02 5.81842186e-02 -6.49866981e-02 -9.92049240e-02
8.10876168e-02 -9.18555073e-05 1.37439562e-02 -9.18555073e-05 6.20258667e-02 -5.32473356e-02 1.37439562e-02 -5.32473356e-02 -1.20825477e-01
-2.33162362e-02 -1.23208262e-01 -2.22723454e-01 -1.23208262e-01 -4.74073831e-03 -1.36123240e-01 -2.22723454e-01 -1.36123240e-01 4.13405485e-02
2.13951692e-02 -5.26617188e-03 -2.03499993e-02 -5.26617188e-03 1.76224634e-02 -3.50451718e-02 -2.03499993e-02 -3.50451718e-02 -2.32083350e-02
3.19431649e-02 -3.33241836e-03 1.24546008e-02 -3.33241836e-03 4.07570590e-02 2.53790254e-02 1.24546008e-02 2.53790254e-02 -5.95829132e-02
3.69719118e-02 -8.19630106e-03 2.93931976e-02 -8.19630106e-03 4.91032703e-02 8.93043436e-03 2.93931976e-02 8.93043436e-03 -7.27285370e-02
2.30747210e-02 -5.91131141e-03 2.89981200e-02 -5.91131141e-03 3.02586276e-02 2.22468334e-02 2.89981200e-02 2.22468334e-02 -3.37214172e-02
3.66324049e-02 -6.02963829e-03 1.63932077e-02 -6.02963829e-03 4.54103532e-02 1.46757858e-02 1.63932077e-02 1.46757858e-02 -6.19211616e-02
4.05033343e-02 6.90728554e-03 -3.36800539e-03 6.90728554e-03 5.11437291e-02 5.74059784e-03 -3.36800539e-03 5.74059784e-03 -7.84002952e-02
7.20029218e-02 1.36633047e-02 -1.96517914e-02 1.36633047e-02 8.30038802e-02 4.29174979e-02 -1.96517914e-02 4.29174979e-02 -1.35053760e-01
4.07702117e-02 1.55963821e-02 8.66698124e-03 1.55963821e-02 5.93837826e-02 1.00035091e-02 8.66698124e-03 1.00035091e-02 -7.92347770e-02
3.73505889e-02 7.30408673e-03 1.74804290e-02 7.30408673e-03 5.28517487e-02 8.30101501e-02 1.74804290e-02 8.30101501e-02 -7.33086867e-02
9.77290347e-02 -1.20862401e-02 7.84807559e-02 -1.20862401e-02 8.68071951e-02 3.39252553e-02 7.84807559e-02 3.39252553e-02 -1.58210225e-01
5.25320038e-02 -2.08500464e-02 -3.91975485e-02 -2.08500464e-02 8.32431287e-02 -1.53747194e-02 -3.91975485e-02 -1.53747194e-02 -1.13517588e-01
3.64070274e-02 -4.34154831e-03 7.26688746e-03 -4.34154831e-03 5.02893403e-02 1.13797430e-02 7.26688746e-03 1.13797430e-02 -7.21756071e-02
2.27445168e-02 1.29552438e-02 -8.02054652e-03 1.29552438e-02 2.27670879e-02 -4.63402178e-03 -8.02054652e-03 -4.63402178e-03 -2.34702872e-02
5.22919111e-02 -1.29974135e-02 1.65985618e-02 -1.29974135e-02 7.54168183e-02 -1.71182761e-02 1.65985618e-02 -1.71182761e-02 -1.06697660e-01
7.27133807e-02 -2.18534148e-02 -5.34185823e-02 -2.18534148e-02 8.33886126e-02 6.15139646e-02 -5.34185823e-02 6.15139646e-02 -1.31696163e-01
3.52194483e-02 5.23485243e-02 -7.00676969e-04 5.23485243e-02 7.80060763e-02 -1.29553786e-01 -7.00676969e-04 -1.29553786e-01 -9.00507209e-02
7.81175302e-02 -7.77342333e-03 -1.28504705e-02 -7.77342333e-03 4.44423010e-02 -3.45296535e-02 -1.28504705e-02 -3.45296535e-02 -1.02045383e-01
8.04040879e-02 7.98845576e-06 3.88066936e-03 7.98845576e-06 5.14352247e-02 -3.10146087e-03 3.88066936e-03 -3.10146087e-03 -1.10840049e-01
7.47786332e-02 3.47754254e-03 3.61170806e-03 3.47754254e-03 5.61420759e-02 5.73870900e-03 3.61170806e-03 5.73870900e-03 -1.10152056e-01
7.74404723e-02 1.36980049e-02 8.45337083e-03 1.36980049e-02 5.72477924e-02 5.47280666e-03 8.45337083e-03 5.47280666e-03 -1.13274759e-01
8.43405332e-02 3.76388186e-03 1.00636886e-02 3.76388186e-03 5.39750233e-02 -3.39010009e-03 1.00636886e-02 -3.39010009e-03 -1.16263928e-01
6.21057609e-02 9.65550449e-03 -1.44274731e-03 9.65550449e-03 6.34386865e-02 8.74082092e-03 -1.44274731e-03 8.74082092e-03 -1.05690917e-01
6.27705832e-02 1.90540876e-02 4.67440969e-03 1.90540876e-02 6.33336147e-02 8.19696313e-03 4.67440969e-03 8.19696313e-03 -1.06057445e-01
5.29003125e-02 6.02994440e-03 -1.05855137e-03 6.02994440e-03 6.37827432e-02 2.43597996e-03 -1.05855137e-03 2.43597996e-03 -9.82526112e-02
4.80666673e-02 9.50676247e-03 4.56668960e-04 9.50676247e-03 6.53478340e-02 1.11353947e-02 4.56668960e-04 1.11353947e-02 -9.52280965e-02
4.72925203e-02 -6.11942657e-03 -6.55020296e-04 -6.11942657e-03 5.94363641e-02 1.40134559e-03 -6.55020296e-04 1.40134559e-03 -8.98585021e-02
4.26753419e-02 -5.38970023e-03 -3.22858896e-03 -5.38970023e-03 6.02283017e-02 1.20261995e-03 -3.22858896e-03 1.20261995e-03 -8.68720030e-02
4.12080530e-02 -6.32436748e-03 -4.89495101e-03 -6.32436748e-03 5.66477859e-02 -1.99721193e-03 -4.89495101e-03 -1.99721193e-03 -8.23527668e-02
4.34682663e-02 -1.09877546e-02 -9.65944247e-03 -1.09877546e-02 5.18992809e-02 -3.05371899e-03 -9.65944247e-03 -3.05371899e-03 -8.06450918e-02
3.63020469e-02 1.56096974e-03 8.48125812e-04 1.56096974e-03 6.04057908e-02 -2.14089325e-03 8.48125812e-04 -2.14089325e-03 -8.13072324e-02
4.17244602e-02 -8.88185354e-03 -3.91710084e-03 -8.88185354e-03 5.23959612e-02 -1.38830056e-02 -3.91710084e-03 -1.38830056e-02 -7.90175106e-02
7.76268104e-02 1.76227778e-02 2.03597856e-02 1.76227778e-02 4.87429888e-02 6.11316110e-03 2.03597856e-02 6.11316110e-03 -1.02462445e-01
8.56492445e-02 9.79468226e-03 2.87475565e-02 9.79468226e-03 5.43292696e-02 -8.42571957e-03 2.87475565e-02 -8.42571957e-03 -1.15262628e-01
6.00191411e-02 2.22320321e-02 2.02458601e-03 2.22320321e-02 5.11459417e-02 4.35583296e-03 2.02458601e-03 4.35583296e-03 -9.06953607e-02
4.19743913e-02 1.89382441e-02 -2.14833085e-02 1.89382441e-02 4.86718557e-02 -4.45366267e-03 -2.14833085e-02 -4.45366267e-03 -7.56405364e-02
2.73001423e-02 -9.65026739e-04 -2.81346254e-02 -9.65026739e-04 4.25608325e-02 -2.14035706e-03 -2.81346254e-02 -2.14035706e-03 -5.79861799e-02
2.26841259e-02 -1.02179337e-02 -2.99256469e-02 -1.02179337e-02 3.43975256e-02 -1.01302849e-02 -2.99256469e-02 -1.01302849e-02 -4.52221244e-02
3.08178992e-02 -2.03752046e-02 -3.62239958e-02 -2.03752046e-02 3.76045229e-02 -1.89269613e-02 -3.62239958e-02 -1.89269613e-02 -5.68313549e-02
1.07671820e-01 -1.74656340e-03 6.64407269e-02 -1.74656340e-03 5.91967603e-02 -1.48264496e-02 6.64407269e-02 -1.48264496e-02 -1.40813983e-01
1.01807214e-01 -1.72090959e-02 5.94185640e-02 -1.72090959e-02 6.54775922e-02 -1.76197036e-02 5.94185640e-02 -1.76197036e-02 -1.40584665e-01
7.98569421e-02 1.82726063e-02 6.57316755e-03 1.82726063e-02 3.92240846e-02 -4.41372857e-02 6.57316755e-03 -4.41372857e-02 -9.93733872e-02
1.08516932e-02 1.24671670e-02 -2.38271807e-02 1.24671670e-02 6.28274388e-03 -3.40134693e-03 -2.38271807e-02 -3.40134693e-03 -6.76138691e-03
9.03430581e-03 -7.09238201e-02 -9.21767950e-02 -7.09238201e-02 -3.85536999e-02 -9.63284969e-02 -9.21767950e-02 -9.63284969e-02 3.76998372e-02
-2.83821141e-03 3.56369613e-03 -7.53747298e-04 3.56369613e-03 3.38544736e-03 -6.90116221e-04 -7.53747298e-04 -6.90116221e-04 4.44638430e-03
1.15756229e-01 -3.30641714e-03 -6.23299554e-03 -3.30641714e-03 1.02899512e-01 6.29471242e-02 -6.23299554e-03 6.29471242e-02 -1.88721221e-01
1.12216969e-01 1.16800706e-02 -3.95870748e-02 1.16800706e-02 1.11266793e-01 5.12078342e-02 -3.95870748e-02 5.12078342e-02 -1.93620669e-01
1.09669473e-01 -2.31822743e-02 2.36474359e-02 -2.31822743e-02 5.35343271e-02 -6.62981058e-02 2.36474359e-02 -6.62981058e-02 -1.36347279e-01
6.46832269e-02 -2.08357997e-03 -1.65119337e-02 -2.08357997e-03 8.20799731e-02 2.54384034e-02 -1.65119337e-02 2.54384034e-02 -1.14917513e-01
6.63545873e-02 -4.78301337e-03 1.61233512e-02 -4.78301337e-03 7.69196462e-02 -2.25480198e-03 1.61233512e-02 -2.25480198e-03 -1.11823551e-01
1.06393959e-01 -2.93049682e-03 8.36325297e-03 -2.93049682e-03 9.34510678e-02 3.23922761e-02 8.36325297e-03 3.23922761e-02 -1.72013905e-01
9.47493948e-02 4.82837204e-03 1.33118769e-02 4.82837204e-03 8.30854923e-02 -1.65005643e-02 1.33118769e-02 -1.65005643e-02 -1.49990410e-01
9.89510808e-02 2.45990472e-02 -1.38300602e-02 2.45990472e-02 9.11862198e-02 -3.28595396e-02 -1.38300602e-02 -3.28595396e-02 -1.61075003e-01
1.11329982e-01 -1.66653707e-02 -2.86806161e-02 -1.66653707e-02 6.37864843e-02 4.55011018e-02 -2.86806161e-02 4.55011018e-02 -1.47048023e-01
6.60148397e-02 1.04849744e-02 7.61118933e-03 1.04849744e-02 2.67915919e-02 -1.47649089e-02 7.61118933e-03 -1.47649089e-02 -7.44473608e-02
4.23632115e-02 -2.39915197e-02 4.96162509e-03 -2.39915197e-02 3.99320063e-02 4.14101500e-03 4.96162509e-03 4.14101500e-03 -6.48807217e-02
-1.53031209e-02 3.36939618e-02 2.05850620e-02 3.36939618e-02 -9.56833083e-03 -1.17823677e-02 2.05850620e-02 -1.17823677e-02 3.44829299e-02
-2.85467645e-03 -6.67103566e-03 6.94424473e-03 -6.67103566e-03 -1.14987502e-02 1.84421148e-02 6.94424473e-03 1.84421148e-02 2.52528824e-02
1.66002633e-02 -4.27450568e-02 -1.21100408e-02 -4.27450568e-02 -2.18529764e-02 4.22992219e-02 -1.21100408e-02 4.22992219e-02 1.03935193e-02
-7.35623380e-03 -3.01361713e-02 3.49919637e-03 -3.01361713e-02 7.68969328e-03 -4.62242709e-02 3.49919637e-03 -4.62242709e-02 6.61131024e-03
0.00000000e+00 0.00000000e+00 0.00000000e+00 0.00000000e+00 0.00000000e+00 0.00000000e+00 0.00000000e+00 0.00000000e+00 0.00000000e+00
0.00000000e+00 0.00000000e+00 0.00000000e+00 0.00000000e+00 0.00000000e+00 0.00000000e+00 0.00000000e+00 0.00000000e+00 0.00000000e+00
0.00000000e+00 0.00000000e+00 0.00000000e+00 0.00000000e+00 0.00000000e+00 0.00000000e+00 0.00000000e+00 0.00000000e+00 0.00000000e+00
0.00000000e+00 0.00000000e+00 0.00000000e+00 0.00000000e+00 0.00000000e+00 0.00000000e+00 0.00000000e+00 0.00000000e+00 0.00000000e+00
1.92308264e-05 -2.94296766e-05 -2.38111188e-05 -2.94296766e-05 -4.02062095e-05 -3.65351549e-05 -2.38111188e-05 -3.65351549e-05 9.39512302e-06
0.00000000e+00 0.00000000e+00 0.00000000e+00 0.00000000e+00 0.00000000e+00 0.00000000e+00 0.00000000e+00 0.00000000e+00 0.00000000e+00
0.00000000e+00 0.00000000e+00 0.00000000e+00 0.00000000e+00 0.00000000e+00 0.00000000e+00 0.00000000e+00 0.00000000e+00 0.00000000e+00
-3.23378529e-05 -1.53834136e-04 1.33498227e-05 -1.53834136e-04 8.96515849e-06 4.46464037e-06 1.33498227e-05 4.46464037e-06 3.41863367e-05
8.57375190e-02 1.04200444e-06 2.56247586e-06 1.04200444e-06 5.38680926e-02 7.47095328e-07 2.56247586e-06 7.47095328e-07 -1.17361180e-01
7.85681680e-02 6.55347737e-03 -1.15506737e-05 6.55347737e-03 5.85519765e-02 4.72549722e-03 -1.15506737e-05 4.72549722e-03 -1.15376491e-01
8.39125644e-02 2.01417648e-02 3.87299975e-03 2.01417648e-02 5.52153578e-02 7.73706730e-03 3.87299975e-03 7.73706730e-03 -1.16882022e-01
9.23819579e-02 5.90944453e-03 1.81814359e-03 5.90944453e-03 5.18416446e-02 -3.50123082e-06 1.81814359e-03 -3.50123082e-06 -1.21115696e-01
6.27901088e-02 6.47722674e-03 -4.14512924e-05 6.47722674e-03 6.78658374e-02 1.07720708e-02 -4.14512924e-05 1.07720708e-02 -1.09981418e-01
6.48593307e-02 2.56331067e-02 4.62078722e-03 2.56331067e-02 6.41408209e-02 7.54586281e-03 4.62078722e-03 7.54586281e-03 -1.08433532e-01
4.91944756e-02 1.05117881e-02 -3.53804662e-05 1.05117881e-02 7.15701915e-02 7.12183863e-03 -3.53804662e-05 7.12183863e-03 -1.01567466e-01
4.74717943e-02 1.65702680e-02 6.89875556e-03 1.65702680e-02 6.88521545e-02 1.13374833e-02 6.89875556e-03 1.13374833e-02 -9.74752344e-02
4.10729591e-02 8.28388875e-04 4.65370249e-07 8.28388875e-04 6.98062666e-02 2.50379846e-03 4.65370249e-07 2.50379846e-03 -9.31693427e-02
3.93614285e-02 2.20713043e-03 1.32768124e-02 2.20713043e-03 6.99808029e-02 1.01643887e-02 1.32768124e-02 1.01643887e-02 -9.26665571e-02
3.86545248e-02 -4.24870430e-03 -1.03832135e-05 -4.24870430e-03 6.59075789e-02 -4.35524242e-04 -1.03832135e-05 -4.35524242e-04 -8.78784992e-02
3.38330143e-02 -1.18514413e-02 1.52069968e-02 -1.18514413e-02 6.70524947e-02 1.54147681e-03 1.52069968e-02 1.54147681e-03 -8.61364007e-02
3.55676711e-02 -2.21103579e-02 2.55585001e-05 -2.21103579e-02 7.02841803e-02 6.26627030e-03 2.55585001e-05 6.26627030e-03 -8.87603909e-02
3.17335287e-02 -1.56528181e-02 1.82299586e-02 -1.56528181e-02 6.94024991e-02 -1.90369552e-02 1.82299586e-02 -1.90369552e-02 -8.60751197e-02
8.88758153e-02 2.83396898e-02 -7.71585293e-03 2.83396898e-02 6.05115555e-02 1.44277012e-02 -7.71585293e-03 1.44277012e-02 -1.24398405e-01
1.13325011e-01 5.10914903e-03 -3.81982105e-03 5.10914903e-03 7.84988701e-02 7.36015252e-04 -3.81982105e-03 7.36015252e-04 -1.64883502e-01
5.16476659e-02 4.12773471e-02 -2.92551558e-05 4.12773471e-02 4.85171909e-02 1.60850413e-02 -2.92551558e-05 1.60850413e-02 -7.94991882e-02
3.79978511e-02 2.63878272e-02 1.18048845e-02 2.63878272e-02 5.33575853e-02 1.48209005e-02 1.18048845e-02 1.48209005e-02 -7.71183642e-02
1.64536857e-02 -3.86632909e-03 1.12448360e-02 -3.86632909e-03 3.03339974e-02 8.93533870e-03 1.12448360e-02 8.93533870e-03 -3.71260080e-02
7.99854839e-03 -5.22891755e-03 9.43759817e-03 -5.22891755e-03 1.24509226e-02 -2.05282265e-03 9.43759817e-03 -2.05282265e-03 -1.21140901e-02
1.35988322e-02 -1.33313821e-02 6.94535417e-03 -1.33313821e-02 3.44023760e-03 -6.52817209e-03 6.94535417e-03 -6.52817209e-03 -8.87817238e-03
1.08978484e-01 -7.93736044e-03 3.58350594e-02 -7.93736044e-03 9.32638980e-02 1.97814219e-02 3.58350594e-02 1.97814219e-02 -1.70248620e-01
1.10817663e-01 -5.57613093e-03 2.45483797e-02 -5.57613093e-03 9.86726508e-02 -4.01051773e-04 2.45483797e-02 -4.01051773e-04 -1.74528390e-01
9.34744378e-02 4.01115287e-02 1.06416314e-02 4.01115287e-02 5.17684494e-02 3.53030736e-02 1.06416314e-02 3.53030736e-02 -1.27887746e-01
-3.40760278e-03 -6.79049501e-03 5.50342107e-03 -6.79049501e-03 2.20245478e-03 5.96117409e-03 5.50342107e-03 5.96117409e-03 1.02797356e-02
-1.67029262e-03 -4.82953222e-03 2.77699770e-03 -4.82953222e-03 -2.35912283e-03 -2.51745259e-04 2.77699770e-03 -2.51745259e-04 7.01261192e-03
-3.79618236e-03 -8.77032573e-03 -2.06495653e-02 -8.77032573e-03 1.16195957e-02 -8.22608285e-04 -2.06495653e-02 -8.22608285e-04 -5.88733599e-03
-5.79127797e-04 6.55916665e-04 3.65061110e-03 6.55916665e-04 -2.72986627e-03 9.73724505e-04 3.65061110e-03 9.73724505e-04 5.26935281e-03
1.05377773e-03 -2.18953707e-02 -1.90731080e-02 -2.18953707e-02 1.67774025e-03 -3.78684854e-04 -1.90731080e-02 -3.78684854e-04 -3.76232638e-04
5.92075521e-04 -4.30347407e-03 3.48578079e-03 -4.30347407e-03 -2.64092034e-03 6.10773001e-04 3.48578079e-03 6.10773001e-04 3.61857872e-03
1.38525369e-02 2.48893071e-03 -2.29081018e-02 2.48893071e-03 -1.11558483e-02 -3.19945645e-02 -2.29081018e-02 -3.19945645e-02 4.77513240e-03
-1.78190512e-02 -5.06086444e-03 7.43970776e-03 -5.06086444e-03 -3.27577458e-03 7.05677271e-03 7.43970776e-03 7.05677271e-03 2.85634105e-02
6.39985502e-02 3.61371823e-02 -7.56321754e-03 3.61371823e-02 6.60360530e-02 8.62598419e-02 -7.56321754e-03 8.62598419e-02 -1.14706412e-01
7.23438964e-05 -3.10145566e-04 -5.05346007e-04 -3.10145566e-04 -2.74013983e-05 5.68093626e-03 -5.05346007e-04 5.68093626e-03 -2.98961483e-05
-1.80086921e-03 -4.63197770e-03 7.92538561e-05 -4.63197770e-03 1.11251576e-03 2.38314577e-05 7.92538561e-05 2.38314577e-05 1.10148320e-03
-1.35202756e-04 1.23528566e-05 9.17891794e-06 1.23528566e-05 1.83964140e-04 2.82323867e-05 9.17891794e-06 2.82323867e-05 -6.17609401e-05
-9.10487398e-05 -3.75600661e-05 -7.28212236e-05 -3.75600661e-05 8.75031674e-05 -1.30971629e-05 -7.28212236e-05 -1.30971629e-05 -4.20570841e-05
2.08095793e-04 -9.93458438e-04 5.39404922e-04 -9.93458438e-04 -3.56881472e-04 9.34562377e-06 5.39404922e-04 9.34562377e-06 2.59427849e-04
4.78766975e-04 -1.21906004e-03 -8.01678543e-05 -1.21906004e-03 -9.13879951e-04 -3.27958005e-05 -8.01678543e-05 -3.27958005e-05 6.33366406e-04
1.00841209e-01 2.48681754e-02 -2.50407849e-02 2.48681754e-02 1.54960766e-01 -1.13035832e-03 -2.50407849e-02 -1.13035832e-03 -2.11602509e-01
1.38757750e-01 1.18810562e-02 -8.09299946e-03 1.18810562e-02 1.54028118e-01 2.39935648e-02 -8.09299946e-03 2.39935648e-02 -2.45895982e-01
1.05726033e-01 -2.76298771e-02 1.97429902e-02 -2.76298771e-02 1.14409618e-01 3.13840527e-02 1.97429902e-02 3.13840527e-02 -1.86214328e-01
1.20614991e-01 -2.11689025e-02 3.82858999e-02 -2.11689025e-02 1.41892493e-01 2.40495213e-03 3.82858999e-02 2.40495213e-03 -2.27089971e-01
4.32270992e-05 -6.72162173e-05 5.66706035e-07 -6.72162173e-05 -2.86497733e-05 -1.31667639e-05 5.66706035e-07 -1.31667639e-05 -2.74639177e-05
-1.36257212e-03 -2.45539760e-03 6.36833331e-04 -2.45539760e-03 -1.06286696e-03 3.00319945e-03 6.36833331e-04 3.00319945e-03 4.81756166e-03
0.00000000e+00 0.00000000e+00 0.00000000e+00 0.00000000e+00 0.00000000e+00 0.00000000e+00 0.00000000e+00 0.00000000e+00 0.00000000e+00
1.16801210e-01 -2.53616590e-02 1.95082473e-02 -2.53616590e-02 7.61861578e-02 2.02297214e-02 1.95082473e-02 2.02297214e-02 -1.62023239e-01
1.22507215e-01 9.01931711e-03 1.62876118e-02 9.01931711e-03 6.57758787e-02 -1.22962520e-04 1.62876118e-02 -1.22962520e-04 -1.58093557e-01
1.08224194e-01 4.90287319e-03 4.09165537e-03 4.90287319e-03 9.74192321e-02 4.04196493e-02 4.09165537e-03 4.04196493e-02 -1.76964656e-01
1.27132095e-01 -3.25297590e-02 -4.59866715e-03 -3.25297590e-02 7.24311713e-02 4.57001086e-02 -4.59866715e-03 4.57001086e-02 -1.70460820e-01
2.64850857e-02 1.59963876e-02 -1.27927940e-02 1.59963876e-02 4.46832366e-03 6.77778083e-03 -1.27927940e-02 6.77778083e-03 -1.37524717e-02
-5.85118425e-03 -3.03666666e-03 -1.00110800e-02 -3.03666666e-03 3.67095965e-02 7.56019703e-03 -1.00110800e-02 7.56019703e-03 -1.42968465e-02
-2.94036037e-03 -5.80848742e-03 -5.48309763e-04 -5.80848742e-03 -2.10434350e-03 6.38035538e-03 -5.48309763e-04 6.38035538e-03 8.84848204e-03
-1.88647275e-04 -1.15681600e-04 -5.63382946e-06 -1.15681600e-04 8.86895941e-05 -1.43998241e-05 -5.63382946e-06 -1.43998241e-05 1.31784851e-04
0.00000000e+00 0.00000000e+00 0.00000000e+00 0.00000000e+00 0.00000000e+00 0.00000000e+00 0.00000000e+00 0.00000000e+00 0.00000000e+00
</DataArray>
<DataArray type="Float32" Name="Spatial_displacement" NumberOfComponents="3" format="ascii">
4.28566039e-02 2.37853184e-01 -1.16285175e-01
7.14872256e-02 2.26119086e-01 -9.46955085e-02
7.29655847e-02 2.85937965e-01 -1.37204558e-01
3.76228988e-02 2.79587209e-01 -1.46127701e-01
3.48341763e-02 2.74286747e-01 -1.78106830e-01
7.66978934e-02 2.70174146e-01 -1.68177813e-01
6.44685552e-02 3.46831441e-01 -2.20584363e-01
3.81004810e-02 3.15393776e-01 -2.13551730e-01
1.21499643e-01 2.09149495e-01 -7.34439641e-02
1.31871268e-01 2.73522496e-01 -1.34256244e-01
1.17138296e-01 2.61541098e-01 -1.90010697e-01
1.69187397e-01 3.22400570e-01 -2.71140248e-01
1.27948329e-01 1.97262511e-01 3.39150429e-05
1.27948448e-01 1.98925078e-01 3.19778919e-05
1.26283914e-01 1.98932856e-01 -1.73449516e-05
1.26256898e-01 1.97275907e-01 -3.43918800e-05
1.27938539e-01 1.97326288e-01 2.19643116e-05
1.27931625e-01 1.98997498e-01 3.99351120e-05
1.26261666e-01 1.98988229e-01 -2.74479389e-05
1.26277179e-01 1.97315305e-01 -2.44677067e-05
0.00000000e+00 0.00000000e+00 -2.64741361e-01
5.02941608e-02 0.00000000e+00 -2.66728044e-01
5.32214418e-02 5.51673695e-02 -2.60833025e-01
0.00000000e+00 5.30902073e-02 -2.55688608e-01
0.00000000e+00 0.00000000e+00 -3.54981452e-01
6.77351654e-02 0.00000000e+00 -3.54277462e-01
6.95842057e-02 5.51520213e-02 -3.52508724e-01
0.00000000e+00 5.16133234e-02 -3.44127148e-01
1.11600809e-01 0.00000000e+00 -2.80711532e-01
9.96535271e-02 4.72282097e-02 -2.71779358e-01
1.31198481e-01 0.00000000e+00 -3.64280254e-01
1.34105965e-01 5.82155660e-02 -3.64626765e-01
1.66066661e-01 0.00000000e+00 -2.96124041e-01
1.67177767e-01 4.25483957e-02 -2.92393267e-01
1.95633352e-01 0.00000000e+00 -3.80826831e-01
1.89018130e-01 5.10489643e-02 -3.79210204e-01
2.31639400e-01 0.00000000e+00 -3.09594125e-01
2.34557599e-01 4.42572460e-02 -3.14396828e-01
2.52303362e-01 0.00000000e+00 -3.92961860e-01
2.49225780e-01 4.26348448e-02 -3.99671763e-01
3.00703138e-01 0.00000000e+00 -3.26101452e-01
3.01216602e-01 4.70966250e-02 -3.23724270e-01
3.07211876e-01 0.00000000e+00 -4.01815891e-01
3.06364059e-01 4.16278318e-02 -4.13637102e-01
3.64553511e-01 0.00000000e+00 -3.31542075e-01
3.64133418e-01 4.77810577e-02 -3.29719841e-01
3.51577640e-01 0.00000000e+00 -4.05222148e-01
3.65933299e-01 4.19803783e-02 -4.13561344e-01
3.75696942e-02 1.04274720e-01 -2.39837840e-01
0.00000000e+00 1.18650861e-01 -2.36493304e-01
6.93441704e-02 1.11365467e-01 -3.29361469e-01
0.00000000e+00 1.11384898e-01 -3.27697843e-01
9.92703736e-02 1.06149465e-01 -2.61447906e-01
1.43504277e-01 1.18227877e-01 -3.56614619e-01
1.56881675e-01 1.12617470e-01 -3.03594649e-01
1.98722526e-01 1.11780487e-01 -4.12142456e-01
2.29975015e-01 1.24492615e-01 -3.14398170e-01
2.39142090e-01 9.78175029e-02 -4.30109680e-01
2.95988739e-01 1.17175087e-01 -3.12260360e-01
3.01364183e-01 1.09663635e-01 -4.29134697e-01
3.52700114e-01 1.24301083e-01 -3.17653686e-01
3.55693817e-01 1.12967029e-01 -4.30117190e-01
3.33886966e-02 1.78624660e-01 -1.96393654e-01
0.00000000e+00 1.75387308e-01 -2.00292006e-01
6.57621548e-02 1.76034346e-01 -2.94351339e-01
0.00000000e+00 1.74720928e-01 -2.84474522e-01
8.91638175e-02 1.56836331e-01 -2.27208912e-01
1.60851300e-01 1.80740654e-01 -3.66865695e-01
7.02011362e-02 1.33444786e-01 -5.27657270e-01
2.26963937e-01 1.60812378e-01 -4.83096272e-01
3.37854326e-02 2.21070558e-01 -1.64826050e-01
0.00000000e+00 2.29245558e-01 -1.71887606e-01
5.28988838e-02 2.43012875e-01 -2.31602445e-01
0.00000000e+00 2.50509709e-01 -2.52721339e-01
0.00000000e+00 2.68037677e-01 -1.82220042e-01
4.73267362e-02 3.17968190e-01 -2.51967460e-01
0.00000000e+00 2.98136294e-01 -2.65529692e-01
7.95909092e-02 2.21670598e-01 -1.30849376e-01
1.18875332e-01 2.56138742e-01 -2.56293416e-01
1.14234090e-01 2.97039002e-01 -2.48000085e-01
0.00000000e+00 3.19427431e-01 -2.24814221e-01
6.67006522e-02 3.73969525e-01 -3.22017193e-01
0.00000000e+00 3.90382409e-01 -3.03461820e-01
1.13992020e-01 3.95776153e-01 -3.19775730e-01
1.51174769e-01 2.75164366e-01 -3.74492764e-01
2.38000154e-01 3.13466489e-01 -3.71094555e-01
0.00000000e+00 0.00000000e+00 -4.53713894e-01
8.40691030e-02 0.00000000e+00 -4.56498861e-01
8.78313184e-02 5.70341498e-02 -4.53261971e-01
0.00000000e+00 5.30568138e-02 -4.50224280e-01
1.53840676e-01 0.00000000e+00 -4.61186409e-01
1.64161086e-01 6.61471635e-02 -4.62464213e-01
2.13113368e-01 0.00000000e+00 -4.69552875e-01
2.19517231e-01 6.84192628e-02 -4.70476270e-01
2.67294466e-01 0.00000000e+00 -4.78184342e-01
2.60812551e-01 6.18521497e-02 -4.78764534e-01
3.11013281e-01 0.00000000e+00 -4.82282847e-01
3.04406166e-01 5.57996035e-02 -4.86776024e-01
3.46394092e-01 0.00000000e+00 -4.84885365e-01
3.47997785e-01 6.07006773e-02 -4.84043598e-01
1.00400299e-01 1.20992512e-01 -4.46295679e-01
0.00000000e+00 1.10490941e-01 -4.38565016e-01
1.83001518e-01 1.33362189e-01 -4.63393122e-01
2.36724317e-01 1.34380370e-01 -4.90104735e-01
2.67910212e-01 1.20632790e-01 -5.12220740e-01
2.90505350e-01 1.03604123e-01 -5.24656117e-01
3.18677604e-01 1.10361755e-01 -5.24582803e-01
1.02258556e-01 1.67992771e-01 -4.08357084e-01
0.00000000e+00 1.86937675e-01 -3.92728776e-01
2.04760119e-01 1.74788788e-01 -4.70329881e-01
2.73769438e-01 1.67393863e-01 -5.42336702e-01
2.57846892e-01 7.29849637e-02 -6.09611988e-01
2.90635139e-01 1.50039881e-01 -5.64238727e-01
1.07959285e-01 2.37811983e-01 -3.31682205e-01
0.00000000e+00 2.24311858e-01 -3.72637093e-01
2.16763541e-01 2.19993085e-01 -4.31120932e-01
8.91331732e-02 3.50664735e-01 -3.99818152e-01
0.00000000e+00 3.58763039e-01 -3.99333298e-01
1.08063176e-01 4.58187640e-01 -4.33489263e-01
0.00000000e+00 4.52390850e-01 -4.19719517e-01
1.64250031e-01 3.22798997e-01 -3.94081414e-01
2.47719318e-01 3.99690807e-01 -4.24044073e-01
2.51859397e-01 2.34131187e-01 -5.13964176e-01
3.55253458e-01 2.63773292e-01 -4.83841002e-01
6.28401041e-02 2.06682488e-01 -6.84120238e-01
2.14889511e-01 1.99767336e-01 -5.96807003e-01
3.24829578e-01 1.50059402e-01 -5.65529704e-01
3.43389928e-01 1.51367322e-01 -5.65187514e-01
3.25152397e-01 1.33026540e-01 -5.65381169e-01
3.24988067e-01 1.15779445e-01 -5.65401435e-01
3.42241764e-01 1.15635403e-01 -5.65358877e-01
3.42352569e-01 1.32917553e-01 -5.65287530e-01
3.25119019e-01 1.33005798e-01 -5.65381289e-01
3.25046569e-01 1.15741521e-01 -5.65380931e-01
3.42243105e-01 1.15607463e-01 -5.65365672e-01
3.42484653e-01 1.32761523e-01 -5.65294385e-01
0.00000000e+00 0.00000000e+00 -5.65350890e-01
8.92235190e-02 0.00000000e+00 -5.65350890e-01
9.63320285e-02 6.12212494e-02 -5.65350890e-01
0.00000000e+00 5.49757928e-02 -5.65350890e-01
1.65427253e-01 0.00000000e+00 -5.65350890e-01
1.72357723e-01 7.12063685e-02 -5.65350890e-01
2.20663488e-01 0.00000000e+00 -5.65350890e-01
2.31797382e-01 7.62470290e-02 -5.65350890e-01
2.69951135e-01 0.00000000e+00 -5.65350890e-01
2.70792276e-01 7.55376518e-02 -5.65350890e-01
3.10529768e-01 0.00000000e+00 -5.65350890e-01
3.06093216e-01 7.03900307e-02 -5.65350890e-01
3.52852345e-01 0.00000000e+00 -5.65350890e-01
3.29614699e-01 7.96311572e-02 -5.65350890e-01
1.16333187e-01 1.10888727e-01 -5.65350890e-01
0.00000000e+00 1.05342492e-01 -5.65350890e-01
2.05285162e-01 1.34421423e-01 -5.65350890e-01
2.51208276e-01 1.45667851e-01 -5.65350890e-01
2.79208124e-01 1.35351032e-01 -5.65350890e-01
2.87774563e-01 1.20269068e-01 -5.65350890e-01
3.06459039e-01 1.20646358e-01 -5.65350890e-01
1.24843992e-01 2.08977357e-01 -5.65350890e-01
0.00000000e+00 2.15120971e-01 -5.65350890e-01
2.38072753e-01 1.83847487e-01 -5.65350890e-01
2.89165258e-01 1.77447930e-01 -5.65350890e-01
2.91310370e-01 1.50805086e-01 -5.65350890e-01
2.91022003e-01 1.32365823e-01 -5.66053867e-01
2.91566283e-01 1.33061022e-01 -5.65350890e-01
2.93055922e-01 1.17922902e-01 -5.66699505e-01
2.93294072e-01 1.19681738e-01 -5.65350890e-01
3.08135808e-01 1.68743670e-01 -5.81593752e-01
3.17286879e-01 1.80470407e-01 -5.65350890e-01
3.04962605e-01 2.10771337e-01 -5.65350890e-01
3.08194637e-01 1.49800181e-01 -5.65094352e-01
3.08348209e-01 1.50008202e-01 -5.65350890e-01
3.07971627e-01 1.33207738e-01 -5.65400541e-01
3.08058560e-01 1.33110598e-01 -5.65350890e-01
3.07700872e-01 1.16148442e-01 -5.65306246e-01
3.07609618e-01 1.16002098e-01 -5.65350890e-01
0.00000000e+00 1.94609314e-01 -5.65350890e-01
1.37399271e-01 2.23775402e-01 -5.65350890e-01
1.22042283e-01 3.78641784e-01 -5.65350890e-01
0.00000000e+00 4.00971651e-01 -5.65350890e-01
3.25064749e-01 1.33002996e-01 -5.65350890e-01
3.25228155e-01 1.50136977e-01 -5.65350890e-01
3.25083077e-01 1.15766346e-01 -5.65350890e-01
1.31384015e-01 4.79485929e-01 -5.65350890e-01
0.00000000e+00 4.69751537e-01 -5.65350890e-01
2.06117496e-01 3.29222649e-01 -5.65350890e-01
2.96639204e-01 3.95154595e-01 -5.65350890e-01
2.69918323e-01 2.13076204e-01 -5.65350890e-01
3.76444101e-01 2.48326302e-01 -5.65350890e-01
3.43763173e-01 1.50588438e-01 -5.65350890e-01
3.42499435e-01 1.32700235e-01 -5.65350890e-01
3.42239022e-01 1.15605012e-01 -5.65350890e-01
</DataArray>
<DataArray type="Float32" Name="Spatial_acceleration" NumberOfComponents="3" format="ascii">
-3.44991690e-07 -1.63710115e-06 8.87076055e-07
-5.82814209e-07 -1.51928259e-06 7.52925871e-07
-6.12179406e-07 -1.94327026e-06 1.05222068e-06
-3.15546998e-07 -1.94485983e-06 1.10022222e-06
-2.87274503e-07 -1.90877904e-06 1.32306411e-06
-5.76291768e-07 -1.84558689e-06 1.20871402e-06
-5.31037642e-07 -2.38879511e-06 1.57229101e-06
-2.97864261e-07 -2.18431160e-06 1.58500666e-06
-8.86201860e-07 -1.40949089e-06 5.76655054e-07
-1.02905426e-06 -1.86443322e-06 1.01470948e-06
-7.98967164e-07 -1.79481503e-06 1.39024519e-06
-1.16093952e-06 -2.06702953e-06 1.78782147e-06
-1.03467448e-06 -1.21268283e-06 -4.90099197e-08
-1.03738898e-06 -1.17241336e-06 1.37935077e-08
-1.12132227e-06 -1.20532263e-06 -2.34941644e-09
-1.09211601e-06 -1.15874411e-06 4.38938521e-08
-9.74450586e-07 -1.25008216e-06 1.04909141e-07
-1.09273935e-06 -1.15070804e-06 -7.45182263e-08
-1.00071725e-06 -1.25839563e-06 7.81764555e-08
-1.13543251e-06 -1.24078122e-06 -1.55152122e-08
0.00000000e+00 0.00000000e+00 1.66956579e-06
-3.18050382e-07 0.00000000e+00 1.65112806e-06
-3.53058169e-07 -3.72360148e-07 1.66861219e-06
0.00000000e+00 -3.41494882e-07 1.66066491e-06
0.00000000e+00 0.00000000e+00 2.17819206e-06
-4.27434827e-07 0.00000000e+00 2.18900050e-06
-4.38511364e-07 -3.70601811e-07 2.20775610e-06
0.00000000e+00 -3.44753261e-07 2.16356921e-06
-7.22487755e-07 0.00000000e+00 1.72424313e-06
-6.63399703e-07 -3.31126159e-07 1.71120962e-06
-7.97957171e-07 0.00000000e+00 2.29326884e-06
-8.42948737e-07 -4.14013869e-07 2.24494943e-06
-1.05680522e-06 0.00000000e+00 1.79417930e-06
-1.09124187e-06 -3.50276622e-07 1.78146365e-06
-1.21783216e-06 0.00000000e+00 2.32823686e-06
-1.15750981e-06 -3.70512396e-07 2.31520335e-06
-1.50945289e-06 0.00000000e+00 1.82278950e-06
-1.49885807e-06 -3.38832535e-07 1.84090925e-06
-1.58532464e-06 0.00000000e+00 2.33586616e-06
-1.56184035e-06 -3.05811568e-07 2.38450366e-06
-1.96547808e-06 0.00000000e+00 1.85648594e-06
-1.94915128e-06 -3.39150432e-07 1.84122723e-06
-1.98886801e-06 0.00000000e+00 2.39181509e-06
-1.96075439e-06 -3.21666391e-07 2.40929921e-06
-2.43254499e-06 0.00000000e+00 1.83105465e-06
-2.40349777e-06 -3.71674702e-07 1.85298916e-06
-2.33078003e-06 0.00000000e+00 2.40516670e-06
-2.39066276e-06 -3.53559841e-07 2.39435826e-06
-2.82287601e-07 -6.94513290e-07 1.61075593e-06
0.00000000e+00 -7.82529526e-07 1.61806736e-06
-4.52200567e-07 -7.43269936e-07 2.14354191e-06
0.00000000e+00 -7.29600572e-07 2.17119850e-06
-7.19115860e-07 -7.61395427e-07 1.65121889e-06
-9.05831655e-07 -7.98940675e-07 2.20743823e-06
-1.03429159e-06 -7.55691531e-07 1.78070070e-06
-1.24091196e-06 -7.76926640e-07 2.37855465e-06
-1.43094860e-06 -8.08556877e-07 1.85966485e-06
-1.48709614e-06 -7.06736273e-07 2.47599291e-06
-1.84150531e-06 -8.01205601e-07 1.78464256e-06
-1.88887122e-06 -7.59601562e-07 2.50562039e-06
-2.18284117e-06 -9.50892741e-07 1.83868406e-06
-2.18354467e-06 -8.65777338e-07 2.51261395e-06
-2.97637200e-07 -1.19890490e-06 1.42124725e-06
0.00000000e+00 -1.18505955e-06 1.41874943e-06
-4.51632900e-07 -1.17183868e-06 1.99435999e-06
0.00000000e+00 -1.18048979e-06 2.04404182e-06
-6.34988169e-07 -1.04618073e-06 1.50489802e-06
-1.00129444e-06 -1.14714305e-06 2.22167978e-06
-4.72545622e-07 -8.34763057e-07 3.06097672e-06
-1.37244331e-06 -1.09566588e-06 2.89662671e-06
-2.85557348e-07 -1.49717789e-06 1.22833251e-06
0.00000000e+00 -1.57683098e-06 1.30780541e-06
-4.06238769e-07 -1.63360437e-06 1.71237525e-06
0.00000000e+00 -1.72191858e-06 1.88159936e-06
0.00000000e+00 -1.85531371e-06 1.35930372e-06
-3.34013066e-07 -2.18459536e-06 1.89862931e-06
0.00000000e+00 -2.05969809e-06 1.95884695e-06
-6.13689394e-07 -1.51235861e-06 1.03505454e-06
-7.88052887e-07 -1.73219041e-06 1.71407066e-06
-7.34583523e-07 -1.96978249e-06 1.76747642e-06
0.00000000e+00 -2.25377084e-06 1.62506103e-06
-4.41253178e-07 -2.48320885e-06 2.21888217e-06
0.00000000e+00 -2.61529294e-06 2.08218898e-06
-7.01268505e-07 -2.62904155e-06 2.12160739e-06
-8.67207859e-07 -1.88106958e-06 2.29136162e-06
-1.45276385e-06 -2.06375125e-06 2.30619639e-06
0.00000000e+00 0.00000000e+00 2.77837125e-06
-5.03758599e-07 0.00000000e+00 2.80380254e-06
-5.25365294e-07 -3.86665249e-07 2.78504695e-06
0.00000000e+00 -3.56396043e-07 2.77328490e-06
-9.15944554e-07 0.00000000e+00 2.82096858e-06
-9.80794425e-07 -4.41829371e-07 2.83559166e-06
-1.30349395e-06 0.00000000e+00 2.87628177e-06
-1.32735568e-06 -4.46597738e-07 2.85339343e-06
-1.68760619e-06 0.00000000e+00 2.91188553e-06
-1.61710375e-06 -4.06424192e-07 2.89662671e-06
-1.99464944e-06 0.00000000e+00 2.93699895e-06
-1.93899859e-06 -3.79482913e-07 2.94367464e-06
-2.22998847e-06 0.00000000e+00 2.98245754e-06
-2.23652523e-06 -4.14530433e-07 2.91093193e-06
-5.60919432e-07 -7.86542898e-07 2.76819856e-06
0.00000000e+00 -7.41561223e-07 2.78663629e-06
-1.07844664e-06 -8.63278899e-07 2.80125937e-06
-1.44068395e-06 -9.12268945e-07 2.92332970e-06
-1.64302185e-06 -8.31603984e-07 3.02487319e-06
-1.79926553e-06 -7.02540092e-07 3.08397080e-06
-2.02263732e-06 -7.86251519e-07 3.07464597e-06
-5.82430118e-07 -1.12915041e-06 2.69571933e-06
0.00000000e+00 -1.20374898e-06 2.70250121e-06
-1.17988054e-06 -1.17105913e-06 2.80931272e-06
-1.66556572e-06 -1.15786656e-06 3.28657370e-06
-1.61143146e-06 -4.33087337e-07 3.75334412e-06
-1.74471541e-06 -1.04535422e-06 3.44289151e-06
-6.13212592e-07 -1.64063772e-06 2.36638380e-06
0.00000000e+00 -1.59094066e-06 2.58551700e-06
-1.13471344e-06 -1.43019361e-06 2.47700996e-06
-5.18163063e-07 -2.26640714e-06 2.66520192e-06
0.00000000e+00 -2.35128391e-06 2.65757240e-06
-6.23782455e-07 -2.86515547e-06 2.81906114e-06
0.00000000e+00 -2.79513984e-06 2.75611865e-06
-9.37779760e-07 -2.15756882e-06 2.52787277e-06
-1.39013923e-06 -2.55084046e-06 2.65757240e-06
-1.46436685e-06 -1.59496062e-06 3.11342865e-06
-2.08822894e-06 -1.75436332e-06 2.95257564e-06
-2.51134242e-08 -1.56225758e-06 4.12718464e-06
-1.18744367e-06 -1.28555291e-06 3.61887601e-06
-1.90873948e-06 -1.06145933e-06 3.45118838e-06
-2.00027898e-06 -1.04395554e-06 3.46628826e-06
-1.92859966e-06 -9.93180493e-07 3.48329945e-06
-1.96269161e-06 -8.31539410e-07 3.39455028e-06
-2.06416848e-06 -8.53786844e-07 3.39753296e-06
-2.00114641e-06 -9.33424872e-07 3.42995600e-06
-1.89911532e-06 -9.51671609e-07 3.43496004e-06
-1.87225805e-06 -8.85566067e-07 3.42992439e-06
-2.01353419e-06 -8.73098770e-07 3.43112652e-06
-1.98433145e-06 -9.81648782e-07 3.45825151e-06
0.00000000e+00 0.00000000e+00 3.45576177e-06
-5.17904766e-07 0.00000000e+00 3.45576177e-06
-5.36799405e-07 -4.05669198e-07 3.45576177e-06
0.00000000e+00 -3.67879863e-07 3.45576177e-06
-9.89357659e-07 0.00000000e+00 3.45576177e-06
-1.01141131e-06 -4.61578367e-07 3.45576177e-06
-1.32735568e-06 0.00000000e+00 3.45576177e-06
-1.40889483e-06 -4.77631886e-07 3.45576177e-06
-1.68546035e-06 0.00000000e+00 3.45576177e-06
-1.67504948e-06 -4.74294012e-07 3.45576177e-06
-1.97699660e-06 0.00000000e+00 3.45576177e-06
-1.94013114e-06 -4.49339552e-07 3.45576177e-06
-2.27445366e-06 0.00000000e+00 3.45576177e-06
-2.08147367e-06 -4.97500082e-07 3.45576177e-06
-6.31332398e-07 -7.33216609e-07 3.45576177e-06
0.00000000e+00 -6.96659072e-07 3.45576177e-06
-1.20059644e-06 -8.59670308e-07 3.45576177e-06
-1.50426229e-06 -9.84509825e-07 3.45576177e-06
-1.69078510e-06 -9.22838865e-07 3.45576177e-06
-1.76734727e-06 -8.46227010e-07 3.45576177e-06
-1.95376083e-06 -8.92798084e-07 3.45576177e-06
-6.35306037e-07 -1.28714237e-06 3.45576177e-06
0.00000000e+00 -1.23747191e-06 3.45576177e-06
-1.36449603e-06 -1.15659498e-06 3.45576177e-06
-1.74363447e-06 -1.23278301e-06 3.45576177e-06
-1.75952914e-06 -1.05611480e-06 3.45576177e-06
-1.72869363e-06 -9.74694899e-07 3.43767806e-06
-1.74840295e-06 -9.93251774e-07 3.45576177e-06
-1.76397953e-06 -8.82943482e-07 3.40366364e-06
-1.75094601e-06 -9.04401134e-07 3.45576177e-06
-1.81229905e-06 -1.15267437e-06 3.55529778e-06
-1.93655478e-06 -1.23119355e-06 3.45576177e-06
-1.82612735e-06 -1.37766199e-06 3.45576177e-06
-1.82840563e-06 -1.07468497e-06 3.40800148e-06
-1.82047074e-06 -1.04331968e-06 3.45576177e-06
-1.82473661e-06 -9.76165097e-07 3.43458851e-06
-1.81976952e-06 -9.82115694e-07 3.45576177e-06
-1.81563689e-06 -8.96453855e-07 3.41129294e-06
-1.80943800e-06 -9.03606406e-07 3.45576177e-06
0.00000000e+00 -1.44175692e-06 3.45576177e-06
-6.19649882e-07 -1.60566969e-06 3.45576177e-06
-6.66777282e-07 -2.37380141e-06 3.45576177e-06
0.00000000e+00 -2.60670981e-06 3.45576177e-06
-1.91442177e-06 -9.87132353e-07 3.45576177e-06
-1.91301774e-06 -1.05751883e-06 3.45576177e-06
-1.91136201e-06 -9.41753399e-07 3.45576177e-06
-6.95432220e-07 -2.98213945e-06 3.45576177e-06
0.00000000e+00 -2.82772385e-06 3.45576177e-06
-1.19256970e-06 -2.18152991e-06 3.45576177e-06
-1.60233174e-06 -2.50641506e-06 3.45576177e-06
-1.53334929e-06 -1.47410231e-06 3.45576177e-06
-2.20966331e-06 -1.68816246e-06 3.45576177e-06
-1.98586781e-06 -1.03251136e-06 3.45576177e-06
-2.01773651e-06 -9.81966650e-07 3.45576177e-06
-1.98022531e-06 -8.91794741e-07 3.45576177e-06
</DataArray>
<DataArray type="Float32" Name="Spatial_velocity" NumberOfComponents="3" format="ascii">
4.99601192e-05 2.23934985e-04 -1.19631673e-04
8.03552175e-05 2.08349622e-04 -1.04181629e-04
8.41990623e-05 2.68100470e-04 -1.43771031e-04
4.76140012e-05 2.66140793e-04 -1.43291807e-04
4.03136728e-05 2.57054257e-04 -1.85476994e-04
8.25179086e-05 2.47349031e-04 -1.68102619e-04
7.03764163e-05 3.22066509e-04 -2.14087035e-04
4.42460732e-05 3.00046609e-04 -2.19142050e-04
1.28701417e-04 1.91720246e-04 -7.53364729e-05
1.39557684e-04 2.49091536e-04 -1.37348834e-04
1.10077046e-04 2.43043207e-04 -1.85616824e-04
1.60520649e-04 2.80780427e-04 -2.29410245e-04
1.45104234e-04 1.60524360e-04 -5.52818982e-08
1.45097903e-04 1.55748421e-04 4.79432209e-08
1.49907704e-04 1.55767673e-04 -3.31733112e-08
1.49897591e-04 1.60528842e-04 4.29206075e-08
1.45082173e-04 1.60548952e-04 9.56563895e-08
1.45123398e-04 1.55739370e-04 -7.76459927e-08
1.49842745e-04 1.55746646e-04 1.03370056e-07
1.49878644e-04 1.60567477e-04 -1.03804680e-07
0.00000000e+00 0.00000000e+00 -2.22591101e-04
4.37261515e-05 0.00000000e+00 -2.22645423e-04
4.84584707e-05 4.95756976e-05 -2.22759758e-04
0.00000000e+00 4.70034975e-05 -2.21044131e-04
0.00000000e+00 0.00000000e+00 -2.97337683e-04
5.62988862e-05 0.00000000e+00 -2.94994476e-04
5.84989102e-05 5.12623046e-05 -2.97331659e-04
0.00000000e+00 4.77037102e-05 -2.91435164e-04
9.83629288e-05 0.00000000e+00 -2.29036363e-04
8.94011173e-05 4.64264849e-05 -2.26774500e-04
1.08799810e-04 0.00000000e+00 -3.01409396e-04
1.11046968e-04 5.53120190e-05 -3.01230932e-04
1.45864513e-04 0.00000000e+00 -2.35563333e-04
1.47094921e-04 4.63467441e-05 -2.32693725e-04
1.63975681e-04 0.00000000e+00 -3.09746189e-04
1.56377690e-04 4.83234799e-05 -3.06042610e-04
2.03125863e-04 0.00000000e+00 -2.38319903e-04
2.04797732e-04 4.64400291e-05 -2.40748181e-04
2.15121850e-04 0.00000000e+00 -3.13355238e-04
2.11119390e-04 4.26221122e-05 -3.14834644e-04
2.67007155e-04 0.00000000e+00 -2.41215428e-04
2.64516217e-04 4.74135231e-05 -2.42341179e-04
2.68038799e-04 0.00000000e+00 -3.16947553e-04
2.65490235e-04 4.53706125e-05 -3.19873041e-04
3.27849790e-04 0.00000000e+00 -2.38229812e-04
3.24861758e-04 5.21672009e-05 -2.42440554e-04
3.12829565e-04 0.00000000e+00 -3.18775565e-04
3.25025758e-04 5.07688455e-05 -3.18400038e-04
3.77329234e-05 9.57769516e-05 -2.15841719e-04
0.00000000e+00 1.06671570e-04 -2.14141124e-04
5.87924515e-05 1.00764992e-04 -2.91187491e-04
0.00000000e+00 1.00120043e-04 -2.91948119e-04
9.59613681e-05 1.01152014e-04 -2.18857720e-04
1.19227268e-04 1.09191475e-04 -2.95691541e-04
1.40669057e-04 1.02591235e-04 -2.37071683e-04
1.66317375e-04 1.06536580e-04 -3.16589925e-04
1.96707930e-04 1.11055328e-04 -2.44157854e-04
1.99662099e-04 9.52912524e-05 -3.27425660e-04
2.49622972e-04 1.09599394e-04 -2.38415159e-04
2.54413346e-04 1.05860177e-04 -3.30226438e-04
2.94706144e-04 1.26898347e-04 -2.41179834e-04
2.95574777e-04 1.18575939e-04 -3.30853218e-04
4.00059471e-05 1.60033567e-04 -1.93201427e-04
0.00000000e+00 1.58851195e-04 -1.93112181e-04
6.03226144e-05 1.58763854e-04 -2.69687152e-04
0.00000000e+00 1.60345924e-04 -2.74886086e-04
8.76457852e-05 1.41836645e-04 -2.02713301e-04
1.32586792e-04 1.58761119e-04 -2.96123326e-04
6.05149326e-05 1.12641377e-04 -4.06203733e-04
1.79839117e-04 1.46594524e-04 -3.90656060e-04
4.24665996e-05 2.02606228e-04 -1.67349135e-04
0.00000000e+00 2.09914739e-04 -1.78737348e-04
5.48101416e-05 2.19621172e-04 -2.33604238e-04
0.00000000e+00 2.30159800e-04 -2.58767133e-04
0.00000000e+00 2.53162230e-04 -1.90224993e-04
4.34857575e-05 2.95711710e-04 -2.59121618e-04
0.00000000e+00 2.76665611e-04 -2.70148041e-04
8.67633207e-05 2.02192154e-04 -1.45038692e-04
1.07221073e-04 2.31133919e-04 -2.33170853e-04
9.87278909e-05 2.69008946e-04 -2.38148263e-04
0.00000000e+00 3.06843489e-04 -2.24021380e-04
5.94517333e-05 3.34840501e-04 -3.02762899e-04
0.00000000e+00 3.50646849e-04 -2.88257987e-04
9.56676013e-05 3.54844873e-04 -2.86772411e-04
1.18071941e-04 2.55047315e-04 -3.00784857e-04
1.95769710e-04 2.76493462e-04 -3.08390794e-04
0.00000000e+00 0.00000000e+00 -3.75739706e-04
6.73366085e-05 0.00000000e+00 -3.75826610e-04
6.91048626e-05 5.30756515e-05 -3.76529060e-04
0.00000000e+00 4.96385219e-05 -3.74004449e-04
1.23003134e-04 0.00000000e+00 -3.78290482e-04
1.30839107e-04 5.99578889e-05 -3.80036654e-04
1.74154527e-04 0.00000000e+00 -3.84721527e-04
1.78281465e-04 5.97387261e-05 -3.80464538e-04
2.26075033e-04 0.00000000e+00 -3.87441629e-04
2.16578293e-04 5.45848889e-05 -3.84799176e-04
2.67677446e-04 0.00000000e+00 -3.89926281e-04
2.61360634e-04 5.28392302e-05 -3.90223722e-04
3.01918946e-04 0.00000000e+00 -3.95068608e-04
3.03251378e-04 5.97691942e-05 -3.87286855e-04
7.46680162e-05 1.06485844e-04 -3.73940333e-04
0.00000000e+00 1.00374600e-04 -3.74327705e-04
1.42486329e-04 1.17187767e-04 -3.77100660e-04
1.89773156e-04 1.24403305e-04 -3.89051944e-04
2.19495239e-04 1.14640105e-04 -4.02263104e-04
2.42883936e-04 9.97378738e-05 -4.08305496e-04
2.73669168e-04 1.13256894e-04 -4.08687338e-04
7.39113239e-05 1.52190667e-04 -3.61244165e-04
0.00000000e+00 1.63289107e-04 -3.61615821e-04
1.55819464e-04 1.59083953e-04 -3.76995391e-04
2.19709618e-04 1.58102324e-04 -4.40054049e-04
2.16559012e-04 6.02393666e-05 -4.93890548e-04
2.33222920e-04 1.47096624e-04 -4.60459094e-04
7.81171402e-05 2.19843845e-04 -3.22373322e-04
0.00000000e+00 2.14057800e-04 -3.50726186e-04
1.53000830e-04 1.92113715e-04 -3.36556986e-04
6.34036696e-05 3.07610462e-04 -3.61579470e-04
0.00000000e+00 3.17813829e-04 -3.60669888e-04
8.08648474e-05 3.87715583e-04 -3.78570257e-04
0.00000000e+00 3.79719015e-04 -3.68869602e-04
1.23550300e-04 2.91893608e-04 -3.37126170e-04
1.87739177e-04 3.42198909e-04 -3.58929334e-04
1.94074280e-04 2.16428569e-04 -4.14700800e-04
2.73908314e-04 2.39236513e-04 -3.94693983e-04
8.07470951e-06 2.06580997e-04 -5.44700481e-04
1.59502859e-04 1.78042392e-04 -4.72198997e-04
2.52529426e-04 1.46290142e-04 -4.60320327e-04
2.62235058e-04 1.46064747e-04 -4.60419978e-04
2.52288883e-04 1.36600924e-04 -4.60247218e-04
2.52119673e-04 1.26906700e-04 -4.60244511e-04
2.61824694e-04 1.26725106e-04 -4.60263662e-04
2.62001820e-04 1.36445960e-04 -4.60183568e-04
2.52312602e-04 1.36594535e-04 -4.60215146e-04
2.52158032e-04 1.26868952e-04 -4.60267824e-04
2.61859561e-04 1.26728875e-04 -4.60231880e-04
2.62041896e-04 1.36415299e-04 -4.60230745e-04
0.00000000e+00 0.00000000e+00 -4.60241805e-04
7.01539320e-05 0.00000000e+00 -4.60241805e-04
7.36032671e-05 5.44531322e-05 -4.60241805e-04
0.00000000e+00 5.02656185e-05 -4.60241805e-04
1.30966364e-04 0.00000000e+00 -4.60241805e-04
1.35703434e-04 6.19238708e-05 -4.60241805e-04
1.78229355e-04 0.00000000e+00 -4.60241805e-04
1.88753504e-04 6.52136587e-05 -4.60241805e-04
2.28624325e-04 0.00000000e+00 -4.60241805e-04
2.24455653e-04 6.46008484e-05 -4.60241805e-04
2.64867442e-04 0.00000000e+00 -4.60241805e-04
2.62543850e-04 6.27015543e-05 -4.60241805e-04
3.04290967e-04 0.00000000e+00 -4.60241805e-04
2.82171270e-04 7.03131664e-05 -4.60241805e-04
8.51492732e-05 1.00317739e-04 -4.60241805e-04
0.00000000e+00 9.72963462e-05 -4.60241805e-04
1.58395284e-04 1.18857359e-04 -4.60241805e-04
1.99497925e-04 1.34761824e-04 -4.60241805e-04
2.26251403e-04 1.27607520e-04 -4.60241805e-04
2.38208857e-04 1.16754745e-04 -4.60241805e-04
2.64617935e-04 1.23933991e-04 -4.60241805e-04
8.07273536e-05 1.70647370e-04 -4.60241805e-04
0.00000000e+00 1.70975647e-04 -4.60241805e-04
1.78305811e-04 1.55660702e-04 -4.60241805e-04
2.30024089e-04 1.69378589e-04 -4.60241805e-04
2.33044892e-04 1.46466278e-04 -4.60241805e-04
2.32678067e-04 1.37089781e-04 -4.60417039e-04
2.32901148e-04 1.36800358e-04 -4.60241805e-04
2.33396771e-04 1.27750900e-04 -4.60988609e-04
2.33608298e-04 1.28101150e-04 -4.60241805e-04
2.41377536e-04 1.57193819e-04 -4.77460067e-04
2.54792336e-04 1.71386870e-04 -4.60241805e-04
2.39111221e-04 1.84812001e-04 -4.60241805e-04
2.42702983e-04 1.46519422e-04 -4.60162933e-04
2.42724913e-04 1.46469916e-04 -4.60241805e-04
2.42623442e-04 1.36802904e-04 -4.60186828e-04
2.42606970e-04 1.36804330e-04 -4.60241805e-04
2.42365088e-04 1.26954401e-04 -4.60148032e-04
2.42366703e-04 1.26987536e-04 -4.60241805e-04
0.00000000e+00 1.95195811e-04 -4.60241805e-04
7.73495703e-05 2.23083262e-04 -4.60241805e-04
8.29246201e-05 3.20303341e-04 -4.60241805e-04
0.00000000e+00 3.52015049e-04 -4.60241805e-04
2.52298138e-04 1.36617658e-04 -4.60241805e-04
2.52451980e-04 1.46358085e-04 -4.60241805e-04
2.52189144e-04 1.26881729e-04 -4.60241805e-04
9.36121942e-05 4.02069592e-04 -4.60241805e-04
0.00000000e+00 3.79695615e-04 -4.60241805e-04
1.54523339e-04 2.94230005e-04 -4.60241805e-04
2.14638349e-04 3.37069359e-04 -4.60241805e-04
2.02618263e-04 2.01111558e-04 -4.60241805e-04
2.92118028e-04 2.27836135e-04 -4.60241805e-04
2.62150454e-04 1.46183433e-04 -4.60241805e-04
2.62024754e-04 1.36422444e-04 -4.60241805e-04
2.61861976e-04 1.26717874e-04 -4.60241805e-04
</DataArray>
<DataArray type="Float32" Name="Reaction_force" NumberOfComponents="3" format="ascii">
0.00000000e+00 0.00000000e+00 0.00000000e+00
0.00000000e+00 0.00000000e+00 0.00000000e+00
0.00000000e+00 0.00000000e+00 0.00000000e+00
0.00000000e+00 0.00000000e+00 0.00000000e+00
0.00000000e+00 0.00000000e+00 0.00000000e+00
0.00000000e+00 0.00000000e+00 0.00000000e+00
0.00000000e+00 0.00000000e+00 0.00000000e+00
0.00000000e+00 0.00000000e+00 0.00000000e+00
0.00000000e+00 0.00000000e+00 0.00000000e+00
0.00000000e+00 0.00000000e+00 0.00000000e+00
0.00000000e+00 0.00000000e+00 0.00000000e+00
0.00000000e+00 0.00000000e+00 0.00000000e+00
0.00000000e+00 0.00000000e+00 0.00000000e+00
0.00000000e+00 0.00000000e+00 0.00000000e+00
0.00000000e+00 0.00000000e+00 0.00000000e+00
0.00000000e+00 0.00000000e+00 0.00000000e+00
0.00000000e+00 0.00000000e+00 0.00000000e+00
0.00000000e+00 0.00000000e+00 0.00000000e+00
0.00000000e+00 0.00000000e+00 0.00000000e+00
0.00000000e+00 0.00000000e+00 0.00000000e+00
7.37978369e-02 -1.50279075e-01 0.00000000e+00
0.00000000e+00 9.50471759e-01 0.00000000e+00
0.00000000e+00 0.00000000e+00 0.00000000e+00
1.79837584e+00 0.00000000e+00 0.00000000e+00
3.98486257e-01 9.57362056e-01 0.00000000e+00
0.00000000e+00 1.38751376e+00 0.00000000e+00
0.00000000e+00 0.00000000e+00 0.00000000e+00
1.17941213e+00 0.00000000e+00 0.00000000e+00
0.00000000e+00 1.55546367e+00 0.00000000e+00
0.00000000e+00 0.00000000e+00 0.00000000e+00
0.00000000e+00 1.22000492e+00 0.00000000e+00
0.00000000e+00 0.00000000e+00 0.00000000e+00
0.00000000e+00 2.00507450e+00 0.00000000e+00
0.00000000e+00 0.00000000e+00 0.00000000e+00
0.00000000e+00 1.61619806e+00 0.00000000e+00
0.00000000e+00 0.00000000e+00 0.00000000e+00
0.00000000e+00 2.78115463e+00 0.00000000e+00
0.00000000e+00 0.00000000e+00 0.00000000e+00
0.00000000e+00 1.49996018e+00 0.00000000e+00
0.00000000e+00 0.00000000e+00 0.00000000e+00
0.00000000e+00 1.12149656e+00 0.00000000e+00
0.00000000e+00 0.00000000e+00 0.00000000e+00
0.00000000e+00 -2.21349299e-01 0.00000000e+00
0.00000000e+00 0.00000000e+00 0.00000000e+00
0.00000000e+00 9.02923644e-02 0.00000000e+00
0.00000000e+00 0.00000000e+00 0.00000000e+00
0.00000000e+00 -5.00869751e-01 0.00000000e+00
0.00000000e+00 0.00000000e+00 0.00000000e+00
0.00000000e+00 0.00000000e+00 0.00000000e+00
1.48020113e+00 0.00000000e+00 0.00000000e+00
0.00000000e+00 0.00000000e+00 0.00000000e+00
1.04452479e+00 0.00000000e+00 0.00000000e+00
0.00000000e+00 0.00000000e+00 0.00000000e+00
0.00000000e+00 0.00000000e+00 0.00000000e+00
0.00000000e+00 0.00000000e+00 0.00000000e+00
0.00000000e+00 0.00000000e+00 0.00000000e+00
0.00000000e+00 0.00000000e+00 0.00000000e+00
0.00000000e+00 0.00000000e+00 0.00000000e+00
0.00000000e+00 0.00000000e+00 0.00000000e+00
0.00000000e+00 0.00000000e+00 0.00000000e+00
0.00000000e+00 0.00000000e+00 0.00000000e+00
0.00000000e+00 0.00000000e+00 0.00000000e+00
0.00000000e+00 0.00000000e+00 0.00000000e+00
1.86056942e-02 0.00000000e+00 0.00000000e+00
0.00000000e+00 0.00000000e+00 0.00000000e+00
1.43185472e+00 0.00000000e+00 0.00000000e+00
0.00000000e+00 0.00000000e+00 0.00000000e+00
0.00000000e+00 0.00000000e+00 0.00000000e+00
0.00000000e+00 0.00000000e+00 0.00000000e+00
0.00000000e+00 0.00000000e+00 0.00000000e+00
0.00000000e+00 0.00000000e+00 0.00000000e+00
8.77426028e-01 0.00000000e+00 0.00000000e+00
0.00000000e+00 0.00000000e+00 0.00000000e+00
8.17002714e-01 0.00000000e+00 0.00000000e+00
4.57346737e-01 0.00000000e+00 0.00000000e+00
0.00000000e+00 0.00000000e+00 0.00000000e+00
5.60912788e-02 0.00000000e+00 0.00000000e+00
0.00000000e+00 0.00000000e+00 0.00000000e+00
0.00000000e+00 0.00000000e+00 0.00000000e+00
0.00000000e+00 0.00000000e+00 0.00000000e+00
-6.69236839e-01 0.00000000e+00 0.00000000e+00
0.00000000e+00 0.00000000e+00 0.00000000e+00
3.94457340e-01 0.00000000e+00 0.00000000e+00
0.00000000e+00 0.00000000e+00 0.00000000e+00
0.00000000e+00 0.00000000e+00 0.00000000e+00
0.00000000e+00 0.00000000e+00 0.00000000e+00
4.20247674e-01 1.44775152e+00 0.00000000e+00
0.00000000e+00 1.74004960e+00 0.00000000e+00
0.00000000e+00 0.00000000e+00 0.00000000e+00
6.80019736e-01 0.00000000e+00 0.00000000e+00
0.00000000e+00 2.44977385e-01 0.00000000e+00
0.00000000e+00 0.00000000e+00 0.00000000e+00
0.00000000e+00 2.93670326e-01 0.00000000e+00
0.00000000e+00 0.00000000e+00 0.00000000e+00
0.00000000e+00 -3.09227347e-01 0.00000000e+00
0.00000000e+00 0.00000000e+00 0.00000000e+00
0.00000000e+00 -1.99437010e+00 0.00000000e+00
0.00000000e+00 0.00000000e+00 0.00000000e+00
0.00000000e+00 -2.08950257e+00 0.00000000e+00
0.00000000e+00 0.00000000e+00 0.00000000e+00
0.00000000e+00 0.00000000e+00 0.00000000e+00
1.22160459e+00 0.00000000e+00 0.00000000e+00
0.00000000e+00 0.00000000e+00 0.00000000e+00
0.00000000e+00 0.00000000e+00 0.00000000e+00
0.00000000e+00 0.00000000e+00 0.00000000e+00
0.00000000e+00 0.00000000e+00 0.00000000e+00
0.00000000e+00 0.00000000e+00 0.00000000e+00
0.00000000e+00 0.00000000e+00 0.00000000e+00
-1.88201845e-01 0.00000000e+00 0.00000000e+00
0.00000000e+00 0.00000000e+00 0.00000000e+00
0.00000000e+00 0.00000000e+00 0.00000000e+00
0.00000000e+00 0.00000000e+00 0.00000000e+00
0.00000000e+00 0.00000000e+00 0.00000000e+00
0.00000000e+00 0.00000000e+00 0.00000000e+00
1.06107068e+00 0.00000000e+00 0.00000000e+00
0.00000000e+00 0.00000000e+00 0.00000000e+00
0.00000000e+00 0.00000000e+00 0.00000000e+00
1.41882896e-01 0.00000000e+00 0.00000000e+00
0.00000000e+00 0.00000000e+00 0.00000000e+00
9.59067583e-01 0.00000000e+00 0.00000000e+00
0.00000000e+00 0.00000000e+00 0.00000000e+00
0.00000000e+00 0.00000000e+00 0.00000000e+00
0.00000000e+00 0.00000000e+00 0.00000000e+00
0.00000000e+00 0.00000000e+00 0.00000000e+00
0.00000000e+00 0.00000000e+00 0.00000000e+00
0.00000000e+00 0.00000000e+00 0.00000000e+00
0.00000000e+00 0.00000000e+00 0.00000000e+00
0.00000000e+00 0.00000000e+00 0.00000000e+00
0.00000000e+00 0.00000000e+00 0.00000000e+00
0.00000000e+00 0.00000000e+00 0.00000000e+00
0.00000000e+00 0.00000000e+00 0.00000000e+00
0.00000000e+00 0.00000000e+00 0.00000000e+00
0.00000000e+00 0.00000000e+00 0.00000000e+00
0.00000000e+00 0.00000000e+00 0.00000000e+00
0.00000000e+00 0.00000000e+00 0.00000000e+00
0.00000000e+00 0.00000000e+00 0.00000000e+00
1.36436358e-01 7.03103960e-01 -9.46478844e+00
0.00000000e+00 9.76112187e-01 -1.89587841e+01
0.00000000e+00 0.00000000e+00 -3.73876686e+01
2.08587825e-01 0.00000000e+00 -1.91939716e+01
0.00000000e+00 3.54689956e-02 -1.90657196e+01
0.00000000e+00 0.00000000e+00 -3.78735619e+01
0.00000000e+00 -3.10118198e-01 -1.92554150e+01
0.00000000e+00 0.00000000e+00 -3.51909523e+01
0.00000000e+00 -8.07671070e-01 -1.75177593e+01
0.00000000e+00 0.00000000e+00 -3.17498684e+01
0.00000000e+00 -1.53380632e+00 -1.44063387e+01
0.00000000e+00 0.00000000e+00 -2.79382706e+01
0.00000000e+00 -1.81003177e+00 -7.99624062e+00
0.00000000e+00 0.00000000e+00 -1.56623907e+01
0.00000000e+00 0.00000000e+00 -4.23966599e+01
1.87320173e+00 0.00000000e+00 -2.31598797e+01
0.00000000e+00 0.00000000e+00 -3.14417191e+01
0.00000000e+00 0.00000000e+00 -2.35895119e+01
0.00000000e+00 0.00000000e+00 -1.97503815e+01
0.00000000e+00 0.00000000e+00 -1.99953728e+01
0.00000000e+00 0.00000000e+00 -1.24350386e+01
0.00000000e+00 0.00000000e+00 -3.11625023e+01
-8.76516759e-01 0.00000000e+00 -1.85393982e+01
0.00000000e+00 0.00000000e+00 -2.32427368e+01
0.00000000e+00 0.00000000e+00 -1.21191883e+01
0.00000000e+00 0.00000000e+00 -6.99467087e+00
0.00000000e+00 0.00000000e+00 0.00000000e+00
0.00000000e+00 0.00000000e+00 -8.53399467e+00
0.00000000e+00 0.00000000e+00 0.00000000e+00
0.00000000e+00 0.00000000e+00 -5.21077442e+00
0.00000000e+00 0.00000000e+00 0.00000000e+00
0.00000000e+00 0.00000000e+00 -3.26079917e+00
0.00000000e+00 0.00000000e+00 -1.20723038e+01
0.00000000e+00 0.00000000e+00 0.00000000e+00
0.00000000e+00 0.00000000e+00 2.39887977e+00
0.00000000e+00 0.00000000e+00 0.00000000e+00
0.00000000e+00 0.00000000e+00 5.38744593e+00
0.00000000e+00 0.00000000e+00 0.00000000e+00
0.00000000e+00 0.00000000e+00 3.27151632e+00
6.30909264e-01 0.00000000e+00 -1.78138180e+01
0.00000000e+00 0.00000000e+00 -2.05692501e+01
0.00000000e+00 0.00000000e+00 -3.30101814e+01
2.21554613e+00 0.00000000e+00 -2.18839779e+01
0.00000000e+00 0.00000000e+00 1.50784528e+00
0.00000000e+00 0.00000000e+00 -5.84868574e+00
0.00000000e+00 0.00000000e+00 -1.03675175e+00
0.00000000e+00 0.00000000e+00 -1.59035616e+01
7.51945302e-02 0.00000000e+00 -5.96951056e+00
0.00000000e+00 0.00000000e+00 -1.87748680e+01
0.00000000e+00 0.00000000e+00 -1.80876102e+01
0.00000000e+00 0.00000000e+00 -1.16908178e+01
0.00000000e+00 0.00000000e+00 -1.08121328e+01
0.00000000e+00 0.00000000e+00 -5.77765083e+00
0.00000000e+00 0.00000000e+00 5.60475111e-01
0.00000000e+00 0.00000000e+00 -8.40016231e-02
</DataArray>
<DataArray type="Float32" Name="Equivalent_plastic_strain" format="ascii">
5.96160996e-02
5.96794441e-02
7.24932775e-02
6.93647079e-02
4.35671904e-02
5.66194286e-02
1.20416513e-01
9.64528266e-02
9.25058257e-02
1.20233487e-01
1.38335640e-01
1.22712832e-01
0.00000000e+00
0.00000000e+00
0.00000000e+00
0.00000000e+00
0.00000000e+00
0.00000000e+00
0.00000000e+00
0.00000000e+00
8.95611383e-02
8.92101601e-02
8.88682082e-02
8.91110506e-02
9.86987948e-02
9.93049834e-02
1.01105641e-01
1.02561818e-01
8.80552847e-02
9.16929999e-02
9.61562656e-02
9.92012806e-02
8.90742261e-02
8.82345154e-02
9.07530058e-02
9.31415511e-02
8.96751639e-02
1.03253054e-01
8.52871463e-02
8.46370412e-02
8.86842739e-02
9.97490259e-02
7.91150499e-02
8.86793425e-02
8.76535065e-02
9.70008299e-02
7.70151243e-02
8.64118170e-02
9.18604461e-02
8.79783444e-02
1.10456931e-01
1.07471142e-01
9.51763668e-02
1.03822807e-01
1.25339945e-01
9.69408091e-02
1.23820376e-01
9.91371483e-02
1.21408496e-01
1.07715519e-01
1.18281081e-01
1.07583795e-01
9.00152666e-02
7.98115600e-02
1.21576103e-01
1.07731249e-01
1.18092243e-01
1.25366068e-01
1.16293557e-01
3.57670138e-02
6.44843552e-02
7.49150477e-02
5.64517866e-02
7.46835411e-02
7.69593641e-02
1.31070658e-01
8.86792718e-02
9.31067448e-02
1.57693110e-01
1.21525891e-01
7.41435029e-02
4.73199533e-02
1.08624876e-01
1.39803898e-01
1.27751676e-01
1.14122897e-01
1.12093143e-01
1.10879578e-01
1.14300317e-01
1.17694063e-01
1.05980352e-01
1.07029032e-01
9.83766392e-02
9.65222111e-02
9.00616348e-02
8.71477453e-02
8.27671234e-02
8.07270631e-02
8.22144225e-02
8.05437900e-02
1.11225505e-01
1.21980174e-01
9.62772921e-02
7.91751519e-02
6.11215508e-02
5.20885667e-02
6.19574611e-02
1.47147320e-01
1.46084684e-01
1.04811706e-01
2.30397685e-02
6.54431134e-02
3.46787010e-03
1.93461079e-01
1.87553088e-01
1.40534744e-01
1.30030891e-01
1.26530799e-01
1.67072017e-01
1.49914540e-01
1.63176823e-01
1.52822465e-01
6.71986900e-02
7.58226234e-02
-1.75588373e-02
1.28296018e-02
4.17510300e-02
1.03113943e-02
0.00000000e+00
0.00000000e+00
0.00000000e+00
0.00000000e+00
-6.18176799e-05
0.00000000e+00
0.00000000e+00
5.77369841e-05
1.18775189e-01
1.16062939e-01
1.18780255e-01
1.23311438e-01
1.10346042e-01
1.09735902e-01
1.02515269e-01
9.94157847e-02
9.44756605e-02
9.28652249e-02
8.90177973e-02
8.58094655e-02
9.12114233e-02
8.73766020e-02
1.28572982e-01
1.60428569e-01
9.02841855e-02
7.87562337e-02
4.19368111e-02
2.13922352e-02
1.92731130e-02
1.70364305e-01
1.77703440e-01
1.21761560e-01
4.00701119e-03
-2.17509682e-03
1.36968351e-02
-2.08483119e-03
1.42867762e-02
1.98175979e-03
3.33338641e-02
-8.46404443e-03
1.07656136e-01
2.76924244e-05
2.40148662e-03
-6.93874358e-05
-2.43423145e-04
5.90560026e-04
1.05828641e-03
2.19375089e-01
2.46791810e-01
1.85475161e-01
2.19651982e-01
-6.87814913e-05
-1.04966263e-03
0.00000000e+00
1.65301934e-01
1.61082342e-01
1.69901907e-01
1.70902967e-01
3.46276164e-02
3.59634110e-02
1.16584415e-05
1.69879335e-04
0.00000000e+00
</DataArray>
<DataArray type="Float32" Name="Stress_Mises" format="ascii">
1.88136876e+01
2.90660535e+01
6.27124062e+01
3.41623158e+01
2.38163484e+01
3.85406568e+01
4.19135869e+01
2.77508487e+01
6.01485136e+01
1.31349487e+02
1.19137380e+02
1.06749659e+02
1.71037769e+00
1.27048963e+00
2.09793055e+00
2.95713210e+00
8.23086321e-01
6.25815690e-01
1.05865550e+00
1.21563363e+00
2.81367645e+01
2.77676017e+01
2.30057152e+01
2.71713591e+01
2.29101617e+01
2.98189363e+01
2.79741693e+01
2.94451995e+01
2.23847935e+01
2.45363752e+01
2.97629287e+01
3.22669814e+01
2.28471308e+01
2.47671295e+01
2.66085501e+01
2.81146591e+01
2.07010091e+01
2.66886691e+01
2.27575421e+01
2.39429523e+01
1.65207845e+01
3.08026101e+01
1.55028743e+01
2.49135157e+01
1.49859843e+01
2.51303420e+01
1.69875393e+01
2.42519205e+01
2.57437131e+01
2.47936240e+01
3.73075661e+01
2.90431721e+01
4.40958244e+01
3.83062699e+01
1.18575668e+02
4.21125992e+01
8.79450359e+01
7.39742359e+01
6.78854160e+01
8.11971283e+01
5.85583000e+01
7.73958759e+01
2.51806889e+01
2.87421837e+01
4.21117367e+01
2.42377718e+01
1.45320225e+02
6.41467422e+01
8.91315384e+01
2.82431482e+01
2.62469750e+01
1.73911878e+01
2.79469322e+01
2.82994802e+01
2.25046911e+01
2.80192705e+01
3.72953699e+01
9.07557135e+01
1.50485474e+02
5.86992775e+01
3.82768960e+01
4.52290735e+01
4.40231285e+01
6.60680308e+01
1.26664825e+02
4.25100816e+01
2.54714556e+01
3.04173641e+01
3.01042623e+01
3.21188350e+01
3.54557505e+01
3.64883630e+01
3.68341498e+01
4.18941776e+01
3.40537839e+01
3.05203464e+01
2.31888919e+01
2.42478338e+01
2.66825495e+01
4.06952195e+01
4.86551090e+01
5.44879990e+01
4.24091073e+01
3.88119130e+01
4.04887446e+01
5.01528149e+01
5.54825478e+01
6.29148140e+01
6.60367209e+01
4.76918756e+01
3.59804131e+01
6.25894547e+01
2.10825245e+01
5.83986373e+01
4.36411997e+01
1.81262360e+02
7.52634360e+01
4.47079986e+01
2.13936727e+01
2.10631741e+01
7.24674129e+01
4.94335442e+01
6.42757416e+01
3.45791094e+01
4.67970543e+01
1.99777966e+01
2.69616089e+01
2.28057289e+01
4.18650150e+00
1.92897618e+00
3.23934126e+00
4.71734953e+00
1.33433277e+01
7.19056177e+00
5.30843210e+00
1.76156346e+01
2.93748970e+01
3.15787354e+01
2.95685856e+01
3.08904638e+01
3.85793056e+01
3.68876631e+01
4.11597233e+01
5.03829865e+01
4.04242954e+01
4.71538091e+01
3.72588997e+01
3.17191081e+01
5.21319008e+01
4.63372498e+01
4.87878180e+01
4.11824582e+01
4.57797260e+01
4.28730134e+01
2.48492095e+01
2.29110303e+01
3.06717362e+01
1.46118538e+02
1.55015900e+02
3.49432449e+01
2.24113096e+01
1.50508072e+01
2.33688068e+01
1.88009433e+01
2.57443867e+01
2.45361032e+01
6.42244511e+01
1.77841001e+01
4.97180977e+01
2.43891786e+01
1.91335169e+01
2.27311370e+01
1.84838943e+01
1.89348683e+01
2.00372820e+01
1.25717232e+02
1.89385941e+02
6.22209295e+01
3.69501038e+01
1.31698316e+01
2.28775635e+01
1.00833838e+01
2.52868679e+01
1.05051174e+01
3.36562862e+01
4.28216400e+01
3.56693931e+01
2.12287354e+01
1.66157804e+01
1.59525585e+01
5.34779882e+00
</DataArray>
<DataArray type="Float32" Name="Stress_Max_Principal" format="ascii">
2.06022965e+01
1.12512868e+01
7.17661381e+00
-1.53843185e+00
2.39925510e+01
4.24446016e+01
2.30873334e+00
1.66190101e+01
-1.61461233e+01
-8.07663612e+01
-6.01812483e+01
-5.20621622e+01
9.55617785e-01
6.86887980e-01
1.08312002e+00
1.75870138e+00
5.83435416e-01
4.98463243e-01
6.84108794e-01
8.18276823e-01
2.01725006e+00
2.69259206e+00
7.75696808e+00
3.35224611e+00
6.66846013e+00
5.25569797e-01
6.03863201e+00
1.33013020e+00
7.55072522e+00
7.98874301e+00
4.56472397e-01
1.08131504e+00
6.78524452e+00
1.48116428e+01
3.87711658e+00
5.70876366e+00
9.26861033e+00
6.60345155e+00
7.18524051e+00
2.07639655e+01
1.24095047e+01
1.49965838e+01
1.91865652e+01
1.02287411e+01
1.33699496e+01
2.42926096e+01
2.46081436e+01
1.66490000e+01
5.77061641e+00
7.67931336e+00
-4.01203936e+00
1.40838408e+00
3.08472647e+01
-4.06488806e+00
-7.11112236e+01
2.98730409e+01
-4.67734308e+01
-3.41094841e+01
-2.92702789e+01
-4.07638984e+01
-1.94512048e+01
-3.38026819e+01
6.48438866e+00
2.13403730e+01
-8.83574670e+00
6.02339648e+00
-8.87245321e+01
-1.78360186e+01
2.03620956e+02
1.56053111e+01
3.65179071e+01
1.64053593e+01
3.59634721e+01
1.28388333e+01
1.98566675e+01
3.41263762e+01
1.18104129e+01
-4.68290741e+01
-9.62047005e+01
1.56525202e+01
1.28619547e+01
1.06043849e+01
1.75856504e+01
-4.45788336e+00
-3.39307836e+01
6.02995018e+00
5.13496834e+00
3.52137327e-01
1.11135125e+00
-2.02120960e-01
-3.50507933e+00
-3.88416332e+00
-4.87945986e+00
-7.04882768e+00
-1.74960008e+00
1.82744187e+00
7.16082391e+00
1.32936751e+01
5.21251702e+00
5.60259885e+00
-1.27705032e+00
8.25574207e+00
-4.14365339e+00
2.03095104e+01
3.10058693e+01
5.35416842e+00
8.80207634e+00
-2.36320970e+01
-2.82171033e+01
3.05194055e+01
5.86036730e+01
1.44171021e+02
2.86716462e+01
-1.98348272e+01
9.50845019e+00
-9.97719307e+01
-2.28568729e+01
-9.20761740e+00
2.62079077e+01
1.05841348e+01
-2.88268292e+01
-8.83281183e+00
2.22614346e+01
3.31648521e+01
1.12365089e+02
5.86272469e+01
2.68607602e+01
2.06470617e+01
2.58702636e+00
9.39921677e-01
1.90965676e+00
2.94028425e+00
9.30870133e+00
1.92672400e+00
1.38939944e+00
8.18050114e+00
2.08824992e+00
-4.46401477e-01
1.84333372e+00
1.06746006e+00
-6.07625735e+00
-3.77037559e+00
-7.15990496e+00
-1.28438433e+01
-5.81190389e+00
-9.95336318e+00
-3.03722006e+00
3.31778997e+00
-1.25587978e+01
-6.72589564e+00
1.22204993e+01
2.44204712e+00
-8.84460330e-01
2.58024478e+01
4.02797484e+01
2.58415127e+01
2.44108966e+01
-9.07214642e+01
-1.04544891e+02
4.72674322e+01
4.43586588e+01
3.80002358e+01
3.57979188e+01
3.16058805e+01
1.58386884e+01
3.57512684e+01
7.02566643e+01
4.18031616e+01
1.97584858e+01
3.63474032e+01
2.10085894e+01
1.81920382e+01
1.45400182e+01
8.95735550e+00
7.38812232e+00
-6.67917023e+01
-1.27122955e+02
2.53536226e+01
1.20564089e+01
7.81708956e+00
3.30714877e+01
3.84126067e+00
9.31278133e+00
1.96465912e+01
1.25107098e+00
-4.72614616e+00
1.88538070e+01
3.16537628e+01
3.15481749e+01
6.82386160e+00
8.81300330e-01
</DataArray>
<DataArray type="Float32" Name="Stress_Mid_Principal" format="ascii">
1.46209884e+01
1.55893481e+00
-1.18692627e+01
-3.90690154e+00
1.63449514e+01
2.27798781e+01
-1.26290921e+01
1.16533554e+01
-2.27857373e+01
-9.09680557e+01
-7.88665187e+01
-7.64812880e+01
-3.61828968e-01
-3.62220716e-01
-1.27386514e-01
-6.26198351e-01
4.41643037e-02
-5.30052297e-02
1.16878651e-01
2.66713127e-02
1.24812555e+00
1.20941254e+00
5.88846401e+00
1.61229770e+00
5.60108232e+00
-1.68950081e-01
3.58358461e+00
-3.15158755e-01
5.62800097e+00
4.94082049e+00
7.15559125e-02
-1.49678040e+00
5.55328131e+00
9.76594025e+00
2.04862265e+00
2.41158491e+00
7.22789165e+00
3.59378326e+00
5.34244180e+00
1.37674717e+01
1.07467347e+01
7.61511266e+00
1.65885741e+01
6.71111324e+00
1.25339203e+01
1.67734224e+01
1.89533722e+01
1.02289134e+01
1.75886112e+00
3.31405711e+00
-6.53758550e+00
5.43182611e-01
1.47173844e+01
-7.99932313e+00
-8.37185463e+01
1.38532474e+01
-5.24944925e+01
-3.95399972e+01
-3.56624036e+01
-4.67024555e+01
-2.98008614e+01
-4.78492813e+01
2.45461798e+00
1.27501860e+01
-1.07104971e+01
4.32002431e+00
-1.10533092e+02
-2.90731650e+01
1.22141479e+02
6.77481079e+00
2.39812220e+01
1.35775720e+01
2.17656461e+01
6.65919948e+00
1.46493108e+01
2.04050578e+01
1.18565559e+00
-5.66129614e+01
-1.08579784e+02
-6.75190239e+00
3.68090820e+00
-9.74813461e-01
2.54695892e+00
-2.77267933e+01
-6.44815254e+01
-1.13374284e+01
2.61009574e+00
-1.06097293e+00
-1.27945694e+00
-3.48791164e+00
-5.84400690e+00
-7.26034734e+00
-6.71499014e+00
-1.34201003e+01
-5.11839569e+00
-2.46482375e+00
4.58018462e+00
8.17139280e+00
5.50551891e-01
-4.33400209e+00
-1.09265559e+01
-5.86128187e+00
-1.16494609e+01
5.92949057e+00
1.27786417e+01
-1.09302141e+01
-1.13439484e+01
-3.27590628e+01
-3.33070520e+01
8.58312798e+00
3.31942228e+01
8.29247894e+01
1.55150095e+01
-2.57961805e+01
-1.41531626e-02
-1.58280235e+02
-3.33276028e+01
-1.35544952e+01
1.77299557e+01
8.38899708e+00
-4.19891596e+01
-2.21134724e+01
-8.46121979e+00
1.43287358e+01
6.99666061e+01
4.20601425e+01
5.02153152e+00
8.39030711e+00
-1.09012187e+00
-1.25674605e-01
-6.50120676e-01
-1.23706627e+00
-8.22530690e-01
-8.32993257e-01
6.30319372e-01
3.61298776e+00
-1.09008777e+00
-2.27203441e+00
-1.10011101e+00
-2.66732311e+00
-8.67308450e+00
-8.09731448e+00
-1.20265845e+01
-2.24975698e+01
-1.22090715e+01
-1.96606581e+01
-9.59357095e+00
-6.26822877e+00
-2.58147869e+01
-2.14528875e+01
-4.67328167e+00
-7.71836948e+00
-1.45477592e+01
8.47259092e+00
2.81640508e+01
1.93150754e+01
5.81327057e+00
-1.08664227e+02
-1.09853081e+02
2.32029328e+01
3.37166636e+01
2.78892339e+01
1.86542823e+01
1.94838751e+01
5.39231992e+00
2.90148129e+01
2.44524174e+01
2.83240852e+01
4.67924786e+00
1.70194674e+01
9.43307797e+00
3.21510682e+00
8.01765676e+00
4.35599983e+00
1.56823516e+00
-9.84681854e+01
-1.45517975e+02
5.32368437e+00
-6.92070007e-01
2.94614007e+00
2.15957039e+01
-3.09211648e+00
2.32564735e+00
1.52756329e+01
-4.91827273e+00
-1.75166392e+01
3.57688618e+00
1.57684441e+01
2.08263586e+01
3.49459499e+00
-6.41550776e-03
</DataArray>
<DataArray type="Float32" Name="Stress_Min_Principal" format="ascii">
2.84863412e-01
-2.07156703e+01
-5.97491302e+01
-3.67309842e+01
-1.06647384e+00
8.51597922e-01
-4.47540345e+01
-1.18996568e+01
-7.92914597e+01
-2.16911774e+02
-1.87125274e+02
-1.68515831e+02
-9.77327675e-01
-7.08081603e-01
-1.33920345e+00
-1.51609063e+00
-3.63961965e-01
-1.81693017e-01
-5.37290394e-01
-5.81411183e-01
-2.64955778e+01
-2.57857671e+01
-1.60486041e+01
-2.46379709e+01
-1.67562599e+01
-2.96340218e+01
-2.25891654e+01
-2.89010611e+01
-1.57294647e+01
-1.76253518e+01
-2.94967396e+01
-3.21346211e+01
-1.66459889e+01
-1.07178440e+01
-2.35932299e+01
-2.35551779e+01
-1.23360178e+01
-2.11990090e+01
-1.64369140e+01
-4.21966434e+00
-4.87790409e+00
-1.70420196e+01
3.24338055e+00
-1.56335658e+01
-2.01081610e+00
-1.84430027e+00
6.84038162e+00
-9.22162652e+00
-2.16896171e+01
-1.88992360e+01
-4.23944354e+01
-2.80323918e+01
-1.54458588e+01
-4.39008293e+01
-1.95064861e+02
-1.49485460e+01
-1.37432217e+02
-1.10520986e+02
-1.00123110e+02
-1.24733688e+02
-8.24942131e+01
-1.17259655e+02
-2.03735523e+01
-8.46760011e+00
-5.17980562e+01
-1.89865437e+01
-2.43677036e+02
-8.63390413e+01
1.08427094e+02
-1.51074020e+01
9.49496099e+00
-1.62403464e+00
6.41670847e+00
-1.67697887e+01
-3.47824299e+00
3.89556353e+00
-2.82553332e+01
-1.41902885e+02
-2.52462616e+02
-4.77143784e+01
-2.68712997e+01
-3.70331326e+01
-2.90436687e+01
-7.75153933e+01
-1.70036948e+02
-4.14462147e+01
-2.15048757e+01
-3.07344244e+01
-3.01154240e+01
-3.38359513e+01
-4.00714045e+01
-4.19424546e+01
-4.25968800e+01
-5.17413130e+01
-3.73603402e+01
-3.05802955e+01
-1.72042417e+01
-1.23623962e+01
-2.34906793e+01
-3.80298667e+01
-5.28258467e+01
-4.86003408e+01
-4.94753309e+01
-2.16058080e+01
-1.22957049e+01
-4.93869012e+01
-5.23366559e+01
-9.05141635e+01
-9.66351461e+01
-2.17081962e+01
1.88791180e+01
8.03197021e+01
5.75066967e+00
-8.05138702e+01
-3.62752380e+01
-3.02697807e+02
-1.01037296e+02
-5.58027363e+01
3.46291089e+00
-1.12461157e+01
-1.06924966e+02
-6.33882821e+01
-5.04447681e+01
-5.54911149e+00
6.21530762e+01
3.64418678e+01
-2.96799600e+00
-3.83085918e+00
-1.96921778e+00
-1.28678548e+00
-1.73221958e+00
-2.17588091e+00
-5.09561205e+00
-5.87116543e+00
-4.24589920e+00
-1.11955983e+01
-2.87465687e+01
-3.28918743e+01
-2.90814657e+01
-3.15194767e+01
-4.58730659e+01
-4.26037102e+01
-5.05346165e+01
-6.73195186e+01
-4.90226536e+01
-6.11985912e+01
-4.31389732e+01
-3.20461547e+01
-7.00389709e+01
-5.86259747e+01
-4.03127947e+01
-4.19715843e+01
-5.13866119e+01
-2.10434260e+01
1.31262999e+01
1.51584387e+00
-1.07328377e+01
-2.44882835e+02
-2.62146698e+02
8.77142143e+00
2.02383175e+01
2.08090646e+01
9.34370780e+00
1.06823628e+01
-1.31153030e+01
8.82250977e+00
-3.09107208e+00
2.16760373e+01
-3.57535400e+01
9.26645009e+00
-9.85111713e-01
-7.75968343e+00
-6.19345289e+00
-1.18326373e+01
-1.47777596e+01
-2.05317657e+02
-3.25035217e+02
-3.87314835e+01
-2.92271061e+01
-6.53866953e+00
7.29273097e+00
-7.67767429e+00
-1.86093292e+01
7.66169691e+00
-3.50489688e+01
-5.24846153e+01
-2.08268719e+01
7.56706429e+00
1.38086002e+01
-1.04855638e+01
-4.85480833e+00
</DataArray>
<DataArray type="Float32" Name="Stress_Pressure" format="ascii">
-1.18360492e+01
2.63514996e+00
2.14805937e+01
1.40587733e+01
-1.30903427e+01
-2.20253596e+01
1.83581311e+01
-5.45756888e+00
3.94077740e+01
1.29548725e+02
1.08724349e+02
9.90197630e+01
1.27846275e-01
1.27804779e-01
1.27823327e-01
1.27862524e-01
-8.78792554e-02
-8.79216641e-02
-8.78990069e-02
-8.78456384e-02
7.74340057e+00
7.29458785e+00
8.01057279e-01
6.55780900e+00
1.49557209e+00
9.75913401e+00
4.32231638e+00
9.29536295e+00
8.50246269e-01
1.56526265e+00
9.65623689e+00
1.08500285e+01
1.43582118e+00
-4.61991289e+00
5.88916349e+00
5.14494303e+00
-1.38682771e+00
3.66725791e+00
1.30307704e+00
-1.01039241e+01
-6.09277838e+00
-1.85655808e+00
-1.30061735e+01
-4.35429364e-01
-7.96435094e+00
-1.30739117e+01
-1.68006310e+01
-5.88542970e+00
4.72004633e+00
2.63528848e+00
1.76480206e+01
8.69360858e+00
-1.00395969e+01
1.86550136e+01
1.16631543e+02
-9.59258005e+00
7.89000454e+01
6.13901553e+01
5.50185976e+01
7.07333469e+01
4.39154263e+01
6.63038712e+01
3.81151540e+00
-8.54098666e+00
2.37814328e+01
2.88104153e+00
1.47644890e+02
4.44160717e+01
-1.44729843e+02
-2.42424011e+00
-2.33313632e+01
-9.45296580e+00
-2.13819418e+01
-9.09415245e-01
-1.03425779e+01
-1.94756666e+01
5.08642125e+00
8.17816429e+01
1.52415703e+02
1.29379192e+01
3.44281387e+00
9.13451958e+00
2.97035408e+00
3.65666885e+01
8.94830869e+01
1.55845642e+01
4.58660382e+00
1.04810865e+01
1.00945099e+01
1.25086610e+01
1.64734970e+01
1.76956551e+01
1.80637764e+01
2.40700804e+01
1.47427783e+01
1.04058919e+01
1.82107759e+00
-3.03422376e+00
5.90920401e+00
1.22537570e+01
2.16764843e+01
1.54019604e+01
2.17561481e+01
-1.54439843e+00
-1.04962675e+01
1.83209826e+01
1.82928429e+01
4.89684416e+01
5.27197657e+01
-5.79811160e+00
-3.68923384e+01
-1.02471840e+02
-1.66457752e+01
4.20482932e+01
8.92698161e+00
1.86916664e+02
5.24072569e+01
2.61882834e+01
-1.58002585e+01
-2.57567215e+00
5.92469842e+01
3.14448550e+01
1.22148504e+01
-1.39814913e+01
-8.14949265e+01
-4.57097511e+01
-9.63809831e+00
-8.40216968e+00
1.57437772e-01
1.57512799e-01
1.57561153e-01
1.57554314e-01
-1.13018634e+00
1.59247826e+00
7.42060125e-01
-1.99296991e-01
9.24946880e+00
1.18701031e+01
9.44608092e+00
1.10397797e+01
2.02074690e+01
1.81571331e+01
2.32403688e+01
3.42203095e+01
2.23478765e+01
3.02708692e+01
1.85899210e+01
1.16655315e+01
3.61375198e+01
2.89349194e+01
1.09218588e+01
1.57493000e+01
2.22729442e+01
-4.41053867e+00
-2.71900325e+01
-1.55574780e+01
-6.49710941e+00
1.48089508e+02
1.58848221e+02
-2.64139288e+01
-3.27712139e+01
-2.88995119e+01
-2.12653035e+01
-2.05907059e+01
-2.70523515e+00
-2.45295304e+01
-3.05393362e+01
-3.06010933e+01
3.77193499e+00
-2.08777730e+01
-9.81885195e+00
-4.54915369e+00
-5.45474070e+00
-4.93572474e-01
1.94046739e+00
1.23525848e+02
1.99225388e+02
2.68472608e+00
5.95425606e+00
-1.40818664e+00
-2.06533076e+01
2.30950993e+00
2.32363319e+00
-1.41946402e+01
1.29053906e+01
2.49091339e+01
-5.34608841e-01
-1.83297572e+01
-2.20610452e+01
5.57024479e-02
1.32664120e+00
</DataArray>
<DataArray type="Float32" Name="Stress_Tresca" format="ascii">
2.03174331e+01
3.19669567e+01
6.69257450e+01
3.51925526e+01
2.50590252e+01
4.15930040e+01
4.70627685e+01
2.85186672e+01
6.31453366e+01
1.36145412e+02
1.26944026e+02
1.16453669e+02
1.93294549e+00
1.39496958e+00
2.42232347e+00
3.27479208e+00
9.47397351e-01
6.80156231e-01
1.22139919e+00
1.39968801e+00
2.85128269e+01
2.84783590e+01
2.38055724e+01
2.79902172e+01
2.34247208e+01
3.01595917e+01
2.86277974e+01
3.02311921e+01
2.32801893e+01
2.56140949e+01
2.99532125e+01
3.32159364e+01
2.34312339e+01
2.55294867e+01
2.74703469e+01
2.92639418e+01
2.16046283e+01
2.78024602e+01
2.36221542e+01
2.49836302e+01
1.72874088e+01
3.20386031e+01
1.59431844e+01
2.58623070e+01
1.53807659e+01
2.61369100e+01
1.77677622e+01
2.58706269e+01
2.74602332e+01
2.65785494e+01
3.83823969e+01
2.94407763e+01
4.62931232e+01
3.98359416e+01
1.23953636e+02
4.48215866e+01
9.06587868e+01
7.64115021e+01
7.08528290e+01
8.39697914e+01
6.30430088e+01
8.34569740e+01
2.68579403e+01
2.98079724e+01
4.29623097e+01
2.50099401e+01
1.54952503e+02
6.85030239e+01
9.51938629e+01
3.07127132e+01
2.70229459e+01
1.80293939e+01
2.95467639e+01
2.96086211e+01
2.33349104e+01
3.02308122e+01
4.00657463e+01
9.50738115e+01
1.56257912e+02
6.33668991e+01
3.97332535e+01
4.76375170e+01
4.66293201e+01
7.30575094e+01
1.36106164e+02
4.74761651e+01
2.66398449e+01
3.10865626e+01
3.12267752e+01
3.36338305e+01
3.65663247e+01
3.80582917e+01
3.77174206e+01
4.46924856e+01
3.56107397e+01
3.24077370e+01
2.43650656e+01
2.56560709e+01
2.87031965e+01
4.36324644e+01
5.15487957e+01
5.68560820e+01
4.53316774e+01
4.19153192e+01
4.33015744e+01
5.47410698e+01
6.11387316e+01
6.68820667e+01
6.84180412e+01
5.22276017e+01
3.97245547e+01
6.38513184e+01
2.29209763e+01
6.06790438e+01
4.57836876e+01
2.02925880e+02
7.81804225e+01
4.65951176e+01
2.27449970e+01
2.18302507e+01
7.80981369e+01
5.45554705e+01
7.27062030e+01
3.87139640e+01
5.02120132e+01
2.21853790e+01
2.98287568e+01
2.44779199e+01
4.55624390e+00
2.22670722e+00
3.64187622e+00
5.11616516e+00
1.44043133e+01
7.79788939e+00
5.63529873e+00
1.93761002e+01
3.08348179e+01
3.24454727e+01
3.09247990e+01
3.25869360e+01
3.97968082e+01
3.88333349e+01
4.33747120e+01
5.44756751e+01
4.32107496e+01
5.12452269e+01
4.01017532e+01
3.53639450e+01
5.74801712e+01
5.19000778e+01
5.25332947e+01
4.44136295e+01
5.05021524e+01
4.68458729e+01
2.71534481e+01
2.43256688e+01
3.51437340e+01
1.54161369e+02
1.57601807e+02
3.84960105e+01
2.41203408e+01
1.71911712e+01
2.64542108e+01
2.09235177e+01
2.89539909e+01
2.69287586e+01
7.33477364e+01
2.01271248e+01
5.55120239e+01
2.70809523e+01
2.19937016e+01
2.59517212e+01
2.07334712e+01
2.07899923e+01
2.21658812e+01
1.38525955e+02
1.97912262e+02
6.40851059e+01
4.12835140e+01
1.43557587e+01
2.57787565e+01
1.15189347e+01
2.79221106e+01
1.19848938e+01
3.63000393e+01
4.77584686e+01
3.96806774e+01
2.40866985e+01
1.77395744e+01
1.73094249e+01
5.73610878e+00
</DataArray>
<DataArray type="Float32" Name="Stress_Third_Invariant" format="ascii">
-1.11843173e+01
-2.11265319e+01
-3.85198917e+01
-3.31570593e+01
-1.08173535e+01
-2.84298522e+00
-2.84640041e+01
-1.89073049e+01
-5.91655555e+01
-1.30430756e+02
-1.14134001e+02
-9.84664555e+01
1.42723399e+00
1.09758738e+00
-1.45728827e-01
2.51698422e+00
5.09347439e-01
5.94944000e-01
-5.26355505e-01
7.39080429e-01
-2.81112480e+01
-2.76749036e+01
-2.22349503e+01
-2.70173287e+01
-2.28526826e+01
-2.97991152e+01
-2.52731339e+01
-2.93349626e+01
-2.21855745e+01
-2.27195843e+01
-2.97563977e+01
-3.06558113e+01
-2.27511735e+01
-1.76771544e+01
-2.64502769e+01
-2.56965721e+01
-2.01835809e+01
-2.45846679e+01
-2.25864286e+01
-1.30473403e+01
-1.63250643e+01
-1.96811006e+01
-1.08039750e+01
-2.12054544e+01
-1.49158792e+01
-1.08372966e+01
-7.48475885e+00
-1.63681817e+01
-2.48240899e+01
-2.31037478e+01
-3.63389961e+01
-2.89302275e+01
-1.50798584e+01
-3.65928673e+01
-1.15701282e+02
-1.54071993e+01
-8.75032043e+01
-7.31213097e+01
-6.71953878e+01
-8.06033630e+01
-5.64449768e+01
-7.44458427e+01
-2.40936847e+01
-1.43757898e+01
-4.16839357e+01
-2.39780891e+01
-1.41438755e+02
-5.51959837e+01
8.67100220e+01
-1.90647507e+01
-2.19757938e+00
-1.36664099e+01
-1.95413079e+00
-2.05425724e+01
-1.30737844e+01
-5.89116519e+00
-2.50607710e+01
-8.89906206e+01
-1.49232712e+02
-3.06980686e+01
-2.43450274e+01
-2.91094861e+01
-2.36088057e+01
-4.66714435e+01
-1.02621945e+02
-2.50218302e+01
-2.51875486e+01
-3.03048558e+01
-2.98846202e+01
-3.17324539e+01
-3.52785625e+01
-3.61318651e+01
-3.67305002e+01
-4.07099441e+01
-3.36688848e+01
-2.97098228e+01
-2.28430009e+01
-1.88612636e+01
-2.57315702e+01
-3.10120478e+01
-3.91508379e+01
-3.40628672e+01
-3.88964642e+01
-1.92687383e+01
-1.23860574e+01
-3.42483082e+01
-3.46879781e+01
-6.10826418e+01
-6.55421174e+01
-1.53633615e+01
8.46448994e+00
6.24672890e+01
4.05516090e+00
-5.42090943e+01
-2.95524699e+01
-1.56036713e+02
-6.51668571e+01
-4.34914638e+01
-8.74633980e+00
-1.91153640e+01
-6.95288277e+01
-4.41398950e+01
-3.49054441e+01
-8.36834192e+00
4.52944984e+01
1.80681267e+01
2.27249868e+01
-4.00279617e+00
3.97079182e+00
-8.10625136e-01
2.78690195e+00
4.49990988e+00
5.48051295e+00
-3.74129979e+00
-5.14550829e+00
-1.59320151e+01
-2.89842625e+01
-3.14399767e+01
-2.92193356e+01
-3.03727508e+01
-3.83352413e+01
-3.62245972e+01
-4.04985037e+01
-4.81130710e+01
-3.91603565e+01
-4.47982006e+01
-3.59260550e+01
-2.79959743e+01
-4.81159439e+01
-4.04944782e+01
-2.90169964e+01
-3.32639792e+01
-3.69277973e+01
-1.73256670e+01
-3.95388961e+00
-1.10048506e+01
-4.77172947e+00
-1.43293171e+02
-1.54811234e+02
1.31785351e+01
-1.82352972e+00
4.82612628e+00
1.43425803e+01
4.93964154e+00
-9.49106693e+00
-2.09647064e+01
4.74443035e+01
1.44241166e+01
-4.41157570e+01
1.99191834e+01
4.52521483e+00
6.71922541e+00
-1.46501138e+01
-1.75248141e+01
-1.73167567e+01
-1.16218750e+02
-1.87360245e+02
-2.42363307e+01
-2.48694677e+01
-6.45194221e+00
2.59917990e+00
6.58218050e+00
-2.08050112e+01
-8.04030704e+00
-3.22977457e+01
-3.81510868e+01
-1.92315159e+01
1.69550104e+01
2.02630043e+00
-1.49736381e+01
-5.17812967e+00
</DataArray>
<DataArray type="Float32" Name="Logarithmic_strain_Max_Principal" format="ascii">
4.37680781e-02
5.11145596e-02
5.84341930e-02
4.42926418e-02
4.85595246e-02
6.33357215e-02
8.53501465e-02
5.79778636e-02
5.96811641e-02
7.01880231e-02
9.48249077e-02
1.00255154e-01
2.50130197e-05
1.77584479e-05
2.77374247e-05
4.42237051e-05
1.29999444e-05
1.11178979e-05
1.51237873e-05
1.80454899e-05
5.46220299e-02
5.61347334e-02
5.90757099e-02
5.66815455e-02
6.62172474e-02
6.41504359e-02
6.57464680e-02
6.75087124e-02
6.00309661e-02
6.27073338e-02
6.04555169e-02
6.31009676e-02
6.12401310e-02
6.53551230e-02
5.98039599e-02
6.03157617e-02
6.42828457e-02
6.88039996e-02
5.72175430e-02
5.99117531e-02
6.21133661e-02
6.53804168e-02
5.10363365e-02
5.92630222e-02
6.02014493e-02
6.57244241e-02
5.31666279e-02
6.07858924e-02
6.70378669e-02
6.54470613e-02
7.05877626e-02
6.69056596e-02
6.18372613e-02
6.97589917e-02
8.35655674e-02
6.40243776e-02
8.00225735e-02
6.64252229e-02
7.72284288e-02
6.89236820e-02
7.88267888e-02
7.10427389e-02
6.56759563e-02
5.92096429e-02
7.76418628e-02
6.70813536e-02
9.28475261e-02
8.88320893e-02
1.46423414e-01
5.77654392e-02
4.79115019e-02
5.06123183e-02
6.92624512e-02
7.00053042e-02
4.87200599e-02
7.69819197e-02
8.10211422e-02
6.51678285e-02
9.32176709e-02
9.14223343e-02
5.36221862e-02
7.81310033e-02
8.30279738e-02
1.08363569e-01
1.05191459e-01
1.01357770e-01
8.06818232e-02
7.51629323e-02
8.04249886e-02
8.45772270e-02
6.83628824e-02
7.41175916e-02
6.47233222e-02
6.79428438e-02
6.03567120e-02
6.05833000e-02
5.74371079e-02
5.45138079e-02
6.05056621e-02
5.81685891e-02
9.28474329e-02
9.35036745e-02
7.92905428e-02
6.20973492e-02
5.10486370e-02
4.81752306e-02
4.98952866e-02
1.01969818e-01
1.01893206e-01
8.56728591e-02
5.24876139e-02
8.54060352e-02
2.31897131e-02
1.10638397e-01
1.16526658e-01
1.17369376e-01
1.11551808e-01
1.10107213e-01
1.09036617e-01
9.56326649e-02
1.09312385e-01
1.22050401e-01
8.84237792e-02
8.59883428e-02
1.45225495e-01
7.24169761e-02
5.30099665e-02
4.13779608e-02
6.37473568e-05
2.41358794e-05
4.77349749e-05
7.19457894e-05
1.99319838e-04
6.60423126e-05
4.15815248e-05
2.59827701e-04
8.59104693e-02
7.93599188e-02
8.76466297e-02
9.27243344e-02
7.14872107e-02
7.83770755e-02
7.28483796e-02
7.33849518e-02
6.99733980e-02
6.70734625e-02
6.62037991e-02
6.32745391e-02
7.37399757e-02
6.61796369e-02
1.00484826e-01
1.02761798e-01
8.85834675e-02
6.46492392e-02
4.39874972e-02
3.80935417e-02
3.73495389e-02
1.09804634e-01
1.14674069e-01
8.32741410e-02
3.54822616e-02
9.21459810e-03
1.67448315e-02
6.78627480e-03
1.63195581e-02
8.39338661e-03
6.18264880e-02
1.62080340e-02
7.86216259e-02
3.38032579e-03
2.57753438e-03
5.38852317e-04
2.84806662e-04
7.71809631e-04
9.06814159e-04
1.69845328e-01
1.51552260e-01
1.25313451e-01
1.45848967e-01
1.48189507e-04
1.56879944e-02
1.21000634e-04
1.28739201e-01
1.23425744e-01
1.09518137e-01
1.28821515e-01
6.12261184e-02
7.83375986e-02
2.07205124e-02
2.81731031e-04
3.58595826e-05
</DataArray>
<DataArray type="Float32" Name="Logarithmic_strain_Min_Principal" format="ascii">
-5.91590167e-02
-6.61713812e-02
-8.36295784e-02
-7.02747609e-02
-7.06761004e-02
-8.40292690e-02
-1.05974358e-01
-8.04974809e-02
-9.38642956e-02
-1.20978717e-01
-1.32713810e-01
-1.37663595e-01
-2.18201885e-05
-1.56084852e-05
-3.07291566e-05
-3.54916028e-05
-9.27833844e-06
-4.92266190e-06
-1.29351129e-05
-1.47876062e-05
-8.98792818e-02
-8.98408201e-02
-8.87154741e-02
-8.98193475e-02
-9.86568369e-02
-9.96858999e-02
-1.01284179e-01
-1.02824213e-01
-8.79032388e-02
-9.16246222e-02
-9.69778784e-02
-1.00029481e-01
-8.85395296e-02
-9.46045974e-02
-9.12024528e-02
-9.37649030e-02
-8.91673099e-02
-1.01357909e-01
-8.52299798e-02
-8.69125696e-02
-8.84910785e-02
-1.00066751e-01
-7.87294153e-02
-8.85494258e-02
-8.75001438e-02
-9.68344826e-02
-7.62863345e-02
-8.66553131e-02
-9.14590554e-02
-8.70394576e-02
-1.11591816e-01
-1.07868133e-01
-1.00781787e-01
-1.06345129e-01
-1.33669984e-01
-9.57894442e-02
-1.28525253e-01
-1.03260179e-01
-1.22716853e-01
-1.11149957e-01
-1.19091220e-01
-1.09944422e-01
-8.67572576e-02
-7.94646200e-02
-1.18794923e-01
-1.07871601e-01
-1.31733414e-01
-1.29941843e-01
-1.28612489e-01
-6.71843582e-02
-6.99147050e-02
-7.06624538e-02
-1.01099843e-01
-1.02376124e-01
-7.09558958e-02
-1.08536052e-01
-1.07717201e-01
-9.88165215e-02
-1.46576803e-01
-1.22782700e-01
-7.72067532e-02
-1.04632491e-01
-1.14737492e-01
-1.37068849e-01
-1.40418577e-01
-1.17712046e-01
-1.11223191e-01
-1.10742278e-01
-1.14216045e-01
-1.17060846e-01
-1.06740173e-01
-1.07403322e-01
-9.94684622e-02
-9.74425534e-02
-9.07676015e-02
-8.61919494e-02
-8.25243946e-02
-7.92351672e-02
-8.17465372e-02
-8.11779834e-02
-1.24215823e-01
-1.31494582e-01
-1.06588840e-01
-7.95867452e-02
-6.67597487e-02
-6.13990153e-02
-6.24195722e-02
-1.39526228e-01
-1.42438355e-01
-1.06509861e-01
-4.96441194e-02
-8.45009461e-02
-1.50515798e-02
-1.64561760e-01
-1.65629288e-01
-1.49823077e-01
-1.66456406e-01
-1.62749708e-01
-1.55761719e-01
-1.50901072e-01
-1.61464565e-01
-1.53631922e-01
-1.05083548e-01
-9.43373218e-02
-8.05486068e-02
-5.25264032e-02
-3.21727971e-02
-4.24440936e-02
-4.57951210e-05
-2.93429384e-05
-3.91935027e-05
-5.08964367e-05
-1.50556689e-04
-1.21605375e-04
-9.31463255e-05
-3.56995709e-04
-1.17828801e-01
-1.16151690e-01
-1.17337272e-01
-1.21631775e-01
-1.11253861e-01
-1.09539453e-01
-1.02951664e-01
-1.00729793e-01
-9.45711881e-02
-8.98658801e-02
-8.90229121e-02
-7.92269744e-02
-9.10268351e-02
-8.03325959e-02
-1.33964885e-01
-1.45546220e-01
-1.05528573e-01
-7.64464792e-02
-5.20322556e-02
-4.03168099e-02
-3.83945461e-02
-1.79154381e-01
-1.94955379e-01
-9.93377517e-02
-2.83550648e-02
-3.23649746e-03
-1.03912750e-02
-2.86228489e-03
-1.45064198e-02
-7.80195720e-03
-4.22984045e-02
-8.39958340e-03
-1.14886083e-01
-2.85352430e-03
-3.06585430e-03
-3.22231983e-04
-2.24179450e-04
-9.90613014e-04
-1.47290617e-03
-2.45438367e-01
-2.58804798e-01
-1.83617701e-01
-1.94624253e-01
-1.36860447e-04
-8.21009476e-03
-1.56264206e-04
-1.67794824e-01
-1.58294544e-01
-1.61934294e-01
-1.58085600e-01
-6.47454727e-02
-7.33277537e-02
-2.33042825e-02
-4.51631655e-04
-1.01709295e-04
</DataArray>
<DataArray type="Float32" Name="Plastic_strain_Max_Principal" format="ascii">
4.34750002e-02
5.17733870e-02
5.03558414e-02
4.43779277e-02
5.59640485e-02
6.11846415e-02
9.44621228e-02
6.93985969e-02
6.49719341e-02
7.58789927e-02
1.11279483e-01
9.55846310e-02
0.00000000e+00
0.00000000e+00
0.00000000e+00
0.00000000e+00
0.00000000e+00
0.00000000e+00
0.00000000e+00
0.00000000e+00
5.45974132e-02
5.59099326e-02
5.89497718e-02
5.64060863e-02
6.59776069e-02
6.40346594e-02
6.55351677e-02
6.73577199e-02
5.97873675e-02
6.24614363e-02
6.02216776e-02
6.30612620e-02
6.10910077e-02
6.01937321e-02
5.95606854e-02
6.00470845e-02
6.38738154e-02
7.00196363e-02
5.70732132e-02
5.75563200e-02
6.16093436e-02
6.48802500e-02
5.07123116e-02
5.93127073e-02
5.97047284e-02
6.50782026e-02
5.28373905e-02
6.01117210e-02
6.64266688e-02
6.53471667e-02
7.06840530e-02
6.67703478e-02
6.24757696e-02
6.95954072e-02
8.71213406e-02
6.80515947e-02
8.02984629e-02
6.79577164e-02
7.83978533e-02
6.97022676e-02
7.95099922e-02
7.17732757e-02
6.74236193e-02
5.83566083e-02
8.02066794e-02
6.68899221e-02
9.44670532e-02
9.03212339e-02
1.33612558e-01
8.77301047e-02
4.36531827e-02
5.28570618e-02
7.22986112e-02
6.09614663e-02
5.29734166e-02
9.22775998e-02
6.64264793e-02
6.77333800e-02
1.08249359e-01
9.41974714e-02
5.10932002e-02
6.54776422e-02
7.77789243e-02
1.13039879e-01
1.05063853e-01
1.00874647e-01
8.04166757e-02
7.50498474e-02
8.01775912e-02
8.44667852e-02
6.82868008e-02
7.40318410e-02
6.45922087e-02
6.76130038e-02
6.02687281e-02
6.16824902e-02
5.73398750e-02
5.58005408e-02
6.04321659e-02
5.78477858e-02
9.20264171e-02
8.64765216e-02
7.26650162e-02
6.11712434e-02
4.78970005e-02
3.97272394e-02
4.95949512e-02
1.09288968e-01
1.05298355e-01
8.50191414e-02
2.67839360e-02
7.65425339e-02
2.43529507e-02
1.33885158e-01
1.35666437e-01
1.19678520e-01
9.91444637e-02
9.38134985e-02
1.17448298e-01
9.54313651e-02
1.17869250e-01
1.23816723e-01
7.52714435e-02
6.85124630e-02
3.68653871e-02
2.81517059e-02
6.15207864e-02
3.52092320e-02
0.00000000e+00
0.00000000e+00
0.00000000e+00
0.00000000e+00
3.45072067e-05
0.00000000e+00
0.00000000e+00
6.84108284e-05
8.57375190e-02
7.91649520e-02
8.75574984e-02
9.25967693e-02
7.14397095e-02
7.82984197e-02
7.27608278e-02
7.26222657e-02
6.98123462e-02
7.04909237e-02
6.60723336e-02
6.96911719e-02
7.35102817e-02
7.21163824e-02
9.69591625e-02
1.13699481e-01
7.20853079e-02
6.57525929e-02
3.74702634e-02
2.34800782e-02
2.37614182e-02
1.12162959e-01
1.11455947e-01
1.06489072e-01
2.25569254e-02
8.96073368e-03
1.79205174e-02
6.16384289e-03
1.70048897e-02
4.34785069e-03
4.12820298e-02
3.00451592e-02
8.72799456e-02
2.93577349e-03
2.46091273e-03
1.95477127e-04
1.56921194e-04
5.63960406e-04
7.07879837e-04
1.58093587e-01
1.56066924e-01
1.28088196e-01
1.67752512e-01
5.85494412e-05
5.31816334e-03
0.00000000e+00
1.26575034e-01
1.22864656e-01
1.21032611e-01
1.40228733e-01
5.38258590e-02
5.14001586e-02
1.00078707e-02
1.32016590e-04
0.00000000e+00
</DataArray>
<DataArray type="Float32" Name="Plastic_strain_Min_Principal" format="ascii">
-5.93943149e-02
-6.21097024e-02
-6.92943744e-02
-6.96911942e-02
-6.21025858e-02
-7.21951927e-02
-1.24442236e-01
-1.01421164e-01
-9.93313845e-02
-1.23899058e-01
-1.57466556e-01
-1.20728552e-01
0.00000000e+00
0.00000000e+00
0.00000000e+00
0.00000000e+00
0.00000000e+00
0.00000000e+00
0.00000000e+00
0.00000000e+00
-8.96438919e-02
-8.92437659e-02
-8.87492448e-02
-8.91656559e-02
-9.84726138e-02
-9.91503894e-02
-1.00959323e-01
-1.02303198e-01
-8.77489392e-02
-9.13826339e-02
-9.61623471e-02
-9.94605673e-02
-8.85477159e-02
-8.55065922e-02
-9.07240752e-02
-9.33629023e-02
-8.88775736e-02
-1.03910798e-01
-8.52012131e-02
-8.36743079e-02
-8.82162731e-02
-9.96262152e-02
-7.91426003e-02
-8.89419420e-02
-8.73180740e-02
-9.67306029e-02
-7.69126937e-02
-8.61112047e-02
-9.05404640e-02
-8.70796945e-02
-1.10742892e-01
-1.07388288e-01
-1.00469942e-01
-1.03584114e-01
-1.31660394e-01
-1.01533620e-01
-1.23599721e-01
-1.03359708e-01
-1.21555835e-01
-1.08040694e-01
-1.17850527e-01
-1.07459925e-01
-9.01064426e-02
-7.86606222e-02
-1.23201062e-01
-1.07499832e-01
-1.28375515e-01
-1.28755739e-01
-1.57223985e-01
-8.61728787e-02
-6.36109003e-02
-7.54405670e-02
-7.81056577e-02
-7.62854412e-02
-7.91341607e-02
-1.38939248e-01
-8.06981479e-02
-9.87761524e-02
-1.66133281e-01
-1.24131398e-01
-7.30005391e-02
-6.27746857e-02
-1.07596483e-01
-1.42835960e-01
-1.39224959e-01
-1.20121700e-01
-1.10875864e-01
-1.10253854e-01
-1.13463415e-01
-1.16456792e-01
-1.05856357e-01
-1.06343691e-01
-9.83018260e-02
-9.57667436e-02
-8.99373610e-02
-8.74591973e-02
-8.24144296e-02
-8.15649796e-02
-8.13835748e-02
-8.04973207e-02
-1.15592147e-01
-1.17191559e-01
-9.46320912e-02
-7.77982743e-02
-6.22122706e-02
-4.98178188e-02
-6.19460630e-02
-1.47584978e-01
-1.45094973e-01
-1.03692417e-01
-2.11472503e-02
-8.98443237e-02
-1.29388287e-02
-2.03809518e-01
-1.97445328e-01
-1.42913856e-01
-1.31258224e-01
-1.27607519e-01
-1.74075726e-01
-1.50976844e-01
-1.68323662e-01
-1.53119333e-01
-8.53290672e-02
-7.18738552e-02
-3.14215086e-02
-1.37816221e-02
-3.60578090e-02
-3.33208948e-02
0.00000000e+00
0.00000000e+00
0.00000000e+00
0.00000000e+00
-5.26662665e-05
0.00000000e+00
0.00000000e+00
-9.15982916e-05
-1.17361180e-01
-1.15405321e-01
-1.16974413e-01
-1.21120475e-01
-1.10149998e-01
-1.08539976e-01
-1.01651683e-01
-9.77567434e-02
-9.31810327e-02
-9.31287874e-02
-8.78788754e-02
-8.65256507e-02
-8.88398364e-02
-8.73007216e-02
-1.24758413e-01
-1.64903514e-01
-8.00456051e-02
-7.78149245e-02
-4.23748906e-02
-2.16872432e-02
-2.00967586e-02
-1.71848662e-01
-1.75078750e-01
-1.29440037e-01
-1.56673661e-02
-4.83320540e-03
-1.19511369e-02
-3.58035875e-03
-1.51748465e-02
-4.92384180e-03
-2.93778814e-02
-1.89411868e-02
-1.24885239e-01
-2.87890742e-03
-3.11293500e-03
-1.47156636e-04
-1.57287957e-04
-7.04243314e-04
-1.14402606e-03
-2.12029725e-01
-2.46314481e-01
-1.87513987e-01
-2.28214912e-01
-4.43834125e-05
-3.02659661e-03
0.00000000e+00
-1.62831895e-01
-1.58389598e-01
-1.78403988e-01
-1.72246717e-01
-4.33092308e-02
-3.45474994e-02
-6.31822133e-03
-2.00401410e-04
0.00000000e+00
</DataArray>
</PointData>
<Cells>
<DataArray type="Int32" Name="connectivity" format="ascii">
0 1 2 3 4 5 6 7
1 8 9 2 5 10 11 6
12 13 14 15 16 17 18 19
20 21 22 23 24 25 26 27
21 28 29 22 25 30 31 26
28 32 33 29 30 34 35 31
32 36 37 33 34 38 39 35
36 40 41 37 38 42 43 39
40 44 45 41 42 46 47 43
23 22 48 49 27 26 50 51
22 29 52 48 26 31 53 50
29 33 54 52 31 35 55 53
33 37 56 54 35 39 57 55
37 41 58 56 39 43 59 57
41 45 60 58 43 47 61 59
49 48 62 63 51 50 64 65
48 52 66 62 50 53 67 64
52 54 68 66 53 55 69 67
63 62 70 71 65 64 72 73
71 70 4 74 73 72 75 76
70 77 5 4 72 78 79 75
74 4 7 80 76 75 81 82
4 5 6 7 75 79 83 81
5 10 11 6 79 84 85 83
24 25 26 27 86 87 88 89
25 30 31 26 87 90 91 88
30 34 35 31 90 92 93 91
34 38 39 35 92 94 95 93
38 42 43 39 94 96 97 95
42 46 47 43 96 98 99 97
27 26 50 51 89 88 100 101
26 31 53 50 88 91 102 100
31 35 55 53 91 93 103 102
35 39 57 55 93 95 104 103
39 43 59 57 95 97 105 104
43 47 61 59 97 99 106 105
51 50 64 65 101 100 107 108
50 53 67 64 100 102 109 107
53 55 69 67 102 103 110 109
55 57 111 69 103 104 112 110
65 64 72 73 108 107 113 114
64 67 78 72 107 109 115 113
73 72 75 76 114 113 116 117
76 75 81 82 117 116 118 119
75 79 83 81 116 120 121 118
79 84 85 83 120 122 123 121
84 124 125 85 122 126 127 123
128 129 130 131 132 133 134 135
86 87 88 89 136 137 138 139
87 90 91 88 137 140 141 138
90 92 93 91 140 142 143 141
92 94 95 93 142 144 145 143
94 96 97 95 144 146 147 145
96 98 99 97 146 148 149 147
89 88 100 101 139 138 150 151
88 91 102 100 138 141 152 150
91 93 103 102 141 143 153 152
93 95 104 103 143 145 154 153
95 97 105 104 145 147 155 154
97 99 106 105 147 149 156 155
101 100 107 108 151 150 157 158
100 102 109 107 150 152 159 157
102 103 110 109 152 153 160 159
103 104 112 110 153 154 161 160
104 105 162 112 154 155 163 161
105 106 164 162 155 156 165 163
109 110 166 115 159 160 167 168
110 112 169 166 160 161 170 167
112 162 171 169 161 163 172 170
162 164 173 171 163 165 174 172
114 113 116 117 175 176 177 178
169 171 132 126 170 172 179 180
171 173 133 132 172 174 181 179
117 116 118 119 178 177 182 183
116 120 121 118 177 184 185 182
120 122 123 121 184 186 187 185
122 126 127 123 186 180 188 187
126 132 135 127 180 179 189 188
132 133 134 135 179 181 190 189
</DataArray>
<DataArray type="Int32" Name="offsets" format="ascii">
8
16
24
32
40
48
56
64
72
80
88
96
104
112
120
128
136
144
152
160
168
176
184
192
200
208
216
224
232
240
248
256
264
272
280
288
296
304
312
320
328
336
344
352
360
368
376
384
392
400
408
416
424
432
440
448
456
464
472
480
488
496
504
512
520
528
536
544
552
560
568
576
584
592
600
608
616
624
632
</DataArray>
<DataArray type="UInt8" Name="types" format="ascii">
12
12
12
12
12
12
12
12
12
12
12
12
12
12
12
12
12
12
12
12
12
12
12
12
12
12
12
12
12
12
12
12
12
12
12
12
12
12
12
12
12
12
12
12
12
12
12
12
12
12
12
12
12
12
12
12
12
12
12
12
12
12
12
12
12
12
12
12
12
12
12
12
12
12
12
12
12
12
12
</DataArray>
</Cells>
</Piece>
</UnstructuredGrid>
</VTKFile>
