<VTKFile type="UnstructuredGrid" version="0.1" byte_order="LittleEndian">
<UnstructuredGrid>
<Piece NumberOfPoints="173" NumberOfCells="80">
<Points>
<DataArray type="Float64" NumberOfComponents="3" format="ascii">
 0.00000000e+00  0.00000000e+00  0.00000000e+00
 1.03715670e+00  0.00000000e+00  0.00000000e+00
 1.03985894e+00  1.06945813e+00  0.00000000e+00
 0.00000000e+00  1.06673276e+00  0.00000000e+00
 0.00000000e+00  0.00000000e+00  9.18109775e-01
 1.03664029e+00  0.00000000e+00  9.14838314e-01
 1.03742528e+00  1.06456912e+00  9.18928504e-01
 0.00000000e+00  1.06361008e+00  9.20995951e-01
 2.07856107e+00  0.00000000e+00  0.00000000e+00
 2.07954884e+00  1.07497346e+00  0.00000000e+00
 2.07664084e+00  0.00000000e+00  9.08448577e-01
 2.07876277e+00  1.06775856e+00  9.13294077e-01
 3.12119269e+00  0.00000000e+00  0.00000000e+00
 3.12525678e+00  1.08288586e+00  0.00000000e+00
 3.12637091e+00  0.00000000e+00  9.02412832e-01
 3.12150216e+00  1.07077873e+00  9.03812170e-01
 4.17837381e+00  0.00000000e+00  0.00000000e+00
 4.16753292e+00  1.08888173e+00  0.00000000e+00
 4.18221045e+00  0.00000000e+00  8.94418776e-01
 4.17007828e+00  1.07147455e+00  8.97820294e-01
 5.23501635e+00  0.00000000e+00  0.00000000e+00
 5.22102404e+00  1.09545028e+00  0.00000000e+00
 5.24010754e+00  0.00000000e+00  8.85939419e-01
 5.22990417e+00  1.07436526e+00  8.91875446e-01
 6.29855967e+00  0.00000000e+00  0.00000000e+00
 6.26117897e+00  1.11948371e+00  0.00000000e+00
 6.29499626e+00  0.00000000e+00  8.83917987e-01
 6.28579187e+00  1.09607089e+00  8.80404353e-01
 1.04359710e+00  2.12355494e+00  0.00000000e+00
 0.00000000e+00  2.12148142e+00  0.00000000e+00
 1.03993595e+00  2.11961031e+00  9.29590464e-01
 0.00000000e+00  2.11633062e+00  9.30518329e-01
 2.08685851e+00  2.13466740e+00  0.00000000e+00
 2.07949877e+00  2.12581682e+00  9.28755403e-01
 3.12183547e+00  2.14420080e+00  0.00000000e+00
 3.11620593e+00  2.13322163e+00  9.36592519e-01
 4.15118694e+00  2.16272593e+00  0.00000000e+00
 4.15398312e+00  2.13357162e+00  9.33728814e-01
 5.17079067e+00  2.16506147e+00  0.00000000e+00
 5.18509674e+00  2.13846207e+00  9.37775791e-01
 6.19925165e+00  2.19796634e+00  0.00000000e+00
 6.22333622e+00  2.16973305e+00  9.37706232e-01
 1.04657698e+00  3.15671754e+00  0.00000000e+00
 0.00000000e+00  3.15388274e+00  0.00000000e+00
 1.04179347e+00  3.15776491e+00  9.42941964e-01
 0.00000000e+00  3.15610576e+00  9.43633676e-01
 2.09308481e+00  3.15913534e+00  0.00000000e+00
 2.08434343e+00  3.16033983e+00  9.55720901e-01
 3.11849666e+00  3.16743469e+00  0.00000000e+00
 3.11305046e+00  3.16477799e+00  9.86309171e-01
 4.12411165e+00  3.17422438e+00  0.00000000e+00
 4.11695051e+00  3.16402388e+00  1.00506973e+00
 5.13801718e+00  3.16793442e+00  0.00000000e+00
 5.13937521e+00  3.15145564e+00  1.01271892e+00
 6.14048767e+00  3.20413637e+00  0.00000000e+00
 6.14594698e+00  3.20061421e+00  1.00410247e+00
 1.04858887e+00  4.17460442e+00  0.00000000e+00
 0.00000000e+00  4.17817688e+00  0.00000000e+00
 1.04239583e+00  4.17687464e+00  9.50524449e-01
 0.00000000e+00  4.18134832e+00  9.48567629e-01
 2.09191108e+00  4.17157602e+00  0.00000000e+00
 2.08231759e+00  4.16853809e+00  9.65630710e-01
 3.11364818e+00  4.16757822e+00  0.00000000e+00
 3.10613132e+00  4.16614628e+00  9.93262649e-01
 4.11092615e+00  4.17290401e+00  0.00000000e+00
 4.11052990e+00  4.17289066e+00  1.00000191e+00
 6.11083221e+00  4.17788696e+00  0.00000000e+00
 5.11087894e+00  4.17520761e+00  0.00000000e+00
 6.11094809e+00  4.17790461e+00  9.99726295e-01
 5.11095858e+00  4.17515898e+00  1.00001335e+00
 1.04647398e+00  5.19185877e+00  0.00000000e+00
 0.00000000e+00  5.20010185e+00  0.00000000e+00
 1.04349124e+00  5.19800901e+00  9.48393464e-01
 0.00000000e+00  5.20129013e+00  9.42109168e-01
 2.08989429e+00  5.17783117e+00  0.00000000e+00
 2.07660770e+00  5.18061781e+00  9.60756600e-01
 3.10617661e+00  5.16865826e+00  0.00000000e+00
 3.10051298e+00  5.17154932e+00  9.90711868e-01
 4.10855150e+00  5.17299080e+00  0.00000000e+00
 4.10834408e+00  5.17300844e+00  1.00025439e+00
 5.10841608e+00  5.17531061e+00  0.00000000e+00
 5.10851383e+00  5.17528725e+00  1.00002682e+00
 6.10853481e+00  5.17763901e+00  0.00000000e+00
 6.10855341e+00  5.17757320e+00  1.00000787e+00
 1.05238628e+00  6.22173643e+00  0.00000000e+00
 0.00000000e+00  6.22549248e+00  0.00000000e+00
 1.04697156e+00  6.22220421e+00  9.37669277e-01
 0.00000000e+00  6.23118877e+00  9.31954980e-01
 2.09718728e+00  6.19671202e+00  0.00000000e+00
 2.07895708e+00  6.21268940e+00  9.43475246e-01
 3.10977030e+00  6.17692232e+00  0.00000000e+00
 3.10448909e+00  6.19055557e+00  9.76104736e-01
 4.10725927e+00  6.17360497e+00  0.00000000e+00
 4.10660315e+00  6.17359161e+00  1.00053561e+00
 5.10626125e+00  6.17516232e+00  0.00000000e+00
 5.10637569e+00  6.17525101e+00  9.99967098e-01
 6.10622358e+00  6.17759323e+00  0.00000000e+00
 6.10625219e+00  6.17756271e+00  9.99995351e-01
 0.00000000e+00  0.00000000e+00  1.84313798e+00
 1.03749490e+00  0.00000000e+00  1.83646321e+00
 1.03674793e+00  1.05403590e+00  1.84334421e+00
 0.00000000e+00  1.05485642e+00  1.84452868e+00
 2.08362103e+00  0.00000000e+00  1.82761443e+00
 2.07484126e+00  1.04806185e+00  1.83143187e+00
 3.13009644e+00  0.00000000e+00  1.81562304e+00
 3.13020921e+00  1.04743540e+00  1.81541765e+00
 4.19088411e+00  0.00000000e+00  1.79771328e+00
 4.18597269e+00  1.04808199e+00  1.80946076e+00
 5.25325108e+00  0.00000000e+00  1.78489745e+00
 5.24700308e+00  1.05008602e+00  1.79841089e+00
 6.30292702e+00  0.00000000e+00  1.77862000e+00
 6.31385946e+00  1.05620360e+00  1.78786147e+00
 1.03132713e+00  2.10621977e+00  1.85912037e+00
 0.00000000e+00  2.11197901e+00  1.86428118e+00
 2.07153988e+00  2.10522437e+00  1.85322595e+00
 3.11688972e+00  2.10956812e+00  1.84918690e+00
 4.17705202e+00  2.12287569e+00  1.83166218e+00
 5.24018717e+00  2.12498879e+00  1.83654928e+00
 6.29600048e+00  2.13379908e+00  1.82435536e+00
 1.02723336e+00  3.15382671e+00  1.88464475e+00
 0.00000000e+00  3.15614748e+00  1.88945889e+00
 2.06040692e+00  3.15510440e+00  1.89810801e+00
 3.05452943e+00  3.13619828e+00  2.00846958e+00
 1.02957165e+00  4.19209290e+00  1.90685952e+00
 0.00000000e+00  4.18740368e+00  1.89874434e+00
 2.06456017e+00  4.17630768e+00  1.93305492e+00
 3.08323908e+00  4.14935017e+00  1.97081566e+00
 1.03618097e+00  5.20758152e+00  1.89981294e+00
 0.00000000e+00  5.21375132e+00  1.89345133e+00
 2.06073999e+00  5.19786501e+00  1.91930628e+00
 3.10420179e+00  5.18315125e+00  1.93677568e+00
 1.03128958e+00  6.24359035e+00  1.87328064e+00
 0.00000000e+00  6.24196291e+00  1.86939573e+00
 2.06173921e+00  6.24961185e+00  1.88221884e+00
 3.11309743e+00  6.23966742e+00  1.88436162e+00
 5.10855293e+00  5.17533445e+00  2.00003314e+00
 6.10855198e+00  5.17758703e+00  2.00003052e+00
 6.10629702e+00  6.17759418e+00  1.99998379e+00
 5.10627079e+00  6.17534590e+00  1.99996662e+00
 0.00000000e+00  0.00000000e+00  2.76568532e+00
 1.04436302e+00  0.00000000e+00  2.76372194e+00
 1.04666305e+00  1.04845285e+00  2.76959276e+00
 0.00000000e+00  1.04672503e+00  2.77448511e+00
 2.09826827e+00  0.00000000e+00  2.75063324e+00
 2.08754444e+00  1.04097080e+00  2.75925398e+00
 3.14628053e+00  0.00000000e+00  2.73619151e+00
 3.14722729e+00  1.03632677e+00  2.73953605e+00
 4.20408106e+00  0.00000000e+00  2.72322083e+00
 4.20673370e+00  1.03799868e+00  2.71869040e+00
 5.26444912e+00  0.00000000e+00  2.70719719e+00
 5.26528311e+00  1.04068124e+00  2.70968819e+00
 6.31998539e+00  0.00000000e+00  2.70142436e+00
 6.32001114e+00  1.04075432e+00  2.70376563e+00
 1.03250206e+00  2.09131432e+00  2.78954411e+00
 0.00000000e+00  2.10419559e+00  2.79264331e+00
 2.08633232e+00  2.09247756e+00  2.76843929e+00
 3.13781381e+00  2.09870863e+00  2.72893763e+00
 4.20323324e+00  2.10941410e+00  2.71918058e+00
 5.26202202e+00  2.10232067e+00  2.72053456e+00
 6.31252956e+00  2.10710287e+00  2.71555448e+00
 1.02805912e+00  3.15690804e+00  2.82978725e+00
 0.00000000e+00  3.15387011e+00  2.82583857e+00
 2.07736444e+00  3.13763833e+00  2.80036855e+00
 1.02812815e+00  4.19360828e+00  2.85775590e+00
 0.00000000e+00  4.20081234e+00  2.85220194e+00
 2.06788969e+00  4.19423342e+00  2.88869023e+00
 1.02943623e+00  5.23943758e+00  2.84690690e+00
 0.00000000e+00  5.23371983e+00  2.84344554e+00
 2.06559491e+00  5.23659134e+00  2.85450292e+00
 3.08024740e+00  4.23582125e+00  3.01747465e+00
 3.10222363e+00  5.22851419e+00  2.83524418e+00
 1.03215814e+00  6.27474022e+00  2.81611252e+00
 0.00000000e+00  6.27787638e+00  2.80554891e+00
</DataArray>
</Points>
<PointData Tensors="Stress_Components,Plastic_strain_components" Vevtors="Spatial_displacement,Reaction_force" Scalars="Equivalent_plastic_strain,Stress_Mises,Stress_Max_Principal,Stress_Mid_Principal,Stress_Min_Principal,Stress_Pressure,Stress_Tresca,Stress_Third_Invariant,Plastic_strain_Max_Principal,Plastic_strain_Min_Principal">
<DataArray type="Float32" Name="Stress_Components" NumberOfComponents="9" format="ascii">
-3.28211761e+00 -8.89113359e-03 -1.22416932e-02 -8.89113359e-03 6.42807007e-01 6.45228056e-03 -1.22416932e-02 6.45228056e-03 -3.26042900e+01
-8.19203177e+00 2.17685193e-01 -3.97314481e-03 2.17685193e-01 -3.55849230e+00 -2.42066517e-01 -3.97314481e-03 -2.42066517e-01 -4.24125385e+01
-4.17956305e+00 4.27632704e-01 -3.90251633e-01 4.27632704e-01 -1.27919796e+00 -3.22293989e-01 -3.90251633e-01 -3.22293989e-01 -3.57428880e+01
-4.44695938e+00 1.06126759e-01 -3.81225824e-01 1.06126759e-01 -1.80898380e+00 1.63865308e-02 -3.81225824e-01 1.63865308e-02 -3.66502542e+01
-1.40513611e+00 -5.34780510e-03 -5.24174850e-02 -5.34780510e-03 2.20915376e+00 -2.65395105e-01 -5.24174850e-02 -2.65395105e-01 -2.89052629e+01
-5.58087552e+00 1.21378511e-01 3.83611802e-01 1.21378511e-01 -1.46546972e+00 -5.59997384e-01 3.83611802e-01 -5.59997384e-01 -3.73503528e+01
-2.83963539e+00 3.10586183e-01 -1.13497926e-01 3.10586183e-01 1.53853893e-02 -3.55794383e-01 -1.13497926e-01 -3.55794383e-01 -3.29016137e+01
-4.07633591e+00 1.03888892e-01 -2.16496353e-01 1.03888892e-01 -1.23990309e+00 1.46794451e-01 -2.16496353e-01 1.46794451e-01 -3.56045268e+01
-1.10374475e+01 1.57664843e-01 -1.64493583e-02 1.57664843e-01 -5.70884871e+00 -4.43934515e-01 -1.64493583e-02 -4.43934515e-01 -4.77504463e+01
-1.23399532e+01 9.67867073e-01 -6.65444545e-01 9.67867073e-01 -7.85423112e+00 -4.45301509e-01 -6.65444545e-01 -4.45301509e-01 -5.15306576e+01
-6.76533103e+00 1.47991024e-01 4.05869495e-01 1.47991024e-01 -3.20549497e+00 -1.30754050e-01 4.05869495e-01 -1.30754050e-01 -4.06378255e+01
-7.18968982e+00 2.51891041e-01 -6.88610809e-01 2.51891041e-01 -3.44536380e+00 -1.16994720e+00 -6.88610809e-01 -1.16994720e+00 -4.12176603e+01
-1.47953043e+01 5.60396343e-01 -6.98914276e-02 5.60396343e-01 -9.29530263e+00 4.01126415e-01 -6.98914276e-02 4.01126415e-01 -5.57373104e+01
-1.95091438e+01 6.43120229e-01 -1.35158467e+00 6.43120229e-01 -1.32502667e+01 -1.11575395e+00 -1.35158467e+00 -1.11575395e+00 -6.49922435e+01
-6.69436407e+00 -4.88656297e-01 -5.35318553e-01 -4.88656297e-01 -4.49476284e+00 -1.36623276e-01 -5.35318553e-01 -1.36623276e-01 -4.20591052e+01
-1.18392410e+01 -4.39043781e-01 -2.21652661e-01 -4.39043781e-01 -7.15926303e+00 -9.04170843e-01 -2.21652661e-01 -9.04170843e-01 -5.01727691e+01
-1.87026196e+01 -1.40632039e+00 -1.02039941e-01 -1.40632039e+00 -1.39368348e+01 1.82629135e-01 -1.02039941e-01 1.82629135e-01 -6.50458107e+01
-2.80719074e+01 -1.20003249e+00 -2.49504097e+00 -1.20003249e+00 -1.68760736e+01 -1.38839915e-01 -2.49504097e+00 -1.38839915e-01 -7.73673573e+01
-8.49657369e+00 -1.38954228e+00 -2.53840471e-01 -1.38954228e+00 -7.03831482e+00 -1.17600123e-01 -2.53840471e-01 -1.17600123e-01 -4.67380242e+01
-1.06097937e+00 -1.02915585e+00 -4.52488402e-01 -1.02915585e+00 5.36716700e-01 2.41184779e-01 -4.52488402e-01 2.41184779e-01 -3.05007377e+01
-1.97250789e+01 -6.07479878e-01 -2.22336128e-01 -6.07479878e-01 -1.28507140e+01 1.08413249e+00 -2.22336128e-01 1.08413249e+00 -6.47663593e+01
-1.29612118e+01 -3.11755940e+00 -2.26321985e+00 -3.11755940e+00 -6.73399234e+00 6.07727364e-01 -2.26321985e+00 6.07727364e-01 -5.00009093e+01
-2.85463607e+00 -5.70979334e-01 -2.85290855e-01 -5.70979334e-01 -1.40098941e+00 1.19374855e+00 -2.85290855e-01 1.19374855e+00 -3.45256262e+01
2.65517950e+00 -1.87723418e+00 -5.27586471e-02 -1.87723418e+00 3.18758039e+00 3.04582895e-01 -5.27586471e-02 3.04582895e-01 -2.34543060e+01
-4.78047867e+01 -4.70948839e+00 -2.15011775e-01 -4.70948839e+00 -3.38067818e+01 5.49237669e-01 -2.15011775e-01 5.49237669e-01 -1.16642151e+02
-5.88745499e+01 -5.12128651e+00 -3.17521966e+00 -5.12128651e+00 -3.47128334e+01 5.05155587e+00 -3.17521966e+00 5.05155587e+00 -1.26253563e+02
-2.63317206e+01 -6.11788943e-01 -1.71420264e+00 -6.11788943e-01 -1.75639938e+01 2.54619539e+00 -1.71420264e+00 2.54619539e+00 -7.65485249e+01
-2.41572051e+01 -1.85849908e+00 -8.76140233e-01 -1.85849908e+00 -1.74136560e+01 2.86600342e+00 -8.76140233e-01 2.86600342e+00 -7.35634740e+01
-1.17028022e+00 8.39313775e-01 -5.25192212e-01 8.39313775e-01 -3.14484382e+00 -3.95464879e-01 -5.25192212e-01 -3.95464879e-01 -3.45193186e+01
6.54201031e-01 1.78347170e-01 -5.79301745e-01 1.78347170e-01 -1.12817335e+00 5.53131243e-03 -5.79301745e-01 5.53131243e-03 -3.04057722e+01
-1.26664486e+00 5.48434082e-01 9.67788156e-02 5.48434082e-01 -1.26733044e+00 -7.78276242e-01 9.67788156e-02 -7.78276242e-01 -3.26970050e+01
2.20116782e+00 2.34715153e-01 8.79615666e-01 2.34715153e-01 1.94600558e+00 3.05017177e-03 8.79615666e-01 3.05017177e-03 -2.54865683e+01
-5.09690082e+00 2.39994543e+00 -8.96686330e-01 2.39994543e+00 -7.51937056e+00 -1.20084069e+00 -8.96686330e-01 -1.20084069e+00 -4.31010418e+01
-3.41143587e+00 1.77973079e+00 1.68723745e+00 1.77973079e+00 -3.89062972e+00 -4.10834759e-01 1.68723745e+00 -4.10834759e-01 -3.70826072e+01
1.73774934e+01 1.39186940e+00 -1.44580936e+00 1.39186940e+00 1.58801268e+01 -6.24952406e-01 -1.44580936e+00 -6.24952406e-01 5.00237799e+00
4.68193695e+00 1.17954731e+00 3.88837600e+00 1.17954731e+00 5.87939215e+00 -1.85490402e-01 3.88837600e+00 -1.85490402e-01 -1.87656261e+01
2.62445151e+01 -1.28600276e+00 -4.63547097e+00 -1.28600276e+00 2.03747592e+01 -2.22041273e-01 -4.63547097e+00 -2.22041273e-01 1.95811477e+01
-1.24974722e+01 -6.58783089e+00 8.48874190e+00 -6.58783089e+00 -9.12587865e+00 7.06946737e-01 8.48874190e+00 7.06946737e-01 -4.80280089e+01
2.64566544e+01 4.77394253e-01 -4.19693606e+00 4.77394253e-01 2.39639076e+01 5.70091221e-01 -4.19693606e+00 5.70091221e-01 2.26851106e+01
-3.99914726e+00 -4.91145777e+00 9.41364883e+00 -4.91145777e+00 -8.53653129e+00 2.87026253e+00 9.41364883e+00 2.87026253e+00 -3.57061450e+01
1.43084536e+01 -5.17283833e+00 -6.67194992e+00 -5.17283833e+00 3.52678871e+00 2.66295195e+00 -6.67194992e+00 2.66295195e+00 -9.22130966e+00
-3.73236987e+01 -1.11252863e+01 1.14668049e+01 -1.11252863e+01 -2.88512828e+01 6.04797681e+00 1.14668049e+01 6.04797681e+00 -9.19884796e+01
1.04476810e+00 6.19692229e-01 2.41069153e-01 6.19692229e-01 -7.48675740e+00 -7.83171624e-01 2.41069153e-01 -7.83171624e-01 -3.57838591e+01
6.36178422e+00 2.63303548e-01 3.13064002e-01 2.63303548e-01 1.60750532e+00 -3.36088706e-03 3.13064002e-01 -3.36088706e-03 -2.09446297e+01
3.13018130e+00 1.41745581e-01 1.09677830e+00 1.41745581e-01 -3.31869748e+00 -6.33277435e-01 1.09677830e+00 -6.33277435e-01 -2.94303912e+01
7.10182130e+00 1.14782582e-01 8.84059623e-01 1.14782582e-01 4.29924631e+00 -3.75652827e-01 8.84059623e-01 -3.75652827e-01 -1.74145952e+01
1.82673283e+01 -1.91733886e-01 -8.71036751e-02 -1.91733886e-01 1.16167375e+01 -1.16983228e+00 -8.71036751e-02 -1.16983228e+00 2.86791086e+00
1.37319745e+01 -1.73912365e-02 1.19497570e+00 -1.73912365e-02 4.37711734e+00 1.45858181e+00 1.19497570e+00 1.45858181e+00 -9.79551816e+00
2.91394401e+01 -4.10194926e-01 1.20466784e-01 -4.10194926e-01 2.61251013e+01 -1.84905450e+00 1.20466784e-01 -1.84905450e+00 2.85619922e+01
3.00975499e+01 -1.36133898e+00 -3.15343648e-01 -1.36133898e+00 2.65621237e+01 2.93654795e+00 -3.15343648e-01 2.93654795e+00 3.19088741e+01
2.49017064e+01 -2.68604212e+00 4.13850149e-02 -2.68604212e+00 2.28516552e+01 -2.97659789e+00 4.13850149e-02 -2.97659789e+00 3.13597905e+01
3.12737166e+01 8.43946139e-01 -9.72142188e+00 8.43946139e-01 3.24825800e+01 4.18748907e+00 -9.72142188e+00 4.18748907e+00 4.98392829e+01
3.53126863e+01 -5.06995817e-01 3.44720813e+00 -5.06995817e-01 3.71972262e+01 -4.80178547e-01 3.44720813e+00 -4.80178547e-01 3.76254152e+01
2.84185848e+01 4.71640301e+00 -8.98159933e+00 4.71640301e+00 3.61438681e+01 -1.33850209e+00 -8.98159933e+00 -1.33850209e+00 4.57290117e+01
1.73947190e+01 3.80702651e+00 -1.84562683e-01 3.80702651e+00 6.25018120e+00 1.27670097e+00 -1.84562683e-01 1.27670097e+00 3.05314851e+01
4.08460197e+01 9.65399194e+00 -5.14322037e+00 9.65399194e+00 2.81182325e+01 -2.08226150e+00 -5.14322037e+00 -2.08226150e+00 5.59418221e+01
3.47413409e+00 -7.77932391e-01 1.78349186e-01 -7.77932391e-01 -7.28520343e+00 -1.16262592e+00 1.78349186e-01 -1.16262592e+00 -3.21865749e+01
2.67430055e+00 -7.74829596e-01 3.46606627e-01 -7.74829596e-01 -5.32163906e+00 -4.45710011e-02 3.46606627e-01 -4.45710011e-02 -3.17661066e+01
7.55985865e+00 -1.11517316e+00 1.54606858e+00 -1.11517316e+00 8.07619296e-01 -1.58330612e-03 1.54606858e+00 -1.58330612e-03 -1.96368468e+01
5.15781236e+00 -7.34869227e-01 3.49426188e-01 -7.34869227e-01 -1.24849945e-01 -9.52785388e-02 3.49426188e-01 -9.52785388e-02 -2.40295129e+01
1.33677917e+01 -2.34571751e+00 -9.25010640e-01 -2.34571751e+00 5.88503909e+00 -2.19330046e+00 -9.25010640e-01 -2.19330046e+00 -7.30930614e+00
1.70927830e+01 -1.20579761e+00 -6.68904595e-01 -1.20579761e+00 1.17872623e+01 2.79486331e+00 -6.68904595e-01 2.79486331e+00 3.65768296e+00
1.97708165e+01 -4.25133497e-01 3.85137197e-01 -4.25133497e-01 2.59165099e+01 -3.67655918e+00 3.85137197e-01 -3.67655918e+00 2.06986821e+01
2.83521240e+01 5.16251485e-01 -2.85898263e-01 5.16251485e-01 3.15093866e+01 -2.07158961e+00 -2.85898263e-01 -2.07158961e+00 3.21040834e+01
1.71441623e+01 1.71336516e+00 5.11080896e-01 1.71336516e+00 2.30822531e+01 -2.38145863e+00 5.11080896e-01 -2.38145863e+00 2.19907249e+01
1.38623021e+01 3.23492293e+00 -2.66580914e-01 3.23492293e+00 8.38328725e+00 2.64258321e+00 -2.66580914e-01 2.64258321e+00 1.70160155e+00
-7.60817015e+00 -6.68516493e+00 1.79643288e-01 -6.68516493e+00 -2.75871406e+01 1.29309148e+00 1.79643288e-01 1.29309148e+00 -1.24759579e+01
9.87242587e+00 1.23913089e+00 -9.18379962e-01 1.23913089e+00 1.59479983e+01 1.15432784e+00 -9.18379962e-01 1.15432784e+00 1.20978878e+01
1.19758224e+00 -5.51980019e+00 1.45408285e+00 -5.51980019e+00 -1.97161980e+01 -1.85023878e+00 1.45408285e+00 -1.85023878e+00 -4.43164420e+00
3.09140174e+00 -2.52382596e+00 -2.44065265e+00 -2.52382596e+00 8.77701267e+00 -8.82746354e-01 -2.44065265e+00 -8.82746354e-01 -2.61755588e+00
3.57639283e+00 -2.07237766e+00 1.15635020e+00 -2.07237766e+00 -5.38159961e+00 -3.62856241e-01 1.15635020e+00 -3.62856241e-01 -3.01762385e+01
1.82098269e+00 -1.47840661e+00 4.01883669e-01 -1.47840661e+00 -6.15154958e+00 -8.25009961e-03 4.01883669e-01 -8.25009961e-03 -3.35366588e+01
9.24430114e+00 -1.38268009e+00 6.83711216e-01 -1.38268009e+00 5.05908859e+00 3.77964173e-01 6.83711216e-01 3.77964173e-01 -1.38013085e+01
4.65638351e+00 -6.33977205e-01 -1.06138149e-02 -6.33977205e-01 -1.62422526e+00 7.61181466e-01 -1.06138149e-02 7.61181466e-01 -2.58724249e+01
1.22422612e+01 -2.46701647e+00 4.71859785e-01 -2.46701647e+00 6.38897192e+00 -2.68592600e+00 4.71859785e-01 -2.68592600e+00 -8.03125185e+00
9.50066596e+00 -2.31053805e+00 -7.08875906e-01 -2.31053805e+00 5.77362510e+00 2.35156470e+00 -7.08875906e-01 2.35156470e+00 -1.17943721e+01
1.52839302e+01 2.20626237e+00 2.52394942e+00 2.20626237e+00 1.55495611e+01 -1.62179962e+00 2.52394942e+00 -1.62179962e+00 3.78654242e+00
1.40853500e+01 -1.84897004e+00 -1.28165878e+00 -1.84897004e+00 1.17626473e+01 3.31957450e+00 -1.28165878e+00 3.31957450e+00 3.32670848e-01
1.48419006e+01 3.21585643e+00 -1.20716788e-01 3.21585643e+00 1.83194363e+01 -1.93309814e+00 -1.20716788e-01 -1.93309814e+00 2.04108542e+01
1.05360127e+01 2.55976617e+00 3.04230014e+00 2.55976617e+00 5.28610921e+00 1.83254838e-01 3.04230014e+00 1.83254838e-01 4.88164562e+00
1.46198660e-01 8.02968025e-01 -4.14609104e-01 8.02968025e-01 2.29215384e+00 1.79776680e+00 -4.14609104e-01 1.79776680e+00 4.15873230e+00
3.37636082e+00 5.50357199e-01 -7.53682846e-01 5.50357199e-01 8.58766294e-01 -6.63851309e-01 -7.53682846e-01 -6.63851309e-01 2.96120536e-01
2.93130183e+00 5.09242237e-01 -1.37024158e+00 5.09242237e-01 -8.14301825e+00 3.84480387e-01 -1.37024158e+00 3.84480387e-01 -1.79913539e+00
9.20118779e-01 -9.59217161e-01 9.59495984e-01 -9.59217161e-01 -5.62645384e+00 -1.57598257e-01 9.59495984e-01 -1.57598257e-01 -3.11336651e-01
-1.80025318e+01 -2.49184741e+00 1.01488081e+00 -2.49184741e+00 -2.80584488e+01 -1.31694758e+00 1.01488081e+00 -1.31694758e+00 -7.84984913e+01
-1.56018496e+01 -1.04357600e+00 1.53193521e+00 -1.04357600e+00 -2.92499619e+01 -3.41196507e-02 1.53193521e+00 -3.41196507e-02 -7.67589569e+01
-7.80722699e+00 -1.35485458e+00 1.84153616e-02 -1.35485458e+00 -1.45351173e+01 -9.76540048e-01 1.84153616e-02 -9.76540048e-01 -5.34665308e+01
-1.63967028e+01 -1.52099895e+00 2.29610205e-02 -1.52099895e+00 -2.57197361e+01 8.73845011e-01 2.29610205e-02 8.73845011e-01 -7.46977615e+01
-2.69994411e+01 -5.98709488e+00 5.73591423e+00 -5.98709488e+00 -3.57150545e+01 -5.47160292e+00 5.73591423e+00 -5.47160292e+00 -9.47195702e+01
-1.41069629e+01 -3.88113599e+00 5.83645195e-01 -3.88113599e+00 -1.37328206e+01 3.05465698e-01 5.83645195e-01 3.05465698e-01 -5.94512706e+01
7.30282211e+00 1.15935802e+00 4.87608737e+00 1.15935802e+00 1.96835785e+01 -2.96695471e+00 4.87608737e+00 -2.96695471e+00 2.59792328e-01
-3.61478033e+01 -8.62497020e+00 9.25592959e-01 -8.62497020e+00 -3.08045642e+01 1.17851524e+01 9.25592959e-01 1.17851524e+01 -9.75880998e+01
1.46434808e+01 5.14364161e-01 -7.97452569e-01 5.14364161e-01 2.57731891e+01 -3.93374681e+00 -7.97452569e-01 -3.93374681e+00 2.91276224e+01
-1.37287221e+01 -9.46898955e+00 1.51263721e+00 -9.46898955e+00 -1.23636870e+01 7.64495754e+00 1.51263721e+00 7.64495754e+00 -1.35796161e+01
-5.60956766e+00 -8.88922453e-01 1.39426783e+00 -8.88922453e-01 2.19878602e+00 1.90820771e+00 1.39426783e+00 1.90820771e+00 5.53496046e+00
-3.81475417e+00 -4.38008467e-01 7.86236207e-01 -4.38008467e-01 2.98023036e+00 -2.75407437e+00 7.86236207e-01 -2.75407437e+00 3.59446983e+00
-1.87842298e+00 2.48681593e+00 -6.32592440e-01 2.48681593e+00 -2.20322323e+00 5.99499345e-01 -6.32592440e-01 5.99499345e-01 -6.11386299e-01
-4.08014691e+00 2.17152156e-01 -2.52957195e-01 2.17152156e-01 6.18205488e-01 1.35229188e+00 -2.52957195e-01 1.35229188e+00 5.99447958e-01
-1.96055198e+00 1.74567383e-03 -1.25138685e-01 1.74567383e-03 1.08565426e+00 -4.47802365e-01 -1.25138685e-01 -4.47802365e-01 -3.08019600e+01
-6.47663526e-01 7.12006707e-02 4.97790337e-01 7.12006707e-02 1.31408578e+00 -4.21096439e-01 4.97790337e-01 -4.21096439e-01 -2.91957045e+01
2.14632281e+00 -2.56866956e-01 4.15850570e-02 -2.56866956e-01 4.36739721e+00 1.74340634e-01 4.15850570e-02 1.74340634e-01 -2.28446780e+01
-2.47889400e+00 -1.24623566e-02 -1.31633766e-01 -1.24623566e-02 8.39697361e-01 1.43648906e-01 -1.31633766e-01 1.43648906e-01 -3.15747204e+01
4.72451745e+00 -7.94498868e-01 5.40620692e-01 -7.94498868e-01 4.80611080e+00 3.07515409e-01 5.40620692e-01 3.07515409e-01 -1.96731563e+01
3.84698945e+00 -4.48880864e-01 -3.23587762e-01 -4.48880864e-01 5.02462152e+00 -8.38836992e-01 -3.23587762e-01 -8.38836992e-01 -2.02185892e+01
3.63553536e+00 -1.89612629e-02 -2.58757874e-01 -1.89612629e-02 3.23203003e+00 3.19121461e-02 -2.58757874e-01 3.19121461e-02 -2.25678697e+01
6.49999899e+00 -3.53291686e-01 -5.58862302e-01 -3.53291686e-01 5.93562847e+00 -4.50577377e-01 -5.58862302e-01 -4.50577377e-01 -1.65104440e+01
4.17670643e+00 -3.04281846e-01 1.52346041e-01 -3.04281846e-01 2.39047438e+00 -2.68661020e-01 1.52346041e-01 -2.68661020e-01 -2.28707493e+01
4.58201623e+00 -5.68093354e-01 -2.30394740e-01 -5.68093354e-01 4.35030413e+00 7.61338734e-01 -2.30394740e-01 7.61338734e-01 -2.02469786e+01
9.68891180e+00 -5.14155842e-01 1.45979233e-01 -5.14155842e-01 8.45493567e+00 5.26901849e-01 1.45979233e-01 5.26901849e-01 -1.03170224e+01
4.52381057e+00 -3.93916354e-01 1.06111338e-01 -3.93916354e-01 3.45568742e+00 6.07526604e-01 1.06111338e-01 6.07526604e-01 -2.13645297e+01
8.61767650e+00 4.84707139e-01 -1.48315877e-01 4.84707139e-01 9.38436890e+00 1.61917639e+00 -1.48315877e-01 1.61917639e+00 -1.03610125e+01
5.15173936e+00 2.81670064e-01 -8.80319238e-01 2.81670064e-01 4.31945467e+00 8.60571468e-01 -8.80319238e-01 8.60571468e-01 -1.96311404e+01
5.17126358e+00 -5.02562565e-01 3.69183056e-01 -5.02562565e-01 6.70963272e+00 -8.55049855e-01 3.69183056e-01 -8.55049855e-01 -1.70253468e+01
-1.31050062e+00 -5.76000713e-01 1.48413362e+00 -5.76000713e-01 1.38559747e+00 -4.42418093e-02 1.48413362e+00 -4.42418093e-02 -2.96141451e+01
-1.01282988e+01 -3.67643122e-01 1.74926966e-01 -3.67643122e-01 -6.30446977e+00 -1.90068703e-01 1.74926966e-01 -1.90068703e-01 -5.00744547e+01
-5.79061666e+01 -7.71312345e+00 1.65389659e+01 -7.71312345e+00 -5.83950482e+01 6.99615884e-01 1.65389659e+01 6.99615884e-01 -1.38618598e+02
-4.05979748e+01 -6.31419584e-01 1.04486038e+00 -6.31419584e-01 -3.62764077e+01 2.53654407e+00 1.04486038e+00 2.53654407e+00 -1.12911139e+02
-3.88189240e+01 -1.21905950e+00 2.95816547e+00 -1.21905950e+00 -3.22844679e+01 5.13548204e+00 2.95816547e+00 5.13548204e+00 -1.05418428e+02
-4.43247852e+01 -4.01502383e+00 2.44623053e+00 -4.01502383e+00 -3.40475664e+01 6.44576263e+00 2.44623053e+00 6.44576263e+00 -1.12020187e+02
1.35359276e+01 -5.58736571e-03 9.59156431e-01 -5.58736571e-03 1.50449025e+01 -9.86571074e-01 9.59156431e-01 -9.86571074e-01 8.32558870e-01
1.04575249e+01 -2.32334002e-01 1.12645464e+00 -2.32334002e-01 1.06731988e+01 5.62286070e-02 1.12645464e+00 5.62286070e-02 -7.02001786e+00
-3.30748562e+01 -1.86016034e+00 6.03683690e+00 -1.86016034e+00 -2.84073644e+01 1.20638393e+01 6.03683690e+00 1.20638393e+01 -8.26445210e+01
4.14454269e+01 2.68433392e+00 -1.05817223e+01 2.68433392e+00 4.28126392e+01 -2.39206743e+00 -1.05817223e+01 -2.39206743e+00 6.81799030e+01
1.40152920e+01 -2.77291512e-01 1.85321228e+00 -2.77291512e-01 1.22357789e+01 6.04117702e-01 1.85321228e+00 6.04117702e-01 -6.08585238e-01
1.45510340e+01 7.75306955e-01 3.33111256e-01 7.75306955e-01 1.43728513e+01 5.37671844e-01 3.33111256e-01 5.37671844e-01 1.28384399e+00
2.88536296e+01 -1.75845342e+00 9.74445396e-02 -1.75845342e+00 2.69697286e+01 -6.61924256e-01 9.74445396e-02 -6.61924256e-01 2.82952877e+01
2.34980218e+01 -8.78301561e-01 -5.24058898e+00 -8.78301561e-01 2.47521969e+01 -2.03284939e-01 -5.24058898e+00 -2.03284939e-01 2.13275639e+01
1.56772049e+01 -9.00402702e-02 2.62780766e-01 -9.00402702e-02 1.28913555e+01 1.32393301e-01 2.62780766e-01 1.32393301e-01 1.13777718e+00
1.08747150e+01 -7.46946819e-01 4.37317036e-01 -7.46946819e-01 8.70218617e+00 4.95642059e-01 4.37317036e-01 4.95642059e-01 -8.64457488e+00
3.44415873e+00 -2.72799611e+00 8.53864013e-01 -2.72799611e+00 2.88561749e+00 2.39877184e+00 8.53864013e-01 2.39877184e+00 -2.09262415e+01
-1.91737876e+01 -1.56597057e+00 -4.74554386e-01 -1.56597057e+00 -1.76133963e+01 5.98170993e+00 -4.74554386e-01 5.98170993e+00 -7.15181899e+01
-1.69598165e+00 -7.62192406e-01 -1.42816152e-01 -7.62192406e-01 -1.75098810e+00 -7.64826033e-02 -1.42816152e-01 -7.64826033e-02 -3.38264942e+01
-3.92598009e+00 -4.78995472e-01 -3.42661977e-01 -4.78995472e-01 -6.57103777e+00 1.54868984e+00 -3.42661977e-01 1.54868984e+00 -4.11431293e+01
-8.80748606e+00 -1.44384481e-01 1.27038545e+00 -1.44384481e-01 -2.58787012e+00 -2.43282546e+00 1.27038545e+00 -2.43282546e+00 -4.17862320e+01
-8.39002686e+01 -3.27918303e+00 -5.57902813e+00 -3.27918303e+00 -7.86850452e+01 4.83772254e+00 -5.57902813e+00 4.83772254e+00 -2.06020508e+02
-2.34749243e-01 -6.09802872e-01 -2.57995404e-01 -6.09802872e-01 2.81954166e-01 2.52413839e-01 -2.57995404e-01 2.52413839e-01 -4.31328446e-01
-4.23631363e-01 -4.80451994e-02 -9.94186848e-02 -4.80451994e-02 -9.21260417e-02 -2.44933277e-01 -9.94186848e-02 -2.44933277e-01 1.31692067e-01
6.86964169e-01 -1.40590966e-01 -1.00220371e-01 -1.40590966e-01 -1.05140463e-01 5.86770210e-01 -1.00220371e-01 5.86770210e-01 -9.65894312e-01
4.00529429e-01 -7.02544719e-01 -4.16406989e-03 -7.02544719e-01 -2.06376851e-01 -5.21369696e-01 -4.16406989e-03 -5.21369696e-01 -5.78368917e-01
7.99913168e-01 3.41559723e-02 2.53531672e-01 3.41559723e-02 1.54927540e+00 -4.60153036e-02 2.53531672e-01 -4.60153036e-02 -2.74869819e+01
1.42693572e+00 4.49463740e-01 1.12308258e-01 4.49463740e-01 1.39465830e+00 3.18106353e-01 1.12308258e-01 3.18106353e-01 -2.69146308e+01
5.56268726e+00 -2.94391737e-01 1.79234399e-01 -2.94391737e-01 6.17291228e+00 4.74629646e-01 1.79234399e-01 4.74629646e-01 -1.72602034e+01
1.25446371e+00 1.96954396e-01 2.79271673e-01 1.96954396e-01 2.72013462e+00 -2.40098312e-01 2.79271673e-01 -2.40098312e-01 -2.56764922e+01
6.33904910e+00 -8.44800383e-01 1.81231245e-01 -8.44800383e-01 5.44949198e+00 -7.15556927e-03 1.81231245e-01 -7.15556927e-03 -1.72229634e+01
5.99060209e+00 -5.73637644e-01 8.81822320e-01 -5.73637644e-01 5.86371024e+00 9.17677640e-01 8.81822320e-01 9.17677640e-01 -1.69265139e+01
6.86962056e+00 1.27842722e-01 2.57849766e-01 1.27842722e-01 5.67280269e+00 6.05328187e-01 2.57849766e-01 6.05328187e-01 -1.63335423e+01
1.09583835e+01 -8.46783724e-02 7.41682146e-02 -8.46783724e-02 9.33286592e+00 -9.62944643e-03 7.41682146e-02 -9.62944643e-03 -8.02847040e+00
9.24616039e+00 1.49344159e-01 -1.03266057e-01 1.49344159e-01 7.12441333e+00 4.19706924e-01 -1.03266057e-01 4.19706924e-01 -1.21535165e+01
4.73502654e+00 8.06633469e-02 -4.82790241e-01 8.06633469e-02 2.51343989e+00 7.68008512e-02 -4.82790241e-01 7.68008512e-02 -2.20558573e+01
1.24621533e+01 -1.71422295e-01 1.28702265e-02 -1.71422295e-01 1.06931099e+01 -2.94001289e-02 1.28702265e-02 -2.94001289e-02 -4.85668415e+00
8.99122542e+00 1.48551967e-02 -3.25982159e-01 1.48551967e-02 6.45381880e+00 5.51162213e-02 -3.25982159e-01 5.51162213e-02 -1.31849532e+01
1.45806975e+01 -1.25219788e-01 -5.32125644e-02 -1.25219788e-01 1.37223258e+01 -3.37135613e-01 -5.32125644e-02 -3.37135613e-01 7.54281521e-01
1.72968082e+01 1.58550490e-01 -4.60026791e-01 1.58550490e-01 1.53146885e+01 1.48656592e-03 -4.60026791e-01 1.48656592e-03 5.26909447e+00
2.59674561e+00 -8.61295614e-01 1.51459430e+00 -8.61295614e-01 5.10885173e+00 7.15032406e-02 1.51459430e+00 7.15032406e-02 -2.10497610e+01
3.00264001e+00 -1.11370795e+00 1.09647523e+00 -1.11370795e+00 6.57294744e+00 -2.83469490e-01 1.09647523e+00 -2.83469490e-01 -1.92433699e+01
1.48732490e+01 2.44918615e+00 3.98931912e+00 2.44918615e+00 1.32816168e+01 3.24297617e+00 3.98931912e+00 3.24297617e+00 -5.70699787e+00
-7.58256241e+01 -6.02137222e+00 -1.63081070e+01 -6.02137222e+00 -7.64856331e+01 -2.01179442e+00 -1.63081070e+01 -2.01179442e+00 -1.77022006e+02
-4.95546432e+01 -1.19960249e+00 -4.13828808e+00 -1.19960249e+00 -4.50509357e+01 1.34806912e+00 -4.13828808e+00 1.34806912e+00 -1.31814180e+02
-3.27524080e+01 -1.45513041e+00 -1.01203941e-01 -1.45513041e+00 -2.87729940e+01 1.63328221e+00 -1.01203941e-01 1.63328221e+00 -9.63639145e+01
-2.57927294e+01 -2.15192199e+00 -7.26743996e-01 -2.15192199e+00 -1.75687294e+01 3.03708345e-01 -7.26743996e-01 3.03708345e-01 -7.62042465e+01
1.53256440e+00 4.46959734e-02 3.09830160e+00 4.46959734e-02 4.52096650e+00 6.65397280e-01 3.09830160e+00 6.65397280e-01 -2.25095249e+01
1.23566508e+01 1.56001765e-01 1.23157153e+00 1.56001765e-01 1.37241313e+01 -3.71760737e-01 1.23157153e+00 -3.71760737e-01 -1.60136437e+00
-1.04012827e+02 -1.14161361e+01 9.93499076e+00 -1.14161361e+01 -9.46475811e+01 -1.51080063e+01 9.93499076e+00 -1.51080063e+01 -2.19780247e+02
2.27899415e+01 -8.13707092e-02 -2.16552035e+00 -8.13707092e-02 2.31168741e+01 3.26263538e-01 -2.16552035e+00 3.26263538e-01 1.88997878e+01
1.30248202e+01 -4.03272774e-01 1.35807725e+00 -4.03272774e-01 1.36090486e+01 7.00032227e-01 1.35807725e+00 7.00032227e-01 -7.44138241e-01
-5.26894197e+01 1.49375697e+00 6.07585771e+00 1.49375697e+00 -4.91533551e+01 1.80063545e+01 6.07585771e+00 1.80063545e+01 -1.22394456e+02
1.62617748e+01 8.58306400e-02 1.00524846e+00 8.58306400e-02 1.71043441e+01 -3.31561331e-01 1.00524846e+00 -3.31561331e-01 6.06119753e+00
1.42563920e+01 -1.06057851e-02 1.04145028e-01 -1.06057851e-02 1.44728039e+01 2.65673749e-01 1.04145028e-01 2.65673749e-01 1.13471818e+00
2.14580694e+01 -2.10965885e+00 2.93047953e+00 -2.10965885e+00 2.40752130e+01 7.44420388e-01 2.93047953e+00 7.44420388e-01 1.56132908e+01
2.94093361e+01 3.13011551e+00 6.90378428e+00 3.13011551e+00 3.11929512e+01 1.09217558e+01 6.90378428e+00 1.09217558e+01 7.17264862e+01
-7.06713092e+01 8.10325607e+00 -2.64366446e+01 8.10325607e+00 -7.42199175e+01 -2.77479817e+00 -2.64366446e+01 -2.77479817e+00 -1.69176376e+02
1.07774867e+01 -7.39530213e-02 4.21687663e-01 -7.39530213e-02 9.82137772e+00 8.00051741e-01 4.21687663e-01 8.00051741e-01 -7.99205208e+00
2.34406090e+00 -4.33039650e-01 -2.98052996e-01 -4.33039650e-01 4.59044838e+00 8.37436289e-01 -2.98052996e-01 8.37436289e-01 -2.25029488e+01
</DataArray>
<DataArray type="Float32" Name="Logarithmic_strain_components" NumberOfComponents="9" format="ascii">
3.65099944e-02 -1.37877214e-06 1.86906823e-06 -1.37877214e-06 6.46273568e-02 -1.50426640e-05 1.86906823e-06 -1.50426640e-05 -8.54073539e-02
3.83065436e-02 2.59682885e-03 3.48434924e-06 2.59682885e-03 6.69341423e-02 -4.96240391e-04 3.48434924e-06 -4.96240391e-04 -8.92602466e-02
3.92794954e-02 6.97607757e-03 -4.58034629e-03 6.97607757e-03 6.02133274e-02 -2.31920474e-03 -4.58034629e-03 -2.31920474e-03 -8.42361059e-02
3.88024542e-02 2.56850151e-03 -2.93297018e-03 2.56850151e-03 5.86915761e-02 3.38832615e-06 -2.93297018e-03 3.38832615e-06 -8.26193728e-02
3.57309841e-02 4.53562279e-06 3.12116521e-03 4.53562279e-06 6.14208840e-02 -3.50997946e-03 3.12116521e-03 -3.50997946e-03 -8.19560960e-02
3.77666131e-02 7.62729920e-04 4.44201380e-03 7.62729920e-04 6.27301261e-02 -5.07424120e-03 4.44201380e-03 -5.07424120e-03 -8.51018690e-02
3.85116232e-02 3.55100154e-03 7.15628044e-04 3.55100154e-03 5.80025371e-02 -5.64541327e-03 7.15628044e-04 -5.64541327e-03 -8.16508355e-02
3.74185704e-02 9.05631881e-04 1.10218791e-03 9.05631881e-04 5.72121339e-02 -2.27220915e-03 1.10218791e-03 -2.27220915e-03 -8.01351890e-02
4.10189945e-02 9.45122942e-04 5.38908898e-06 9.45122942e-04 7.21578486e-02 -1.84328953e-03 5.38908898e-06 -1.84328953e-03 -9.61800925e-02
4.16385811e-02 1.02591940e-02 -6.72956044e-03 1.02591940e-02 6.50067935e-02 -7.14259280e-04 -6.72956044e-03 -7.14259280e-04 -9.08866934e-02
4.29029139e-02 2.02921801e-03 5.29198803e-03 2.02921801e-03 6.45942362e-02 -4.36167312e-03 5.29198803e-03 -4.36167312e-03 -9.12312996e-02
4.15860177e-02 4.30795681e-03 -1.59168174e-03 4.30795681e-03 6.15121517e-02 -1.04512479e-02 -1.59168174e-03 -1.04512479e-02 -8.75000721e-02
4.63105906e-02 3.86238040e-03 -8.63234527e-06 3.86238040e-03 7.73184374e-02 4.90319449e-03 -8.63234527e-06 4.90319449e-03 -1.05456788e-01
4.45903586e-02 6.79620088e-03 -1.12239169e-02 6.79620088e-03 7.11572897e-02 -3.53594200e-03 -1.12239169e-02 -3.53594200e-03 -9.93888341e-02
4.96352594e-02 -4.63181571e-03 1.52228406e-03 -4.63181571e-03 6.65982161e-02 -3.50429962e-03 1.52228406e-03 -3.50429962e-03 -9.87785794e-02
4.59504030e-02 -3.16559861e-03 2.12306436e-03 -3.16559861e-03 6.58402368e-02 -6.18565103e-03 2.12306436e-03 -6.18565103e-03 -9.50978706e-02
5.23385163e-02 -1.02926134e-02 1.91609324e-05 -1.02926134e-02 8.21688809e-02 3.61307815e-03 1.91609324e-05 3.61307815e-03 -1.15169588e-01
4.67860280e-02 -7.18811504e-03 -1.60004832e-02 -7.18811504e-03 7.82468971e-02 2.34646053e-03 -1.60004832e-02 2.34646053e-03 -1.07920520e-01
5.56264920e-02 -1.14682026e-02 3.74954887e-03 -1.14682026e-02 6.92598689e-02 -3.25790685e-03 3.74954887e-03 -3.25790685e-03 -1.06261693e-01
5.30211413e-02 -1.18760137e-02 2.57055997e-03 -1.18760137e-02 6.48790295e-02 1.87714765e-03 2.57055997e-03 1.87714765e-03 -9.96426353e-02
5.59886768e-02 -1.32015655e-02 4.60407718e-05 -1.32015655e-02 8.87747854e-02 4.74850042e-03 4.60407718e-05 4.74850042e-03 -1.23985276e-01
4.86842431e-02 -1.65526264e-02 -1.92664759e-02 -1.65526264e-02 8.17476958e-02 8.20393651e-03 -1.92664759e-02 8.20393651e-03 -1.11672958e-01
5.72148273e-02 -9.63371294e-03 6.64466468e-03 -9.63371294e-03 7.39383120e-02 2.67835223e-03 6.64466468e-03 2.67835223e-03 -1.11038705e-01
5.71368253e-02 -1.47322587e-02 7.41370302e-03 -1.47322587e-02 6.75251284e-02 1.72864597e-03 7.41370302e-03 1.72864597e-03 -1.05080412e-01
5.19647300e-02 -3.53601463e-02 -4.05339670e-05 -3.53601463e-02 1.03194222e-01 -3.46356281e-03 -4.05339670e-05 -3.46356281e-03 -1.35248259e-01
4.37990613e-02 -2.59036128e-02 -2.07992522e-02 -2.59036128e-02 9.76811759e-02 2.30977573e-02 -2.07992522e-02 2.30977573e-02 -1.23728521e-01
5.07150907e-02 -8.65396019e-03 -3.84723616e-03 -8.65396019e-03 8.91119055e-02 -2.37912172e-04 -3.84723616e-03 -2.37912172e-04 -1.20466977e-01
5.33518018e-02 -1.44830483e-02 5.99768478e-04 -1.44830483e-02 7.97747560e-02 1.06661085e-02 5.99768478e-04 1.06661085e-02 -1.13663452e-01
4.27645873e-02 9.54144716e-03 -3.75511515e-03 9.54144716e-03 4.29636398e-02 -3.48404719e-03 -3.75511515e-03 -3.48404719e-03 -7.27159902e-02
4.25896253e-02 1.98711245e-03 -4.92815371e-03 1.98711245e-03 4.25586756e-02 6.73442992e-06 -4.92815371e-03 6.73442992e-06 -7.21139461e-02
3.94564504e-02 6.69694395e-03 4.63224993e-03 6.69694395e-03 4.60404055e-02 -6.81634550e-03 4.63224993e-03 -6.81634550e-03 -7.24598197e-02
3.87758482e-02 3.13031831e-03 7.57876632e-03 3.13031831e-03 4.48225979e-02 -1.01129885e-03 7.57876632e-03 -1.01129885e-03 -7.06382114e-02
4.05823011e-02 1.64279712e-02 -8.40955554e-03 1.64279712e-02 4.34104968e-02 -6.97926118e-03 -8.40955554e-03 -6.97926118e-03 -7.14315698e-02
3.93882706e-02 9.30639321e-03 8.78059637e-03 9.30639321e-03 4.72607664e-02 -3.52271253e-03 8.78059637e-03 -3.52271253e-03 -7.37927854e-02
3.32720079e-02 1.02101807e-02 -1.05099506e-02 1.02101807e-02 4.30677026e-02 -5.40216570e-03 -1.05099506e-02 -5.40216570e-03 -6.37585530e-02
3.80171766e-02 -3.85998116e-05 2.74442082e-02 -3.85998116e-05 4.95712581e-02 7.25210511e-04 2.74442082e-02 7.25210511e-04 -7.41286783e-02
2.92638214e-02 -1.10904366e-02 -2.78502195e-02 -1.10904366e-02 4.67185602e-02 2.57133320e-03 -2.78502195e-02 2.57133320e-03 -6.34213844e-02
3.77303117e-02 -1.99406653e-02 2.94020794e-02 -1.99406653e-02 5.37331228e-02 8.92069890e-03 2.94020794e-02 8.92069890e-03 -7.62849661e-02
3.00917332e-02 -2.35784150e-02 -2.53951824e-02 -2.35784150e-02 4.13012854e-02 1.36111949e-02 -2.53951824e-02 1.36111949e-02 -5.83090167e-02
3.91362958e-02 -2.70475787e-02 3.85928943e-02 -2.70475787e-02 4.97806119e-02 2.68038426e-02 3.85928943e-02 2.68038426e-02 -7.25814682e-02
3.17540020e-02 -2.73182830e-02 -2.67611435e-02 -2.73182830e-02 4.37979698e-02 2.30312254e-02 -2.67611435e-02 2.30312254e-02 -6.24339841e-02
3.99793740e-02 -3.69902874e-02 3.67825267e-02 -3.69902874e-02 5.79355167e-02 3.49010148e-02 3.67825267e-02 3.49010148e-02 -8.13000103e-02
4.50487155e-02 4.95545857e-03 1.03070325e-03 4.95545857e-03 2.47377148e-02 -4.56660497e-03 1.03070325e-03 -4.56660497e-03 -5.92548810e-02
4.41367067e-02 2.75979936e-03 2.15793948e-03 2.75979936e-03 2.65457416e-02 -5.14257817e-06 2.15793948e-03 -5.14257817e-06 -5.95569070e-02
4.15085270e-02 3.27415881e-03 9.71483579e-03 3.27415881e-03 2.83637338e-02 -2.86167847e-03 9.71483579e-03 -2.86167847e-03 -5.91661520e-02
3.93202985e-02 1.60715790e-03 1.06613425e-02 1.60715790e-03 3.03168125e-02 -7.48393635e-04 1.06613425e-02 -7.48393635e-04 -5.86253693e-02
3.55728110e-02 7.73477179e-03 1.21075718e-03 7.73477179e-03 1.85348918e-02 -8.43625190e-03 1.21075718e-03 -8.43625190e-03 -4.50510141e-02
3.67679470e-02 4.82472833e-03 1.75954648e-02 4.82472833e-03 2.26293290e-02 7.10398459e-03 1.75954648e-02 7.10398459e-03 -5.01935068e-02
1.32497445e-02 3.51562898e-03 -2.61896395e-03 3.51562898e-03 9.48279613e-03 -5.38993778e-03 -2.61896395e-03 -5.38993778e-03 -1.60291614e-02
1.16230802e-02 -1.80706409e-03 1.76786028e-02 -1.80706409e-03 7.20131133e-03 4.28117812e-03 1.76786028e-02 4.28117812e-03 -1.04186150e-02
3.75830991e-03 -1.98159286e-02 -1.03115042e-02 -1.98159286e-02 2.47428737e-03 -7.20492362e-03 -1.03115042e-02 -7.20492362e-03 2.38579465e-04
-4.57650322e-04 -3.13778118e-02 3.61135565e-02 -3.13778118e-02 1.17033104e-02 7.22823881e-03 3.61135565e-02 7.22823881e-03 -4.50986121e-03
6.57188978e-04 -8.84707800e-03 -1.65434790e-02 -8.84707800e-03 -1.14955660e-03 1.37807541e-03 -1.65434790e-02 1.37807541e-03 6.62730852e-03
4.74007567e-04 -1.15998425e-02 2.89180769e-02 -1.15998425e-02 4.75568623e-03 -3.27765740e-03 2.89180769e-02 -3.27765740e-03 2.06388809e-03
5.86800167e-03 -7.57613755e-03 -3.59780365e-03 -7.57613755e-03 -7.10919569e-03 5.55542787e-03 -3.59780365e-03 5.55542787e-03 6.46341610e-03
4.58842271e-03 -6.95637800e-03 2.71997121e-02 -6.95637800e-03 8.55274498e-04 -5.07802481e-03 2.71997121e-02 -5.07802481e-03 1.04636559e-03
4.42295261e-02 -3.30230591e-03 2.23076151e-03 -3.30230591e-03 1.66904335e-02 -5.91204315e-03 2.23076151e-03 -5.91204315e-03 -5.15343798e-02
4.50651050e-02 -3.50028079e-03 3.10451700e-03 -3.50028079e-03 2.04174686e-02 5.35201070e-06 3.10451700e-03 5.35201070e-06 -5.54314256e-02
3.92940850e-02 -5.55348434e-03 1.13784730e-02 -5.55348434e-03 1.88557995e-02 -1.54022360e-04 1.13784730e-02 -1.54022360e-04 -4.88369027e-02
4.08269046e-02 -4.37130919e-03 3.70688032e-03 -4.37130919e-03 2.16382984e-02 2.07068201e-03 3.70688032e-03 2.07068201e-03 -5.27025471e-02
3.22293215e-02 -5.00073191e-03 -3.02653137e-03 -5.00073191e-03 9.52253933e-03 -9.29160090e-03 -3.02653137e-03 -9.29160090e-03 -3.47769540e-02
3.13206536e-02 -9.13853227e-03 4.89036491e-03 -9.13853227e-03 9.96352069e-03 8.82626066e-03 4.89036491e-03 8.82626066e-03 -3.39023906e-02
9.40745707e-03 -5.44352690e-03 -1.45806302e-03 -5.44352690e-03 5.57226886e-04 -7.45736691e-03 -1.45806302e-03 -7.45736691e-03 -6.83091325e-03
1.57367597e-02 -5.44664325e-03 -4.25302214e-03 -5.44664325e-03 1.90815705e-03 8.60557169e-03 -4.25302214e-03 8.60557169e-03 -1.33260683e-02
-8.24463960e-04 -1.67017532e-03 -1.11406477e-05 -1.67017532e-03 6.07089173e-04 -4.03885361e-04 -1.11406477e-05 -4.03885361e-04 9.87790624e-04
1.28278797e-03 1.64892325e-03 -1.50912129e-03 1.64892325e-03 1.25261580e-03 4.12277609e-03 -1.50912129e-03 4.12277609e-03 -1.78462701e-03
4.90650237e-03 -1.31358204e-02 2.47035841e-05 -1.31358204e-02 -8.58937484e-03 1.09247932e-04 2.47035841e-05 1.09247932e-04 4.52906092e-03
-5.44132605e-04 -8.16222600e-03 -4.04309552e-05 -8.16222600e-03 1.85139804e-03 6.35600251e-05 -4.04309552e-05 6.35600251e-05 -5.71469098e-04
4.43228232e-03 -1.57968050e-02 -1.97806493e-03 -1.57968050e-02 -7.47201389e-03 -1.34962756e-04 -1.97806493e-03 -1.34962756e-04 3.94742162e-03
-2.23776295e-03 -8.61232296e-03 -4.27945984e-03 -8.61232296e-03 5.39493647e-03 -6.57958177e-05 -4.27945984e-03 -6.57958177e-05 -2.45710954e-03
4.25507687e-02 -9.08757217e-03 5.99393889e-03 -9.08757217e-03 2.19001994e-02 -2.82262481e-03 5.99393889e-03 -2.82262481e-03 -5.45395808e-02
4.58805654e-02 -8.05165293e-03 1.15397316e-03 -8.05165293e-03 2.38764761e-02 5.02971852e-06 1.15397316e-03 5.02971852e-06 -5.91153335e-02
3.78993065e-02 -7.93123214e-03 8.25716197e-04 -7.93123214e-03 2.28243284e-02 4.83034469e-03 8.25716197e-04 4.83034469e-03 -5.09550516e-02
4.18279227e-02 -3.20252450e-03 -2.12240213e-03 -3.20252450e-03 2.38965238e-02 6.62827760e-03 -2.12240213e-03 6.62827760e-03 -5.55162961e-02
3.12075359e-02 -8.91843089e-03 2.69832561e-03 -8.91843089e-03 1.43510420e-02 -1.28866828e-02 2.69832561e-03 -1.28866828e-02 -3.81646082e-02
2.79719916e-02 -1.47076521e-02 -1.95413022e-03 -1.47076521e-02 2.17368897e-02 7.84405542e-03 -1.95413022e-03 7.84405542e-03 -4.10392261e-02
8.91817478e-03 -4.36170091e-03 2.88107211e-03 -4.36170091e-03 4.29735614e-03 -5.63120400e-03 2.88107211e-03 -5.63120400e-03 -9.71731718e-03
1.79939113e-02 -6.27262207e-03 -3.11927486e-03 -6.27262207e-03 1.19493265e-02 2.12546232e-02 -3.11927486e-03 2.12546232e-02 -2.45131874e-02
7.64662876e-04 1.49510672e-03 1.94303116e-05 1.49510672e-03 -4.36542905e-07 -2.09767106e-04 1.94303116e-05 -2.09767106e-04 -1.01473087e-04
2.67425424e-03 -8.71260872e-05 3.09831812e-04 -8.71260872e-05 -9.62810089e-04 4.46200479e-03 3.09831812e-04 4.46200479e-03 -1.05476583e-03
1.73434066e-05 1.53660003e-05 -2.34798122e-05 1.53660003e-05 2.89040781e-06 9.77086547e-05 -2.34798122e-05 9.77086547e-05 4.95783654e-05
6.22686593e-05 2.23234034e-05 -4.01726980e-05 2.23234034e-05 5.69772965e-08 -1.64145567e-05 -4.01726980e-05 -1.64145567e-05 -9.53517783e-06
9.79721408e-05 2.44487810e-05 -6.56334560e-05 2.44487810e-05 -1.67215927e-04 1.83175553e-05 -6.56334560e-05 1.83175553e-05 -1.54020695e-05
4.18693074e-05 -4.59061063e-05 4.61274242e-05 -4.59061063e-05 -1.15132279e-04 -7.36180838e-06 4.61274242e-05 -7.36180838e-06 1.23381088e-05
4.65704631e-02 -8.33312783e-03 4.00322242e-04 -8.33312783e-03 2.86649438e-02 -5.15913730e-03 4.00322242e-04 -5.15913730e-03 -6.53145872e-02
5.26379198e-02 -3.66932270e-03 5.53785311e-03 -3.66932270e-03 2.67047901e-02 1.74295201e-05 5.53785311e-03 1.74295201e-05 -6.86989129e-02
4.28226953e-02 -5.76452981e-03 -8.42506532e-04 -5.76452981e-03 2.81329504e-02 -4.03102821e-03 -8.42506532e-04 -4.03102821e-03 -6.08987520e-02
4.66089770e-02 -8.70515918e-03 -2.89128156e-03 -8.70515918e-03 3.02553987e-02 6.07554545e-03 -2.89128156e-03 6.07554545e-03 -6.66413940e-02
3.42769707e-02 -1.49675170e-02 1.54424175e-02 -1.49675170e-02 2.49893861e-02 -1.75422849e-02 1.54424175e-02 -1.75422849e-02 -5.18065225e-02
3.14394929e-02 -1.34228738e-02 6.94290898e-03 -1.34228738e-02 3.49919870e-02 3.15655838e-03 6.94290898e-03 3.15655838e-03 -5.70003884e-02
9.91761871e-03 -7.93614666e-03 1.34890201e-02 -7.93614666e-03 1.32327527e-02 -5.21074515e-03 1.34890201e-02 -5.21074515e-03 -1.91850914e-02
2.28096182e-02 -1.61272259e-02 9.19371684e-03 -1.61272259e-02 2.48899690e-02 3.04863621e-02 9.19371684e-03 3.04863621e-02 -4.16035155e-02
-1.26733532e-03 -2.16614378e-03 1.09187090e-05 -2.16614378e-03 1.08458466e-03 -6.59236306e-04 1.09187090e-05 -6.59236306e-04 1.01458529e-03
4.39811833e-04 -9.38735912e-03 2.43933304e-04 -9.38735912e-03 1.94768276e-04 1.12809065e-02 2.43933304e-04 1.12809065e-02 1.92512729e-04
-2.67795930e-04 -1.61189295e-04 8.88667528e-05 -1.61189295e-04 1.01942955e-04 1.13780545e-04 8.88667528e-05 1.13780545e-04 2.14940917e-04
-7.53661055e-05 -4.41514761e-05 3.08606128e-05 -4.41514761e-05 4.60691311e-05 -1.29478882e-04 3.08606128e-05 -1.29478882e-04 5.76483305e-05
-2.65246745e-05 1.19459677e-04 -3.06505572e-05 1.19459677e-04 -3.44559048e-05 2.92266777e-05 -3.06505572e-05 2.92266777e-05 3.63737490e-06
-8.62392517e-05 1.04054611e-05 -1.22816446e-05 1.04054611e-05 2.64412074e-05 6.52951730e-05 -1.22816446e-05 6.52951730e-05 2.63418251e-05
3.78531460e-02 4.83934127e-06 1.49988633e-03 4.83934127e-06 5.44423778e-02 -7.22002285e-03 1.49988633e-03 -7.22002285e-03 -7.80771188e-02
4.07415889e-02 -7.03515980e-04 7.41936325e-03 -7.03515980e-04 5.23966197e-02 -4.67965566e-03 7.41936325e-03 -4.67965566e-03 -7.87741095e-02
3.78069202e-02 -6.21955541e-03 4.58939612e-03 -6.21955541e-03 5.28160254e-02 -2.64276852e-03 4.58939612e-03 -2.64276852e-03 -7.63070732e-02
3.58747672e-02 -7.78960442e-04 3.40676203e-03 -7.78960442e-04 5.42758331e-02 -1.23165388e-03 3.40676203e-03 -1.23165388e-03 -7.62346070e-02
4.69132131e-02 -8.39107134e-03 4.12322942e-03 -8.39107134e-03 4.85002836e-02 -9.81399033e-04 4.12322942e-03 -9.81399033e-04 -8.03248174e-02
4.51099253e-02 -8.92428774e-03 1.15739985e-03 -8.92428774e-03 5.07882005e-02 -1.09585276e-02 1.15739985e-03 -1.09585276e-02 -8.05921229e-02
5.35169113e-02 1.11139561e-04 -2.24961736e-04 1.11139561e-04 4.75894595e-02 -6.81433640e-03 -2.24961736e-04 -6.81433640e-03 -8.52254219e-02
5.25529017e-02 -6.43400830e-03 1.99917844e-03 -6.43400830e-03 5.17732380e-02 7.36072834e-05 1.99917844e-03 7.36072834e-05 -8.72742794e-02
5.96019486e-02 -4.58439172e-03 1.27843830e-02 -4.58439172e-03 4.67183674e-02 -6.49829095e-03 1.27843830e-02 -6.49829095e-03 -8.95627812e-02
5.53143909e-02 -5.56418131e-03 2.90539587e-03 -5.56418131e-03 5.81286591e-02 7.84000801e-03 2.90539587e-03 7.84000801e-03 -9.54971947e-02
5.70032904e-02 -5.90137567e-03 1.47634472e-02 -5.90137567e-03 5.12632038e-02 9.91294306e-04 1.47634472e-02 9.91294306e-04 -9.06980000e-02
5.91600975e-02 -2.61103403e-03 1.25586673e-02 -2.61103403e-03 5.77267287e-02 4.57922087e-03 1.25586673e-02 4.57922087e-03 -9.84776821e-02
5.17757367e-02 1.03861992e-02 1.01160561e-02 1.03861992e-02 5.78435678e-02 5.01656951e-03 1.01160561e-02 5.01656951e-03 -9.19049270e-02
5.87538173e-02 2.03490211e-03 -8.08283105e-04 2.03490211e-03 5.89478808e-02 4.28832253e-03 -8.08283105e-04 4.28832253e-03 -9.91886854e-02
3.58238476e-02 -7.72048463e-03 8.66046606e-03 -7.72048463e-03 4.94370353e-02 -9.54828894e-03 8.66046606e-03 -9.54828894e-03 -7.16067972e-02
3.21350489e-02 -5.43758261e-03 1.82888266e-02 -5.43758261e-03 5.06171174e-02 -5.47874218e-03 1.82888266e-02 -5.47874218e-03 -6.97792452e-02
4.22172961e-02 -5.09092365e-03 1.79746308e-02 -5.09092365e-03 5.33071448e-02 -3.82850619e-03 1.79746308e-02 -3.82850619e-03 -8.18705399e-02
5.54025725e-02 -1.44845882e-02 4.66364942e-02 -1.44845882e-02 5.78035343e-02 -2.99341043e-03 4.66364942e-02 -2.99341043e-03 -9.81149644e-02
5.93564147e-02 -1.57706672e-03 1.35373287e-02 -1.57706672e-03 7.15172682e-02 1.58687197e-02 1.35373287e-02 1.58687197e-02 -1.14035264e-01
5.87443905e-02 -2.25141621e-03 2.57713371e-02 -2.25141621e-03 7.27890693e-02 3.18354663e-02 2.57713371e-02 3.18354663e-02 -1.13907598e-01
5.67411426e-02 -1.00883539e-02 1.18847378e-02 -1.00883539e-02 7.66465068e-02 2.77497996e-02 1.18847378e-02 2.77497996e-02 -1.15409587e-01
2.92930487e-02 -1.30994155e-03 2.48188097e-02 -1.30994155e-03 4.13822462e-02 -2.03849491e-03 2.48188097e-02 -2.03849491e-03 -5.86435678e-02
2.95311590e-02 -2.18934665e-03 1.71610593e-02 -2.18934665e-03 3.95700159e-02 -5.06648340e-03 1.71610593e-02 -5.06648340e-03 -5.76914009e-02
2.87866929e-02 -9.21326821e-03 3.33598231e-02 -9.21326821e-03 4.39748419e-02 3.80754136e-02 3.33598231e-02 3.80754136e-02 -6.17465718e-02
-1.34756919e-02 -3.48529685e-02 3.08236480e-02 -3.48529685e-02 8.50798795e-03 4.87564560e-02 3.08236480e-02 4.87564560e-02 2.14261971e-02
3.15056932e-02 -1.23431475e-03 1.60197499e-02 -1.23431475e-03 2.62194730e-02 1.10954248e-02 1.60197499e-02 1.10954248e-02 -4.75875814e-02
2.96800593e-02 4.51268326e-03 1.15437927e-02 4.51268326e-03 2.89515755e-02 8.49264720e-03 1.15437927e-02 8.49264720e-03 -4.87933941e-02
2.69793352e-02 -2.08014735e-02 1.87047639e-02 -2.08014735e-02 2.05948584e-02 2.40838971e-02 1.87047639e-02 2.40838971e-02 -3.84926232e-02
6.17013996e-03 -3.63865448e-03 -1.95018537e-02 -3.63865448e-03 1.51058600e-02 2.18304812e-02 -1.95018537e-02 2.18304812e-02 -1.21045286e-02
3.20073459e-02 -7.03264174e-03 2.39437717e-03 -7.03264174e-03 2.77214712e-02 6.78762807e-03 2.39437717e-03 6.78762807e-03 -4.95537668e-02
3.48049570e-02 -5.99396683e-03 3.31042334e-04 -5.99396683e-03 2.63003567e-02 6.68661902e-03 3.31042334e-04 6.68661902e-03 -5.12259109e-02
3.17966482e-02 -1.32334280e-02 4.95886779e-05 -1.32334280e-02 3.47461738e-02 1.42248557e-02 4.95886779e-05 1.42248557e-02 -5.58493561e-02
4.33949418e-02 5.43945585e-04 -1.99780584e-02 5.43945585e-04 4.56436770e-02 1.92700084e-02 -1.99780584e-02 1.92700084e-02 -7.90004171e-02
3.26247625e-02 -1.18170938e-03 -2.79445658e-03 -1.18170938e-03 3.78408162e-02 -2.16358341e-04 -2.79445658e-03 -2.16358341e-04 -5.99432010e-02
3.60681787e-02 1.58974383e-03 -2.92737223e-03 1.58974383e-03 3.33946291e-02 4.11904440e-03 -2.92737223e-03 4.11904440e-03 -5.92036564e-02
3.70951286e-02 -1.36916293e-03 3.33473168e-03 -1.36916293e-03 4.83586900e-02 -5.52123925e-03 3.33473168e-03 -5.52123925e-03 -7.25132003e-02
5.60406391e-02 2.33938743e-04 -1.40567450e-02 2.33938743e-04 6.17450550e-02 2.23583663e-02 -1.40567450e-02 2.23583663e-02 -1.05950333e-01
-3.80802345e-06 -2.91845645e-05 -1.26481689e-05 -2.91845645e-05 8.45307170e-06 1.21726134e-05 -1.26481689e-05 1.21726134e-05 -8.49273192e-06
-8.73839485e-06 -1.97254292e-06 -4.87854322e-06 -1.97254292e-06 -6.67949735e-07 -1.14438735e-05 -4.87854322e-06 -1.14438735e-05 4.67717928e-06
1.86289544e-05 -6.45784712e-06 -4.66270853e-06 -6.45784712e-06 -8.01179112e-07 2.88859087e-05 -4.66270853e-06 2.88859087e-05 -2.12162977e-05
1.08241620e-05 -3.35068344e-05 -4.56325324e-07 -3.35068344e-05 -3.08116205e-06 -2.42124715e-05 -4.56325324e-07 -2.42124715e-05 -1.27259013e-05
4.57905214e-02 8.20439254e-06 9.50300088e-03 8.20439254e-06 4.80273422e-02 -2.12377287e-03 9.50300088e-03 -2.12377287e-03 -7.92728812e-02
4.71538864e-02 2.18274677e-03 6.33320969e-03 2.18274677e-03 4.64468161e-02 2.60596200e-03 6.33320969e-03 2.60596200e-03 -7.91041963e-02
4.54686768e-02 -8.46562974e-03 1.11792609e-02 -8.46562974e-03 4.71393326e-02 3.59060137e-03 1.11792609e-02 3.59060137e-03 -7.77888065e-02
4.41228598e-02 1.65406254e-03 9.94028331e-03 1.65406254e-03 4.92987549e-02 -5.28279715e-03 9.94028331e-03 -5.28279715e-03 -7.89225213e-02
5.07673062e-02 -1.02052463e-02 9.29958583e-03 -1.02052463e-02 4.10500914e-02 6.59817211e-04 9.29958583e-03 6.59817211e-04 -7.71240797e-02
4.96815750e-02 -1.14233536e-02 1.10104599e-02 -1.14233536e-02 4.56004534e-02 4.69295995e-03 1.10104599e-02 4.69295995e-03 -8.00093673e-02
5.41217281e-02 8.96012949e-04 3.60694726e-03 8.96012949e-04 3.80806383e-02 5.64981388e-03 3.60694726e-03 5.64981388e-03 -7.73392227e-02
5.46673676e-02 -5.44840525e-03 -5.32897824e-03 -5.44840525e-03 4.47587203e-02 -4.23988115e-03 -5.32897824e-03 -4.23988115e-03 -8.30717739e-02
5.65235252e-02 2.51186563e-03 -4.89812298e-03 2.51186563e-03 3.62777151e-02 -4.68282058e-04 -4.89812298e-03 -4.68282058e-04 -7.77232870e-02
5.50980307e-02 1.56270403e-03 -7.53388088e-03 1.56270403e-03 5.08278529e-02 5.54922735e-07 -7.53388088e-03 5.54922735e-07 -8.92178183e-02
5.41302031e-02 7.95495420e-04 2.66842591e-03 7.95495420e-04 3.76142841e-02 -3.46126967e-03 2.66842591e-03 -3.46126967e-03 -7.67115820e-02
5.50018670e-02 6.74103503e-05 3.48442583e-04 6.74103503e-05 4.97441050e-02 2.81890872e-03 3.48442583e-04 2.81890872e-03 -8.78870040e-02
5.20156715e-02 7.85438897e-06 2.50466797e-03 7.85438897e-06 3.78493089e-02 -3.32807982e-03 2.50466797e-03 -3.32807982e-03 -7.49128461e-02
5.12033785e-02 -3.53301907e-03 -2.29034049e-03 -3.53301907e-03 5.01003386e-02 -2.70099682e-03 -2.29034049e-03 -2.70099682e-03 -8.43842551e-02
4.14869518e-02 -1.44747639e-02 2.84759087e-02 -1.44747639e-02 5.17230979e-02 1.20098671e-03 2.84759087e-02 1.20098671e-03 -7.79105267e-02
3.49701634e-02 -1.21844148e-02 2.09222238e-02 -1.21844148e-02 5.50845880e-02 -3.19428509e-03 2.09222238e-02 -3.19428509e-03 -7.54766222e-02
5.31276464e-02 -1.05906012e-03 2.12013332e-02 -1.05906012e-03 4.89175277e-02 -3.67434030e-03 2.12013332e-02 -3.67434030e-03 -8.75352930e-02
6.14761852e-02 -1.42482495e-02 -5.82994757e-02 -1.42482495e-02 5.60115386e-02 -1.18323546e-03 -5.82994757e-02 -1.18323546e-03 -1.04749925e-01
6.07717941e-02 -1.81244290e-03 -1.71591514e-02 -1.81244290e-03 6.95074107e-02 1.15488185e-02 -1.71591514e-02 1.15488185e-02 -1.14332458e-01
5.96957430e-02 -4.36225219e-03 -1.74528116e-03 -4.36225219e-03 6.63365088e-02 1.03477189e-02 -1.74528116e-03 1.03477189e-02 -1.09047949e-01
5.36792967e-02 -2.80321366e-03 -4.08524810e-03 -2.80321366e-03 6.87113479e-02 3.55392322e-03 -4.08524810e-03 3.55392322e-03 -1.05175219e-01
3.56433373e-02 -8.69166638e-03 3.83041139e-02 -8.69166638e-03 5.05856435e-02 1.58189709e-03 3.83041139e-02 1.58189709e-03 -7.20364207e-02
3.08182393e-02 2.84650351e-03 3.02477060e-02 2.84650351e-03 5.00508277e-02 4.19749715e-03 3.02477060e-02 4.19749715e-03 -6.69777319e-02
4.66231550e-02 -2.54489114e-02 5.14889858e-02 -2.54489114e-02 6.23833677e-02 -5.86810503e-02 5.14889858e-02 -5.86810503e-02 -9.37238298e-02
3.03152560e-02 -2.97103962e-03 1.49378745e-02 -2.97103962e-03 3.88499706e-02 2.38292188e-02 1.49378745e-02 2.38292188e-02 -5.65693937e-02
2.94321608e-02 -6.99202518e-03 2.45742915e-02 -6.99202518e-03 4.07276265e-02 5.94222324e-03 2.45742915e-02 5.94222324e-03 -5.81406923e-02
3.02544809e-02 6.69248539e-03 1.58703120e-02 6.69248539e-03 4.35209805e-02 6.99180970e-02 1.58703120e-02 6.99180970e-02 -6.37667365e-02
3.24057592e-02 3.38097458e-03 1.16559301e-02 3.38097458e-03 4.04136688e-02 8.30866391e-03 1.16559301e-02 8.30866391e-03 -5.97677780e-02
3.14544840e-02 5.51424932e-03 -2.29842332e-03 5.51424932e-03 4.04184954e-02 3.64951277e-03 -2.29842332e-03 3.64951277e-03 -6.00669291e-02
3.35189719e-02 -1.09915602e-02 -1.31628122e-02 -1.09915602e-02 5.27228404e-02 1.34402765e-02 -1.31628122e-02 1.34402765e-02 -7.17314961e-02
-4.59596189e-03 6.87685385e-02 -8.94656926e-02 6.87685385e-02 -1.93161760e-02 1.21835276e-01 -8.94656926e-02 1.21835276e-01 4.83149625e-02
5.97366889e-02 2.75106216e-02 -8.84763760e-02 2.75106216e-02 5.55725799e-02 -1.39593412e-02 -8.84763760e-02 -1.39593412e-02 -1.00278653e-01
3.68031086e-02 1.52795331e-02 7.40400923e-03 1.52795331e-02 4.52742185e-02 1.44948383e-02 7.40400923e-03 1.44948383e-02 -6.90189153e-02
3.33975237e-02 -3.02921492e-03 7.53180264e-03 -3.02921492e-03 4.61240448e-02 1.13264751e-02 7.53180264e-03 1.13264751e-02 -6.63860627e-02
</DataArray>
<DataArray type="Float32" Name="Plastic_strain_components" NumberOfComponents="9" format="ascii">
3.64574529e-02 -4.60524461e-07 5.29092858e-07 -4.60524461e-07 6.44815043e-02 -1.02471677e-06 5.29092858e-07 -1.02471677e-06 -8.47607329e-02
3.83482147e-02 2.58686813e-03 1.07244091e-06 2.58686813e-03 6.68620504e-02 -4.82513715e-04 1.07244091e-06 -4.82513715e-04 -8.83632600e-02
3.92610431e-02 6.96003123e-03 -4.56692686e-03 6.96003123e-03 6.01182356e-02 -2.30394880e-03 -4.56692686e-03 -2.30394880e-03 -8.35246406e-02
3.87693420e-02 2.56334175e-03 -2.91760557e-03 2.56334175e-03 5.85737266e-02 1.44234946e-06 -2.91760557e-03 1.44234946e-06 -8.18411484e-02
3.56357098e-02 4.78872971e-06 3.13052721e-03 4.78872971e-06 6.12352397e-02 -3.53123085e-03 3.13052721e-03 -3.53123085e-03 -8.13702643e-02
3.77689516e-02 7.57847549e-04 4.42368130e-03 7.57847549e-04 6.26403103e-02 -5.05935872e-03 4.42368130e-03 -5.05935872e-03 -8.43665916e-02
3.84515328e-02 3.53918846e-03 7.29451176e-04 3.53918846e-03 5.78681421e-02 -5.63375902e-03 7.29451176e-04 -5.63375902e-03 -8.09746021e-02
3.74056688e-02 9.02343949e-04 1.12649892e-03 9.02343949e-04 5.71385585e-02 -2.24936608e-03 1.12649892e-03 -2.24936608e-03 -7.94747230e-02
4.11387719e-02 9.38732643e-04 2.78156949e-06 9.38732643e-04 7.21455216e-02 -1.81627058e-03 2.78156949e-06 -1.81627058e-03 -9.51549932e-02
4.17889543e-02 1.02201168e-02 -6.70684059e-03 1.02201168e-02 6.50361422e-02 -6.88873755e-04 -6.70684059e-03 -6.88873755e-04 -8.97641163e-02
4.28886544e-02 2.02538521e-03 5.27554576e-03 2.02538521e-03 6.44900268e-02 -4.36174623e-03 5.27554576e-03 -4.36174623e-03 -9.03035123e-02
4.16343305e-02 4.30238771e-03 -1.53783895e-03 4.30238771e-03 6.14763247e-02 -1.03962022e-02 -1.53783895e-03 -1.03962022e-02 -8.66930168e-02
4.64379471e-02 3.82968690e-03 -3.33623393e-06 3.82968690e-03 7.72556625e-02 4.90115816e-03 -3.33623393e-06 4.90115816e-03 -1.03943594e-01
4.68843570e-02 7.28303625e-03 -1.18408790e-02 7.28303625e-03 7.52937868e-02 -3.81071458e-03 -1.18408790e-02 -3.81071458e-03 -1.03694547e-01
4.95908409e-02 -4.59851441e-03 1.57141979e-03 -4.59851441e-03 6.64849523e-02 -3.48759475e-03 1.57141979e-03 -3.48759475e-03 -9.77039095e-02
4.67172652e-02 -3.31160999e-03 2.42303638e-03 -3.31160999e-03 6.68382091e-02 -6.30356814e-03 2.42303638e-03 -6.30356814e-03 -9.57348514e-02
5.25544435e-02 -1.01928744e-02 2.48966062e-05 -1.01928744e-02 8.21914673e-02 3.60490929e-03 2.48966062e-05 3.60490929e-03 -1.13283105e-01
4.84654792e-02 -8.10346194e-03 -1.75840310e-02 -8.10346194e-03 8.25225338e-02 2.55442114e-03 -1.75840310e-02 2.55442114e-03 -1.10920468e-01
5.57246432e-02 -1.14049788e-02 3.76559852e-03 -1.14049788e-02 6.93474021e-02 -3.25649774e-03 3.76559852e-03 -3.25649774e-03 -1.05304645e-01
5.40236067e-02 -1.22238450e-02 2.38107308e-03 -1.22238450e-02 6.65525408e-02 1.98155286e-03 2.38107308e-03 1.98155286e-03 -1.01956325e-01
5.63314278e-02 -1.31654469e-02 5.57908934e-05 -1.31654469e-02 8.88971202e-02 4.67819348e-03 5.57908934e-05 4.67819348e-03 -1.22089453e-01
5.17892344e-02 -1.97604453e-02 -2.16418658e-02 -1.97604453e-02 8.90569277e-02 9.55606136e-03 -2.16418658e-02 9.55606136e-03 -1.20008476e-01
5.73296621e-02 -9.62645886e-03 6.68241177e-03 -9.62645886e-03 7.40894247e-02 2.58793676e-03 6.68241177e-03 2.58793676e-03 -1.10614548e-01
5.84403807e-02 -1.56812603e-02 7.91160611e-03 -1.56812603e-02 6.97747539e-02 2.22406027e-03 7.91160611e-03 2.22406027e-03 -1.08536734e-01
5.27892970e-02 -3.48807871e-02 1.18033931e-05 -3.48807871e-02 1.03212498e-01 -3.51688359e-03 1.18033931e-05 -3.51688359e-03 -1.30789861e-01
4.78846096e-02 -2.88748280e-02 -2.31786110e-02 -2.88748280e-02 1.07101016e-01 2.54043005e-02 -2.31786110e-02 2.54043005e-02 -1.31562777e-01
5.12733627e-02 -8.63822410e-03 -3.75170656e-03 -8.63822410e-03 8.94251950e-02 -4.15096991e-04 -3.75170656e-03 -4.15096991e-04 -1.18235715e-01
5.46104386e-02 -1.54193484e-02 1.21621927e-03 -1.54193484e-02 8.16763043e-02 1.11060699e-02 1.21621927e-03 1.11060699e-02 -1.14816595e-01
4.26867036e-02 9.50228050e-03 -3.72901111e-03 9.50228050e-03 4.29046173e-02 -3.46765661e-03 -3.72901111e-03 -3.46765661e-03 -7.20156860e-02
4.24660463e-02 1.97854696e-03 -4.89768502e-03 1.97854696e-03 4.24448028e-02 6.60751539e-06 -4.89768502e-03 6.60751539e-06 -7.14740008e-02
3.93927456e-02 6.67323481e-03 4.64339890e-03 6.67323481e-03 4.59629521e-02 -6.78013690e-03 4.64339890e-03 -6.78013690e-03 -7.18176300e-02
3.86108719e-02 3.11861507e-03 7.54023273e-03 3.11861507e-03 4.46490664e-02 -1.01033604e-03 7.54023273e-03 -1.01033604e-03 -7.00886324e-02
4.09287047e-02 1.64950681e-02 -8.30131350e-03 1.64950681e-02 4.37813280e-02 -6.87216397e-03 -8.30131350e-03 -6.87216397e-03 -7.12033790e-02
4.02175644e-02 9.27691406e-03 8.95174127e-03 9.27691406e-03 4.84591485e-02 -2.80230397e-03 8.95174127e-03 -2.80230397e-03 -7.48254564e-02
2.81139707e-02 8.99456616e-03 -7.52562699e-03 8.99456616e-03 3.12998525e-02 -4.60492619e-03 -7.52562699e-03 -4.60492619e-03 -4.74895849e-02
3.62927775e-02 2.66318426e-05 3.06473827e-02 2.66318426e-05 4.69652031e-02 1.81502776e-03 3.06473827e-02 1.81502776e-03 -6.95628391e-02
2.63159439e-02 -1.15758879e-02 -2.15666206e-02 -1.15758879e-02 3.34769711e-02 1.13008622e-03 -2.15666206e-02 1.13008622e-03 -4.80085082e-02
3.20544986e-02 -1.82859437e-02 3.20441681e-02 -1.82859437e-02 4.49785041e-02 8.44675774e-03 3.20441681e-02 8.44675774e-03 -6.18016890e-02
2.13422899e-02 -1.45854091e-02 -1.76679770e-02 -1.45854091e-02 1.56048948e-02 9.30097399e-03 -1.76679770e-02 9.30097399e-03 -2.49071014e-02
3.16207888e-02 -2.21328751e-02 3.86543497e-02 -2.21328751e-02 3.78209815e-02 2.39054312e-02 3.86543497e-02 2.39054312e-02 -5.38820220e-02
2.32993050e-02 -1.97480358e-02 -1.60467098e-02 -1.97480358e-02 1.44521461e-02 1.46571901e-02 -1.60467098e-02 1.46571901e-02 -2.49457553e-02
3.44797404e-02 -3.09223694e-02 3.34933052e-02 -3.09223694e-02 4.79254698e-02 3.12841774e-02 3.34933052e-02 3.12841774e-02 -6.53682649e-02
4.48851315e-02 4.91973758e-03 1.01965957e-03 4.91973758e-03 2.47718943e-02 -4.52938990e-03 1.01965957e-03 -4.52938990e-03 -5.84784998e-02
4.38464247e-02 2.74199620e-03 2.14370585e-03 2.74199620e-03 2.63910517e-02 -4.03207252e-06 2.14370585e-03 -4.03207252e-06 -5.90360835e-02
4.13447521e-02 3.26366254e-03 9.66630841e-03 3.26366254e-03 2.83325294e-02 -2.82704778e-03 9.66630841e-03 -2.82704778e-03 -5.85533231e-02
3.90389729e-02 1.59792352e-03 1.05935296e-02 1.59792352e-03 3.00993524e-02 -7.20560653e-04 1.05935296e-02 -7.20560653e-04 -5.81494244e-02
3.40115200e-02 7.24574437e-03 9.36186887e-04 7.24574437e-03 1.73013106e-02 -8.62172176e-03 9.36186887e-04 -8.62172176e-03 -4.28196136e-02
3.45700536e-02 4.67631109e-03 1.57919489e-02 4.67631109e-03 1.84580523e-02 4.49795340e-03 1.57919489e-02 4.49795340e-03 -4.36678694e-02
6.00778521e-03 4.48806866e-04 -4.20726778e-03 4.48806866e-04 -1.40054824e-03 -3.58754501e-03 -4.20726778e-03 -3.58754501e-03 4.65470599e-04
3.77737145e-03 7.39788249e-04 3.88571504e-03 7.39788249e-04 1.13179100e-03 1.93742042e-03 3.88571504e-03 1.93742042e-03 1.11893867e-03
-2.14797181e-03 6.61674809e-04 -9.39921072e-03 6.61674809e-04 -4.89534158e-03 -3.34217011e-03 -9.39921072e-03 -3.34217011e-03 1.20253926e-02
-4.33712577e-04 -2.69500623e-02 2.37992965e-02 -2.69500623e-02 8.47417496e-03 5.49078706e-03 2.37992965e-02 5.49078706e-03 -3.47199492e-03
-4.64720263e-03 6.89568091e-03 -7.40479158e-03 6.89568091e-03 -2.22608044e-03 -2.28736344e-03 -7.40479158e-03 -2.28736344e-03 1.15807663e-02
-1.18666538e-03 -9.04558164e-03 1.02754657e-02 -9.04558164e-03 1.89123582e-03 -2.10143331e-03 1.02754657e-02 -2.10143331e-03 4.00092371e-03
2.39571696e-03 7.47046433e-03 -8.82855337e-03 7.47046433e-03 -1.33203086e-02 1.64355175e-03 -8.82855337e-03 1.64355175e-03 1.51026775e-02
4.71534859e-03 -1.05284555e-02 3.06563801e-02 -1.05284555e-02 1.44584104e-03 -4.39616456e-03 3.06563801e-02 -4.39616456e-03 -2.83186510e-03
4.40090448e-02 -3.26283692e-03 2.21924001e-03 -3.26283692e-03 1.67466784e-02 -5.85423550e-03 2.21924001e-03 -5.85423550e-03 -5.08223772e-02
4.47882786e-02 -3.45476635e-03 3.08210228e-03 -3.45476635e-03 2.03903364e-02 7.93541290e-06 3.08210228e-03 7.93541290e-06 -5.46270888e-02
3.90097313e-02 -5.49667870e-03 1.12944170e-02 -5.49667870e-03 1.87550862e-02 -1.50099542e-04 1.12944170e-02 -1.50099542e-04 -4.83690188e-02
4.06021988e-02 -4.33486793e-03 3.68414505e-03 -4.33486793e-03 2.15456826e-02 2.07320746e-03 3.68414505e-03 2.07320746e-03 -5.21662878e-02
3.30623174e-02 -5.39711025e-03 -2.99139996e-03 -5.39711025e-03 9.27631173e-03 -9.21593374e-03 -2.99139996e-03 -9.21593374e-03 -3.55577772e-02
3.14493687e-02 -9.22405260e-03 4.73154541e-03 -9.22405260e-03 1.00166345e-02 9.09283351e-03 4.73154541e-03 9.09283351e-03 -3.45807166e-02
4.87146114e-03 -3.53037588e-03 -1.45762382e-03 -3.53037588e-03 6.61108876e-04 -7.16431253e-03 -1.45762382e-03 -7.16431253e-03 -3.33647529e-03
1.30396476e-02 -4.72657562e-03 -3.28740722e-03 -4.72657562e-03 2.66305404e-04 6.77499875e-03 -3.28740722e-03 6.77499875e-03 -1.02157972e-02
-9.88249215e-04 -1.75341373e-03 -3.89184762e-05 -1.75341373e-03 2.99884936e-04 -2.86084360e-04 -3.89184762e-05 -2.86084360e-04 7.06809539e-04
1.04945545e-03 1.49274216e-03 -1.49405898e-03 1.49274216e-03 1.14818329e-03 3.99121482e-03 -1.49405898e-03 3.99121482e-03 -1.71997647e-03
5.09967934e-03 -1.29441516e-02 2.18077330e-04 -1.29441516e-02 -8.03893432e-03 3.50679220e-05 2.18077330e-04 3.50679220e-05 4.73355222e-03
-6.83441310e-04 -8.16979988e-03 -5.06114585e-04 -8.16979988e-03 1.64598877e-03 4.26246669e-05 -5.06114585e-04 4.26246669e-05 -5.05203234e-04
4.42091282e-03 -1.56392325e-02 -2.13079317e-03 -1.56392325e-02 -7.01768184e-03 -4.31462795e-05 -2.13079317e-03 -4.31462795e-05 4.09441721e-03
-2.17356360e-03 -8.41484582e-03 -4.01328356e-03 -8.41484582e-03 5.29607177e-03 -3.43749831e-05 -4.01328356e-03 -3.43749831e-05 -2.32118868e-03
4.23088325e-02 -8.97825090e-03 5.93550212e-03 -8.97825090e-03 2.18898086e-02 -2.80864188e-03 5.93550212e-03 -2.80864188e-03 -5.38274143e-02
4.57399730e-02 -7.98245938e-03 1.13621633e-03 -7.98245938e-03 2.39160322e-02 3.60925696e-06 1.13621633e-03 3.60925696e-06 -5.84569629e-02
3.76567384e-02 -7.87785131e-03 7.92377017e-04 -7.87785131e-03 2.26848302e-02 4.81908492e-03 7.92377017e-04 4.81908492e-03 -5.06635904e-02
4.16055145e-02 -3.16758244e-03 -2.12374050e-03 -3.16758244e-03 2.38324311e-02 6.58840896e-03 -2.12374050e-03 6.58840896e-03 -5.49329137e-02
3.23339957e-02 -9.61353316e-03 2.95700156e-03 -9.61353316e-03 1.50457744e-02 -1.29484548e-02 2.95700156e-03 -1.29484548e-02 -4.01210962e-02
2.45361492e-02 -1.33068676e-02 -1.81589775e-03 -1.33068676e-02 1.78646161e-02 5.98853128e-03 -1.81589775e-03 5.98853128e-03 -3.41414922e-02
3.52675893e-03 -1.47136074e-03 1.66091183e-03 -1.47136074e-03 1.03757196e-03 -4.82965336e-03 1.66091183e-03 -4.82965336e-03 -1.66826812e-03
1.93748809e-02 -6.96398135e-03 -2.80662766e-03 -6.96398135e-03 1.31365358e-02 2.12545530e-02 -2.80662766e-03 2.12545530e-02 -2.74893222e-02
6.19872890e-04 1.34011062e-03 2.54117160e-05 1.34011062e-03 -2.30153428e-04 -1.14680365e-04 2.54117160e-05 -1.14680365e-04 -3.79502494e-04
2.49771544e-03 -2.07984324e-04 1.63001185e-04 -2.07984324e-04 -1.00422663e-03 4.44218909e-03 1.63001185e-04 4.44218909e-03 -1.08883167e-03
3.99362652e-05 -2.32053745e-05 -3.62022095e-06 -2.32053745e-05 -2.57025562e-05 1.13903912e-05 -3.62022095e-06 1.13903912e-05 -2.35846769e-05
-6.53456482e-07 -4.14737165e-06 -3.94062829e-06 -4.14737165e-06 -2.28063616e-06 1.54632170e-05 -3.94062829e-06 1.54632170e-05 1.93292287e-06
0.00000000e+00 0.00000000e+00 0.00000000e+00 0.00000000e+00 0.00000000e+00 0.00000000e+00 0.00000000e+00 0.00000000e+00 0.00000000e+00
0.00000000e+00 0.00000000e+00 0.00000000e+00 0.00000000e+00 0.00000000e+00 0.00000000e+00 0.00000000e+00 0.00000000e+00 0.00000000e+00
4.66953218e-02 -8.21528782e-03 3.58722915e-04 -8.21528782e-03 2.90525341e-02 -5.09712775e-03 3.58722915e-04 -5.09712775e-03 -6.36288803e-02
5.28626256e-02 -3.62340710e-03 5.46779949e-03 -3.62340710e-03 2.72152852e-02 1.61985517e-05 5.46779949e-03 1.61985517e-05 -6.72057346e-02
4.30030338e-02 -5.72746119e-03 -8.47017160e-04 -5.72746119e-03 2.84314123e-02 -3.99417357e-03 -8.47017160e-04 -3.99417357e-03 -6.00443883e-02
4.68067341e-02 -8.64042481e-03 -2.89595808e-03 -8.64042481e-03 3.06637054e-02 6.04744069e-03 -2.89595808e-03 6.04744069e-03 -6.51288629e-02
3.43499975e-02 -1.46261491e-02 1.52236405e-02 -1.46261491e-02 2.53583491e-02 -1.73069518e-02 1.52236405e-02 -1.73069518e-02 -4.97650746e-02
3.30719883e-02 -1.39118964e-02 6.84639020e-03 -1.39118964e-02 3.69581385e-02 4.08034399e-03 6.84639020e-03 4.08034399e-03 -5.95333520e-02
1.09171239e-02 -8.50398373e-03 1.33113847e-02 -8.50398373e-03 1.36476555e-02 -5.20946714e-03 1.33113847e-02 -5.20946714e-03 -2.10353145e-02
2.29859722e-02 -1.56472391e-02 9.08280117e-03 -1.56472391e-02 2.48178427e-02 3.01668526e-02 9.08280117e-03 3.01668526e-02 -3.94290524e-02
-1.35354552e-03 -2.19606028e-03 4.46164922e-05 -2.19606028e-03 7.27824168e-04 -4.65271602e-04 4.46164922e-05 -4.65271602e-04 5.91466232e-04
6.02623739e-04 -8.92786420e-03 1.73468856e-04 -8.92786420e-03 3.20001614e-04 1.09090284e-02 1.73468856e-04 1.09090284e-02 3.53837109e-04
-1.24533850e-04 -1.18704185e-04 2.16769986e-05 -1.18704185e-04 5.74374681e-05 2.26319680e-05 2.16769986e-05 2.26319680e-05 9.08637739e-05
2.69628630e-05 -2.31450880e-05 -7.33936698e-06 -2.31450880e-05 -1.43489730e-05 2.80484225e-06 -7.33936698e-06 2.80484225e-06 -1.70170400e-05
0.00000000e+00 0.00000000e+00 0.00000000e+00 0.00000000e+00 0.00000000e+00 0.00000000e+00 0.00000000e+00 0.00000000e+00 0.00000000e+00
0.00000000e+00 0.00000000e+00 0.00000000e+00 0.00000000e+00 0.00000000e+00 0.00000000e+00 0.00000000e+00 0.00000000e+00 0.00000000e+00
3.78209967e-02 5.04570744e-06 1.51224993e-03 5.04570744e-06 5.43606505e-02 -7.18865497e-03 1.51224993e-03 -7.18865497e-03 -7.75440931e-02
4.06332752e-02 -7.03633792e-04 7.40057742e-03 -7.03633792e-04 5.22473464e-02 -4.65964967e-03 7.40057742e-03 -4.65964967e-03 -7.81666599e-02
3.76817961e-02 -6.20940958e-03 4.60202410e-03 -6.20940958e-03 5.26550924e-02 -2.65617282e-03 4.60202410e-03 -2.65617282e-03 -7.59618031e-02
3.58029297e-02 -7.77367793e-04 3.41688353e-03 -7.77367793e-04 5.41176461e-02 -1.28536497e-03 3.41688353e-03 -1.28536497e-03 -7.55893253e-02
4.67584422e-02 -8.35948088e-03 4.10223100e-03 -8.35948088e-03 4.83522927e-02 -1.00808240e-03 4.10223100e-03 -1.00808240e-03 -8.01127851e-02
4.48579253e-02 -8.90413430e-03 1.15738247e-03 -8.90413430e-03 5.05206399e-02 -1.09269297e-02 1.15738247e-03 -1.09269297e-02 -8.01816471e-02
5.33678951e-02 1.08261218e-04 -2.11262155e-04 1.08261218e-04 4.74733794e-02 -6.84035016e-03 -2.11262155e-04 -6.84035016e-03 -8.49202648e-02
4.90126635e-02 -5.81781822e-03 1.33356790e-03 -5.81781822e-03 4.80532588e-02 -4.04516963e-04 1.33356790e-03 -4.04516963e-04 -8.05409709e-02
5.93805201e-02 -4.57330048e-03 1.28017641e-02 -4.57330048e-03 4.65586232e-02 -6.50902130e-03 1.28017641e-02 -6.50902130e-03 -8.91429577e-02
5.58171556e-02 -5.68049256e-03 3.06228345e-03 -5.68049256e-03 5.86487236e-02 7.92018988e-03 3.06228345e-03 7.92018988e-03 -9.66589935e-02
5.68337291e-02 -5.88919676e-03 1.48172984e-02 -5.88919676e-03 5.11276638e-02 9.51443391e-04 1.48172984e-02 9.51443391e-04 -9.08303540e-02
5.87822986e-02 -2.57674464e-03 1.24689705e-02 -2.57674464e-03 5.73460502e-02 4.51566317e-03 1.24689705e-02 4.51566317e-03 -9.77246547e-02
5.16871791e-02 1.03882356e-02 1.01463539e-02 1.03882356e-02 5.77890296e-02 4.90228494e-03 1.01463539e-02 4.90228494e-03 -9.21409167e-02
5.82173076e-02 2.06444855e-03 -8.64770904e-04 2.06444855e-03 5.84030701e-02 4.19960497e-03 -8.64770904e-04 4.19960497e-03 -9.80956238e-02
3.59730367e-02 -7.75574328e-03 8.87025744e-03 -7.75574328e-03 4.96715792e-02 -9.48732736e-03 8.87025744e-03 -9.48732736e-03 -7.21311178e-02
3.20869917e-02 -5.41495089e-03 1.82631575e-02 -5.41495089e-03 5.05165346e-02 -5.48863620e-03 1.82631575e-02 -5.48863620e-03 -6.92856051e-02
4.20762455e-02 -5.08014913e-03 1.77722899e-02 -5.08014913e-03 5.29246181e-02 -4.10542165e-03 1.77722899e-02 -4.10542165e-03 -7.98661198e-02
5.75466402e-02 -1.42518827e-02 4.55334790e-02 -1.42518827e-02 5.99639356e-02 -2.63713516e-03 4.55334790e-02 -2.63713516e-03 -9.82011572e-02
5.97277982e-02 -1.45380967e-03 1.33827361e-02 -1.45380967e-03 7.17447363e-02 1.56581743e-02 1.33827361e-02 1.56581743e-02 -1.10460458e-01
5.95539920e-02 -2.16577589e-03 2.56786896e-02 -2.16577589e-03 7.34393895e-02 3.15254306e-02 2.56786896e-02 3.15254306e-02 -1.11613048e-01
5.75956274e-02 -9.90113476e-03 1.17838336e-02 -9.90113476e-03 7.72630870e-02 2.74161496e-02 1.17838336e-02 2.74161496e-02 -1.13199245e-01
2.84787340e-02 -1.35986312e-03 2.47231037e-02 -1.35986312e-03 4.00897495e-02 -1.59166626e-03 2.47231037e-02 -1.59166626e-03 -5.72116766e-02
2.93396758e-02 -2.17811303e-03 1.71561411e-02 -2.17811303e-03 3.93895591e-02 -5.07860270e-03 1.71561411e-02 -5.07860270e-03 -5.77085530e-02
3.04718778e-02 -9.08218805e-03 3.44288861e-02 -9.08218805e-03 4.65405729e-02 3.88373799e-02 3.44288861e-02 3.88373799e-02 -6.40920612e-02
-1.24846636e-02 -3.67573751e-02 3.56189497e-02 -3.67573751e-02 7.20537629e-03 4.73197103e-02 3.56189497e-02 4.73197103e-02 1.25672640e-02
2.81332862e-02 -2.64895090e-04 1.32020804e-02 -2.64895090e-04 2.30617239e-02 9.04508930e-03 1.32020804e-02 9.04508930e-03 -4.16957272e-02
2.93855690e-02 4.47329902e-03 1.15433241e-02 4.47329902e-03 2.86588771e-02 8.47627828e-03 1.15433241e-02 8.47627828e-03 -4.88121575e-02
2.37266425e-02 -1.84145640e-02 1.89596118e-02 -1.84145640e-02 1.69649399e-02 1.69715970e-02 1.89596118e-02 1.69715970e-02 -3.25012183e-02
6.73355690e-03 -6.11572654e-03 -2.79991521e-02 -6.11572654e-03 1.12920698e-02 -9.47968413e-04 -2.79991521e-02 -9.47968413e-04 -1.07601980e-02
3.17167505e-02 -7.03384095e-03 2.41863431e-03 -7.03384095e-03 2.74815590e-02 6.81084149e-03 2.41863431e-03 6.81084149e-03 -4.96651819e-02
3.45247108e-02 -5.95828635e-03 3.10736126e-04 -5.95828635e-03 2.60790656e-02 6.66102569e-03 3.10736126e-04 6.66102569e-03 -5.09684179e-02
2.74488750e-02 -1.24748055e-02 8.47859890e-04 -1.24748055e-02 2.91626280e-02 1.36962383e-02 8.47859890e-04 1.36962383e-02 -4.54772515e-02
4.67157708e-02 4.15553921e-04 -1.83744878e-02 4.15553921e-04 5.04364520e-02 2.48495229e-02 -1.83744878e-02 2.48495229e-02 -8.39477386e-02
3.26266238e-02 -1.15322125e-03 -2.81326877e-03 -1.15322125e-03 3.78594985e-02 -2.14186730e-04 -2.81326877e-03 -2.14186730e-04 -5.93745103e-02
3.61851119e-02 1.60600716e-03 -2.94496166e-03 1.60600716e-03 3.35595608e-02 4.06856462e-03 -2.94496166e-03 4.06856462e-03 -5.87149877e-02
3.36077856e-02 -9.07102367e-05 2.70442443e-03 -9.07102367e-05 4.49597053e-02 -4.06874926e-03 2.70442443e-03 -4.06874926e-03 -6.51597194e-02
5.96308801e-02 -2.31673570e-04 -1.37060094e-02 -2.31673570e-04 6.50885832e-02 2.14239815e-02 -1.37060094e-02 2.14239815e-02 -1.05680216e-01
0.00000000e+00 0.00000000e+00 0.00000000e+00 0.00000000e+00 0.00000000e+00 0.00000000e+00 0.00000000e+00 0.00000000e+00 0.00000000e+00
0.00000000e+00 0.00000000e+00 0.00000000e+00 0.00000000e+00 0.00000000e+00 0.00000000e+00 0.00000000e+00 0.00000000e+00 0.00000000e+00
0.00000000e+00 0.00000000e+00 0.00000000e+00 0.00000000e+00 0.00000000e+00 0.00000000e+00 0.00000000e+00 0.00000000e+00 0.00000000e+00
0.00000000e+00 0.00000000e+00 0.00000000e+00 0.00000000e+00 0.00000000e+00 0.00000000e+00 0.00000000e+00 0.00000000e+00 0.00000000e+00
4.57659941e-02 8.18734952e-06 9.52627650e-03 8.18734952e-06 4.79825288e-02 -2.12876475e-03 9.52627650e-03 -2.12876475e-03 -7.89383650e-02
4.69689621e-02 2.16405181e-03 6.33018941e-03 2.16405181e-03 4.62622875e-02 2.60121461e-03 6.33018941e-03 2.60121461e-03 -7.84983188e-02
4.53569521e-02 -8.46728947e-03 1.12256634e-02 -8.46728947e-03 4.70084185e-02 3.56391263e-03 1.12256634e-02 3.56391263e-03 -7.77054643e-02
4.39387336e-02 1.65451577e-03 9.91624285e-03 1.65451577e-03 4.90568448e-02 -5.27377590e-03 9.91624285e-03 -5.27377590e-03 -7.82853961e-02
5.05509563e-02 -1.01668600e-02 9.30624222e-03 -1.01668600e-02 4.08474607e-02 6.48291832e-04 9.30624222e-03 6.48291832e-04 -7.69020170e-02
4.94583366e-02 -1.14047590e-02 1.09833770e-02 -1.14047590e-02 4.53891614e-02 4.67631035e-03 1.09833770e-02 4.67631035e-03 -7.97377629e-02
5.39583927e-02 8.87060538e-04 3.60383152e-03 8.87060538e-04 3.79180638e-02 5.61962328e-03 3.60383152e-03 5.61962328e-03 -7.72817992e-02
5.12573400e-02 -5.19111499e-03 -4.56671679e-03 -5.19111499e-03 4.13469321e-02 -4.22826853e-03 -4.56671679e-03 -4.22826853e-03 -7.69093898e-02
5.61422082e-02 2.50002666e-03 -4.88183962e-03 2.50002666e-03 3.59663544e-02 -5.02118375e-04 -4.88183962e-03 -5.02118375e-04 -7.74424113e-02
5.55072175e-02 1.50990413e-03 -7.68408438e-03 1.50990413e-03 5.12511861e-02 1.34427682e-06 -7.68408438e-03 1.34427682e-06 -9.01010903e-02
5.36619592e-02 7.99890200e-04 2.68272625e-03 7.99890200e-04 3.72259403e-02 -3.45148338e-03 2.68272625e-03 -3.45148338e-03 -7.64666200e-02
5.46645690e-02 7.03877304e-05 3.72141687e-04 7.03877304e-05 4.94464138e-02 2.81510722e-03 3.72141687e-04 2.81510722e-03 -8.76570474e-02
5.15363887e-02 9.05084744e-06 2.52231734e-03 9.05084744e-06 3.74178383e-02 -3.28245154e-03 2.52231734e-03 -3.28245154e-03 -7.48083405e-02
5.06479759e-02 -3.52400381e-03 -2.26364794e-03 -3.52400381e-03 4.95578814e-02 -2.71496912e-03 -2.26364794e-03 -2.71496912e-03 -8.43462273e-02
4.11531837e-02 -1.44282484e-02 2.83385817e-02 -1.44282484e-02 5.12823095e-02 1.23080748e-03 2.83385817e-02 1.23080748e-03 -7.72549082e-02
3.48978564e-02 -1.21489160e-02 2.09788682e-02 -1.21489160e-02 5.49658732e-02 -3.19114863e-03 2.09788682e-02 -3.19114863e-03 -7.54034370e-02
5.35896894e-02 -1.16335293e-03 2.08177326e-02 -1.16335293e-03 4.93389671e-02 -3.80978128e-03 2.08177326e-02 -3.80978128e-03 -8.72314817e-02
6.42417565e-02 -1.40440440e-02 -5.67343786e-02 -1.40440440e-02 5.89859363e-02 -7.78650492e-04 -5.67343786e-02 -7.78650492e-04 -1.02278915e-01
6.14303397e-02 -1.71628990e-03 -1.67938585e-02 -1.71628990e-03 7.00720120e-02 1.15160269e-02 -1.67938585e-02 1.15160269e-02 -1.10534884e-01
6.06639255e-02 -4.31400890e-03 -1.73475686e-03 -4.31400890e-03 6.72588907e-02 1.03336837e-02 -1.73475686e-03 1.03336837e-02 -1.07707361e-01
5.43457307e-02 -2.72480177e-03 -4.04750044e-03 -2.72480177e-03 6.92437999e-02 3.54392419e-03 -4.04750044e-03 3.54392419e-03 -1.04016431e-01
3.63030505e-02 -8.71856609e-03 3.89163829e-02 -8.71856609e-03 5.13632944e-02 1.94971746e-03 3.89163829e-02 1.94971746e-03 -7.33596667e-02
3.02522667e-02 2.88746151e-03 2.99630552e-02 2.88746151e-03 4.94707702e-02 4.01554233e-03 2.99630552e-02 4.01554233e-03 -6.65962026e-02
4.70656005e-02 -2.50901645e-02 5.33240638e-02 -2.50901645e-02 6.31181998e-02 -5.87792599e-02 5.33240638e-02 -5.87792599e-02 -8.97710510e-02
2.82109348e-02 -2.91585101e-03 1.30066849e-02 -2.91585101e-03 3.64188294e-02 2.27540936e-02 1.30066849e-02 2.27540936e-02 -5.33695178e-02
3.03706150e-02 -7.15317414e-03 2.59052167e-02 -7.15317414e-03 4.17892458e-02 6.69019797e-03 2.59052167e-02 6.69019797e-03 -6.07158793e-02
3.26289758e-02 5.66030295e-03 1.51317297e-02 5.66030295e-03 4.60360991e-02 7.24705094e-02 1.51317297e-02 7.24705094e-02 -6.38874313e-02
1.78167903e-02 1.31438713e-03 1.34206561e-02 1.31438713e-03 2.28622662e-02 5.36472959e-04 1.34206561e-02 5.36472959e-04 -2.87219347e-02
3.42099871e-02 6.24080247e-03 -2.43645441e-03 6.24080247e-03 4.36679227e-02 4.78523190e-03 -2.43645441e-03 4.78523190e-03 -6.65433621e-02
2.35547834e-02 -7.76909002e-03 -6.24700927e-03 -7.76909002e-03 3.54730492e-02 2.05085268e-02 -6.24700927e-03 2.05085268e-02 -4.52383361e-02
-9.14275926e-03 6.94663525e-02 -8.15148801e-02 6.94663525e-02 -2.10001096e-02 1.39146715e-01 -8.15148801e-02 1.39146715e-01 3.96652855e-02
6.93033723e-02 2.57660414e-02 -9.45508592e-02 2.57660414e-02 6.96771617e-02 -1.90811449e-02 -9.45508592e-02 -1.90811449e-02 -1.18884136e-01
4.45976174e-02 1.65423930e-02 6.43287250e-03 1.65423930e-02 5.47825238e-02 1.88433647e-02 6.43287250e-03 1.88433647e-02 -8.63463916e-02
3.15227509e-02 -3.40657623e-03 7.65528460e-03 -3.40657623e-03 4.40051127e-02 1.06368437e-02 7.65528460e-03 1.06368437e-02 -6.29139710e-02
</DataArray>
<DataArray type="Float32" Name="Spatial_displacement" NumberOfComponents="3" format="ascii">
0.00000000e+00 0.00000000e+00 0.00000000e+00
3.71567309e-02 0.00000000e+00 0.00000000e+00
3.98589447e-02 6.94581047e-02 0.00000000e+00
0.00000000e+00 6.67328089e-02 0.00000000e+00
0.00000000e+00 0.00000000e+00 -8.18902254e-02
3.66403088e-02 0.00000000e+00 -8.51617157e-02
3.74253243e-02 6.45691678e-02 -8.10714811e-02
0.00000000e+00 6.36100769e-02 -7.90040642e-02
7.85610378e-02 0.00000000e+00 0.00000000e+00
7.95487165e-02 7.49735087e-02 0.00000000e+00
7.66407400e-02 0.00000000e+00 -9.15514082e-02
7.87627324e-02 6.77586198e-02 -8.67059380e-02
1.21192582e-01 0.00000000e+00 0.00000000e+00
1.25256792e-01 8.28858465e-02 0.00000000e+00
1.26370832e-01 0.00000000e+00 -9.75871831e-02
1.21502109e-01 7.07787573e-02 -9.61878300e-02
1.78373858e-01 0.00000000e+00 0.00000000e+00
1.67532712e-01 8.88817012e-02 0.00000000e+00
1.82210341e-01 0.00000000e+00 -1.05581209e-01
1.70078337e-01 7.14745596e-02 -1.02179728e-01
2.35016540e-01 0.00000000e+00 0.00000000e+00
2.21024096e-01 9.54503343e-02 0.00000000e+00
2.40107328e-01 0.00000000e+00 -1.14060596e-01
2.29904383e-01 7.43653104e-02 -1.08124554e-01
2.98559546e-01 0.00000000e+00 0.00000000e+00
2.61179209e-01 1.19483687e-01 0.00000000e+00
2.94996142e-01 0.00000000e+00 -1.16081990e-01
2.85792083e-01 9.60709155e-02 -1.19595662e-01
4.35970649e-02 1.23554997e-01 0.00000000e+00
0.00000000e+00 1.21481381e-01 0.00000000e+00
3.99359018e-02 1.19610384e-01 -7.04095364e-02
0.00000000e+00 1.16330579e-01 -6.94816858e-02
8.68584067e-02 1.34667322e-01 0.00000000e+00
7.94986486e-02 1.25816852e-01 -7.12445974e-02
1.21835522e-01 1.44200847e-01 0.00000000e+00
1.16205938e-01 1.33221507e-01 -6.34074807e-02
1.51187062e-01 1.62726045e-01 0.00000000e+00
1.53982937e-01 1.33571580e-01 -6.62712008e-02
1.70790836e-01 1.65061370e-01 0.00000000e+00
1.85096771e-01 1.38462156e-01 -6.22242242e-02
1.99251682e-01 1.97966248e-01 0.00000000e+00
2.23336130e-01 1.69733092e-01 -6.22937679e-02
4.65770140e-02 1.56717464e-01 0.00000000e+00
0.00000000e+00 1.53882772e-01 0.00000000e+00
4.17935103e-02 1.57765001e-01 -5.70580363e-02
0.00000000e+00 1.56105816e-01 -5.63663393e-02
9.30847600e-02 1.59135401e-01 0.00000000e+00
8.43435302e-02 1.60339713e-01 -4.42790836e-02
1.18496612e-01 1.67434707e-01 0.00000000e+00
1.13050446e-01 1.64778084e-01 -1.36908442e-02
1.24111764e-01 1.74224332e-01 0.00000000e+00
1.16950698e-01 1.64023757e-01 5.06976247e-03
1.38017401e-01 1.67934388e-01 0.00000000e+00
1.39375031e-01 1.51455730e-01 1.27188861e-02
1.40487880e-01 2.04136446e-01 0.00000000e+00
1.45947099e-01 2.00614244e-01 4.10252810e-03
4.85888943e-02 1.74604252e-01 0.00000000e+00
0.00000000e+00 1.78176701e-01 0.00000000e+00
4.23958525e-02 1.76874757e-01 -4.94755656e-02
0.00000000e+00 1.81348279e-01 -5.14323860e-02
9.19111371e-02 1.71575844e-01 0.00000000e+00
8.23175758e-02 1.68538287e-01 -3.43692899e-02
1.13648221e-01 1.67578116e-01 0.00000000e+00
1.06131345e-01 1.66146263e-01 -6.73733652e-03
1.10926010e-01 1.72903806e-01 0.00000000e+00
1.10529728e-01 1.72890723e-01 1.84774399e-06
1.10832185e-01 1.77887201e-01 0.00000000e+00
1.10879026e-01 1.75207496e-01 0.00000000e+00
1.10948190e-01 1.77904457e-01 -2.73734331e-04
1.10958710e-01 1.75158948e-01 1.33365393e-05
4.64740098e-02 1.91858828e-01 0.00000000e+00
0.00000000e+00 2.00102061e-01 0.00000000e+00
4.34912741e-02 1.98009044e-01 -5.16065210e-02
0.00000000e+00 2.01290175e-01 -5.78908324e-02
8.98943394e-02 1.77831322e-01 0.00000000e+00
7.66077191e-02 1.80617690e-01 -3.92434001e-02
1.06176555e-01 1.68658331e-01 0.00000000e+00
1.00512877e-01 1.71549499e-01 -9.28811729e-03
1.08551592e-01 1.72990620e-01 0.00000000e+00
1.08343869e-01 1.73008487e-01 2.54347920e-04
1.08416066e-01 1.75310820e-01 0.00000000e+00
1.08513758e-01 1.75287262e-01 2.68369913e-05
1.08534917e-01 1.77638948e-01 0.00000000e+00
1.08553357e-01 1.77573234e-01 7.80820847e-06
5.23862913e-02 2.21736580e-01 0.00000000e+00
0.00000000e+00 2.25492626e-01 0.00000000e+00
4.69715446e-02 2.22204328e-01 -6.23306930e-02
0.00000000e+00 2.31188640e-01 -6.80450201e-02
9.71872061e-02 1.96712047e-01 0.00000000e+00
7.89570361e-02 2.12689519e-01 -5.65247238e-02
1.09770268e-01 1.76922441e-01 0.00000000e+00
1.04489014e-01 1.90555692e-01 -2.38952786e-02
1.07259199e-01 1.73604801e-01 0.00000000e+00
1.06603339e-01 1.73591435e-01 5.35577536e-04
1.06261395e-01 1.75162375e-01 0.00000000e+00
1.06375583e-01 1.75251037e-01 -3.29017639e-05
1.06223650e-01 1.77593082e-01 0.00000000e+00
1.06252395e-01 1.77562684e-01 -4.66406345e-06
0.00000000e+00 0.00000000e+00 -1.56862035e-01
3.74948457e-02 0.00000000e+00 -1.63536847e-01
3.67479548e-02 5.40359542e-02 -1.56655729e-01
0.00000000e+00 5.48563637e-02 -1.55471280e-01
8.36211294e-02 0.00000000e+00 -1.72385603e-01
7.48413429e-02 4.80619073e-02 -1.68568134e-01
1.30096450e-01 0.00000000e+00 -1.84376985e-01
1.30209178e-01 4.74353656e-02 -1.84582338e-01
1.90884143e-01 0.00000000e+00 -2.02286720e-01
1.85972571e-01 4.80820388e-02 -1.90539271e-01
2.53251314e-01 0.00000000e+00 -2.15102509e-01
2.47003227e-01 5.00859767e-02 -2.01589152e-01
3.02927077e-01 0.00000000e+00 -2.21379995e-01
3.13859642e-01 5.62036447e-02 -2.12138563e-01
3.13271284e-02 1.06219657e-01 -1.40879601e-01
0.00000000e+00 1.11979030e-01 -1.35718778e-01
7.15399012e-02 1.05224416e-01 -1.46774054e-01
1.16889685e-01 1.09568112e-01 -1.50813073e-01
1.77051947e-01 1.22875787e-01 -1.68337837e-01
2.40187064e-01 1.24988772e-01 -1.63450718e-01
2.96000719e-01 1.33799195e-01 -1.75644577e-01
2.72334218e-02 1.53826639e-01 -1.15355298e-01
0.00000000e+00 1.56147495e-01 -1.10541105e-01
6.04068562e-02 1.55104488e-01 -1.01891987e-01
5.45293763e-02 1.36198372e-01 8.46947730e-03
2.95716077e-02 1.92093119e-01 -9.31404680e-02
0.00000000e+00 1.87403917e-01 -1.01255678e-01
6.45600930e-02 1.76307574e-01 -6.69451356e-02
8.32390785e-02 1.49350092e-01 -2.91843414e-02
3.61809805e-02 2.07581624e-01 -1.00187041e-01
0.00000000e+00 2.13751316e-01 -1.06548645e-01
6.07400127e-02 1.97864860e-01 -8.06936920e-02
1.04201689e-01 1.83151141e-01 -6.32242709e-02
3.12895551e-02 2.43590370e-01 -1.26719385e-01
0.00000000e+00 2.41962940e-01 -1.30604222e-01
6.17391020e-02 2.49611735e-01 -1.17781162e-01
1.13097511e-01 2.39667445e-01 -1.15638413e-01
1.08552776e-01 1.75334334e-01 3.32295895e-05
1.08551897e-01 1.77586913e-01 3.06069851e-05
1.06297046e-01 1.77593976e-01 -1.61826611e-05
1.06270969e-01 1.75345868e-01 -3.34084034e-05
0.00000000e+00 0.00000000e+00 -2.34314650e-01
4.43630144e-02 0.00000000e+00 -2.36278132e-01
4.66630533e-02 4.84528542e-02 -2.30407357e-01
0.00000000e+00 4.67250869e-02 -2.25514829e-01
9.82683524e-02 0.00000000e+00 -2.49366775e-01
8.75445157e-02 4.09707427e-02 -2.40746126e-01
1.46280587e-01 0.00000000e+00 -2.63808519e-01
1.47227198e-01 3.63268182e-02 -2.60463953e-01
2.04081059e-01 0.00000000e+00 -2.76779294e-01
2.06733882e-01 3.79986987e-02 -2.81309634e-01
2.64449000e-01 0.00000000e+00 -2.92802691e-01
2.65282989e-01 4.06812280e-02 -2.90311813e-01
3.19985598e-01 0.00000000e+00 -2.98575580e-01
3.20011377e-01 4.07543555e-02 -2.96234429e-01
3.25020552e-02 9.13144276e-02 -2.10455939e-01
0.00000000e+00 1.04195498e-01 -2.07356602e-01
8.63322169e-02 9.24776644e-02 -2.31560692e-01
1.37813866e-01 9.87086520e-02 -2.71062404e-01
2.03233287e-01 1.09414048e-01 -2.80819416e-01
2.62022078e-01 1.02320775e-01 -2.79465497e-01
3.12529653e-01 1.07102878e-01 -2.84445584e-01
2.80591547e-02 1.56907946e-01 -1.70212865e-01
0.00000000e+00 1.53870031e-01 -1.74161345e-01
7.73644000e-02 1.37638360e-01 -1.99631423e-01
2.81281397e-02 1.93608403e-01 -1.42244205e-01
0.00000000e+00 2.00812548e-01 -1.47798121e-01
6.78897500e-02 1.94233298e-01 -1.11309670e-01
2.94362754e-02 2.39437759e-01 -1.53093085e-01
0.00000000e+00 2.33719856e-01 -1.56554475e-01
6.55949190e-02 2.36591160e-01 -1.45496994e-01
8.02472904e-02 2.35821143e-01 1.74746513e-02
1.02223560e-01 2.28514045e-01 -1.64755762e-01
3.21581066e-02 2.74740160e-01 -1.83887437e-01
0.00000000e+00 2.77876318e-01 -1.94451168e-01
</DataArray>
<DataArray type="Float32" Name="Spatial_acceleration" NumberOfComponents="3" format="ascii">
0.00000000e+00 0.00000000e+00 0.00000000e+00
-2.54233669e-07 0.00000000e+00 0.00000000e+00
-2.68896429e-07 -4.14113202e-07 0.00000000e+00
0.00000000e+00 -3.89615678e-07 0.00000000e+00
0.00000000e+00 0.00000000e+00 4.99725331e-07
-2.31424963e-07 0.00000000e+00 5.27699797e-07
-2.45789693e-07 -3.98721539e-07 5.14984151e-07
0.00000000e+00 -3.85582439e-07 5.06718948e-07
-5.16970942e-07 0.00000000e+00 0.00000000e+00
-5.19017362e-07 -4.50630978e-07 0.00000000e+00
-4.99327996e-07 0.00000000e+00 5.35964944e-07
-5.12301938e-07 -4.23769166e-07 5.37554399e-07
-7.75575643e-07 0.00000000e+00 0.00000000e+00
-8.23020912e-07 -4.68571983e-07 0.00000000e+00
-8.16670536e-07 0.00000000e+00 5.46137471e-07
-7.80026085e-07 -4.17311981e-07 5.66800452e-07
-1.12557905e-06 0.00000000e+00 0.00000000e+00
-1.05206175e-06 -5.02437331e-07 0.00000000e+00
-1.17417176e-06 0.00000000e+00 5.95728523e-07
-1.06159848e-06 -3.93629080e-07 5.85556052e-07
-1.45294268e-06 0.00000000e+00 0.00000000e+00
-1.39101348e-06 -5.25077155e-07 0.00000000e+00
-1.47763888e-06 0.00000000e+00 6.05583182e-07
-1.45181014e-06 -4.29630262e-07 6.11623136e-07
-1.86525779e-06 0.00000000e+00 0.00000000e+00
-1.57229101e-06 -7.08897915e-07 0.00000000e+00
-1.77206596e-06 0.00000000e+00 6.29425017e-07
-1.76334379e-06 -5.23606957e-07 6.66936216e-07
-2.69412993e-07 -7.50780089e-07 0.00000000e+00
0.00000000e+00 -7.65184552e-07 0.00000000e+00
-2.68593425e-07 -7.43145733e-07 4.65710940e-07
0.00000000e+00 -6.98159113e-07 4.59035221e-07
-5.60124704e-07 -8.15868361e-07 0.00000000e+00
-5.14407930e-07 -7.84277915e-07 4.78426614e-07
-7.53243739e-07 -8.84691872e-07 0.00000000e+00
-7.42946327e-07 -7.92094625e-07 4.25247919e-07
-9.58919486e-07 -9.29832424e-07 0.00000000e+00
-1.01690819e-06 -7.83284520e-07 4.17497432e-07
-1.07121468e-06 -1.00715954e-06 0.00000000e+00
-1.14392572e-06 -7.82277880e-07 3.97152377e-07
-1.29048033e-06 -1.06795630e-06 0.00000000e+00
-1.37816539e-06 -1.02297463e-06 3.20434566e-07
-2.71956111e-07 -9.83258133e-07 0.00000000e+00
0.00000000e+00 -9.73184910e-07 0.00000000e+00
-2.66075119e-07 -9.80695063e-07 3.61442574e-07
0.00000000e+00 -9.88225111e-07 3.29335535e-07
-5.82853943e-07 -9.84430358e-07 0.00000000e+00
-5.30958175e-07 -9.88344368e-07 3.12805184e-07
-7.34806065e-07 -1.01188823e-06 0.00000000e+00
-7.27453198e-07 -1.01786190e-06 8.01086415e-08
-7.79893696e-07 -1.03823345e-06 0.00000000e+00
-6.96818063e-07 -9.76138608e-07 -7.48104512e-08
-9.48376112e-07 -9.58561941e-07 0.00000000e+00
-8.74307432e-07 -8.92639150e-07 -6.37902176e-08
-8.93910737e-07 -1.08385086e-06 0.00000000e+00
-9.65436243e-07 -1.24040241e-06 -6.42140705e-08
-2.73466100e-07 -1.09199686e-06 0.00000000e+00
0.00000000e+00 -1.15561488e-06 0.00000000e+00
-2.79049090e-07 -1.09567247e-06 2.95162209e-07
0.00000000e+00 -1.16386013e-06 2.88963321e-07
-5.87701777e-07 -1.05377035e-06 0.00000000e+00
-5.53449013e-07 -1.05420747e-06 2.35875447e-07
-7.57813439e-07 -1.02647141e-06 0.00000000e+00
-6.55439180e-07 -1.03934610e-06 5.91278067e-08
-7.47813147e-07 -1.04204810e-06 0.00000000e+00
-7.76290904e-07 -1.00612647e-06 5.29819077e-10
-8.65221011e-07 -8.60849980e-07 0.00000000e+00
-7.97351220e-07 -1.07418168e-06 0.00000000e+00
-7.05003742e-07 -1.01439161e-06 -4.76837148e-09
-7.19123420e-07 -1.08859933e-06 2.80804109e-08
-3.03745253e-07 -1.18120511e-06 0.00000000e+00
0.00000000e+00 -1.21319295e-06 0.00000000e+00
-3.01162402e-07 -1.24232963e-06 2.97705327e-07
0.00000000e+00 -1.29411615e-06 3.25838727e-07
-5.94019866e-07 -1.08317533e-06 0.00000000e+00
-5.36600737e-07 -1.14385284e-06 2.96274806e-07
-7.79271090e-07 -1.01395449e-06 0.00000000e+00
-7.32315925e-07 -1.05481683e-06 1.22494171e-07
-7.64290462e-07 -1.03425975e-06 0.00000000e+00
-7.93933850e-07 -1.06906884e-06 -4.72068784e-08
-7.89562876e-07 -9.71277586e-07 0.00000000e+00
-7.49158858e-07 -1.15126772e-06 9.44435641e-09
-8.07921083e-07 -1.13979979e-06 0.00000000e+00
-6.53319887e-07 -9.02334875e-07 -6.35451736e-09
-3.41892246e-07 -1.41990188e-06 0.00000000e+00
0.00000000e+00 -1.33672108e-06 0.00000000e+00
-3.36567552e-07 -1.41942496e-06 4.93685377e-07
0.00000000e+00 -1.41236933e-06 4.78108745e-07
-6.70433053e-07 -1.22801464e-06 0.00000000e+00
-5.73953002e-07 -1.26632051e-06 4.31696577e-07
-8.06411094e-07 -1.06843311e-06 0.00000000e+00
-7.36024674e-07 -1.21752419e-06 2.54313164e-07
-7.84556050e-07 -1.03251136e-06 0.00000000e+00
-7.52449012e-07 -1.12628936e-06 -4.73658233e-08
-7.82728193e-07 -9.75926696e-07 0.00000000e+00
-6.67307120e-07 -1.19505989e-06 1.06369455e-07
-6.92009905e-07 -1.01680553e-06 0.00000000e+00
-8.20994387e-07 -9.59853310e-07 -1.10156215e-07
0.00000000e+00 0.00000000e+00 9.81648782e-07
-2.47875846e-07 0.00000000e+00 1.00199384e-06
-2.37027805e-07 -3.28222910e-07 9.73224587e-07
0.00000000e+00 -3.35901973e-07 9.73383521e-07
-5.19032255e-07 0.00000000e+00 1.03632613e-06
-4.64359914e-07 -3.22103489e-07 1.01915998e-06
-8.13384816e-07 0.00000000e+00 1.08782444e-06
-8.11894722e-07 -3.00049777e-07 1.08162556e-06
-1.17687387e-06 0.00000000e+00 1.14409124e-06
-1.15728380e-06 -3.29981248e-07 1.14425018e-06
-1.56168142e-06 0.00000000e+00 1.20004017e-06
-1.51548784e-06 -3.22779016e-07 1.17890033e-06
-1.87778471e-06 0.00000000e+00 1.18700666e-06
-1.93603842e-06 -3.84887045e-07 1.22674305e-06
-2.13702521e-07 -6.56286886e-07 8.87552915e-07
0.00000000e+00 -6.93718562e-07 8.68479390e-07
-4.75701825e-07 -6.70137865e-07 9.29332884e-07
-7.44787883e-07 -7.00569160e-07 9.30277508e-07
-1.10896428e-06 -7.50829770e-07 1.00008640e-06
-1.47024787e-06 -7.78357162e-07 9.68297286e-07
-1.76811216e-06 -8.32736475e-07 9.95636015e-07
-2.01463692e-07 -9.45409113e-07 7.22567222e-07
0.00000000e+00 -9.49502009e-07 7.16209399e-07
-4.03934052e-07 -9.53250492e-07 6.75201420e-07
-3.84330747e-07 -8.09351604e-07 -6.63598385e-08
-1.99059642e-07 -1.22078757e-06 6.17901492e-07
0.00000000e+00 -1.20096399e-06 6.82512905e-07
-4.36101629e-07 -1.12040834e-06 4.32423178e-07
-5.92973493e-07 -9.55581640e-07 2.63637958e-07
-2.76446343e-07 -1.33176638e-06 6.75042486e-07
0.00000000e+00 -1.40640759e-06 7.32103956e-07
-4.29073964e-07 -1.26798943e-06 5.60124704e-07
-7.09136316e-07 -1.18854143e-06 4.13894639e-07
-2.02814732e-07 -1.56998635e-06 8.33511365e-07
0.00000000e+00 -1.59358979e-06 9.49859611e-07
-4.54664217e-07 -1.60861009e-06 8.95818062e-07
-8.16881652e-07 -1.50855385e-06 8.31603984e-07
-7.71395833e-07 -9.43927091e-07 2.88108993e-07
-7.29928388e-07 -1.19321544e-06 -1.58026808e-07
-8.59275474e-07 -1.12416592e-06 3.96718569e-08
-8.54790187e-07 -1.11896793e-06 -2.04841299e-08
0.00000000e+00 0.00000000e+00 1.40062969e-06
-2.69552061e-07 0.00000000e+00 1.44577029e-06
-2.94814498e-07 -3.12904518e-07 1.40492125e-06
0.00000000e+00 -2.93632354e-07 1.40889483e-06
-5.81900281e-07 0.00000000e+00 1.47946673e-06
-5.20855167e-07 -2.78458003e-07 1.46341324e-06
-8.93483559e-07 0.00000000e+00 1.53287249e-06
-8.90970227e-07 -2.67624841e-07 1.54304507e-06
-1.22967356e-06 0.00000000e+00 1.63332618e-06
-1.26091641e-06 -2.43882340e-07 1.63968400e-06
-1.61859396e-06 0.00000000e+00 1.74681338e-06
-1.61918001e-06 -2.61661910e-07 1.70405701e-06
-2.00777254e-06 0.00000000e+00 1.74585978e-06
-1.97776149e-06 -2.86112225e-07 1.74808497e-06
-2.20457707e-07 -5.67595180e-07 1.31670629e-06
0.00000000e+00 -6.35027902e-07 1.30748742e-06
-5.45501678e-07 -5.83330802e-07 1.40435350e-06
-8.65173376e-07 -6.33366938e-07 1.61590583e-06
-1.23373661e-06 -6.78658466e-07 1.65557856e-06
-1.57169495e-06 -6.61055253e-07 1.63141885e-06
-1.87837077e-06 -7.42355951e-07 1.67846679e-06
-2.08559484e-07 -9.92184596e-07 1.14949546e-06
0.00000000e+00 -9.60826810e-07 1.13550823e-06
-4.80969732e-07 -8.53697429e-07 1.23723350e-06
-1.89690354e-07 -1.23578025e-06 9.80922096e-07
0.00000000e+00 -1.23964742e-06 9.62575314e-07
-4.90506466e-07 -1.24257804e-06 7.55310055e-07
-1.79747744e-07 -1.56529745e-06 1.02611386e-06
0.00000000e+00 -1.51103734e-06 1.05794265e-06
-4.40143396e-07 -1.55367172e-06 9.34055890e-07
-6.30756233e-07 -1.55496593e-06 -1.16666158e-07
-7.03493754e-07 -1.49536129e-06 1.16814510e-06
-2.26656596e-07 -1.83276336e-06 1.31305057e-06
0.00000000e+00 -1.88676518e-06 1.21180210e-06
</DataArray>
<DataArray type="Float32" Name="Spatial_velocity" NumberOfComponents="3" format="ascii">
0.00000000e+00 0.00000000e+00 0.00000000e+00
7.62154668e-05 0.00000000e+00 0.00000000e+00
7.94023726e-05 1.11669127e-04 0.00000000e+00
0.00000000e+00 1.09825909e-04 0.00000000e+00
0.00000000e+00 0.00000000e+00 -1.34120826e-04
7.32454137e-05 0.00000000e+00 -1.37974712e-04
7.50366526e-05 1.06268526e-04 -1.32703542e-04
0.00000000e+00 1.04803948e-04 -1.35068040e-04
1.53732035e-04 0.00000000e+00 0.00000000e+00
1.55869697e-04 1.15804774e-04 0.00000000e+00
1.49120402e-04 0.00000000e+00 -1.38933188e-04
1.51729575e-04 1.08099790e-04 -1.34696340e-04
2.30372432e-04 0.00000000e+00 0.00000000e+00
2.37225540e-04 1.21179080e-04 0.00000000e+00
2.35915475e-04 0.00000000e+00 -1.37126292e-04
2.27444922e-04 1.07624313e-04 -1.44805017e-04
3.27190559e-04 0.00000000e+00 0.00000000e+00
3.09331372e-04 1.22949234e-04 0.00000000e+00
3.29903065e-04 0.00000000e+00 -1.42406323e-04
3.09461204e-04 1.05108520e-04 -1.44871650e-04
4.08543274e-04 0.00000000e+00 0.00000000e+00
3.97339696e-04 1.29068183e-04 0.00000000e+00
4.18448210e-04 0.00000000e+00 -1.41198412e-04
4.07714542e-04 1.06699044e-04 -1.46424631e-04
4.98895883e-04 0.00000000e+00 0.00000000e+00
4.53444081e-04 1.50589185e-04 0.00000000e+00
5.00074413e-04 0.00000000e+00 -1.34229806e-04
4.88675665e-04 1.35710769e-04 -1.51724365e-04
8.39355343e-05 2.07154764e-04 0.00000000e+00
0.00000000e+00 2.04590353e-04 0.00000000e+00
7.91525890e-05 2.00011433e-04 -1.23533129e-04
0.00000000e+00 1.96139837e-04 -1.24006299e-04
1.65640857e-04 2.18807705e-04 0.00000000e+00
1.53695000e-04 2.07738936e-04 -1.27823165e-04
2.34407227e-04 2.29873986e-04 0.00000000e+00
2.24151096e-04 2.15587526e-04 -1.20341705e-04
2.90507043e-04 2.60515546e-04 0.00000000e+00
2.91877339e-04 2.04453463e-04 -1.22271274e-04
3.25157889e-04 2.48499215e-04 0.00000000e+00
3.45375272e-04 2.06674042e-04 -1.14707917e-04
3.72990704e-04 2.96377722e-04 0.00000000e+00
4.04624268e-04 2.44911207e-04 -1.12412359e-04
8.88143040e-05 2.70986377e-04 0.00000000e+00
0.00000000e+00 2.66725372e-04 0.00000000e+00
8.10360361e-05 2.72788224e-04 -1.08960339e-04
0.00000000e+00 2.70054588e-04 -1.02792095e-04
1.84241595e-04 2.72660778e-04 0.00000000e+00
1.71401218e-04 2.73047975e-04 -9.48575762e-05
2.38359658e-04 2.78796710e-04 0.00000000e+00
2.27131066e-04 2.77584739e-04 -2.24787582e-05
2.49525387e-04 2.80250824e-04 0.00000000e+00
2.34173072e-04 2.68593983e-04 1.25403485e-05
2.69997137e-04 2.67316762e-04 0.00000000e+00
2.75810249e-04 2.23048264e-04 2.64933988e-05
2.70255317e-04 3.11683980e-04 0.00000000e+00
2.84184760e-04 3.15015321e-04 7.07606978e-06
9.36787837e-05 3.08989227e-04 0.00000000e+00
0.00000000e+00 3.18155420e-04 0.00000000e+00
8.28034463e-05 3.12076503e-04 -9.64420760e-05
0.00000000e+00 3.22144391e-04 -9.57165175e-05
1.87489612e-04 2.98556784e-04 0.00000000e+00
1.66850543e-04 2.89895019e-04 -7.16754366e-05
2.37094646e-04 2.76265055e-04 0.00000000e+00
2.25289754e-04 2.76763400e-04 -1.21502626e-05
2.31296537e-04 2.81327084e-04 0.00000000e+00
2.31356535e-04 2.81504763e-04 -3.22494998e-07
2.31231767e-04 2.68316391e-04 0.00000000e+00
2.31373502e-04 2.75048049e-04 0.00000000e+00
2.31260623e-04 2.68382486e-04 1.33517730e-08
2.31203303e-04 2.74895719e-04 3.17303162e-08
9.24802589e-05 3.42101208e-04 0.00000000e+00
0.00000000e+00 3.59966507e-04 0.00000000e+00
8.96767451e-05 3.55425931e-04 -9.78812750e-05
0.00000000e+00 3.64439155e-04 -1.07378859e-04
1.87523648e-04 3.09044204e-04 0.00000000e+00
1.61454489e-04 3.15822923e-04 -8.66067348e-05
2.26379198e-04 2.77695945e-04 0.00000000e+00
2.15950102e-04 2.89915246e-04 -2.66376937e-05
2.37965985e-04 2.81540648e-04 0.00000000e+00
2.37654764e-04 2.81567831e-04 -2.82953920e-07
2.37833578e-04 2.75025814e-04 0.00000000e+00
2.37802524e-04 2.75048427e-04 3.90318071e-08
2.37846267e-04 2.68396921e-04 0.00000000e+00
2.37816290e-04 2.68396747e-04 -4.31968772e-09
1.05869811e-04 3.99863988e-04 0.00000000e+00
0.00000000e+00 4.07978601e-04 0.00000000e+00
9.63108178e-05 4.06869251e-04 -1.21361365e-04
0.00000000e+00 4.20301338e-04 -1.27304185e-04
1.98647365e-04 3.50466347e-04 0.00000000e+00
1.69908599e-04 3.82788799e-04 -1.19937169e-04
2.47860909e-04 3.04576359e-04 0.00000000e+00
2.29568861e-04 3.35124205e-04 -6.91423265e-05
2.44928407e-04 2.82036053e-04 0.00000000e+00
2.44384602e-04 2.82145425e-04 7.79016247e-08
2.44411262e-04 2.75023660e-04 0.00000000e+00
2.44451949e-04 2.75015220e-04 2.67989790e-08
2.44420604e-04 2.68382893e-04 0.00000000e+00
2.44522758e-04 2.68474512e-04 -9.73676038e-08
0.00000000e+00 0.00000000e+00 -2.59605091e-04
6.86730782e-05 0.00000000e+00 -2.65868206e-04
6.98462245e-05 9.24380147e-05 -2.58891552e-04
0.00000000e+00 9.23289699e-05 -2.61152280e-04
1.52840075e-04 0.00000000e+00 -2.71598896e-04
1.39300319e-04 8.52457524e-05 -2.63178634e-04
2.34184234e-04 0.00000000e+00 -2.72920734e-04
2.33458573e-04 8.70953882e-05 -2.78891996e-04
3.33486387e-04 0.00000000e+00 -2.82415916e-04
3.25745757e-04 8.52625817e-05 -2.80320033e-04
4.37501789e-04 0.00000000e+00 -2.84803798e-04
4.26338695e-04 8.60705695e-05 -2.84432841e-04
5.21136390e-04 0.00000000e+00 -2.77685846e-04
5.35110652e-04 1.02844075e-04 -2.87624425e-04
6.69022484e-05 1.79941271e-04 -2.44514551e-04
0.00000000e+00 1.88631617e-04 -2.44433671e-04
1.41940545e-04 1.80482399e-04 -2.51711521e-04
2.13830353e-04 1.81017400e-04 -2.56868487e-04
3.12434568e-04 1.99521310e-04 -2.66846619e-04
4.07568237e-04 2.01658608e-04 -2.55082006e-04
4.82569565e-04 2.23826239e-04 -2.57246691e-04
6.15028548e-05 2.63179827e-04 -2.13990133e-04
0.00000000e+00 2.69029639e-04 -2.12119630e-04
1.23265650e-04 2.66374147e-04 -2.08385056e-04
1.06432119e-04 2.02544485e-04 2.01941621e-05
6.21457366e-05 3.41204344e-04 -1.82442905e-04
0.00000000e+00 3.29865288e-04 -1.94341395e-04
1.42861827e-04 3.03072971e-04 -1.45350976e-04
1.82648218e-04 2.50336219e-04 -6.74292241e-05
8.17956097e-05 3.75698641e-04 -1.98775335e-04
0.00000000e+00 3.89880181e-04 -2.08200989e-04
1.31928522e-04 3.51721072e-04 -1.72732049e-04
2.13384017e-04 3.23753047e-04 -1.27304957e-04
7.72159474e-05 4.46998194e-04 -2.41245245e-04
0.00000000e+00 4.51402768e-04 -2.57945649e-04
1.37419192e-04 4.51899919e-04 -2.40795271e-04
2.31820537e-04 4.22338169e-04 -2.31492537e-04
2.37949323e-04 2.75133527e-04 2.01680592e-07
2.38041845e-04 2.68496049e-04 -1.22125130e-07
2.44529423e-04 2.68482516e-04 -8.00285775e-08
2.44605326e-04 2.75172526e-04 -1.18538814e-07
0.00000000e+00 0.00000000e+00 -3.81874037e-04
7.38988310e-05 0.00000000e+00 -3.82358849e-04
8.14850209e-05 8.35033497e-05 -3.81527556e-04
0.00000000e+00 7.91786806e-05 -3.78099532e-04
1.65924735e-04 0.00000000e+00 -3.93867114e-04
1.50605527e-04 7.74042783e-05 -3.89859168e-04
2.46503914e-04 0.00000000e+00 -4.06952080e-04
2.48454860e-04 7.65646982e-05 -4.02310805e-04
3.43333784e-04 0.00000000e+00 -4.14757582e-04
3.47148889e-04 7.73324791e-05 -4.17526840e-04
4.51964443e-04 0.00000000e+00 -4.21997771e-04
4.48236766e-04 7.96261811e-05 -4.22904210e-04
5.56200161e-04 0.00000000e+00 -4.18867654e-04
5.50184690e-04 8.68021089e-05 -4.24626662e-04
6.24743188e-05 1.61038668e-04 -3.67144356e-04
0.00000000e+00 1.79847222e-04 -3.63987259e-04
1.60096984e-04 1.69614388e-04 -3.74766125e-04
2.37332672e-04 1.73081498e-04 -4.10069333e-04
3.33866832e-04 1.87912767e-04 -4.24017198e-04
4.24469123e-04 1.84787059e-04 -4.14214242e-04
5.02870244e-04 2.13864230e-04 -4.19788645e-04
6.51277660e-05 2.70595367e-04 -3.25633766e-04
0.00000000e+00 2.67657451e-04 -3.24549270e-04
1.45752580e-04 2.38588531e-04 -3.44483298e-04
6.91100067e-05 3.41741455e-04 -2.79625499e-04
0.00000000e+00 3.53573123e-04 -2.97943101e-04
1.44815844e-04 3.41855048e-04 -2.41435700e-04
6.63331521e-05 4.33743728e-04 -3.09478171e-04
0.00000000e+00 4.27107210e-04 -3.17803904e-04
1.37097333e-04 4.18599928e-04 -2.81102140e-04
1.65270205e-04 4.58529335e-04 3.66815402e-05
1.85549521e-04 4.11905290e-04 -3.15268262e-04
7.32019471e-05 5.05650241e-04 -3.68444424e-04
0.00000000e+00 5.16449567e-04 -3.77458142e-04
</DataArray>
<DataArray type="Float32" Name="Reaction_force" NumberOfComponents="3" format="ascii">
4.90753084e-01 -2.27468371e-01 8.68030548e+00
0.00000000e+00 -6.56049907e-01 1.76986008e+01
0.00000000e+00 0.00000000e+00 3.39124069e+01
5.35332859e-01 0.00000000e+00 1.70729980e+01
9.81122255e-01 -5.00894070e-01 0.00000000e+00
0.00000000e+00 -9.32220936e-01 0.00000000e+00
0.00000000e+00 0.00000000e+00 0.00000000e+00
1.04467535e+00 0.00000000e+00 0.00000000e+00
0.00000000e+00 -8.41868341e-01 1.78688126e+01
0.00000000e+00 0.00000000e+00 3.54608765e+01
0.00000000e+00 -6.28391981e-01 0.00000000e+00
0.00000000e+00 0.00000000e+00 0.00000000e+00
0.00000000e+00 -6.02210760e-01 1.89403019e+01
0.00000000e+00 0.00000000e+00 3.50024490e+01
0.00000000e+00 -2.27494061e-01 0.00000000e+00
0.00000000e+00 0.00000000e+00 0.00000000e+00
0.00000000e+00 -8.35407674e-01 1.87165527e+01
0.00000000e+00 0.00000000e+00 3.43607597e+01
0.00000000e+00 -5.09952962e-01 0.00000000e+00
0.00000000e+00 0.00000000e+00 0.00000000e+00
0.00000000e+00 -1.32322836e+00 1.66565399e+01
0.00000000e+00 0.00000000e+00 3.09688053e+01
0.00000000e+00 -1.76913357e+00 0.00000000e+00
0.00000000e+00 0.00000000e+00 0.00000000e+00
0.00000000e+00 -2.34900475e+00 1.04211378e+01
0.00000000e+00 0.00000000e+00 1.92694969e+01
0.00000000e+00 -3.16510177e+00 0.00000000e+00
0.00000000e+00 0.00000000e+00 0.00000000e+00
0.00000000e+00 0.00000000e+00 3.17538719e+01
-4.42271352e-01 0.00000000e+00 1.57021933e+01
0.00000000e+00 0.00000000e+00 0.00000000e+00
-2.53286421e-01 0.00000000e+00 0.00000000e+00
0.00000000e+00 0.00000000e+00 2.88441963e+01
0.00000000e+00 0.00000000e+00 0.00000000e+00
0.00000000e+00 0.00000000e+00 2.32268181e+01
0.00000000e+00 0.00000000e+00 0.00000000e+00
0.00000000e+00 0.00000000e+00 1.88530846e+01
0.00000000e+00 0.00000000e+00 0.00000000e+00
0.00000000e+00 0.00000000e+00 1.87733765e+01
0.00000000e+00 0.00000000e+00 0.00000000e+00
0.00000000e+00 0.00000000e+00 1.52135210e+01
0.00000000e+00 0.00000000e+00 0.00000000e+00
0.00000000e+00 0.00000000e+00 2.85279045e+01
-1.05312908e+00 0.00000000e+00 1.45515413e+01
0.00000000e+00 0.00000000e+00 0.00000000e+00
-1.50111270e+00 0.00000000e+00 0.00000000e+00
0.00000000e+00 0.00000000e+00 2.10667229e+01
0.00000000e+00 0.00000000e+00 0.00000000e+00
0.00000000e+00 0.00000000e+00 1.24262514e+01
0.00000000e+00 0.00000000e+00 0.00000000e+00
0.00000000e+00 0.00000000e+00 4.72071362e+00
0.00000000e+00 0.00000000e+00 0.00000000e+00
0.00000000e+00 0.00000000e+00 3.73683310e+00
0.00000000e+00 0.00000000e+00 0.00000000e+00
0.00000000e+00 0.00000000e+00 3.09159851e+00
0.00000000e+00 0.00000000e+00 0.00000000e+00
0.00000000e+00 0.00000000e+00 2.64060593e+01
-1.73097920e+00 0.00000000e+00 1.44201050e+01
0.00000000e+00 0.00000000e+00 0.00000000e+00
-2.86339426e+00 0.00000000e+00 0.00000000e+00
0.00000000e+00 0.00000000e+00 1.96065483e+01
0.00000000e+00 0.00000000e+00 0.00000000e+00
0.00000000e+00 0.00000000e+00 9.97127533e+00
0.00000000e+00 0.00000000e+00 0.00000000e+00
0.00000000e+00 0.00000000e+00 4.14964080e-01
0.00000000e+00 0.00000000e+00 0.00000000e+00
0.00000000e+00 0.00000000e+00 -2.24904084e+00
0.00000000e+00 0.00000000e+00 -3.42958355e+00
0.00000000e+00 0.00000000e+00 0.00000000e+00
0.00000000e+00 0.00000000e+00 0.00000000e+00
0.00000000e+00 0.00000000e+00 2.71547012e+01
-2.33151460e+00 0.00000000e+00 1.40673389e+01
0.00000000e+00 0.00000000e+00 0.00000000e+00
-3.39630938e+00 0.00000000e+00 0.00000000e+00
0.00000000e+00 0.00000000e+00 2.28006191e+01
0.00000000e+00 0.00000000e+00 0.00000000e+00
0.00000000e+00 0.00000000e+00 1.77443161e+01
0.00000000e+00 0.00000000e+00 0.00000000e+00
0.00000000e+00 0.00000000e+00 7.07442856e+00
0.00000000e+00 0.00000000e+00 0.00000000e+00
0.00000000e+00 0.00000000e+00 -4.26070929e+00
0.00000000e+00 0.00000000e+00 0.00000000e+00
0.00000000e+00 0.00000000e+00 1.89910722e+00
0.00000000e+00 0.00000000e+00 0.00000000e+00
0.00000000e+00 0.00000000e+00 1.75303726e+01
-2.02317572e+00 0.00000000e+00 8.60650063e+00
0.00000000e+00 0.00000000e+00 0.00000000e+00
-3.55076599e+00 0.00000000e+00 0.00000000e+00
0.00000000e+00 0.00000000e+00 1.82780685e+01
0.00000000e+00 0.00000000e+00 0.00000000e+00
0.00000000e+00 0.00000000e+00 1.40698032e+01
0.00000000e+00 0.00000000e+00 0.00000000e+00
0.00000000e+00 0.00000000e+00 6.34743357e+00
0.00000000e+00 0.00000000e+00 0.00000000e+00
0.00000000e+00 0.00000000e+00 -3.01253319e+00
0.00000000e+00 0.00000000e+00 0.00000000e+00
0.00000000e+00 0.00000000e+00 3.85014951e-01
0.00000000e+00 0.00000000e+00 0.00000000e+00
4.37249035e-01 -6.11129284e-01 0.00000000e+00
0.00000000e+00 3.57671082e-02 0.00000000e+00
0.00000000e+00 0.00000000e+00 0.00000000e+00
1.50065112e+00 0.00000000e+00 0.00000000e+00
0.00000000e+00 7.95882821e-01 0.00000000e+00
0.00000000e+00 0.00000000e+00 0.00000000e+00
0.00000000e+00 1.22463810e+00 0.00000000e+00
0.00000000e+00 0.00000000e+00 0.00000000e+00
0.00000000e+00 1.73576224e+00 0.00000000e+00
0.00000000e+00 0.00000000e+00 0.00000000e+00
0.00000000e+00 -1.45387679e-01 0.00000000e+00
0.00000000e+00 0.00000000e+00 0.00000000e+00
0.00000000e+00 -1.01925552e+00 0.00000000e+00
0.00000000e+00 0.00000000e+00 0.00000000e+00
0.00000000e+00 0.00000000e+00 0.00000000e+00
5.71681142e-01 0.00000000e+00 0.00000000e+00
0.00000000e+00 0.00000000e+00 0.00000000e+00
0.00000000e+00 0.00000000e+00 0.00000000e+00
0.00000000e+00 0.00000000e+00 0.00000000e+00
0.00000000e+00 0.00000000e+00 0.00000000e+00
0.00000000e+00 0.00000000e+00 0.00000000e+00
0.00000000e+00 0.00000000e+00 0.00000000e+00
-7.88976848e-01 0.00000000e+00 0.00000000e+00
0.00000000e+00 0.00000000e+00 0.00000000e+00
0.00000000e+00 0.00000000e+00 0.00000000e+00
0.00000000e+00 0.00000000e+00 0.00000000e+00
-7.22765386e-01 0.00000000e+00 0.00000000e+00
0.00000000e+00 0.00000000e+00 0.00000000e+00
0.00000000e+00 0.00000000e+00 0.00000000e+00
0.00000000e+00 0.00000000e+00 0.00000000e+00
-1.22168469e+00 0.00000000e+00 0.00000000e+00
0.00000000e+00 0.00000000e+00 0.00000000e+00
0.00000000e+00 0.00000000e+00 0.00000000e+00
0.00000000e+00 0.00000000e+00 0.00000000e+00
-1.93864632e+00 0.00000000e+00 0.00000000e+00
0.00000000e+00 0.00000000e+00 0.00000000e+00
0.00000000e+00 0.00000000e+00 0.00000000e+00
0.00000000e+00 0.00000000e+00 0.00000000e+00
0.00000000e+00 0.00000000e+00 0.00000000e+00
0.00000000e+00 0.00000000e+00 0.00000000e+00
0.00000000e+00 0.00000000e+00 0.00000000e+00
1.57203525e-02 -2.09705412e-01 0.00000000e+00
0.00000000e+00 8.51852477e-01 0.00000000e+00
0.00000000e+00 0.00000000e+00 0.00000000e+00
1.70762742e+00 0.00000000e+00 0.00000000e+00
0.00000000e+00 1.51805997e+00 0.00000000e+00
0.00000000e+00 0.00000000e+00 0.00000000e+00
0.00000000e+00 2.04288673e+00 0.00000000e+00
0.00000000e+00 0.00000000e+00 0.00000000e+00
0.00000000e+00 2.92563653e+00 0.00000000e+00
0.00000000e+00 0.00000000e+00 0.00000000e+00
0.00000000e+00 1.37118590e+00 0.00000000e+00
0.00000000e+00 0.00000000e+00 0.00000000e+00
0.00000000e+00 2.53556341e-01 0.00000000e+00
0.00000000e+00 0.00000000e+00 0.00000000e+00
0.00000000e+00 0.00000000e+00 0.00000000e+00
1.47065067e+00 0.00000000e+00 0.00000000e+00
0.00000000e+00 0.00000000e+00 0.00000000e+00
0.00000000e+00 0.00000000e+00 0.00000000e+00
0.00000000e+00 0.00000000e+00 0.00000000e+00
0.00000000e+00 0.00000000e+00 0.00000000e+00
0.00000000e+00 0.00000000e+00 0.00000000e+00
0.00000000e+00 0.00000000e+00 0.00000000e+00
3.00499946e-02 0.00000000e+00 0.00000000e+00
0.00000000e+00 0.00000000e+00 0.00000000e+00
0.00000000e+00 0.00000000e+00 0.00000000e+00
8.28790605e-01 0.00000000e+00 0.00000000e+00
0.00000000e+00 0.00000000e+00 0.00000000e+00
0.00000000e+00 0.00000000e+00 0.00000000e+00
4.91447806e-01 0.00000000e+00 0.00000000e+00
0.00000000e+00 0.00000000e+00 0.00000000e+00
0.00000000e+00 0.00000000e+00 0.00000000e+00
0.00000000e+00 0.00000000e+00 0.00000000e+00
0.00000000e+00 0.00000000e+00 0.00000000e+00
-6.21749341e-01 0.00000000e+00 0.00000000e+00
</DataArray>
<DataArray type="Float32" Name="Equivalent_plastic_strain" format="ascii">
8.63550082e-02
8.99344571e-02
8.46211687e-02
8.27491730e-02
8.27619433e-02
8.56481344e-02
8.19063885e-02
8.04298371e-02
9.67652574e-02
9.10582785e-02
9.11639389e-02
8.76313085e-02
1.05416063e-01
1.03357559e-01
9.80810989e-02
9.63856699e-02
1.14538353e-01
1.11179071e-01
1.05562976e-01
1.01875863e-01
1.23397257e-01
1.19868712e-01
1.11082584e-01
1.08579956e-01
1.34632468e-01
1.34274937e-01
1.19906586e-01
1.17181558e-01
7.24516232e-02
7.17061087e-02
7.22612655e-02
7.03047533e-02
7.23528955e-02
7.51499487e-02
5.18013490e-02
7.22252077e-02
5.33275334e-02
6.92479908e-02
3.74913556e-02
6.64472391e-02
3.90587300e-02
7.68311607e-02
5.96774751e-02
5.97940907e-02
5.93851539e-02
5.86582422e-02
4.41976441e-02
4.66188883e-02
6.79537858e-03
6.67451741e-03
-1.56233250e-03
2.17641098e-02
-2.50669008e-03
1.79668205e-02
3.08453105e-03
2.47685066e-02
5.30152582e-02
5.63012734e-02
5.01432400e-02
5.32863149e-02
3.75267006e-02
3.72724878e-02
6.76591089e-03
1.39213304e-02
9.84718727e-05
2.54990019e-03
9.44302510e-03
2.77620395e-03
8.03017616e-03
4.18780220e-03
5.53595023e-02
5.97849786e-02
5.16634490e-02
5.60685322e-02
4.12811479e-02
3.79361279e-02
5.98261948e-03
2.96918874e-02
5.45141311e-05
2.15988925e-03
-4.99185727e-05
-5.34212886e-06
0.00000000e+00
0.00000000e+00
6.46980815e-02
6.86905980e-02
6.08028183e-02
6.58794120e-02
5.23576215e-02
5.91929536e-02
2.15221765e-02
4.38383408e-02
-1.82372169e-04
6.81346742e-03
1.26873463e-04
-2.35112748e-05
0.00000000e+00
0.00000000e+00
7.81401396e-02
7.85321482e-02
7.67295109e-02
7.65087623e-02
8.00498910e-02
8.11194889e-02
8.49704221e-02
8.30771574e-02
8.96730516e-02
9.64343529e-02
9.14342012e-02
9.82351284e-02
9.25507955e-02
9.88835637e-02
7.27658560e-02
7.10891057e-02
8.00976987e-02
1.04086779e-01
1.11446556e-01
1.14126854e-01
1.15621362e-01
5.96125755e-02
5.88252526e-02
7.10748198e-02
5.46031874e-02
4.57437246e-02
4.92711188e-02
3.84118953e-02
1.50019713e-02
5.08887833e-02
5.14293276e-02
5.09858610e-02
8.08233162e-02
5.93182910e-02
5.88708073e-02
6.66773003e-02
1.04245763e-01
0.00000000e+00
0.00000000e+00
0.00000000e+00
0.00000000e+00
7.90425986e-02
7.86572769e-02
7.82493390e-02
7.85276461e-02
7.73826800e-02
8.06555310e-02
7.79447705e-02
7.91803193e-02
7.82674216e-02
9.01508788e-02
7.69853462e-02
8.78284164e-02
7.55093545e-02
8.46705288e-02
8.08658553e-02
7.71924499e-02
8.42588363e-02
1.11663893e-01
1.11253992e-01
1.07902678e-01
1.04481779e-01
7.78707037e-02
6.95121624e-02
1.06163887e-01
5.71649958e-02
6.31817086e-02
8.12703352e-02
3.79981262e-02
6.54891049e-02
5.14251175e-02
7.14353099e-02
1.22171223e-01
8.34202003e-02
6.46496974e-02
</DataArray>
<DataArray type="Float32" Name="Stress_Mises" format="ascii">
3.14687614e+01
3.67614145e+01
3.31392603e+01
3.36156635e+01
2.94777756e+01
3.40363708e+01
3.16118529e+01
3.30636806e+01
3.96554556e+01
4.16837950e+01
3.58054209e+01
3.61646347e+01
4.39860115e+01
4.90296574e+01
3.65458660e+01
4.10223026e+01
4.89705210e+01
5.59890838e+01
3.90709305e+01
3.04048123e+01
4.89018192e+01
4.26271604e+01
3.50792253e+01
3.26487501e+01
7.72379074e+01
8.34341469e+01
5.54132833e+01
5.40917335e+01
3.25028977e+01
3.02776737e+01
3.15139584e+01
2.76200483e+01
3.72981184e+01
3.49891306e+01
2.77225349e+01
3.65424564e+01
2.78755107e+01
5.39018288e+01
2.17133584e+01
4.75813131e+01
4.79081068e+01
8.55799408e+01
3.34779439e+01
2.52797303e+01
3.00982215e+01
2.33400357e+01
3.72690649e+01
2.86624046e+01
1.86546555e+01
2.19728832e+01
1.53006295e+01
3.23770847e+01
9.13807098e+00
2.58786799e+01
2.62723732e+01
3.45239325e+01
3.17838197e+01
3.12643337e+01
2.50087110e+01
2.70224123e+01
2.18046902e+01
2.35449345e+01
1.72397892e+01
2.15896147e+01
1.35676986e+01
2.18494962e+01
3.28097887e+01
8.54963048e+00
3.23293056e+01
2.13261954e+01
3.06520641e+01
3.22389355e+01
2.28815719e+01
2.80338163e+01
2.24612770e+01
2.67752852e+01
2.35623819e+01
3.88377603e+01
1.61488183e+01
2.27154875e+01
1.19612930e+01
8.55751562e+00
1.02093942e+01
7.54430048e+00
5.65500946e+01
5.56964531e+01
4.29609723e+01
5.43688431e+01
6.62893353e+01
4.77209291e+01
5.12671165e+01
7.09501820e+01
1.73847122e+01
3.76300468e+01
1.86436796e+01
1.44182860e+01
4.79102182e+00
5.39843154e+00
3.04896603e+01
2.96181374e+01
2.62044868e+01
3.09197278e+01
2.45253561e+01
2.53636833e+01
2.60344207e+01
2.96155916e+01
2.62154553e+01
2.60525848e+01
1.95485829e+01
2.59343807e+01
1.96295452e+01
2.46567929e+01
2.43075783e+01
2.99039059e+01
4.23436880e+01
9.43627716e+01
7.47915916e+01
7.11541290e+01
7.49883270e+01
2.95172899e+01
1.77302473e+01
6.45183528e+01
3.45246687e+01
1.56546537e+01
1.39222909e+01
1.95823259e+01
1.52754943e+01
1.85288633e+01
1.87235512e+01
2.83636494e+01
5.67200105e+01
3.27374531e+01
3.62037964e+01
6.03558664e+01
1.25698109e+02
1.68568730e+00
1.28102773e+00
2.08909410e+00
2.95238352e+00
2.86730022e+01
2.83859048e+01
2.32790158e+01
2.77436962e+01
2.31905749e+01
2.45739506e+01
2.27003064e+01
2.54945863e+01
2.05030459e+01
2.63920998e+01
1.65179387e+01
3.02606917e+01
1.35529191e+01
2.46145326e+01
2.55092068e+01
2.45049480e+01
4.20493381e+01
1.13125177e+02
8.50750847e+01
6.58867731e+01
5.51518612e+01
2.65615869e+01
2.76260532e+01
1.39156570e+02
2.43315860e+01
1.60974926e+01
8.52713299e+01
2.27929720e+01
2.24172454e+01
3.75238371e+01
4.74202347e+01
1.16107511e+02
2.58343502e+01
3.47655807e+01
</DataArray>
<DataArray type="Float32" Name="Stress_Max_Principal" format="ascii">
6.42831683e-01
-3.54819238e+00
-1.19921863e+00
-1.79993939e+00
2.20926076e+00
-1.45809019e+00
6.34974837e-02
-1.22520173e+00
-5.70409203e+00
-7.59366357e+00
-3.19316980e+00
-3.39509630e+00
-9.22522151e+00
-1.31396919e+01
-4.38111651e+00
-7.04632971e+00
-1.35495895e+01
-1.66306655e+01
-6.19070375e+00
1.20487446e+00
-1.27737839e+01
-4.22262317e+00
2.37697005e-01
8.00657907e+00
-3.23682404e+01
-3.32829466e+01
-1.74598899e+01
-1.55457561e+01
-5.66656351e-01
1.05686069e+00
-4.45589304e-01
2.55278957e+00
-3.17546797e+00
-9.84106995e-01
2.62248254e+01
1.31392755e+01
3.65206954e+01
3.43121990e+00
3.50758428e+01
6.42256443e+00
2.92511029e+01
-1.00446345e+01
1.11425483e+00
6.37702084e+00
3.19621807e+00
7.11236513e+00
3.08835061e+01
1.78967383e+01
3.90911088e+01
4.26359168e+01
3.48550669e+01
5.87210375e+01
4.24351343e+01
5.35210381e+01
3.20678422e+01
6.11501274e+01
3.57051437e+00
2.75041831e+00
7.83237973e+00
5.26199490e+00
1.56828370e+01
2.37342953e+01
3.10215607e+01
4.27748596e+01
2.71714204e+01
2.07337055e+01
3.59944105e-01
1.77333203e+01
7.43781400e+00
1.68056515e+01
4.05945113e+00
2.09136677e+00
1.06096441e+01
4.73987573e+00
1.53099470e+01
1.41759513e+01
2.43174371e+01
3.01623665e+01
2.76989646e+01
2.04343975e+01
8.40174866e+00
6.61912687e+00
2.97709262e+00
1.29930854e+00
-1.68650291e+01
-1.55221462e+01
-7.36196488e+00
-1.61419806e+01
-2.27605629e+01
-9.33369404e+00
3.71641312e+01
-2.22685140e+01
3.13072929e+01
8.25371122e+00
8.66046810e+00
7.89467208e+00
4.51317519e-01
1.45161456e+00
1.08616495e+00
1.32505280e+00
4.42547194e+00
8.58072907e-01
5.58064222e+00
5.83711097e+00
3.90013379e+00
1.03086299e+01
4.23458779e+00
6.00335729e+00
1.00391323e+01
5.14216525e+00
9.81264257e+00
6.31748962e+00
7.49303475e+00
1.59210479e+00
-5.82022172e+00
-4.60623676e+01
-3.60692186e+01
-3.16725812e+01
-3.26153116e+01
2.31835772e+01
1.10030775e+01
-2.28128898e+01
7.35817432e+01
1.54527976e+01
1.54048425e+01
3.89179162e+01
3.17776066e+01
1.82935591e+01
1.11252907e+01
8.32175785e+00
-1.43538997e+01
-4.91034192e-01
-3.76890105e+00
1.01127853e+01
-7.66594582e+01
9.35485035e-01
6.92382842e-01
1.07473826e+00
1.75082701e+00
1.55376267e+00
2.15592348e+00
6.78776390e+00
2.88906449e+00
6.90531290e+00
7.89889261e+00
6.97086862e+00
1.46680283e+01
9.29098898e+00
5.18949181e+00
1.24857026e+01
1.35267555e+01
1.46814256e+01
2.35886930e+01
6.06993222e+00
6.97377998e+00
2.68439658e+01
-6.67498795e+01
-4.44104462e+01
-2.78107781e+01
-1.70285225e+01
5.46377196e+00
2.04797244e+01
-8.28703251e+01
3.35990940e+01
1.48801059e+01
-4.20384915e+01
2.35642731e+01
1.94656741e+01
4.02278344e+01
7.56284103e+01
-5.74231200e+01
1.42948334e+01
9.09498596e+00
</DataArray>
<DataArray type="Float32" Name="Stress_Mid_Principal" format="ascii">
-3.28213644e+00
-8.20061886e+00
-4.25191021e+00
-4.45181882e+00
-1.40257061e+00
-5.57388592e+00
-2.87827755e+00
-4.08007860e+00
-1.10366565e+01
-1.25855176e+01
-6.76878649e+00
-7.16487151e+00
-1.48612370e+01
-1.95573053e+01
-6.79527044e+00
-1.18624614e+01
-1.90888983e+01
-2.82125672e+01
-9.34111238e+00
-1.69404671e+00
-1.97738065e+01
-1.45477304e+01
-3.00894058e+00
1.05014029e+00
-4.92385635e+01
-5.98411751e+01
-2.62439779e+01
-2.56368716e+01
-3.73527777e+00
-1.51937199e+00
-2.05552208e+00
1.62609649e+00
-9.37893760e+00
-5.53971934e+00
1.54505161e+01
4.09124075e+00
2.35716383e+01
-1.68701986e+01
2.63337185e+01
-9.07890765e+00
4.63021660e+00
-4.26122640e+01
-7.53697360e+00
1.59722996e+00
-3.28040481e+00
4.34258854e+00
1.19971243e+01
4.70861453e+00
2.64719458e+01
2.70514712e+01
2.63954550e+01
3.20831757e+01
3.53288651e+01
3.15946830e+01
1.97183702e+01
4.15197711e+01
-7.34225826e+00
-5.39313006e+00
8.10795195e-01
-1.93360493e-01
5.37401009e+00
1.18410785e+01
2.36706191e+01
3.06295024e+01
2.30154740e+01
7.34761685e+00
-1.25266845e+01
1.22739437e+01
-1.98388243e+00
-9.55251455e-01
-5.80693826e+00
-6.41591430e+00
4.46947488e+00
-1.65445876e+00
5.32066828e+00
4.64082295e+00
1.28785825e+01
9.11229483e+00
1.63345808e+01
5.26717758e+00
3.26310432e+00
7.38747638e-01
-1.39013416e+00
3.06578487e-01
-2.91489344e+01
-2.92803192e+01
-1.48775290e+01
-2.59320269e+01
-3.90466566e+01
-1.74699451e+01
1.01033783e+01
-4.18175567e+01
2.50789454e+01
-1.31652880e+01
4.62360251e+00
3.07630465e+00
-4.26451981e-01
1.53138697e-01
-1.95355153e+00
-6.39837263e-01
2.10463744e+00
-2.47842598e+00
3.97845422e+00
3.38934839e+00
2.97884738e+00
5.61112505e+00
2.33786011e+00
3.60121322e+00
8.13242961e+00
3.14664000e+00
8.34000039e+00
3.23636997e+00
5.05063757e+00
-1.43147784e+00
-1.04337952e+01
-6.20328705e+01
-4.06667519e+01
-3.87559903e+01
-4.48212471e+01
1.39259022e+01
1.02078902e+01
-3.04990460e+01
4.23425617e+01
1.17821812e+01
1.39728850e+01
2.74412355e+01
2.33435112e+01
1.31342431e+01
8.54742688e+00
-7.09364414e-02
-2.02119238e+01
-2.61569753e+00
-6.57720983e+00
-9.01399612e+00
-8.54369545e+01
-3.45389437e-01
-3.54903801e-01
-1.21304370e-01
-6.11582071e-01
7.97716856e-01
6.86402231e-01
4.98222791e+00
1.10302710e+00
4.88559973e+00
4.81464196e+00
5.60968626e+00
9.27484453e+00
7.11594462e+00
2.39705259e+00
1.06744848e+01
6.74557400e+00
1.37033706e+01
1.63167036e+01
1.83220452e+00
2.72386312e+00
1.27103312e+01
-7.79071640e+01
-4.99140053e+01
-3.36558456e+01
-2.63063812e+01
1.03414968e+00
1.23369484e+01
-1.04158132e+02
2.27168057e+01
1.28840648e+01
-5.09424049e+01
1.63154639e+01
1.42571727e+01
2.12413979e+01
3.04674091e+01
-7.54884534e+01
1.05042664e+01
2.39072323e+00
</DataArray>
<DataArray type="Float32" Name="Stress_Min_Principal" format="ascii">
-3.26042976e+01
-4.24142513e+01
-3.57505209e+01
-3.66544380e+01
-2.89079361e+01
-3.73647220e+01
-3.29110839e+01
-3.56154852e+01
-4.77559958e+01
-5.15456613e+01
-4.06466949e+01
-4.12927455e+01
-5.57414589e+01
-6.50546556e+01
-4.20718437e+01
-5.02624824e+01
-6.50467796e+01
-7.74721074e+01
-4.67410963e+01
-3.05358288e+01
-6.47945614e+01
-5.09257584e+01
-3.60100079e+01
-2.66682646e+01
-1.16646912e+02
-1.26716827e+02
-7.67403736e+01
-7.39517085e+01
-3.45325089e+01
-3.04172344e+01
-3.27298688e+01
-2.55182806e+01
-4.31629081e+01
-3.78608470e+01
-3.41534400e+00
-2.54348112e+01
6.10808802e+00
-5.62123815e+01
1.16961129e+01
-4.55854804e+01
-2.52673874e+01
-1.05506566e+02
-3.58031289e+01
-2.09495914e+01
-2.95347211e+01
-1.74684810e+01
-1.01286526e+01
-1.42917798e+01
1.82634797e+01
1.88811594e+01
1.78626308e+01
2.27913653e+01
3.23713284e+01
2.51757425e+01
2.39017487e+00
2.22361772e+01
-3.22259002e+01
-3.17707338e+01
-1.99125436e+01
-2.40651851e+01
-9.11332226e+00
-3.03764451e+00
1.16938294e+01
1.85612335e+01
1.20302457e+01
-4.13413103e+00
-3.55045285e+01
7.91104809e+00
-2.84041920e+01
-6.59954131e+00
-3.02339590e+01
-3.35426769e+01
-1.45770375e+01
-2.59256833e+01
-1.00306337e+01
-1.53368552e+01
-2.57598639e+00
-1.30939941e+01
9.53864610e+00
-4.99780732e+00
-5.06776813e+00
-2.82662686e+00
-8.59781027e+00
-6.62355872e+00
-7.85455074e+01
-7.68083038e+01
-5.35693798e+01
-7.47401924e+01
-9.56268463e+01
-6.04874153e+01
-2.00213184e+01
-1.00454397e+02
1.31580539e+01
-3.47604489e+01
-1.11598911e+01
-8.21103064e+00
-4.71789789e+00
-4.46724665e+00
-3.08094707e+01
-2.92144976e+01
-2.28610672e+01
-3.15935645e+01
-1.97016239e+01
-2.05734377e+01
-2.25792854e+01
-1.99945713e+01
-2.28760169e+01
-2.09192289e+01
-1.03447366e+01
-2.16738372e+01
-1.05116096e+01
-1.97138063e+01
-1.76881220e+01
-2.96996751e+01
-5.02532069e+01
-1.46824575e+02
-1.13049553e+02
-1.06093246e+02
-1.12955982e+02
-7.69608974e+00
-7.10026145e+00
-9.08148050e+01
3.65136623e+01
-1.59249347e+00
8.30001831e-01
1.77594946e+01
1.44566647e+01
-1.72146484e+00
-8.74039149e+00
-2.28472868e+01
-7.37395511e+01
-3.41667323e+01
-4.12940369e+01
-5.42803783e+01
-2.06509407e+02
-9.74219114e-01
-7.21544355e-01
-1.33750451e+00
-1.52346128e+00
-2.74892731e+01
-2.69353627e+01
-1.72945957e+01
-2.56939859e+01
-1.72253347e+01
-1.77857364e+01
-1.63716743e+01
-1.16800941e+01
-1.21898758e+01
-2.23939354e+01
-4.86160880e+00
-1.80122373e+01
6.72508240e-01
-2.02480698e+00
-2.12463008e+01
-1.93654256e+01
-1.71064299e+01
-1.84676218e+02
-1.32095306e+02
-9.64226933e+01
-7.62308025e+01
-2.29539162e+01
-8.33725500e+00
-2.31412201e+02
8.49070358e+00
-1.87443972e+00
-1.31256334e+02
-4.52421032e-01
-3.85893345e+00
-3.22660174e-01
2.62329540e+01
-1.81156029e+02
-1.21922879e+01
-2.70541515e+01
</DataArray>
<DataArray type="Float32" Name="Stress_Pressure" format="ascii">
1.17478666e+01
1.80543547e+01
1.37338833e+01
1.43020658e+01
9.36708164e+00
1.47988997e+01
1.19086212e+01
1.36402557e+01
2.14989145e+01
2.39082811e+01
1.68695502e+01
1.72842377e+01
2.66093059e+01
3.25838856e+01
1.77494107e+01
2.30570917e+01
3.25617547e+01
4.07717786e+01
2.07576377e+01
1.03416669e+01
3.24473848e+01
2.32320385e+01
1.29270830e+01
5.87051493e+00
6.60845718e+01
7.32803154e+01
4.01480799e+01
3.83781128e+01
1.29448141e+01
1.02932485e+01
1.17436602e+01
7.11313152e+00
1.85724372e+01
1.47948904e+01
-1.27533323e+01
2.73476573e+00
-2.20668068e+01
2.32171196e+01
-2.43685584e+01
1.60806077e+01
-2.87131119e+00
5.27211545e+01
1.40752829e+01
4.32511330e+00
9.87296939e+00
2.00450945e+00
-1.09173250e+01
-2.77119094e+00
-2.79421780e+01
-2.95228489e+01
-2.63710518e+01
-3.78651937e+01
-3.67117748e+01
-3.67638211e+01
-1.80587945e+01
-4.16353593e+01
1.19992150e+01
1.14711485e+01
3.75645620e+00
6.33218366e+00
-3.98117471e+00
-1.08459097e+01
-2.21286700e+01
-3.06551981e+01
-2.07390467e+01
-7.98239692e+00
1.58904232e+01
-1.26394374e+01
7.65008640e+00
-3.08361952e+00
1.06604823e+01
1.26224082e+01
-1.67360321e-01
7.61342210e+00
-3.53332722e+00
-1.15997356e+00
-1.15400114e+01
-8.72688961e+00
-1.78573970e+01
-6.90125585e+00
-2.19902840e+00
-1.51041580e+00
2.33695060e+00
1.67255723e+00
4.15198250e+01
4.05369225e+01
2.52696249e+01
3.89380665e+01
5.24780235e+01
2.90970178e+01
-9.08206558e+00
5.48468233e+01
-2.31814301e+01
1.32240081e+01
-7.08059549e-01
-9.19982056e-01
1.56434417e+00
9.54164505e-01
1.05589523e+01
9.50976050e+00
5.44365261e+00
1.10713054e+01
3.38084251e+00
3.78232601e+00
5.23343486e+00
1.35827243e+00
5.43452270e+00
3.77155277e+00
-2.60894167e+00
4.46167724e+00
-2.54701096e+00
3.38664913e+00
1.71481670e+00
9.84634972e+00
2.21690750e+01
8.49732718e+01
6.32618408e+01
5.88406081e+01
6.34641800e+01
-9.80446272e+00
-4.70356894e+00
4.80422477e+01
-5.08126564e+01
-8.54749501e+00
-1.00692428e+01
-2.80395487e+01
-2.31925946e+01
-9.90211250e+00
-3.64410901e+00
4.86548865e+00
3.61017909e+01
1.24244876e+01
1.72133827e+01
1.77271948e+01
1.22868610e+02
1.28041178e-01
1.28021780e-01
1.28023539e-01
1.28072113e-01
8.37926471e+00
8.03101218e+00
1.84153455e+00
7.23396450e+00
1.81147385e+00
1.69073385e+00
1.26370651e+00
-4.08759305e+00
-1.40568542e+00
4.93579721e+00
-6.09952625e+00
-7.53363609e-01
-9.68576813e+00
-1.26268640e+01
4.44805436e+00
3.22259450e+00
-7.48262359e+00
1.09777754e+02
7.54732533e+01
5.26297722e+01
3.98552351e+01
5.48533126e+00
-8.15980577e+00
1.39480217e+02
-2.16022016e+01
-8.62991023e+00
7.47457433e+01
-1.31424394e+01
-9.95463768e+00
-2.03821907e+01
-4.41095924e+01
1.04689199e+02
-4.20227051e+00
5.18947983e+00
</DataArray>
<DataArray type="Float32" Name="Stress_Tresca" format="ascii">
3.32471275e+01
3.88660583e+01
3.45513015e+01
3.48544979e+01
3.11171970e+01
3.59066324e+01
3.29745812e+01
3.43902826e+01
4.20519037e+01
4.39519987e+01
3.74535251e+01
3.78976493e+01
4.65162373e+01
5.19149632e+01
3.76907272e+01
4.32161535e+01
5.14971886e+01
6.08414412e+01
4.05503933e+01
3.17407033e+01
5.20207787e+01
4.67031345e+01
3.62477055e+01
3.46748428e+01
8.42786713e+01
9.34338799e+01
5.92804832e+01
5.84059527e+01
3.39658523e+01
3.14740963e+01
3.22842789e+01
2.80710697e+01
3.99874387e+01
3.68767405e+01
2.96401691e+01
3.85740869e+01
3.04126081e+01
5.96436017e+01
2.33797300e+01
5.20080449e+01
5.45184898e+01
9.54619344e+01
3.69173827e+01
2.73266115e+01
3.27309391e+01
2.45808461e+01
4.10121584e+01
3.21885183e+01
2.08276286e+01
2.37547576e+01
1.69924361e+01
3.59296722e+01
1.00638059e+01
2.83452956e+01
2.96776676e+01
3.89139500e+01
3.57964144e+01
3.45211525e+01
2.77449236e+01
2.93271794e+01
2.47961597e+01
2.67719401e+01
1.93277307e+01
2.42136259e+01
1.51411750e+01
2.48678366e+01
3.58644724e+01
9.82227198e+00
3.58420067e+01
2.34051921e+01
3.42934105e+01
3.56340446e+01
2.51866817e+01
3.06655591e+01
2.53405809e+01
2.95128064e+01
2.68934236e+01
4.32563601e+01
1.81603189e+01
2.54322052e+01
1.34695168e+01
9.44575338e+00
1.15749028e+01
7.92286746e+00
6.16804790e+01
6.12861557e+01
4.62074146e+01
5.85982113e+01
7.28662815e+01
5.11537204e+01
5.71854496e+01
7.81858826e+01
1.81492386e+01
4.30141602e+01
1.98203592e+01
1.61057027e+01
5.16921520e+00
5.91886115e+00
3.18956356e+01
3.05395503e+01
2.72865391e+01
3.24516377e+01
2.52822657e+01
2.64105492e+01
2.64794192e+01
3.03032017e+01
2.71106048e+01
2.69225860e+01
2.03838689e+01
2.68160022e+01
2.03242512e+01
2.60312953e+01
2.51811574e+01
3.12917798e+01
4.44329848e+01
1.00762204e+02
7.69803333e+01
7.44206657e+01
8.03406715e+01
3.08796670e+01
1.81033394e+01
6.80019159e+01
3.70680809e+01
1.70452909e+01
1.45748405e+01
2.11584215e+01
1.73209419e+01
2.00150239e+01
1.98656828e+01
3.11690451e+01
5.93856521e+01
3.36756983e+01
3.75251350e+01
6.43931637e+01
1.29849945e+02
1.90970421e+00
1.41392720e+00
2.41224283e+00
3.27428842e+00
2.90430355e+01
2.90912862e+01
2.40823598e+01
2.85830507e+01
2.41306477e+01
2.56846290e+01
2.33425424e+01
2.63481221e+01
2.14808648e+01
2.75834272e+01
1.73473113e+01
3.15389922e+01
1.40089178e+01
2.56135001e+01
2.73162338e+01
2.63392057e+01
4.39503956e+01
1.17926338e+02
8.76848621e+01
6.86119156e+01
5.92022781e+01
2.84176881e+01
2.88169804e+01
1.48541878e+02
2.51083900e+01
1.67545457e+01
8.92178411e+01
2.40166944e+01
2.33246078e+01
4.05504946e+01
4.93954544e+01
1.23732909e+02
2.64871211e+01
3.61491375e+01
</DataArray>
<DataArray type="Float32" Name="Stress_Third_Invariant" format="ascii">
-3.09108753e+01
-3.60898352e+01
-3.27936988e+01
-3.33527308e+01
-2.89734621e+01
-3.34680996e+01
-3.12851002e+01
-3.27590885e+01
-3.88364801e+01
-4.09938602e+01
-3.53831530e+01
-3.57044628e+01
-4.31110458e+01
-4.80469809e+01
-3.63586178e+01
-4.03737656e+01
-4.82345181e+01
-5.30787382e+01
-3.87824986e+01
-3.00610407e+01
-4.77426729e+01
-3.84160060e+01
-3.24471471e+01
-2.58490369e+01
-7.29176712e+01
-7.27485847e+01
-5.38127565e+01
-5.18387580e+01
-3.21362371e+01
-3.00007877e+01
-3.14096904e+01
-2.75830405e+01
-3.60220982e+01
-3.33373935e+01
-1.14869397e+01
-2.28569997e+01
-6.24430609e+00
-3.60849455e+01
-5.50236893e+00
-3.22527363e+01
-1.62250223e+01
-5.70369886e+01
-3.06654923e+01
-2.42253933e+01
-2.81920499e+01
-2.29018314e+01
-1.01151209e+01
-1.59271100e+01
2.52791870e+00
6.63054327e+00
-2.03468577e+00
2.88100033e+01
6.89016024e+00
2.33851166e+01
-7.35336637e+00
3.72741222e+00
-2.70260811e+01
-2.86923075e+01
-2.25164236e+01
-2.57156377e+01
-1.20656241e+01
-8.98724565e+00
-6.05238235e+00
7.60453065e-01
-1.19189523e+01
4.57993189e-01
-1.48193998e+01
2.20398140e+00
-2.82164955e+01
1.84999202e+01
-2.63473712e+01
-2.95295210e+01
-1.99247483e+01
-2.62690852e+01
-1.27824906e+01
-1.81028256e+01
-9.49856657e+00
-1.01008051e+01
7.04017258e+00
5.00922829e+00
-6.57859004e+00
3.19842005e+00
-4.23480570e+00
-6.53277101e+00
-5.34160976e+01
-5.16615334e+01
-4.13908963e+01
-5.23286095e+01
-6.13496761e+01
-4.50011928e+01
-1.21180763e+01
-6.23402157e+01
-6.67005920e+00
7.80389881e+00
-1.09075022e+01
-1.19021735e+01
-4.60487270e+00
-4.98848677e+00
-3.01458483e+01
-2.94339609e+01
-2.59681257e+01
-3.05075474e+01
-2.43917964e+01
-2.45855529e+01
-2.59873948e+01
-2.27291868e+01
-2.60551918e+01
-2.46489861e+01
-1.88919009e+01
-2.53265954e+01
-1.95042505e+01
-2.41481395e+01
-2.29141945e+01
-2.95287209e+01
-4.16805103e+01
-8.92679943e+01
-7.44605732e+01
-7.03223648e+01
-7.26966934e+01
-1.35599028e+01
-1.76559941e+01
-6.34275901e+01
3.33906126e+01
-1.30446445e+01
-1.37270922e+01
8.67017933e-01
-4.20928415e+00
-1.28370323e+01
-1.82732396e+01
-2.31651313e+01
-5.59206069e+01
-3.18737364e+01
-3.59543400e+01
-3.53973427e+01
-1.24984898e+02
1.38214874e+00
1.10325730e+00
-4.87898111e-01
2.48377168e+00
-2.86490154e+01
-2.82975926e+01
-2.27982310e+01
-2.75819445e+01
-2.29798360e+01
-2.28091195e+01
-2.25847645e+01
-1.80811328e+01
-2.01278094e+01
-2.55096792e+01
-1.62872874e+01
-2.07503386e+01
-1.34530034e+01
-1.11578290e+01
-2.45354873e+01
-2.36108451e+01
-1.69595449e+01
-1.10718207e+02
-8.46476059e+01
-6.52914429e+01
-5.33533115e+01
-2.54272411e+01
-1.46422894e+01
-1.35315310e+02
-3.63505088e+00
-1.43304198e+01
-8.37216372e+01
-1.07678519e+01
-1.33769226e+01
-2.37867599e+00
4.69920654e+01
-1.11604101e+02
-1.94099003e+01
-2.57988906e+01
</DataArray>
<DataArray type="Float32" Name="Logarithmic_strain_Max_Principal" format="ascii">
6.46273568e-02
6.69931918e-02
6.09339438e-02
5.87966777e-02
6.14378881e-02
6.27682321e-02
5.82564794e-02
5.72613850e-02
7.21650235e-02
6.65359078e-02
6.46853885e-02
6.18691547e-02
7.74442591e-02
7.18065724e-02
6.69231936e-02
6.65243906e-02
8.30322281e-02
7.91481063e-02
7.13872146e-02
6.82121273e-02
9.00642723e-02
8.74178950e-02
7.52793495e-02
7.52286315e-02
1.08704433e-01
1.02855176e-01
8.96111280e-02
8.79882928e-02
5.00121964e-02
4.80425619e-02
4.85233264e-02
4.58178604e-02
5.40854055e-02
5.15346187e-02
4.94589200e-02
5.30533642e-02
5.65054500e-02
6.22703514e-02
5.79071380e-02
6.39547817e-02
6.21048268e-02
7.23863306e-02
4.54577534e-02
4.42496631e-02
4.21465328e-02
3.95110473e-02
3.78369167e-02
4.02175114e-02
1.83798734e-02
2.57947324e-02
1.45532860e-02
3.39271287e-02
1.63760859e-02
3.33320958e-02
1.43273179e-02
2.94981203e-02
4.44569020e-02
4.51891143e-02
3.98915159e-02
4.10847105e-02
3.28945369e-02
3.28665024e-02
1.20062316e-02
1.76939437e-02
1.96153695e-03
3.83435516e-03
7.71891292e-03
4.98620714e-03
8.56015653e-03
7.86192721e-03
4.36846185e-02
4.65975367e-02
3.99723365e-02
4.21008663e-02
3.35545908e-02
3.46130386e-02
1.26302659e-02
2.40173542e-02
1.43453308e-03
4.00337276e-03
1.55030064e-04
1.34192921e-04
9.90638873e-05
5.08592830e-05
4.89590056e-02
5.27673550e-02
4.36763261e-02
4.77908142e-02
4.20097411e-02
4.05948712e-02
1.95264844e-02
3.48040139e-02
1.72415769e-03
8.24383352e-03
2.90446893e-04
1.79472292e-04
2.93728390e-05
4.66075235e-05
5.44466414e-02
5.25190141e-02
5.37226978e-02
5.44927167e-02
5.20168580e-02
5.48054986e-02
5.40646892e-02
5.79671646e-02
6.01419304e-02
6.37663198e-02
5.89874024e-02
6.50427309e-02
6.10484723e-02
6.76602460e-02
5.07671507e-02
5.18251974e-02
5.52666773e-02
7.03644961e-02
7.22847749e-02
7.38552716e-02
7.80494064e-02
4.33089533e-02
4.06891676e-02
5.11124544e-02
6.74928501e-02
3.79084311e-02
3.26801660e-02
3.69513413e-02
3.52242825e-02
3.74913772e-02
3.59129831e-02
4.43020226e-02
5.22844354e-02
3.81704737e-02
3.63467745e-02
5.07060988e-02
6.20715935e-02
2.41785428e-05
1.82059694e-05
2.80800323e-05
4.31903845e-05
4.82049864e-02
4.94237449e-02
5.22213029e-02
4.99376962e-02
5.30555639e-02
5.56287803e-02
5.42514166e-02
5.81256915e-02
5.66212097e-02
6.11224947e-02
5.42306136e-02
5.75614902e-02
5.23899868e-02
5.73029807e-02
5.94110750e-02
5.77711510e-02
5.46370654e-02
7.49047905e-02
7.16804601e-02
6.84114676e-02
6.89640604e-02
5.82195733e-02
5.21283187e-02
8.33697449e-02
4.16462081e-02
4.39645965e-02
5.69564747e-02
4.19367207e-02
4.20172559e-02
5.52497272e-02
9.20695588e-02
8.41559296e-02
5.08725513e-02
4.67898604e-02
</DataArray>
<DataArray type="Float32" Name="Logarithmic_strain_Min_Principal" format="ascii">
-8.54073539e-02
-8.92607272e-02
-8.42823982e-02
-8.26346241e-02
-8.19992758e-02
-8.51938576e-02
-8.17619087e-02
-8.01847372e-02
-9.61862840e-02
-9.09599625e-02
-9.13436972e-02
-8.78385501e-02
-1.05496511e-01
-9.95933451e-02
-9.88053270e-02
-9.57344370e-02
-1.15189090e-01
-1.08271040e-01
-1.06304670e-01
-1.00221762e-01
-1.24016669e-01
-1.12240212e-01
-1.11153176e-01
-1.05930704e-01
-1.35264426e-01
-1.24929581e-01
-1.20527226e-01
-1.15457522e-01
-7.27707744e-02
-7.21674748e-02
-7.26726940e-02
-7.07772076e-02
-7.16804173e-02
-7.41969869e-02
-6.40872028e-02
-7.62125403e-02
-6.53210906e-02
-7.90913130e-02
-6.04355223e-02
-7.89585349e-02
-6.52913637e-02
-8.75321875e-02
-5.93087319e-02
-5.95704671e-02
-5.96646308e-02
-5.89814391e-02
-4.52860976e-02
-5.19546326e-02
-1.63711859e-02
-2.27053693e-02
-1.08615526e-02
-2.61222826e-02
-1.16665494e-02
-2.63181170e-02
-1.38664949e-02
-2.41949670e-02
-5.16422046e-02
-5.54632023e-02
-4.97362185e-02
-5.28833512e-02
-3.51709062e-02
-3.50961518e-02
-8.35719483e-03
-1.54971728e-02
-2.20637186e-03
-3.27761326e-03
-1.14004895e-02
-3.68361363e-03
-1.16699792e-02
-4.77070105e-03
-5.46733933e-02
-5.91193549e-02
-5.11507443e-02
-5.57463113e-02
-3.87997348e-02
-4.19729888e-02
-1.03200118e-02
-2.77258543e-02
-6.33643383e-04
-2.37164695e-03
-1.18037862e-04
-8.80019154e-05
-1.78071477e-04
-1.39169893e-04
-6.53744452e-02
-6.87792376e-02
-6.12780126e-02
-6.67559430e-02
-5.33440914e-02
-5.80240451e-02
-2.06910959e-02
-4.60838669e-02
-1.92688295e-03
-7.64708343e-03
-4.19126955e-04
-2.01486463e-04
-9.49018577e-05
-9.56111944e-05
-7.81936795e-02
-7.89427403e-02
-7.65461922e-02
-7.64463134e-02
-8.03912748e-02
-8.12071934e-02
-8.53846353e-02
-8.80387370e-02
-8.99482965e-02
-9.57559310e-02
-9.11097769e-02
-9.91051476e-02
-9.21563469e-02
-9.99611299e-02
-7.20704617e-02
-7.05692451e-02
-8.30025928e-02
-1.06707615e-01
-1.14873039e-01
-1.16784319e-01
-1.17670633e-01
-6.06056466e-02
-5.86518673e-02
-7.47371794e-02
-6.02788273e-02
-4.99311341e-02
-4.96373959e-02
-4.48394114e-02
-3.58800559e-02
-5.06010721e-02
-5.17107761e-02
-5.74019104e-02
-8.14276766e-02
-6.02123700e-02
-5.96684888e-02
-7.28064794e-02
-1.07158855e-01
-2.15409445e-05
-1.57866425e-05
-3.03621209e-05
-3.52392135e-05
-7.94589929e-02
-7.93050062e-02
-7.82307228e-02
-7.92305171e-02
-7.73153417e-02
-8.06313325e-02
-7.74807259e-02
-8.34340286e-02
-7.77950268e-02
-8.94590234e-02
-7.68185779e-02
-8.80185887e-02
-7.53008127e-02
-8.45090672e-02
-8.03773506e-02
-7.64599703e-02
-8.93125279e-02
-1.19912390e-01
-1.15101272e-01
-1.09382231e-01
-1.05361603e-01
-7.61295956e-02
-6.89589381e-02
-1.18548092e-01
-6.02975238e-02
-6.04380835e-02
-8.64645792e-02
-6.07366017e-02
-6.07403703e-02
-7.36695443e-02
-8.74566138e-02
-1.18403624e-01
-7.01738019e-02
-6.72265440e-02
</DataArray>
<DataArray type="Float32" Name="Plastic_strain_Max_Principal" format="ascii">
6.44815043e-02
6.69208802e-02
6.08380567e-02
5.86787816e-02
6.12524375e-02
6.26782775e-02
5.81216076e-02
5.71876764e-02
7.21526295e-02
6.65620435e-02
6.45812126e-02
6.18335325e-02
7.73801021e-02
7.59817772e-02
6.68070037e-02
6.75479737e-02
8.30438212e-02
8.35542455e-02
7.14561660e-02
6.98126517e-02
9.01882648e-02
9.52970013e-02
7.54273813e-02
7.75959948e-02
1.08658098e-01
1.12623241e-01
8.99248235e-02
9.00307428e-02
4.99059912e-02
4.78943381e-02
4.84314361e-02
4.56342651e-02
5.44417491e-02
5.25394473e-02
4.09920425e-02
5.03787010e-02
4.42201502e-02
5.36917659e-02
3.74065135e-02
5.17601073e-02
3.32505917e-02
6.10900645e-02
4.52918317e-02
4.39587850e-02
4.19823313e-02
3.92288640e-02
3.60206882e-02
3.83826713e-02
1.70095952e-02
2.40727339e-02
1.39971393e-02
2.62021680e-02
1.37635261e-02
2.46874026e-02
1.68450796e-02
3.07846642e-02
4.42341194e-02
4.49103191e-02
3.96008748e-02
4.08576811e-02
3.37439948e-02
3.30356620e-02
7.48612965e-03
1.46631568e-02
1.57774000e-03
3.43831866e-03
7.75248790e-03
4.73927290e-03
8.43945239e-03
7.52710381e-03
4.34296606e-02
4.64504827e-02
3.97175527e-02
4.18761745e-02
3.47307194e-02
3.13555817e-02
1.14109281e-02
2.52309813e-02
1.05063698e-03
3.59688094e-03
4.27636573e-05
9.90176832e-06
0.00000000e+00
0.00000000e+00
4.90586758e-02
5.29902503e-02
4.38524392e-02
4.79861032e-02
4.20707371e-02
4.26619705e-02
2.03816006e-02
3.46573697e-02
1.37249297e-03
7.88245814e-03
9.43489358e-05
3.00949614e-05
0.00000000e+00
0.00000000e+00
5.43650035e-02
5.23698227e-02
5.35612861e-02
5.43351425e-02
5.18507101e-02
5.45260930e-02
5.39189223e-02
5.40684864e-02
5.99216036e-02
6.42950549e-02
5.88196963e-02
6.46251650e-02
6.09856788e-02
6.70347512e-02
5.10123223e-02
5.17239496e-02
5.49387059e-02
7.21145317e-02
7.25184735e-02
7.44995084e-02
7.86358602e-02
4.20123511e-02
4.05060742e-02
5.37089929e-02
6.90319110e-02
3.42103989e-02
3.23715298e-02
3.36207463e-02
3.53070293e-02
3.72052765e-02
3.56274378e-02
4.46133784e-02
5.71403168e-02
3.81853245e-02
3.64724118e-02
4.66112839e-02
6.54403046e-02
0.00000000e+00
0.00000000e+00
0.00000000e+00
0.00000000e+00
4.81615886e-02
4.92217885e-02
5.20896390e-02
4.96952003e-02
5.28275473e-02
5.53876483e-02
5.40868733e-02
5.45704854e-02
5.62392976e-02
6.15221388e-02
5.37624052e-02
5.72281810e-02
5.19080162e-02
5.67383869e-02
5.89561849e-02
5.76521391e-02
5.51013122e-02
7.75456533e-02
7.22554829e-02
6.93185516e-02
6.94916323e-02
5.89714402e-02
5.15314639e-02
8.48706346e-02
3.90238807e-02
4.51439228e-02
5.90020828e-02
4.73129372e-02
4.53617368e-02
5.25913962e-02
9.08372700e-02
9.76240113e-02
6.03778670e-02
4.47630454e-02
</DataArray>
<DataArray type="Float32" Name="Plastic_strain_Min_Principal" format="ascii">
-8.47607329e-02
-8.83637182e-02
-8.35708436e-02
-8.18563364e-02
-8.14141035e-02
-8.44584871e-02
-8.10858766e-02
-7.95240458e-02
-9.51610431e-02
-8.98373686e-02
-9.04161818e-02
-8.70304499e-02
-1.03983626e-01
-1.03912514e-01
-9.77307558e-02
-9.63789001e-02
-1.13302715e-01
-1.11330353e-01
-1.05348008e-01
-1.02501114e-01
-1.22120198e-01
-1.20678309e-01
-1.10729057e-01
-1.09384755e-01
-1.30806819e-01
-1.32926397e-01
-1.18294220e-01
-1.16621321e-01
-7.20701776e-02
-7.15272091e-02
-7.20304931e-02
-7.02271312e-02
-7.14443680e-02
-7.52337640e-02
-5.26402626e-02
-7.22784389e-02
-5.05844204e-02
-6.52931622e-02
-3.24283921e-02
-6.18184398e-02
-2.88127488e-02
-7.15483551e-02
-5.85319409e-02
-5.90495691e-02
-5.90498373e-02
-5.85033884e-02
-4.30828054e-02
-4.72496763e-02
-1.04221988e-02
-1.63992851e-02
-7.82560278e-03
-2.00486003e-02
-7.86762716e-03
-1.90997118e-02
-1.53030567e-02
-2.81803636e-02
-5.09293051e-02
-5.46587594e-02
-4.92621195e-02
-5.23461336e-02
-3.59346922e-02
-3.57627636e-02
-5.69504465e-03
-1.24418186e-02
-2.26554051e-03
-3.07590707e-03
-1.06922835e-02
-3.77359448e-03
-1.10472394e-02
-4.44791499e-03
-5.39600393e-02
-5.84608912e-02
-5.08584236e-02
-5.51617723e-02
-4.07303749e-02
-3.64383243e-02
-7.74656655e-03
-3.03608002e-02
-6.66382368e-04
-2.19459432e-03
-2.81649249e-05
-7.93008830e-06
0.00000000e+00
0.00000000e+00
-6.36881087e-02
-6.72848597e-02
-6.04220517e-02
-6.52434118e-02
-5.12981471e-02
-6.05456950e-02
-2.24314965e-02
-4.39547530e-02
-1.99632128e-03
-6.98250925e-03
-1.43012076e-04
-2.04440803e-05
0.00000000e+00
0.00000000e+00
-7.76603073e-02
-7.83351362e-02
-7.62017276e-02
-7.58019667e-02
-8.01790915e-02
-8.07970371e-02
-8.50800779e-02
-8.13674182e-02
-8.95311907e-02
-9.69206756e-02
-9.12450403e-02
-9.83495507e-02
-9.23910439e-02
-9.88662802e-02
-7.26019125e-02
-7.00774696e-02
-8.10150600e-02
-1.06443273e-01
-1.11293035e-01
-1.14470825e-01
-1.15435582e-01
-5.92756988e-02
-5.86700067e-02
-7.65619508e-02
-6.74475525e-02
-4.37946171e-02
-4.96566854e-02
-4.12631419e-02
-3.57708819e-02
-5.07131219e-02
-5.14512993e-02
-5.31554191e-02
-8.68591499e-02
-5.96449394e-02
-5.91780189e-02
-6.54621683e-02
-1.06746968e-01
0.00000000e+00
0.00000000e+00
0.00000000e+00
0.00000000e+00
-7.91259483e-02
-7.86993969e-02
-7.81496670e-02
-7.85938092e-02
-7.70941433e-02
-8.03583525e-02
-7.74224736e-02
-7.72896842e-02
-7.75139276e-02
-9.03458809e-02
-7.65737724e-02
-8.77881786e-02
-7.51938298e-02
-8.44705701e-02
-7.97221726e-02
-7.63925966e-02
-8.89463244e-02
-1.17133404e-01
-1.11294320e-01
-1.08042538e-01
-1.04203641e-01
-7.75214349e-02
-6.85558561e-02
-1.15452709e-01
-5.69342141e-02
-6.31567361e-02
-8.62267409e-02
-5.27966537e-02
-6.72190273e-02
-6.24673614e-02
-9.52307582e-02
-1.37737592e-01
-8.75414778e-02
-6.37932792e-02
</DataArray>
</PointData>
<Cells>
<DataArray type="Int32" Name="connectivity" format="ascii">
0 1 2 3 4 5 6 7
1 8 9 2 5 10 11 6
8 12 13 9 10 14 15 11
12 16 17 13 14 18 19 15
16 20 21 17 18 22 23 19
20 24 25 21 22 26 27 23
3 2 28 29 7 6 30 31
2 9 32 28 6 11 33 30
9 13 34 32 11 15 35 33
13 17 36 34 15 19 37 35
17 21 38 36 19 23 39 37
21 25 40 38 23 27 41 39
29 28 42 43 31 30 44 45
28 32 46 42 30 33 47 44
32 34 48 46 33 35 49 47
34 36 50 48 35 37 51 49
36 38 52 50 37 39 53 51
38 40 54 52 39 41 55 53
43 42 56 57 45 44 58 59
42 46 60 56 44 47 61 58
46 48 62 60 47 49 63 61
48 50 64 62 49 51 65 63
52 54 66 67 53 55 68 69
57 56 70 71 59 58 72 73
56 60 74 70 58 61 75 72
60 62 76 74 61 63 77 75
62 64 78 76 63 65 79 77
64 67 80 78 65 69 81 79
67 66 82 80 69 68 83 81
71 70 84 85 73 72 86 87
70 74 88 84 72 75 89 86
74 76 90 88 75 77 91 89
76 78 92 90 77 79 93 91
78 80 94 92 79 81 95 93
80 82 96 94 81 83 97 95
4 5 6 7 98 99 100 101
5 10 11 6 99 102 103 100
10 14 15 11 102 104 105 103
14 18 19 15 104 106 107 105
18 22 23 19 106 108 109 107
22 26 27 23 108 110 111 109
7 6 30 31 101 100 112 113
6 11 33 30 100 103 114 112
11 15 35 33 103 105 115 114
15 19 37 35 105 107 116 115
19 23 39 37 107 109 117 116
23 27 41 39 109 111 118 117
31 30 44 45 113 112 119 120
30 33 47 44 112 114 121 119
33 35 49 47 114 115 122 121
45 44 58 59 120 119 123 124
44 47 61 58 119 121 125 123
47 49 63 61 121 122 126 125
59 58 72 73 124 123 127 128
58 61 75 72 123 125 129 127
61 63 77 75 125 126 130 129
73 72 86 87 128 127 131 132
72 75 89 86 127 129 133 131
75 77 91 89 129 130 134 133
81 83 97 95 135 136 137 138
98 99 100 101 139 140 141 142
99 102 103 100 140 143 144 141
102 104 105 103 143 145 146 144
104 106 107 105 145 147 148 146
106 108 109 107 147 149 150 148
108 110 111 109 149 151 152 150
101 100 112 113 142 141 153 154
100 103 114 112 141 144 155 153
103 105 115 114 144 146 156 155
105 107 116 115 146 148 157 156
107 109 117 116 148 150 158 157
109 111 118 117 150 152 159 158
113 112 119 120 154 153 160 161
112 114 121 119 153 155 162 160
120 119 123 124 161 160 163 164
119 121 125 123 160 162 165 163
124 123 127 128 164 163 166 167
123 125 129 127 163 165 168 166
125 126 130 129 165 169 170 168
128 127 131 132 167 166 171 172
</DataArray>
<DataArray type="Int32" Name="offsets" format="ascii">
8
16
24
32
40
48
56
64
72
80
88
96
104
112
120
128
136
144
152
160
168
176
184
192
200
208
216
224
232
240
248
256
264
272
280
288
296
304
312
320
328
336
344
352
360
368
376
384
392
400
408
416
424
432
440
448
456
464
472
480
488
496
504
512
520
528
536
544
552
560
568
576
584
592
600
608
616
624
632
640
</DataArray>
<DataArray type="UInt8" Name="types" format="ascii">
12
12
12
12
12
12
12
12
12
12
12
12
12
12
12
12
12
12
12
12
12
12
12
12
12
12
12
12
12
12
12
12
12
12
12
12
12
12
12
12
12
12
12
12
12
12
12
12
12
12
12
12
12
12
12
12
12
12
12
12
12
12
12
12
12
12
12
12
12
12
12
12
12
12
12
12
12
12
12
12
</DataArray>
</Cells>
</Piece>
</UnstructuredGrid>
</VTKFile>
