<VTKFile type="UnstructuredGrid" version="0.1" byte_order="LittleEndian">
<UnstructuredGrid>
<Piece NumberOfPoints="191" NumberOfCells="79">
<Points>
<DataArray type="Float64" NumberOfComponents="3" format="ascii">
 1.03180993e+00  5.18729973e+00  1.91049933e+00
 2.05367923e+00  5.17884207e+00  1.92858303e+00
 2.05439687e+00  6.22517633e+00  1.89519334e+00
 1.02718139e+00  6.21945524e+00  1.88631272e+00
 1.02588272e+00  5.21598148e+00  2.86355615e+00
 2.05822611e+00  5.21392727e+00  2.86966896e+00
 2.04864907e+00  6.27374744e+00  2.82799029e+00
 1.02823234e+00  6.24740696e+00  2.83599544e+00
 3.09273553e+00  5.16562843e+00  1.94365895e+00
 3.10063386e+00  6.21679068e+00  1.89685822e+00
 3.09218907e+00  5.20621586e+00  2.85231614e+00
 3.13313031e+00  6.25827980e+00  2.78149033e+00
 5.09583616e+00  5.16036272e+00  2.00003099e+00
 6.09583521e+00  5.16293716e+00  2.00002718e+00
 6.09325743e+00  6.16294432e+00  1.99998486e+00
 5.09323215e+00  6.16037321e+00  1.99996853e+00
 5.09582853e+00  5.16041946e+00  3.00001860e+00
 6.09581900e+00  5.16300344e+00  3.00003481e+00
 6.09323645e+00  6.16299200e+00  2.99997425e+00
 5.09325409e+00  6.16040659e+00  2.99997926e+00
 0.00000000e+00  0.00000000e+00  2.78646326e+00
 1.04035997e+00  0.00000000e+00  2.78453374e+00
 1.04225898e+00  1.04393661e+00  2.79033709e+00
 0.00000000e+00  1.04244173e+00  2.79503345e+00
 0.00000000e+00  0.00000000e+00  3.71345520e+00
 1.05485320e+00  0.00000000e+00  3.71366119e+00
 1.05620730e+00  1.04352558e+00  3.71583891e+00
 0.00000000e+00  1.04083657e+00  3.72282481e+00
 2.08928967e+00  0.00000000e+00  2.77208447e+00
 2.07939959e+00  1.03680182e+00  2.78048253e+00
 2.10626245e+00  0.00000000e+00  3.70520377e+00
 2.10866690e+00  1.04572463e+00  3.70478010e+00
 3.13293052e+00  0.00000000e+00  2.75839019e+00
 3.13377619e+00  1.03222132e+00  2.76149225e+00
 3.15812802e+00  0.00000000e+00  3.69070816e+00
 3.15316224e+00  1.04012585e+00  3.69151425e+00
 4.18548775e+00  0.00000000e+00  2.74589872e+00
 4.18791628e+00  1.03384101e+00  2.74151540e+00
 4.20317602e+00  0.00000000e+00  3.67958164e+00
 4.20102215e+00  1.03309524e+00  3.67338419e+00
 5.23996782e+00  0.00000000e+00  2.73032188e+00
 5.24098825e+00  1.03639066e+00  2.73284554e+00
 5.24615765e+00  0.00000000e+00  3.67186117e+00
 5.24579239e+00  1.03155732e+00  3.66081309e+00
 6.28984022e+00  0.00000000e+00  2.72442389e+00
 6.29020834e+00  1.03608906e+00  2.72704411e+00
 6.28036737e+00  0.00000000e+00  3.66900158e+00
 6.29191065e+00  1.03078985e+00  3.66069102e+00
 1.02914476e+00  2.08260965e+00  2.80945134e+00
 0.00000000e+00  2.09446549e+00  2.81238031e+00
 1.05589914e+00  2.08852601e+00  3.73727441e+00
 0.00000000e+00  2.08869815e+00  3.73906732e+00
 2.07770824e+00  2.08332253e+00  2.78881764e+00
 2.11621141e+00  2.09350896e+00  3.71146584e+00
 3.12497187e+00  2.08934569e+00  2.75132275e+00
 3.16068673e+00  2.08778119e+00  3.66144443e+00
 4.18513012e+00  2.09923649e+00  2.74235559e+00
 4.19337368e+00  2.07630444e+00  3.64601326e+00
 5.23897839e+00  2.09232378e+00  2.74317956e+00
 5.24314070e+00  2.08579159e+00  3.64774370e+00
 6.28519869e+00  2.09555507e+00  2.73851585e+00
 6.28793859e+00  2.08638096e+00  3.64699388e+00
 1.02458620e+00  3.14225435e+00  2.84738255e+00
 0.00000000e+00  3.13938999e+00  2.84334946e+00
 1.05199873e+00  3.14000726e+00  3.76703024e+00
 0.00000000e+00  3.13834286e+00  3.77801776e+00
 2.06952429e+00  3.12474251e+00  2.81904340e+00
 2.13036752e+00  3.14459920e+00  3.70152640e+00
 3.05644965e+00  3.10765553e+00  2.56666541e+00
 3.18557191e+00  3.12726617e+00  3.60666251e+00
 1.02444565e+00  4.17512512e+00  2.87281084e+00
 0.00000000e+00  4.18169832e+00  2.86823535e+00
 1.04041016e+00  4.19305468e+00  3.82115030e+00
 0.00000000e+00  4.19814682e+00  3.80577159e+00
 0.00000000e+00  5.21062279e+00  2.86055827e+00
 1.03735101e+00  5.25070000e+00  3.80655766e+00
 0.00000000e+00  5.23523474e+00  3.79568577e+00
 2.06009603e+00  4.17572641e+00  2.90166306e+00
 2.09436059e+00  4.20351934e+00  3.79701352e+00
 2.09158325e+00  5.23582268e+00  3.80600142e+00
 0.00000000e+00  6.24997616e+00  2.82593322e+00
 1.05305040e+00  6.29764748e+00  3.74684620e+00
 0.00000000e+00  6.31031847e+00  3.76209903e+00
 2.09213829e+00  6.31491327e+00  3.74559307e+00
 3.12407255e+00  5.21710777e+00  3.69478369e+00
 3.19327927e+00  6.25042152e+00  3.69970536e+00
 0.00000000e+00  0.00000000e+00  4.63288069e+00
 1.06854272e+00  0.00000000e+00  4.63017035e+00
 1.07186854e+00  1.04502380e+00  4.63349247e+00
 0.00000000e+00  1.04183149e+00  4.63591146e+00
 2.12548780e+00  0.00000000e+00  4.62609768e+00
 2.13398504e+00  1.05253935e+00  4.62521267e+00
 3.17307854e+00  0.00000000e+00  4.61924934e+00
 3.17849612e+00  1.05482090e+00  4.61741734e+00
 4.21552086e+00  0.00000000e+00  4.61138201e+00
 4.21110010e+00  1.04947662e+00  4.61021948e+00
 5.24986935e+00  0.00000000e+00  4.60798788e+00
 5.24469137e+00  1.04393888e+00  4.60369062e+00
 6.27764273e+00  0.00000000e+00  4.60650730e+00
 6.27893305e+00  1.04739773e+00  4.60583115e+00
 1.08304405e+00  2.09673333e+00  4.63970184e+00
 0.00000000e+00  2.08770776e+00  4.64743519e+00
 2.15008545e+00  2.10667682e+00  4.62360096e+00
 3.19299674e+00  2.10624647e+00  4.60002232e+00
 4.21742201e+00  2.09488392e+00  4.58112907e+00
 5.23478460e+00  2.08130097e+00  4.57017136e+00
 6.25606966e+00  2.08518815e+00  4.57047081e+00
 1.08502448e+00  3.13341808e+00  4.67446709e+00
 0.00000000e+00  3.14961195e+00  4.68996477e+00
 2.16870499e+00  3.13866282e+00  4.61676693e+00
 3.22302961e+00  3.13172793e+00  4.55917835e+00
 4.20833731e+00  3.05859828e+00  3.50481653e+00
 4.23672628e+00  3.11708832e+00  4.54211521e+00
 1.08964300e+00  4.18777418e+00  4.74170065e+00
 0.00000000e+00  4.17558336e+00  4.70757103e+00
 2.18108273e+00  4.17626667e+00  4.64680243e+00
 1.07434678e+00  5.28033686e+00  4.68271208e+00
 0.00000000e+00  5.28630733e+00  4.68321276e+00
 1.08926678e+00  6.36938858e+00  4.65337086e+00
 0.00000000e+00  6.36526537e+00  4.66499615e+00
 2.13557267e+00  5.25626564e+00  4.68309402e+00
 2.20419168e+00  6.32125854e+00  4.65834284e+00
 3.20684719e+00  5.18493128e+00  4.58182096e+00
 3.29139066e+00  6.20917988e+00  4.60705137e+00
 4.06032467e+00  5.16042042e+00  3.44260001e+00
 4.17788315e+00  6.15892839e+00  3.51310730e+00
 4.26603127e+00  5.11725664e+00  4.54078531e+00
 4.28214979e+00  6.11861610e+00  4.54114914e+00
 5.26641035e+00  5.10265779e+00  3.54091549e+00
 6.26628637e+00  5.08784819e+00  3.54090214e+00
 6.28109980e+00  6.08774424e+00  3.54094243e+00
 5.28117275e+00  6.10258722e+00  3.54100609e+00
 5.26637173e+00  5.10263824e+00  4.54091358e+00
 6.26633501e+00  5.08781528e+00  4.54092360e+00
 6.28109694e+00  6.08771706e+00  4.54093456e+00
 5.28129530e+00  6.10243511e+00  4.54100132e+00
 0.00000000e+00  0.00000000e+00  5.54094887e+00
 1.07299185e+00  0.00000000e+00  5.54094887e+00
 1.07927489e+00  1.04886711e+00  5.54094887e+00
 0.00000000e+00  1.04356408e+00  5.54094887e+00
 2.13519192e+00  0.00000000e+00  5.54094887e+00
 2.14098954e+00  1.05711699e+00  5.54094887e+00
 3.17957354e+00  0.00000000e+00  5.54094887e+00
 3.18839097e+00  1.06136048e+00  5.54094887e+00
 4.21758890e+00  0.00000000e+00  5.54094887e+00
 4.21917057e+00  1.06089592e+00  5.54094887e+00
 5.24997282e+00  0.00000000e+00  5.54094887e+00
 5.24602461e+00  1.05624521e+00  5.54094887e+00
 6.28350496e+00  0.00000000e+00  5.54094887e+00
 6.26523924e+00  1.06376278e+00  5.54094887e+00
 1.09647083e+00  2.08807945e+00  5.54094887e+00
 0.00000000e+00  2.08325839e+00  5.54094887e+00
 2.16862726e+00  2.10732198e+00  5.54094887e+00
 3.20510459e+00  2.11527658e+00  5.54094887e+00
 4.22709513e+00  2.10658908e+00  5.54094887e+00
 5.23302794e+00  2.09430003e+00  5.54094887e+00
 6.24586058e+00  2.09327364e+00  5.54094887e+00
 1.10583651e+00  3.16983700e+00  5.54094887e+00
 0.00000000e+00  3.17587829e+00  5.54094887e+00
 2.19649315e+00  3.14821911e+00  5.54094887e+00
 3.23593140e+00  3.13918853e+00  5.54094887e+00
 4.23736000e+00  3.11795425e+00  5.54094887e+00
 5.23718643e+00  3.10188937e+00  4.54028940e+00
 5.23769665e+00  3.10263658e+00  5.54094887e+00
 6.23907042e+00  3.08980250e+00  4.53974724e+00
 6.23926973e+00  3.09147525e+00  5.54094887e+00
 3.25199127e+00  4.13322926e+00  4.52857304e+00
 3.25836468e+00  4.14178085e+00  5.54094887e+00
 2.24978924e+00  4.16865635e+00  5.54094887e+00
 4.25185156e+00  4.11693907e+00  4.54119396e+00
 4.25201797e+00  4.11717796e+00  5.54094887e+00
 5.25165987e+00  4.10279512e+00  4.54088736e+00
 5.25174713e+00  4.10269499e+00  5.54094887e+00
 6.25144482e+00  4.08819485e+00  4.54097557e+00
 6.25135326e+00  4.08804512e+00  5.54094887e+00
 0.00000000e+00  4.15005159e+00  5.54094887e+00
 1.11918092e+00  4.17348480e+00  5.54094887e+00
 1.10247326e+00  5.30505657e+00  5.54094887e+00
 0.00000000e+00  5.32074022e+00  5.54094887e+00
 5.26632118e+00  5.10263205e+00  5.54094887e+00
 4.26644993e+00  5.11732197e+00  5.54094887e+00
 6.26636648e+00  5.08783722e+00  5.54094887e+00
 1.10974014e+00  6.38730574e+00  5.54094887e+00
 0.00000000e+00  6.38232422e+00  5.54094887e+00
 2.17000222e+00  5.26215172e+00  5.54094887e+00
 2.24645400e+00  6.31765747e+00  5.54094887e+00
 3.22280884e+00  5.16742468e+00  5.54094887e+00
 3.30838537e+00  6.19643688e+00  5.54094887e+00
 4.28254747e+00  6.11781120e+00  5.54094887e+00
 5.28131390e+00  6.10237408e+00  5.54094887e+00
 6.28109169e+00  6.08771420e+00  5.54094887e+00
</DataArray>
</Points>
<PointData Tensors="Stress_Components,Plastic_strain_components" Vevtors="Spatial_displacement,Reaction_force" Scalars="Equivalent_plastic_strain,Stress_Mises,Stress_Max_Principal,Stress_Mid_Principal,Stress_Min_Principal,Stress_Pressure,Stress_Tresca,Stress_Third_Invariant,Plastic_strain_Max_Principal,Plastic_strain_Min_Principal">
<DataArray type="Float32" Name="Stress_Components" NumberOfComponents="9" format="ascii">
1.46320321e+01 -1.75957542e-01 3.02554481e-01 -1.75957542e-01 1.19121546e+01 1.82310902e-01 3.02554481e-01 1.82310902e-01 -1.00822523e+00
2.34381205e+00 -2.68716180e+00 7.83675984e-01 -2.68716180e+00 1.88486075e+00 2.35675993e+00 7.83675984e-01 2.35675993e+00 -2.32921284e+01
-6.83558464e+00 -1.13932341e-02 1.21848148e+00 -1.13932341e-02 -7.40539074e-01 -2.19924816e+00 1.21848148e+00 -2.19924816e+00 -3.76948872e+01
-1.05864629e+00 -6.91761844e-01 -2.28199586e-01 -6.91761844e-01 -8.53462473e-01 -1.13557048e-01 -2.28199586e-01 -1.13557048e-01 -3.21768765e+01
1.62569060e+01 9.99819273e-02 1.06666231e+00 9.99819273e-02 1.72028951e+01 -3.25411942e-01 1.06666231e+00 -3.25411942e-01 6.18181619e+00
2.07148557e+01 -1.94727947e+00 2.74911053e+00 -1.94727947e+00 2.33048316e+01 9.41262669e-01 2.74911053e+00 9.41262669e-01 1.43252478e+01
-1.49381734e+01 -2.25149006e-01 4.70778137e-01 -2.25149006e-01 -2.80792856e+00 -3.60558331e-02 4.70778137e-01 -3.60558331e-02 -4.72717032e+01
9.90647124e+00 4.35132906e-02 4.51720841e-01 4.35132906e-02 9.16456603e+00 1.00270457e+00 4.51720841e-01 1.00270457e+00 -9.55970430e+00
-1.75216930e+01 -1.30930264e+00 -5.94818510e-01 -1.30930264e+00 -1.60988901e+01 5.80385628e+00 -5.94818510e-01 5.80385628e+00 -6.77903662e+01
-8.01674156e+01 -2.85583055e+00 -5.05067992e+00 -2.85583055e+00 -7.53003445e+01 4.92573178e+00 -5.05067992e+00 4.92573178e+00 -1.98405312e+02
-6.82893798e+01 7.60547757e+00 -2.55011536e+01 7.60547757e+00 -7.13579468e+01 -2.98661019e+00 -2.55011536e+01 -2.98661019e+00 -1.65375045e+02
-4.88678617e+01 6.68233871e-01 -5.63356829e+00 6.68233871e-01 -7.08788109e+01 -1.24553180e+00 -5.63356829e+00 -1.24553180e+00 -1.57479633e+02
-2.12323591e-01 -6.13217771e-01 -2.46843506e-01 -6.13217771e-01 2.61357650e-01 2.28691794e-01 -2.46843506e-01 2.28691794e-01 -4.42311212e-01
-4.11189921e-01 -6.74460493e-02 -1.04488611e-01 -6.74460493e-02 -8.43358263e-02 -2.36243326e-01 -1.04488611e-01 -2.36243326e-01 1.02293946e-01
6.72475606e-01 -1.40812024e-01 -8.02756026e-02 -1.40812024e-01 -9.22827944e-02 5.81338372e-01 -8.02756026e-02 5.81338372e-01 -9.73421484e-01
3.99410620e-01 -6.86753422e-01 -1.69828832e-02 -6.86753422e-01 -2.18531720e-01 -5.14439911e-01 -1.69828832e-02 -5.14439911e-01 -5.74242875e-01
2.30680883e-01 2.05009639e-01 3.69439334e-01 2.05009639e-01 8.26310515e-02 1.80487201e-01 3.69439334e-01 1.80487201e-01 -4.28305864e-02
-6.79531991e-02 3.07533070e-02 1.22813314e-01 3.07533070e-02 -1.71339780e-01 6.96390774e-03 1.22813314e-01 6.96390774e-03 5.09866238e-01
-4.27643470e-02 5.30577004e-02 -2.68473983e-01 5.30577004e-02 2.02319875e-01 -5.48684776e-01 -2.68473983e-01 -5.48684776e-01 1.10961825e-01
-3.25120658e-01 2.27334395e-01 -1.19382478e-01 2.27334395e-01 -1.24730252e-01 3.44654173e-01 -1.19382478e-01 3.44654173e-01 7.20261693e-01
5.13805389e-01 3.08478232e-02 3.17807488e-01 3.08478232e-02 1.24499583e+00 -6.79317545e-02 3.17807488e-01 -6.79317545e-02 -2.81266766e+01
1.09401001e+00 4.32047889e-01 1.66124966e-01 4.32047889e-01 1.05513513e+00 3.38123597e-01 1.66124966e-01 3.38123597e-01 -2.76425236e+01
5.01951489e+00 -3.58501051e-01 2.75289965e-01 -3.58501051e-01 5.64249648e+00 4.84950088e-01 2.75289965e-01 4.84950088e-01 -1.84118758e+01
9.19807091e-01 1.99661624e-01 3.64950076e-01 1.99661624e-01 2.41362643e+00 -2.65534386e-01 3.64950076e-01 -2.65534386e-01 -2.63672919e+01
5.89347577e+00 -2.80202972e-02 7.18349859e-01 -2.80202972e-02 4.51824570e+00 1.90804895e-01 7.18349859e-01 1.90804895e-01 -1.87058907e+01
4.65546548e-01 2.19367377e-01 -8.11417624e-02 2.19367377e-01 -2.35624671e-01 1.13263237e+00 -8.11417624e-02 1.13263237e+00 -2.96580973e+01
3.55276532e+00 3.74244707e-01 4.79461769e-01 3.74244707e-01 2.71213880e+00 4.75017119e-01 4.79461769e-01 4.75017119e-01 -2.31895791e+01
8.15927297e-01 3.98362357e-01 8.01970355e-01 3.98362357e-01 -9.15936530e-01 -6.92733157e-01 8.01970355e-01 -6.92733157e-01 -3.00148325e+01
5.88713861e+00 -8.73107940e-01 1.97099092e-01 -8.73107940e-01 4.88112605e+00 2.86449818e-02 1.97099092e-01 2.86449818e-02 -1.83210496e+01
5.91118785e+00 -6.32234036e-01 9.19028265e-01 -6.32234036e-01 5.70639803e+00 9.29938741e-01 9.19028265e-01 9.29938741e-01 -1.71626800e+01
5.94436646e-01 1.20298700e-01 2.89947940e-02 1.20298700e-01 4.16933060e-01 4.63279888e-01 2.89947940e-02 4.63279888e-01 -2.89480395e+01
-1.37770951e+00 9.17655081e-02 1.15449604e+00 9.17655081e-02 -3.11638772e-01 1.88889279e+00 1.15449604e+00 1.88889279e+00 -3.15413585e+01
6.93718179e+00 1.23226980e-01 2.30361436e-01 1.23226980e-01 5.55674362e+00 6.08149633e-01 2.30361436e-01 6.08149633e-01 -1.63778889e+01
1.07634673e+01 -1.20686418e-01 7.94871859e-02 -1.20686418e-01 9.00356618e+00 1.23680024e-02 7.94871859e-02 1.23680024e-02 -8.57732427e+00
3.40531084e+00 -6.89459160e-01 2.88739119e-01 -6.89459160e-01 2.24147198e+00 9.25774459e-01 2.88739119e-01 9.25774459e-01 -2.38049651e+01
2.72059968e+00 -6.88305908e-01 4.25393922e-01 -6.88305908e-01 2.63302991e+00 7.91290211e-01 4.25393922e-01 7.91290211e-01 -2.40823379e+01
9.25062957e+00 1.79172758e-01 -9.87665366e-02 1.79172758e-01 6.99125040e+00 3.88629448e-01 -9.87665366e-02 3.88629448e-01 -1.22801399e+01
4.24445695e+00 1.16425812e-01 -5.19916761e-01 1.16425812e-01 1.93694735e+00 6.40339619e-02 -5.19916761e-01 6.40339619e-02 -2.31951092e+01
6.17641664e+00 -3.44157808e-01 -3.14861640e-01 -3.44157808e-01 4.19126022e+00 5.93301602e-01 -3.14861640e-01 5.93301602e-01 -1.87288171e+01
1.36781188e+01 -5.04910618e-01 2.59204436e-01 -5.04910618e-01 1.22987721e+01 -2.78215564e-01 2.59204436e-01 -2.78215564e-01 -1.93141818e+00
1.24951185e+01 -1.52741398e-01 3.67912557e-02 -1.52741398e-01 1.05875418e+01 -6.88336901e-02 3.67912557e-02 -6.88336901e-02 -4.92462867e+00
8.39572728e+00 8.26199353e-03 -3.37433110e-01 8.26199353e-03 5.85801041e+00 4.01220489e-02 -3.37433110e-01 4.01220489e-02 -1.44657512e+01
1.46046510e+01 -8.68222294e-02 -2.25776153e-01 -8.68222294e-02 1.44183441e+01 -3.42553353e-01 -2.25776153e-01 -3.42553353e-01 1.35564375e+00
7.42875123e+00 -2.27841196e-01 -3.17060880e-01 -2.27841196e-01 5.93140768e+00 -4.06734726e-01 -3.17060880e-01 -4.06734726e-01 -1.54628186e+01
1.53708692e+01 -1.40344258e-01 -1.24380998e-02 -1.40344258e-01 1.44110022e+01 -3.87838304e-01 -1.24380998e-02 -3.87838304e-01 2.36477947e+00
1.69669975e+01 6.94720605e-02 -4.69178563e-01 6.94720605e-02 1.50040238e+01 -3.04443501e-02 -4.69178563e-01 -3.04443501e-02 4.59096718e+00
1.90113177e+01 5.44430293e-01 -3.10058147e-03 5.44430293e-01 1.95902679e+01 -7.52249010e-01 -3.10058147e-03 -7.52249010e-01 1.18182478e+01
1.23300525e+01 5.31910926e-01 2.51143793e-01 5.31910926e-01 1.09844429e+01 -9.16459161e-01 2.51143793e-01 -9.16459161e-01 -4.58066249e+00
2.58992207e+00 -9.30471212e-01 1.62689331e+00 -9.30471212e-01 5.22456282e+00 1.05358582e-01 1.62689331e+00 1.05358582e-01 -2.08636665e+01
2.60360026e+00 -1.13517045e+00 1.23506553e+00 -1.13517045e+00 6.34093243e+00 -2.87400514e-01 1.23506553e+00 -2.87400514e-01 -1.98785412e+01
-5.00410876e+00 4.24841103e-01 2.76195716e+00 4.24841103e-01 -6.44625509e+00 2.12244869e+00 2.76195716e+00 2.12244869e+00 -4.17328947e+01
9.19042587e-01 -9.73158488e-02 7.96410181e-01 -9.73158488e-02 1.05476356e+00 -1.05404153e-01 7.96410181e-01 -1.05404153e-01 -2.79014993e+01
1.34571472e+01 2.15542482e+00 3.82947095e+00 2.15542482e+00 1.18666047e+01 3.03534083e+00 3.82947095e+00 3.03534083e+00 -8.31671470e+00
-5.43615292e+00 9.71480619e-01 2.48170020e-01 9.71480619e-01 -5.27838883e+00 1.56013295e-01 2.48170020e-01 1.56013295e-01 -4.03582118e+01
-7.18686844e+01 -5.42458353e+00 -1.53306746e+01 -5.42458353e+00 -7.24153145e+01 -1.93772697e+00 -1.53306746e+01 -1.93772697e+00 -1.70051555e+02
1.06989891e+01 1.31197983e+00 -2.08394391e-01 1.31197983e+00 1.42121968e+01 1.38998329e+00 -2.08394391e-01 1.38998329e+00 -6.89121968e+00
-4.76420135e+01 -1.12130404e+00 -4.15218174e+00 -1.12130404e+00 -4.32552400e+01 1.46106246e+00 -4.15218174e+00 1.46106246e+00 -1.27787704e+02
-3.27357050e+01 -1.57947780e+00 -1.59095493e+01 -1.57947780e+00 -4.01984827e+01 -4.57294837e-01 -1.59095493e+01 -4.57294837e-01 -9.07872269e+01
-3.12386093e+01 -1.30762258e+00 -8.93281847e-02 -1.30762258e+00 -2.74970989e+01 1.64141705e+00 -8.93281847e-02 1.64141705e+00 -9.33698311e+01
-4.18114100e+01 -1.64143942e-01 -4.52324808e+00 -1.64143942e-01 -3.65632415e+01 -1.50044461e+00 -4.52324808e+00 -1.50044461e+00 -1.14207314e+02
-2.33867464e+01 -1.81901062e+00 -6.95518464e-01 -1.81901062e+00 -1.57188663e+01 3.09670210e-01 -6.95518464e-01 3.09670210e-01 -7.16982765e+01
-4.15635672e+01 -3.53255951e+00 -5.05327654e+00 -3.53255951e+00 -3.15278244e+01 -3.84913995e+00 -5.05327654e+00 -3.84913995e+00 -1.06751778e+02
5.08785554e-01 -3.25867108e-02 3.34655355e+00 -3.25867108e-02 3.72781421e+00 7.05426697e-01 3.34655355e+00 7.05426697e-01 -2.43250299e+01
1.19905841e+01 1.97060538e-01 1.31895864e+00 1.97060538e-01 1.35736768e+01 -4.45729168e-01 1.31895864e+00 -4.45729168e-01 -2.12497640e+00
-8.12174674e+00 -4.08706164e-01 3.97120731e+00 -4.08706164e-01 -8.65264177e+00 1.56507335e+00 3.97120731e+00 1.56507335e+00 -4.69303128e+01
5.88060349e+00 7.58352412e-02 1.73107463e+00 7.58352412e-02 7.47441244e+00 -3.85636464e-03 1.73107463e+00 -3.85636464e-03 -1.54420002e+01
-9.90979204e+01 -1.08913707e+01 1.04338970e+01 -1.08913707e+01 -9.00949020e+01 -1.47052749e+01 1.04338970e+01 -1.47052749e+01 -2.11021942e+02
-2.06274940e+01 2.45716963e+00 2.06486839e+00 2.45716963e+00 -2.73954021e+01 -3.07361252e+00 2.06486839e+00 -3.07361252e+00 -8.25658170e+01
8.34553833e+01 5.47971249e+00 6.29195690e+00 5.47971249e+00 8.09452972e+01 1.29394455e+01 6.29195690e+00 1.29394455e+01 1.38295868e+02
6.26392237e+00 -4.26958090e+00 -7.90991859e+00 -4.26958090e+00 4.99764633e+00 -5.89462742e+00 -7.90991859e+00 -5.89462742e+00 -7.69880168e+00
2.17868986e+01 -7.98990024e-02 -2.00480209e+00 -7.98990024e-02 2.22638827e+01 4.10511370e-01 -2.00480209e+00 4.10511370e-01 1.69228965e+01
1.23930553e+01 -4.21319157e-01 1.46486917e+00 -4.21319157e-01 1.31855316e+01 7.42990315e-01 1.46486917e+00 7.42990315e-01 -1.82538462e+00
2.08817622e+01 -5.88703973e-01 4.40083444e-03 -5.88703973e-01 2.30005954e+01 1.25259261e+00 4.40083444e-03 1.25259261e+00 1.84099204e+01
9.51273048e+00 -8.30270770e-01 2.29482608e+00 -8.30270770e-01 1.03108606e+01 1.45552351e+00 2.29482608e+00 1.45552351e+00 -7.92370582e+00
1.39321668e+01 1.68043263e-02 1.16023427e-01 1.68043263e-02 1.42988156e+01 3.00208896e-01 1.16023427e-01 3.00208896e-01 6.11063242e-01
1.72152627e+01 5.86556166e-01 8.03976940e-01 5.86556166e-01 1.81283085e+01 6.82831492e-01 8.03976940e-01 6.82831492e-01 8.56493609e+00
4.24079621e+00 1.80126192e+00 1.60481408e-01 1.80126192e+00 6.84085655e+00 1.14475165e+00 1.60481408e-01 1.14475165e+00 -1.77361802e+01
-4.86524881e+01 1.27687021e+00 5.97351837e+00 1.27687021e+00 -4.52709386e+01 1.72186732e+01 5.97351837e+00 1.72186732e+01 -1.15362742e+02
-9.67950668e+01 -3.36011048e+00 1.40483675e+01 -3.36011048e+00 -9.56051025e+01 1.03333073e+01 1.40483675e+01 1.03333073e+01 -2.34555687e+02
-6.34387374e+00 -3.11983400e+00 -2.89269185e+00 -3.11983400e+00 -2.75230217e-01 4.54427900e+00 -2.89269185e+00 4.54427900e+00 -3.53857704e+01
1.37689781e+00 -4.25022110e-01 -2.63025120e-01 -4.25022110e-01 3.73999023e+00 8.90917026e-01 -2.63025120e-01 8.90917026e-01 -2.44615555e+01
3.87791586e+00 1.26139925e+00 -1.21569560e+00 1.26139925e+00 2.46031237e+00 9.11012322e-01 -1.21569560e+00 9.11012322e-01 -2.32189293e+01
3.88657379e+00 -1.81067576e+00 2.60803914e+00 -1.81067576e+00 7.91725731e+00 -1.28214782e+00 2.60803914e+00 -1.28214782e+00 -1.68308716e+01
-2.05818338e+01 -3.45324156e+00 -4.06445614e+00 -3.45324156e+00 -1.54559469e+01 4.23495001e+00 -4.06445614e+00 4.23495001e+00 -6.46568384e+01
-8.39458288e+01 1.04234909e+01 -3.01060875e-01 1.04234909e+01 -5.08706729e+01 -3.69232850e+01 -3.01060875e-01 -3.69232850e+01 -1.24249992e+02
-5.57917897e+00 -3.37377401e+00 -1.21072439e+00 -3.37377401e+00 -9.71667194e+00 -5.36311460e+00 -1.21072439e+00 -5.36311460e+00 -3.97025919e+01
4.47088045e+00 -3.13257799e-02 2.45588012e-01 -3.13257799e-02 1.41418588e+00 -7.13024922e-02 2.45588012e-01 -7.13024922e-02 -2.34623742e+01
6.22431040e-01 1.60722509e-01 1.76888620e-02 1.60722509e-01 -1.14369929e+00 7.49897693e-01 1.76888620e-02 7.49897693e-01 -3.04572041e+01
5.72207265e-01 7.89315674e-01 3.44137790e-01 7.89315674e-01 -1.64145559e+00 4.28305998e-01 3.44137790e-01 4.28305998e-01 -3.10161844e+01
5.75825512e-01 2.86682345e-01 4.91519880e-01 2.86682345e-01 -3.06562093e+00 -3.11218549e-01 4.91519880e-01 -3.11218549e-01 -3.24654124e+01
-4.90781701e+00 8.67018253e-01 -1.77879639e-01 8.67018253e-01 -3.55453438e+00 8.88215497e-01 -1.77879639e-01 8.88215497e-01 -3.90503168e+01
-5.95319876e+00 1.39968727e+00 5.20711097e-01 1.39968727e+00 -4.59820306e+00 1.47223203e+00 5.20711097e-01 1.47223203e+00 -4.10732541e+01
-6.23294300e+00 4.00433540e-01 4.53024581e-01 4.00433540e-01 -4.37710226e+00 4.39310674e-01 4.53024581e-01 4.39310674e-01 -4.14819193e+01
-1.16398077e+01 6.08353527e-01 5.65244555e-01 6.08353527e-01 -6.02509624e+00 1.75501953e+00 5.65244555e-01 1.75501953e+00 -4.84335660e+01
-4.19885236e+00 -1.15740241e+00 3.15561194e-01 -1.15740241e+00 -2.12356174e+00 5.23582261e-01 3.15561194e-01 5.23582261e-01 -3.67362825e+01
-2.60369658e+00 -6.94278193e-01 -3.60801063e-01 -6.94278193e-01 1.07348558e+00 -6.18503690e-02 -3.60801063e-01 -6.18503690e-02 -3.13878319e+01
2.94814824e+00 -6.13156818e-01 -1.46381203e-01 -6.13156818e-01 5.57401285e+00 -5.49838476e-01 -1.46381203e-01 -5.49838476e-01 -2.06359130e+01
6.19489771e+00 -1.21369504e+00 -4.59741302e-01 -1.21369504e+00 7.36258566e+00 -1.57535690e-01 -4.59741302e-01 -1.57535690e-01 -1.52520718e+01
-2.60129452e-01 4.04134452e-01 6.22269586e-01 4.04134452e-01 4.59693646e+00 -1.25497180e+00 6.22269586e-01 -1.25497180e+00 -2.48195007e+01
-2.86935812e+00 -1.24140857e+00 -1.91262215e-01 -1.24140857e+00 5.21621108e-01 -2.15955186e+00 -1.91262215e-01 -2.15955186e+00 -3.18212695e+01
-6.58556569e+00 1.51778790e+00 1.18073904e+00 1.51778790e+00 -1.09109077e+01 1.79501778e+00 1.18073904e+00 1.79501778e+00 -4.83874145e+01
-3.24944019e-01 8.59217167e-01 5.09540409e-01 8.59217167e-01 -4.36565065e+00 -1.80876447e-01 5.09540409e-01 -1.80876447e-01 -3.48148365e+01
-6.39848936e+00 2.59615417e+00 4.45802139e-01 2.59615417e+00 -6.86359107e+00 8.66032937e-01 4.45802139e-01 8.66032937e-01 -4.39263525e+01
6.21475947e+00 1.82180228e+00 -4.69741777e+00 1.82180228e+00 7.68422270e+00 -5.01549773e-01 -4.69741777e+00 -5.01549773e-01 -1.23672867e+01
1.06847561e+01 1.60520545e-02 -2.80854709e+00 1.60520545e-02 1.52354837e+01 -2.32137875e-01 -2.80854709e+00 -2.32137875e-01 -2.66710516e+00
-4.42869918e+00 -1.87694125e+00 -6.54683372e+00 -1.87694125e+00 4.60355441e-01 -1.84293389e+00 -6.54683372e+00 -1.84293389e+00 -3.18213895e+01
-2.55021477e+00 -4.65483236e+00 -8.31642294e+00 -4.65483236e+00 -6.54856396e+00 -2.70811284e+00 -8.31642294e+00 -2.70811284e+00 -3.55595004e+01
-2.09199037e+01 1.64073897e-01 4.87803459e+00 1.64073897e-01 -3.02303778e+01 -2.29232520e-01 4.87803459e+00 -2.29232520e-01 -8.35978939e+01
-2.87855070e+01 -1.71928783e+00 4.78924012e+00 -1.71928783e+00 -3.39151034e+01 -5.35880983e-01 4.78924012e+00 -5.35880983e-01 -9.70893091e+01
1.12122219e+01 2.04591238e+00 -2.39180632e-01 2.04591238e+00 5.69927073e+00 -3.91142130e+00 -2.39180632e-01 -3.91142130e+00 -1.02670757e+01
3.29129833e+01 2.08703078e+00 -2.74515955e+00 2.08703078e+00 3.11886864e+01 1.92857246e-01 -2.74515955e+00 1.92857246e-01 3.87382024e+01
5.90427284e+01 4.93629485e-01 1.60910854e+01 4.93629485e-01 6.54957504e+01 6.95286036e-01 1.60910854e+01 6.95286036e-01 9.55561752e+01
1.94131290e+01 -1.92030196e+00 -1.31882923e+00 -1.92030196e+00 1.51095985e+01 -3.42806968e+00 -1.31882923e+00 -3.42806968e+00 1.36165443e+01
-2.12518680e+01 -4.74029198e-01 4.02633548e-01 -4.74029198e-01 -1.98041650e+01 6.01413164e+00 4.02633548e-01 6.01413164e+00 -7.15319543e+01
-1.56965860e+00 1.55216581e-01 -1.78229346e+00 1.55216581e-01 -3.55837313e+00 3.26709197e+00 -1.78229346e+00 3.26709197e+00 -3.52816162e+01
-9.35362892e+01 -1.07415061e+01 9.80251670e+00 -1.07415061e+01 -1.40241524e+02 -1.33965039e+01 9.80251670e+00 -1.33965039e+01 -2.70816376e+02
-2.83939635e+01 3.11168969e-01 -1.61188592e+00 3.11168969e-01 -2.39923997e+01 4.84282722e+00 -1.61188592e+00 4.84282722e+00 -8.57487030e+01
-1.24262730e+01 -3.91196638e-01 3.50315708e+00 -3.91196638e-01 -9.46190763e+00 4.34350148e-02 3.50315708e+00 4.34350148e-02 -5.35588751e+01
1.23083402e+01 -1.99588761e-01 2.07786990e+00 -1.99588761e-01 1.02003555e+01 1.13596819e+00 2.07786990e+00 1.13596819e+00 -5.48954177e+00
6.43671227e+00 3.37184042e-01 7.04007566e-01 3.37184042e-01 5.34513521e+00 -7.50988960e-01 7.04007566e-01 -7.50988960e-01 -1.71361828e+01
-2.84766636e+01 9.09011900e-01 -6.97466612e-01 9.09011900e-01 -3.57900508e+01 -4.06924611e+00 -6.97466612e-01 -4.06924611e+00 -9.76953573e+01
-1.10493388e+01 -1.55842212e+00 -2.90776542e+00 -1.55842212e+00 -2.11716112e+01 6.63961881e+00 -2.90776542e+00 6.63961881e+00 -6.03211989e+01
1.36934865e+01 -4.02997747e-01 -9.46936309e-02 -4.02997747e-01 -3.07160878e+00 6.41107371e+00 -9.46936309e-02 6.41107371e+00 -2.79913116e+01
1.21322947e+01 -1.90417621e+00 1.95767975e+00 -1.90417621e+00 1.99268506e+01 -2.76626302e+00 1.95767975e+00 -2.76626302e+00 5.40648115e+00
8.57008438e+01 -3.15842700e+00 1.16725564e+00 -3.15842700e+00 6.04059410e+01 2.12228146e+01 1.16725564e+00 2.12228146e+01 8.42751007e+01
4.54632454e+01 2.26112962e+00 2.08961159e-01 2.26112962e+00 4.04916687e+01 7.35233879e+00 2.08961159e-01 7.35233879e+00 5.94002151e+01
8.93217027e+00 -3.02926153e+00 -2.03237383e+00 -3.02926153e+00 8.86056256e+00 -6.34641349e-02 -2.03237383e+00 -6.34641349e-02 6.58226129e+00
2.32342370e+00 -5.75811245e+00 -1.82508396e+00 -5.75811245e+00 1.25725505e+01 -4.67720109e+00 -1.82508396e+00 -4.67720109e+00 5.22348754e+00
-1.09460986e+00 -9.66992736e-01 1.47072327e+00 -9.66992736e-01 1.16134632e+00 -1.05702019e+00 1.47072327e+00 -1.05702019e+00 -5.40936112e-01
-9.39068973e-01 8.96261483e-02 1.70497492e-01 8.96261483e-02 -9.94756967e-02 7.46052980e-01 1.70497492e-01 7.46052980e-01 5.64260364e-01
8.91838551e-01 -6.18337929e-01 3.00021350e-01 -6.18337929e-01 -3.82295221e-01 -1.36187732e+00 3.00021350e-01 -1.36187732e+00 -9.84008789e-01
3.51139635e-01 -1.67553258e+00 -1.27061987e+00 -1.67553258e+00 4.93505031e-01 1.26998377e+00 -1.27061987e+00 1.26998377e+00 -1.31913090e+00
7.07178626e+00 2.55292971e+00 1.60890804e+00 2.55292971e+00 -2.94549031e+00 9.70686805e-01 1.60890804e+00 9.70686805e-01 -6.92893782e-01
1.30530233e+00 -4.24523870e-01 -1.37714227e-01 -4.24523870e-01 -5.14974535e+00 9.81143951e-01 -1.37714227e-01 9.81143951e-01 -7.22289254e-01
-3.42427838e+00 9.45680380e-01 -6.75815418e-02 9.45680380e-01 7.18026400e-01 -1.48258168e+00 -6.75815418e-02 -1.48258168e+00 4.39611286e-01
-5.17158695e+00 -2.60050424e+00 -3.25472216e-01 -2.60050424e+00 2.25614746e+00 -9.16421890e-01 -3.25472216e-01 -9.16421890e-01 3.30873680e+00
1.76807368e+00 -2.67486628e-02 1.24425441e-03 -2.67486628e-02 -1.95429659e+00 2.60626245e-03 1.24425441e-03 2.60626245e-03 -2.99680729e+01
-9.57055092e-02 2.96048030e-01 -1.01840990e-02 2.96048030e-01 -2.25163665e+00 3.35672021e-01 -1.01840990e-02 3.35672021e-01 -3.24523773e+01
7.88156033e-01 1.05579486e+00 2.35109448e-01 1.05579486e+00 -1.95922434e+00 4.39099649e-01 2.35109448e-01 4.39099649e-01 -3.10569005e+01
1.50122786e+00 3.49703133e-01 1.70627505e-01 3.49703133e-01 -2.64884567e+00 -9.90784820e-03 1.70627505e-01 -9.90784820e-03 -3.09623071e+01
-7.39854860e+00 6.20729864e-01 -7.81117612e-03 6.20729864e-01 -5.59374547e+00 1.09071586e+00 -7.81117612e-03 1.09071586e+00 -4.39147205e+01
-6.31700265e+00 2.16128483e+00 2.88257821e-01 2.16128483e+00 -5.28377676e+00 7.40718603e-01 2.88257821e-01 7.40718603e-01 -4.22186188e+01
-1.14969756e+01 1.22350517e+00 3.15284552e-02 1.22350517e+00 -6.99357724e+00 7.49606758e-01 3.15284552e-02 7.49606758e-01 -4.97046013e+01
-1.80661085e+01 1.72588135e+00 1.09341684e+00 1.72588135e+00 -1.04368593e+01 1.81259137e+00 1.09341684e+00 1.81259137e+00 -5.98562160e+01
-1.14416144e+01 -4.50535417e-01 6.06329106e-02 -4.50535417e-01 -5.12506932e+00 3.58928978e-01 6.06329106e-02 3.58928978e-01 -4.74258862e+01
-1.75956349e+01 -6.67869356e-01 1.99452737e+00 -6.67869356e-01 -8.41058677e+00 1.51430957e+00 1.99452737e+00 1.51430957e+00 -5.70770743e+01
-9.31314230e+00 -2.30430938e-01 9.68714915e-02 -2.30430938e-01 -2.61642773e+00 -4.26201344e-01 9.68714915e-02 -4.26201344e-01 -4.23433323e+01
-7.22267544e+00 -2.21980198e+00 1.90558316e+00 -2.21980198e+00 7.69357920e-01 2.07907665e-01 1.90558316e+00 2.07907665e-01 -3.55908298e+01
-2.35547771e+01 -3.48697281e+00 1.73357561e-01 -3.48697281e+00 -1.20716352e+01 3.32633555e-01 1.73357561e-01 3.32633555e-01 -6.69691162e+01
-2.06541872e+01 -1.66645795e+00 2.71781349e+00 -1.66645795e+00 -6.74038863e+00 -3.80441999e+00 2.71781349e+00 -3.80441999e+00 -5.68362274e+01
2.20944333e+00 2.98781002e+00 -1.19919512e+00 2.98781002e+00 -2.34941483e+00 1.22243918e+00 -1.19919512e+00 1.22243918e+00 -2.93620348e+01
-4.00620079e+00 4.90824193e-01 -4.76053342e-01 4.90824193e-01 -1.21689816e+01 1.51314870e-01 -4.76053342e-01 1.51314870e-01 -4.66656604e+01
-7.06363735e+00 4.81349221e+00 5.36381058e-01 4.81349221e+00 -7.12631384e+00 2.27384967e+00 5.36381058e-01 2.27384967e+00 -4.37202544e+01
8.60982490e+00 1.26726337e+00 1.64903245e+00 1.26726337e+00 1.30240335e+01 1.19945887e+00 1.64903245e+00 1.19945887e+00 -6.44496906e+00
2.31289940e+01 -1.15804516e+00 1.92985098e+00 -1.15804516e+00 2.22895849e+01 5.13312936e-01 1.92985098e+00 5.13312936e-01 1.79419098e+01
1.79220057e+01 -1.84360385e-01 2.03691302e+00 -1.84360385e-01 1.70738053e+01 -5.04310297e-01 2.03691302e+00 -5.04310297e-01 6.90511173e+00
1.49932137e+01 -5.90379253e+00 1.30774659e+00 -5.90379253e+00 5.82302284e+00 -8.55358362e-01 1.30774659e+00 -8.55358362e-01 -4.53733635e+00
-8.24113445e+01 -2.35151914e+00 5.81330013e+00 -2.35151914e+00 -9.83764286e+01 3.81748629e+00 5.81330013e+00 3.81748629e+00 -2.24199272e+02
-9.68628693e+01 -1.16170064e-01 3.03730273e+00 -1.16170064e-01 -1.03018028e+02 1.31258458e-01 3.03730273e+00 1.31258458e-01 -2.46299957e+02
1.91297326e+01 5.02839998e+00 -6.61361575e-01 5.02839998e+00 1.67757662e+01 2.38472577e+00 -6.61361575e-01 2.38472577e+00 1.03968302e+01
3.26771805e+01 -2.58947481e+00 2.69114151e+00 -2.58947481e+00 3.21744914e+01 1.77787408e+00 2.69114151e+00 1.77787408e+00 3.68661456e+01
3.02672956e+01 -1.48919094e+00 1.14356425e+00 -1.48919094e+00 2.80775622e+01 1.53323729e+00 1.14356425e+00 1.53323729e+00 3.20413008e+01
1.09755680e+01 1.93001144e-02 1.41760910e+00 1.93001144e-02 1.32485214e+01 -3.12336081e+00 1.41760910e+00 -3.12336081e+00 1.16672653e+01
2.42544261e+01 1.16776103e+00 4.35693960e+00 1.16776103e+00 1.67664090e+01 1.08427961e+00 4.35693960e+00 1.08427961e+00 2.77254565e+01
-7.53597260e-01 -8.40269633e+00 -2.46191430e+00 -8.40269633e+00 -8.96227551e+00 -9.97239646e-01 -2.46191430e+00 -9.97239646e-01 -3.28305233e+00
2.90120001e+01 4.33120243e+00 3.78984165e+00 4.33120243e+00 1.55775766e+01 2.01231062e-01 3.78984165e+00 2.01231062e-01 3.48764278e+01
1.29077015e+01 6.37486565e+00 -1.03143752e+01 6.37486565e+00 2.25592213e+01 1.57821879e+01 -1.03143752e+01 1.57821879e+01 5.50585638e+01
2.50072665e+01 -2.53897858e+00 3.66167158e+00 -2.53897858e+00 2.92021246e+01 -2.82559164e+00 3.66167158e+00 -2.82559164e+00 4.02221012e+01
-5.50355148e+00 9.26448154e+00 -2.02162337e+00 9.26448154e+00 4.25268793e+00 2.00228043e+01 -2.02162337e+00 2.00228043e+01 -3.24819717e+01
1.69768337e+01 4.68305349e+00 -3.22545743e+00 4.68305349e+00 2.48641637e+01 -2.28416049e+00 -3.22545743e+00 -2.28416049e+00 1.12543999e+01
1.36830494e+01 5.92332284e-02 3.70346093e+00 5.92332284e-02 7.47189077e+00 2.52084428e+00 3.70346093e+00 2.52084428e+00 5.78886656e+00
-7.41373062e-01 4.57926528e+00 4.76792037e+00 4.57926528e+00 1.09451446e+01 -8.08971286e-01 4.76792037e+00 -8.08971286e-01 2.92377512e+00
-4.80842695e-01 -4.61202884e+00 -6.45879120e-01 -4.61202884e+00 6.15239924e+00 2.15753952e+00 -6.45879120e-01 2.15753952e+00 1.00610220e+01
3.63111097e+00 -2.30543733e+00 -9.23008204e-01 -2.30543733e+00 -7.78792810e+00 4.65981923e-02 -9.23008204e-01 4.65981923e-02 5.72320849e+00
-2.01384854e+00 -1.08704567e-01 -1.37975708e+00 -1.08704567e-01 -6.92044568e+00 -1.28264511e+00 -1.37975708e+00 -1.28264511e+00 3.27142906e+00
-8.88784943e+01 2.33964729e+00 -2.93546200e+00 2.33964729e+00 -6.21786003e+01 1.02192008e+00 -2.93546200e+00 1.02192008e+00 -1.90555679e+02
-1.32671066e+02 4.61953926e+00 1.36892349e-01 4.61953926e+00 -1.18836266e+02 1.69926000e+00 1.36892349e-01 1.69926000e+00 -3.02089294e+02
6.32271353e+00 -1.42937962e+00 1.43487749e+00 -1.42937962e+00 4.18417803e+00 2.10783172e+00 1.43487749e+00 2.10783172e+00 -1.86003393e+01
7.66383171e-01 -2.30425924e+00 3.87766325e+00 -2.30425924e+00 -7.00655365e+00 -1.00755952e-02 3.87766325e+00 -1.00755952e-02 -3.54991322e+01
1.54301258e+00 2.21062326e+00 -1.42321993e-01 2.21062326e+00 -4.20880079e-01 -7.83128548e-01 -1.42321993e-01 -7.83128548e-01 3.15631102e+00
1.23740215e+01 1.43232218e+00 1.94038669e-01 1.43232218e+00 2.66256905e+01 5.53511949e+00 1.94038669e-01 5.53511949e+00 2.42414722e+01
2.55274391e+00 1.49159342e+00 4.55260843e-01 1.49159342e+00 -6.27395678e+00 6.55484438e-01 4.55260843e-01 6.55484438e-01 -2.89047265e+00
5.06666136e+00 -1.77890617e+00 8.55335804e-01 -1.77890617e+00 4.59031105e-01 7.61146471e-01 8.55335804e-01 7.61146471e-01 -2.31889238e+01
1.42755213e+01 1.55335760e+00 -6.89818621e-01 1.55335760e+00 1.01196747e+01 2.71060672e-02 -6.89818621e-01 2.71060672e-02 -3.25884151e+00
-1.16675091e+00 -1.13023096e+00 2.82691587e-01 -1.13023096e+00 -1.85364389e+00 3.93912464e+00 2.82691587e-01 3.93912464e+00 -3.34409990e+01
-5.52044559e+00 -2.25328131e+00 -1.22158330e-01 -2.25328131e+00 -1.51925621e+01 3.56031609e+00 -1.22158330e-01 3.56031609e+00 -5.03337440e+01
1.32057066e+01 3.03281975e+00 -2.28434350e+00 3.03281975e+00 3.76515484e+00 7.43429303e-01 -2.28434350e+00 7.43429303e-01 -1.15910511e+01
8.47924519e+00 -1.02410656e+00 -1.41268031e+00 -1.02410656e+00 2.41238570e+01 2.26915145e+00 -1.41268031e+00 2.26915145e+00 7.97418594e+00
2.22064185e+01 3.39238659e+00 -2.35903236e+00 3.39238659e+00 2.53299403e+01 1.79147175e+00 -2.35903236e+00 1.79147175e+00 2.46609323e+01
-6.23486394e+00 1.42491865e+00 -1.15866566e+00 1.42491865e+00 1.86622334e+00 6.82324752e-01 -1.15866566e+00 6.82324752e-01 3.89566442e+00
-4.50072145e+00 1.39805269e+00 -5.70030175e-02 1.39805269e+00 -4.07546818e-01 -1.10797629e-01 -5.70030175e-02 -1.10797629e-01 8.49093318e-01
</DataArray>
<DataArray type="Float32" Name="Logarithmic_strain_components" NumberOfComponents="9" format="ascii">
2.83029929e-02 -6.42568548e-03 2.17819802e-03 -6.42568548e-03 2.46307964e-02 6.28956197e-03 2.17819802e-03 6.28956197e-03 -4.39410089e-02
2.86198617e-02 -1.17992033e-02 3.54888398e-04 -1.17992033e-02 3.10598643e-02 1.27194805e-02 3.54888398e-04 1.27194805e-02 -5.01170508e-02
3.34247709e-02 -9.51603637e-04 3.59459425e-03 -9.51603637e-04 4.33889143e-02 -4.56144387e-03 3.59459425e-03 -4.56144387e-03 -6.52337903e-02
2.87934453e-02 -9.46797125e-04 -2.64256433e-03 -9.46797125e-04 3.38020902e-02 -2.11201143e-04 -2.64256433e-03 -2.11201143e-04 -5.32400794e-02
2.87705609e-02 3.48498354e-03 1.12054187e-02 3.48498354e-03 3.59956888e-02 7.42744723e-03 1.12054187e-02 7.42744723e-03 -5.31272991e-02
3.05276247e-02 -9.79576988e-03 -1.18524177e-02 -9.79576988e-03 4.75422069e-02 1.25071464e-02 -1.18524177e-02 1.25071464e-02 -6.49166639e-02
4.49314835e-02 -3.43338423e-03 -2.57835659e-03 -3.43338423e-03 5.30089214e-02 -1.12430300e-02 -2.57835659e-03 -1.12430300e-02 -8.33147839e-02
3.30451345e-02 1.41890649e-02 8.07095694e-03 1.41890649e-02 4.07202486e-02 1.34258992e-02 8.07095694e-03 1.34258992e-02 -6.20537298e-02
3.90753625e-02 6.59725280e-04 -1.77927641e-02 6.59725280e-04 4.09659953e-02 1.73849873e-02 -1.77927641e-02 1.73849873e-02 -7.08877910e-02
5.10275085e-02 5.94141151e-04 -1.07993023e-02 5.94141151e-04 5.64060565e-02 2.09908709e-02 -1.07993023e-02 2.09908709e-02 -9.66903940e-02
5.45022612e-02 2.49910972e-02 -8.10124117e-02 2.49910972e-02 5.17009472e-02 -1.08665349e-02 -8.10124117e-02 -1.08665349e-02 -9.26586601e-02
7.74110258e-02 2.36946428e-02 -6.17130045e-02 2.36946428e-02 4.51251585e-02 -1.09785532e-02 -6.17130045e-02 -1.09785532e-02 -1.06801990e-01
-3.29052523e-06 -2.92326104e-05 -1.19184583e-05 -2.92326104e-05 8.06105970e-06 1.12921398e-05 -1.19184583e-05 1.12921398e-05 -8.83265625e-06
-8.62015975e-06 -3.25476651e-06 -4.90577258e-06 -3.25476651e-06 -6.77001935e-07 -1.09538854e-05 -4.90577258e-06 -1.09538854e-05 3.95811196e-06
1.74095417e-05 -6.62127081e-06 -3.85621229e-06 -6.62127081e-06 -5.89398667e-07 2.79320818e-05 -3.85621229e-06 2.79320818e-05 -2.17163033e-05
1.12161401e-05 -3.26609370e-05 -6.56197699e-07 -3.26609370e-05 -3.66960182e-06 -2.45055489e-05 -6.56197699e-07 -2.45055489e-05 -1.19973063e-05
3.91305866e-06 9.87049771e-06 1.75076475e-05 9.87049771e-06 1.19242100e-06 8.72899182e-06 1.75076475e-05 8.72899182e-06 -2.19573258e-06
-2.82372480e-06 2.09571499e-06 6.18887134e-06 2.09571499e-06 -5.12382621e-06 1.67781110e-07 6.18887134e-06 1.67781110e-07 1.08812083e-05
-1.63895925e-06 2.46970444e-06 -1.28553183e-05 2.46970444e-06 3.92644233e-06 -2.63403945e-05 -1.28553183e-05 -2.63403945e-05 1.85367139e-06
-8.40182929e-06 1.06669895e-05 -5.77154924e-06 1.06669895e-05 -3.71504461e-06 1.71510055e-05 -5.77154924e-06 1.71510055e-05 1.61686548e-05
4.17000595e-02 8.26243740e-06 9.19362484e-03 8.26243740e-06 4.36779764e-02 -2.07234290e-03 9.19362484e-03 -2.07234290e-03 -7.22008198e-02
4.29132758e-02 1.80904529e-03 6.21946261e-03 1.80904529e-03 4.21838099e-02 2.35203325e-03 6.21946261e-03 2.35203325e-03 -7.19717015e-02
4.13405728e-02 -8.13049253e-03 1.07417785e-02 -8.13049253e-03 4.27650437e-02 3.28027138e-03 1.07417785e-02 3.28027138e-03 -7.07011539e-02
4.00664285e-02 1.43919565e-03 9.58419329e-03 1.43919565e-03 4.48232936e-02 -5.03731135e-03 9.58419329e-03 -5.03731135e-03 -7.17603266e-02
5.38759772e-02 -7.74500950e-06 1.01263360e-02 -7.74500950e-06 4.04850934e-02 2.25104282e-04 1.01263360e-02 2.25104282e-04 -7.93300979e-02
5.20057576e-02 1.27207165e-03 2.35002441e-03 1.27207165e-03 4.27779658e-02 8.88536265e-03 2.35002441e-03 8.88536265e-03 -8.01349562e-02
5.31789567e-02 2.80882082e-03 1.32730918e-02 2.80882082e-03 4.34369035e-02 4.23167404e-03 1.32730918e-02 4.23167404e-03 -8.13530395e-02
5.46892937e-02 2.61887524e-03 1.35786589e-02 2.61887524e-03 4.33699852e-02 -7.58488628e-03 1.35786589e-02 -7.58488628e-03 -8.28196872e-02
4.62515242e-02 -9.45416000e-03 8.99847620e-03 -9.45416000e-03 3.69962575e-02 6.95616793e-04 8.99847620e-03 6.95616793e-04 -6.99723996e-02
4.52845548e-02 -1.11155455e-02 1.01714878e-02 -1.11155455e-02 4.11622194e-02 4.22586381e-03 1.01714878e-02 4.22586381e-03 -7.26055745e-02
4.87719867e-02 2.28231988e-03 -4.54313144e-04 2.28231988e-03 4.29918822e-02 4.81947424e-03 -4.54313144e-04 4.81947424e-03 -7.76623748e-02
4.82623959e-02 3.23992748e-03 1.08837951e-02 3.23992748e-03 4.63240296e-02 1.28173596e-02 1.08837951e-02 1.28173596e-02 -8.01387336e-02
4.93716188e-02 8.04243493e-04 3.32165405e-03 8.04243493e-04 3.39549510e-02 5.31138819e-03 3.32165405e-03 5.31138819e-03 -6.99057132e-02
4.98165120e-02 -5.22393890e-03 -5.05478738e-03 -5.22393890e-03 4.05038395e-02 -4.04934926e-03 -5.05478738e-03 -4.04934926e-03 -7.54904374e-02
4.70584985e-02 -4.75176843e-03 8.78919600e-04 -4.75176843e-03 3.88918603e-02 5.35954945e-03 8.78919600e-04 5.35954945e-03 -7.25211743e-02
4.53916537e-02 -4.57340539e-03 -4.84231126e-03 -4.57340539e-03 4.29904959e-02 4.37278384e-03 -4.84231126e-03 4.37278384e-03 -7.44592743e-02
5.13197286e-02 2.31063238e-03 -4.70429542e-03 2.31063238e-03 3.23431771e-02 -6.35345184e-04 -4.70429542e-03 -6.35345184e-04 -7.00641274e-02
5.01259910e-02 1.72715654e-03 -6.88990044e-03 1.72715654e-03 4.61720005e-02 -1.93709275e-05 -6.88990044e-03 -1.93709275e-05 -8.11440684e-02
4.52601761e-02 -2.03929225e-03 -6.62558968e-03 -2.03929225e-03 3.46542774e-02 4.26879533e-03 -6.62558968e-03 4.26879533e-03 -6.72348216e-02
4.48931870e-02 -8.77560454e-03 -1.03952523e-02 -8.77560454e-03 3.69988396e-02 -5.29999562e-03 -1.03952523e-02 -5.29999562e-03 -6.81008073e-02
4.87588597e-02 9.76171679e-04 2.68539164e-03 9.76171679e-04 3.35933208e-02 -3.60861744e-03 2.68539164e-03 -3.60861744e-03 -6.88325912e-02
4.98772357e-02 5.17931876e-04 3.20252671e-04 5.17931876e-04 4.50744536e-02 2.54175537e-03 3.20252671e-04 2.54175537e-03 -7.97125837e-02
3.99323124e-02 -3.52091862e-04 -1.17456142e-02 -3.52091862e-04 3.31152943e-02 -8.62145112e-04 -1.17456142e-02 -8.62145112e-04 -6.07874310e-02
4.23183762e-02 -2.58722385e-03 -9.28140366e-03 -2.58722385e-03 3.98746971e-02 -5.02947834e-03 -9.28140366e-03 -5.02947834e-03 -6.90572462e-02
4.67174202e-02 3.38685189e-04 2.78394285e-03 3.38685189e-04 3.34503697e-02 -3.62116704e-03 2.78394285e-03 -3.62116704e-03 -6.67320006e-02
4.63422136e-02 -2.55484011e-03 -1.87632476e-03 -2.55484011e-03 4.49869717e-02 -2.89603716e-03 -1.87632476e-03 -2.89603716e-03 -7.60466550e-02
3.65329701e-02 1.10992743e-02 -8.76671309e-03 1.10992743e-02 3.31704859e-02 -8.93460819e-03 -8.76671309e-03 -8.93460819e-03 -5.75989578e-02
4.13572155e-02 2.78575241e-03 -6.31390212e-03 2.78575241e-03 3.85221369e-02 -5.57372157e-03 -6.31390212e-03 -5.57372157e-03 -6.66846447e-02
3.73867345e-02 -1.38163086e-02 2.68028065e-02 -1.38163086e-02 4.69818916e-02 8.19123336e-04 2.68028065e-02 8.19123336e-04 -7.05061755e-02
3.15023507e-02 -1.12699489e-02 1.96041707e-02 -1.12699489e-02 5.00334185e-02 -3.00787378e-03 1.96041707e-02 -3.00787378e-03 -6.83759395e-02
5.69925839e-02 3.02113476e-04 3.45418928e-02 3.02113476e-04 4.71264836e-02 1.03076043e-02 3.45418928e-02 1.03076043e-02 -8.82785404e-02
5.44028757e-02 -1.82633401e-04 2.67552577e-02 -1.82633401e-04 4.74192835e-02 -1.94133713e-03 2.67552577e-02 -1.94133713e-03 -8.57370570e-02
4.84831871e-02 -1.34123004e-03 1.96007426e-02 -1.34123004e-03 4.46401132e-02 -3.75280915e-03 1.96007426e-02 -3.75280915e-03 -7.98142893e-02
5.15784742e-02 1.03697777e-02 9.36737327e-03 1.03697777e-02 4.82508210e-02 -6.76126868e-03 9.36737327e-03 -6.76126868e-03 -8.55204631e-02
5.66610485e-02 -1.28385440e-02 -5.40240468e-02 -1.28385440e-02 5.17530408e-02 -1.05619533e-03 -5.40240468e-02 -1.05619533e-03 -9.66210604e-02
4.07861445e-02 6.67266529e-03 -3.40570363e-02 6.67266529e-03 4.48546122e-02 -6.36433970e-03 -3.40570363e-02 -6.36433970e-03 -7.33080751e-02
5.59085039e-02 -1.42387359e-03 -1.58462641e-02 -1.42387359e-03 6.38237521e-02 1.10573634e-02 -1.58462641e-02 1.10573634e-02 -1.05120849e-01
4.63451259e-02 -5.84552852e-03 -5.10768671e-02 -5.84552852e-03 3.71184677e-02 7.14982804e-03 -5.10768671e-02 7.14982804e-03 -7.11009718e-02
5.48626604e-02 -3.82578661e-03 -1.84989232e-03 -3.82578661e-03 6.04995675e-02 9.63876315e-03 -1.84989232e-03 9.63876315e-03 -9.98720583e-02
4.74538505e-02 2.22842622e-03 -1.94996670e-02 2.22842622e-03 5.39971609e-02 -1.46813825e-03 -1.94996670e-02 -1.46813825e-03 -8.90451167e-02
4.93928436e-02 -1.89446425e-03 -3.94264213e-03 -1.89446425e-03 6.20520283e-02 3.42962856e-03 -3.94264213e-03 3.42962856e-03 -9.57353674e-02
4.47484050e-02 -3.33937153e-03 -1.98395206e-02 -3.33937153e-03 5.48618324e-02 -1.47598687e-02 -1.98395206e-02 -1.47598687e-02 -8.69345926e-02
3.19493059e-02 -8.24464292e-03 3.53279319e-02 -8.24464292e-03 4.58778462e-02 1.26330954e-03 3.53279319e-02 1.26330954e-03 -6.50437538e-02
2.71589821e-02 2.69386207e-03 2.80335471e-02 2.69386207e-03 4.53275172e-02 4.26417647e-03 2.80335471e-02 4.26417647e-03 -6.00140793e-02
6.00054317e-02 -3.95783536e-03 3.93488229e-02 -3.95783536e-03 4.88573212e-02 -9.06410787e-03 3.93488229e-02 -9.06410787e-03 -9.18219228e-02
4.81520826e-02 1.85541698e-03 4.08795266e-02 1.85541698e-03 5.03953295e-02 -1.18702087e-02 4.08795266e-02 -1.18702087e-02 -8.24290514e-02
4.32838751e-02 -2.33311830e-02 4.82549984e-02 -2.33311830e-02 5.73685085e-02 -5.45364658e-02 4.82549984e-02 -5.45364658e-02 -8.67924653e-02
6.64180510e-02 3.65957711e-04 1.66314332e-02 3.65957711e-04 4.97343056e-02 -4.15529508e-02 1.66314332e-02 -4.15529508e-02 -1.00825167e-01
-1.87728014e-02 -9.29611400e-02 -1.60869077e-01 -9.29611400e-02 1.63680152e-03 -1.11530632e-01 -1.60869077e-01 -1.11530632e-01 6.13620616e-02
2.84100374e-02 -8.58324269e-03 -4.53825245e-02 -8.58324269e-03 2.15314933e-02 -3.69251867e-02 -4.53825245e-02 -3.69251867e-02 -3.24378160e-02
2.68275450e-02 -2.66082888e-03 1.40635041e-02 -2.66082888e-03 3.47927668e-02 2.14526720e-02 1.40635041e-02 2.14526720e-02 -5.04023970e-02
2.56973412e-02 -6.39751740e-03 2.28116955e-02 -6.39751740e-03 3.64366299e-02 4.86587058e-03 2.28116955e-02 4.86587058e-03 -5.14387870e-02
4.01301933e-02 -7.28977891e-03 2.73144399e-02 -7.28977891e-03 4.94606687e-02 3.33815967e-02 2.73144399e-02 3.33815967e-02 -7.22411113e-02
4.38781371e-02 -4.91146743e-03 6.89263898e-03 -4.91146743e-03 5.15640974e-02 1.65635948e-02 6.89263898e-03 1.65635948e-02 -7.86368791e-02
2.78100753e-02 5.18840400e-03 -1.80641003e-03 5.18840400e-03 3.59649239e-02 3.13856138e-03 -1.80641003e-03 3.13856138e-03 -5.32607483e-02
4.73753195e-02 1.03350507e-02 -1.32047412e-02 1.03350507e-02 5.42330337e-02 2.73042261e-02 -1.32047412e-02 2.73042261e-02 -8.45733508e-02
4.22657076e-02 1.44869217e-02 1.16413953e-02 1.44869217e-02 6.07058536e-02 1.17854292e-02 1.16413953e-02 1.17854292e-02 -8.60573705e-02
2.72827321e-02 5.50869884e-03 1.41294855e-02 5.50869884e-03 3.92945320e-02 6.34018397e-02 1.41294855e-02 6.34018397e-02 -5.74422339e-02
7.00505003e-02 -9.35800187e-03 5.94659243e-02 -9.35800187e-03 5.96863180e-02 2.79025161e-02 5.94659243e-02 2.79025161e-02 -1.15962733e-01
4.23192102e-02 -1.47649141e-02 -3.04392789e-02 -1.47649141e-02 6.51369523e-02 -1.37342952e-02 -3.04392789e-02 -1.37342952e-02 -9.07782242e-02
2.98004271e-02 -2.49660411e-03 7.67352013e-03 -2.49660411e-03 4.15565278e-02 1.07153347e-02 7.67352013e-03 1.07153347e-02 -5.96687365e-02
5.22376690e-02 1.88617684e-02 -7.63902621e-03 1.88617684e-02 5.43013224e-02 1.89730799e-02 -7.63902621e-03 1.89730799e-02 -8.56476575e-02
4.36142869e-02 -1.18112294e-02 1.71028576e-02 -1.18112294e-02 6.59569185e-02 -1.64717305e-02 1.71028576e-02 -1.64717305e-02 -9.24410634e-02
5.63342869e-02 -1.91884739e-02 -4.27072365e-02 -1.91884739e-02 6.33596312e-02 4.58117786e-02 -4.27072365e-02 4.58117786e-02 -1.02700735e-01
3.55844107e-02 3.66127820e-02 -2.35407396e-03 3.66127820e-02 6.65628426e-02 -1.07215251e-01 -2.35407396e-03 -1.07215251e-01 -8.49589867e-02
6.57620442e-02 -7.96932549e-03 -1.49671223e-02 -7.96932549e-03 3.68409511e-02 -1.96146124e-02 -1.49671223e-02 -1.96146124e-02 -8.62118689e-02
6.62801489e-02 4.85603960e-06 3.31337261e-03 4.85603960e-06 4.09649462e-02 -2.95384217e-03 3.31337261e-03 -2.95384217e-03 -9.02101994e-02
6.14865683e-02 3.11588560e-03 3.62008670e-03 3.11588560e-03 4.46437877e-02 4.81553550e-03 3.62008670e-03 4.81553550e-03 -8.96165259e-02
6.37747049e-02 1.19185525e-02 7.70194543e-03 1.19185525e-02 4.60715652e-02 4.95000408e-03 7.70194543e-03 4.95000408e-03 -9.27958963e-02
6.95865192e-02 3.06055730e-03 9.28671763e-03 3.06055730e-03 4.30905158e-02 -2.66526727e-03 9.28671763e-03 -2.66526727e-03 -9.51022115e-02
5.06629981e-02 8.07627523e-03 -9.91559165e-04 8.07627523e-03 5.08065531e-02 7.78042473e-03 -9.91559165e-04 7.78042473e-03 -8.61395616e-02
5.10457414e-02 1.64209106e-02 3.94221355e-03 1.64209106e-02 5.09114251e-02 6.53310234e-03 3.94221355e-03 6.53310234e-03 -8.66318112e-02
4.22598105e-02 5.18127752e-03 -1.97522569e-03 5.18127752e-03 5.15521048e-02 2.29853805e-03 -1.97522569e-03 2.29853805e-03 -7.98685532e-02
3.85895716e-02 8.31957343e-03 -3.42624378e-04 8.31957343e-03 5.23715261e-02 8.68877392e-03 -3.42624378e-04 8.68877392e-03 -7.75461094e-02
3.72540951e-02 -4.26153932e-03 -1.24459848e-03 -4.26153932e-03 4.78392579e-02 8.80923588e-04 -1.24459848e-03 8.80923588e-04 -7.23203924e-02
3.31182247e-02 -4.15205490e-03 -2.86865339e-03 -4.15205490e-03 4.69121342e-02 1.35441735e-03 -2.86865339e-03 1.35441735e-03 -6.77343635e-02
3.26260659e-02 -5.00810507e-03 -4.59184533e-03 -5.00810507e-03 4.49970039e-02 -7.45218307e-04 -4.59184533e-03 -7.45218307e-04 -6.54441062e-02
3.34214210e-02 -8.28991369e-03 -8.22828303e-03 -8.28991369e-03 3.99142401e-02 -2.08517531e-03 -8.22828303e-03 -2.08517531e-03 -6.14762395e-02
2.87748352e-02 1.28383079e-03 -7.39193201e-04 1.28383079e-03 4.76856790e-02 -6.09664712e-05 -7.39193201e-04 -6.09664712e-05 -6.46242984e-02
3.30081619e-02 -7.29203667e-03 -3.35901906e-03 -7.29203667e-03 4.09662575e-02 -1.03287396e-02 -3.35901906e-03 -1.03287396e-02 -6.23409003e-02
7.45054064e-02 1.50989181e-02 2.21800034e-02 1.50989181e-02 4.51489142e-02 5.62636572e-03 2.21800034e-02 5.62636572e-03 -1.00730321e-01
7.72255659e-02 8.64367746e-03 2.74241064e-02 8.64367746e-03 4.96757524e-02 -8.66974471e-03 2.74241064e-02 -8.66974471e-03 -1.06990930e-01
5.65310195e-02 2.11477143e-02 1.79422405e-03 2.11477143e-02 4.48152986e-02 3.08591025e-03 1.79422405e-03 3.08591025e-03 -8.58963020e-02
3.42569686e-02 1.61698840e-02 -1.75505923e-02 1.61698840e-02 3.83726542e-02 -1.70559069e-03 -1.75505923e-02 -1.70559069e-03 -6.07280224e-02
2.29368553e-02 -5.16377789e-05 -2.07272411e-02 -5.16377789e-05 3.64860576e-02 -1.26503551e-03 -2.07272411e-02 -1.26503551e-03 -4.98075719e-02
2.06146701e-02 -1.04834595e-02 -2.67268081e-02 -1.04834595e-02 3.26093482e-02 -9.36228951e-03 -2.67268081e-02 -9.36228951e-03 -4.44986972e-02
2.36680831e-02 -1.69445295e-02 -3.05434478e-02 -1.69445295e-02 2.83853196e-02 -1.62161396e-02 -3.05434478e-02 -1.62161396e-02 -4.35202786e-02
8.35372545e-02 -2.16781915e-03 5.78778020e-02 -2.16781915e-03 4.35821433e-02 -1.38117956e-02 5.78778020e-02 -1.38117956e-02 -1.08250969e-01
8.26595599e-02 -1.49872092e-02 5.37207282e-02 -1.49872092e-02 4.92465589e-02 -1.69067892e-02 5.37207282e-02 -1.69067892e-02 -1.13592694e-01
6.63377276e-02 1.48150580e-02 7.73624868e-03 1.48150580e-02 3.26046310e-02 -3.13340394e-02 7.73624868e-03 -3.13340394e-02 -8.29311622e-02
2.93768436e-02 1.81623190e-02 -3.19707558e-02 1.81623190e-02 1.24863974e-02 -1.89774048e-02 -3.19707558e-02 -1.89774048e-02 -3.21084103e-02
1.00753522e-02 -5.60084879e-02 -7.41510317e-02 -5.60084879e-02 -2.76611689e-02 -7.57181570e-02 -7.41510317e-02 -7.57181570e-02 3.63786295e-02
5.47664112e-04 3.30010467e-03 -1.13893316e-02 3.30010467e-03 5.41715581e-03 -5.09159935e-03 -1.13893316e-02 -5.09159935e-03 -1.30392275e-03
8.04427490e-02 1.50422798e-03 -3.64965759e-03 1.50422798e-03 6.38590958e-02 4.42415597e-02 -3.64965759e-03 4.42415597e-02 -1.22397607e-01
8.17892378e-02 1.16253936e-02 -3.37379559e-02 1.16253936e-02 7.48305420e-02 3.87444509e-02 -3.37379559e-02 3.87444509e-02 -1.33693062e-01
8.88816342e-02 -1.52102256e-02 1.92257478e-02 -1.52102256e-02 4.67331558e-02 -4.69601965e-02 1.92257478e-02 -4.69601965e-02 -1.19624991e-01
7.14953654e-02 -5.42975776e-03 -1.99637807e-02 -5.42975776e-03 9.01926992e-02 2.96407454e-02 -1.99637807e-02 2.96407454e-02 -1.37355338e-01
7.13148396e-02 -5.58881450e-03 1.45601699e-02 -5.58881450e-03 9.09135733e-02 -5.86409864e-04 1.45601699e-02 -5.86409864e-04 -1.36331026e-01
8.12142491e-02 -5.60492743e-03 8.58138734e-03 -5.60492743e-03 7.03578983e-02 2.16670330e-02 8.58138734e-03 2.16670330e-02 -1.28122102e-01
7.86606260e-02 3.84704955e-03 1.29850581e-02 3.84704955e-03 6.97757639e-02 -1.31246652e-02 1.29850581e-02 -1.31246652e-02 -1.25400130e-01
7.47889318e-02 2.00975002e-02 -1.19131351e-02 2.00975002e-02 7.30484705e-02 -2.25256043e-02 -1.19131351e-02 -2.25256043e-02 -1.28605487e-01
8.90191440e-02 -1.17388568e-02 -2.33431950e-02 -1.17388568e-02 5.44097954e-02 4.24785884e-02 -2.33431950e-02 4.24785884e-02 -1.21465495e-01
6.64144419e-02 1.05533669e-02 8.69045316e-03 1.05533669e-02 2.51529245e-02 -2.96411421e-02 8.69045316e-03 -2.96411421e-02 -7.89243681e-02
5.06643211e-02 -1.89293943e-02 7.20991171e-03 -1.89293943e-02 3.68731604e-02 -6.10288652e-03 7.20991171e-03 -6.10288652e-03 -7.24345883e-02
-5.09471409e-02 5.68352081e-02 3.59607451e-02 5.68352081e-02 -1.38355093e-02 -6.30736351e-03 3.59607451e-02 -6.30736351e-03 1.09371498e-01
-1.28359115e-02 2.42103599e-02 4.59713899e-02 2.42103599e-02 -4.08486510e-03 -6.85044602e-02 4.59713899e-02 -6.85044602e-02 3.71132866e-02
1.36773460e-02 -2.86246040e-02 -9.26114125e-03 -2.86246040e-02 -1.70624305e-02 2.97656257e-02 -9.26114125e-03 2.97656257e-02 4.10630753e-03
-8.25540995e-03 -5.06389628e-02 -1.04863430e-02 -5.06389628e-02 1.47240364e-03 -8.38519409e-03 -1.04863430e-02 -8.38519409e-03 7.75914080e-03
-2.44511702e-05 -4.64517689e-05 7.07813742e-05 -4.64517689e-05 2.96882190e-05 -5.07267687e-05 7.07813742e-05 -5.07267687e-05 -1.04619839e-05
-2.09298178e-05 3.95480129e-06 7.94760308e-06 3.95480129e-06 -3.30989053e-07 3.58091856e-05 7.94760308e-06 3.58091856e-05 1.48029658e-05
2.36314045e-05 -2.98374871e-05 1.40570837e-05 -2.98374871e-05 -7.11929169e-06 -6.52580420e-05 1.40570837e-05 -6.52580420e-05 -2.15360415e-05
1.08650493e-05 -8.03096118e-05 -6.07048896e-05 -8.03096118e-05 1.37983834e-05 6.03165026e-05 -6.07048896e-05 6.03165026e-05 -3.02940080e-05
1.74855182e-04 9.31585382e-05 5.32797552e-05 9.31585382e-05 -1.25141740e-04 1.04509749e-05 5.32797552e-05 1.04509749e-05 -2.15709220e-05
4.97848432e-05 -2.00864257e-05 -6.79754460e-06 -2.00864257e-05 -1.04971918e-04 4.70136341e-05 -6.79754460e-06 4.70136341e-05 9.00980619e-07
-7.34548266e-05 4.58023005e-05 -3.23591848e-06 4.58023005e-05 2.56382991e-05 -7.05848033e-05 -3.23591848e-06 -7.05848033e-05 1.90574601e-05
-1.56650328e-04 -2.78822806e-04 -2.57555136e-06 -2.78822806e-04 6.17713995e-05 -3.97264703e-05 -2.57555136e-06 -3.97264703e-05 1.12425647e-04
7.08259791e-02 -3.43311694e-06 3.25849396e-06 -3.43311694e-06 4.30265144e-02 -2.13760359e-06 3.25849396e-06 -2.13760359e-06 -9.59918648e-02
6.46656118e-02 5.88757219e-03 -7.55427754e-06 5.88757219e-03 4.69349436e-02 4.15237783e-03 -7.55427754e-06 4.15237783e-03 -9.43412296e-02
6.93043992e-02 1.74341793e-02 3.61007376e-03 1.74341793e-02 4.42597345e-02 6.85423822e-03 3.61007376e-03 6.85423822e-03 -9.57178827e-02
7.66800381e-02 5.08085429e-03 1.66515313e-03 5.08085429e-03 4.12095226e-02 -5.35123763e-06 1.66515313e-03 -5.35123763e-06 -9.93022546e-02
5.10972459e-02 5.50941704e-03 -3.06319725e-05 5.50941704e-03 5.46986647e-02 9.18987859e-03 -3.06319725e-05 9.18987859e-03 -8.99853520e-02
5.26841953e-02 2.18020163e-02 4.26368637e-03 2.18020163e-02 5.16776657e-02 6.56982255e-03 4.26368637e-03 6.56982255e-03 -8.85847434e-02
3.90960388e-02 8.47627316e-03 -2.39103829e-05 8.47627316e-03 5.82554061e-02 6.23051240e-03 -2.39103829e-05 6.23051240e-03 -8.30189399e-02
3.79289491e-02 1.41192158e-02 6.09407632e-03 1.41192158e-02 5.55497529e-02 9.45132552e-03 6.09407632e-03 9.45132552e-03 -8.00983477e-02
3.21321161e-02 1.52189389e-03 4.08175765e-06 1.52189389e-03 5.67133427e-02 1.98891677e-03 4.08175765e-06 1.98891677e-03 -7.57721774e-02
2.94369454e-02 2.23866844e-03 1.07994536e-02 2.23866844e-03 5.29325726e-02 7.80345453e-03 1.07994536e-02 7.80345453e-03 -7.07276501e-02
3.06925802e-02 -3.82538361e-03 -2.83033296e-06 -3.82538361e-03 5.30146528e-02 9.70880574e-05 -2.83033296e-06 9.70880574e-05 -7.13112950e-02
2.49990951e-02 -6.87180518e-03 1.17288693e-02 -6.87180518e-03 4.82588811e-02 1.35039198e-03 1.17288693e-02 1.35039198e-03 -6.24229768e-02
2.81059165e-02 -1.77169628e-02 4.11701476e-05 -1.77169628e-02 5.69553897e-02 5.72923198e-03 4.11701476e-05 5.72923198e-03 -7.32429996e-02
2.33668145e-02 -1.12919123e-02 1.55078922e-02 -1.12919123e-02 4.96690981e-02 -1.32557079e-02 1.55078922e-02 -1.32557079e-02 -6.26404565e-02
7.60398377e-02 2.35740989e-02 -8.24585836e-03 2.35740989e-02 5.36191817e-02 1.24373767e-02 -8.24585836e-03 1.24373767e-02 -1.09821476e-01
8.52568708e-02 4.52703820e-03 -4.06378438e-03 4.52703820e-03 5.69260679e-02 -1.01720143e-05 -4.06378438e-03 -1.01720143e-05 -1.20959267e-01
5.44028338e-02 3.93239055e-02 2.14399963e-04 3.93239055e-02 4.57827169e-02 1.74894109e-02 2.14399963e-04 1.74894109e-02 -8.45915191e-02
3.06237605e-02 2.28198140e-02 8.51653470e-03 2.28198140e-02 3.96755040e-02 1.16358937e-02 8.51653470e-03 1.16358937e-02 -5.91612421e-02
1.63120234e-02 -1.11687867e-03 1.13802007e-02 -1.11687867e-03 3.05447434e-02 9.56302509e-03 1.13802007e-02 9.56302509e-03 -3.85417920e-02
1.07539848e-02 -1.06282682e-02 1.27167776e-02 -1.06282682e-02 2.43332684e-02 -1.66162680e-03 1.27167776e-02 -1.66162680e-03 -2.82219681e-02
1.60740474e-02 -1.38472356e-02 7.92148663e-03 -1.38472356e-02 1.69472841e-02 -1.00351889e-02 7.92148663e-03 -1.00351889e-02 -2.66106538e-02
9.00615416e-02 -4.11633262e-03 3.39024868e-02 -4.11633262e-03 7.51122162e-02 1.87441800e-02 3.39024868e-02 1.87441800e-02 -1.48417287e-01
9.74369347e-02 -5.61987795e-03 2.40562279e-02 -5.61987795e-03 8.56052339e-02 -4.63265460e-05 2.40562279e-02 -4.63265460e-05 -1.65545046e-01
5.67858343e-02 2.17364932e-02 9.06807464e-03 2.17364932e-02 3.47160827e-02 2.60817762e-02 9.06807464e-03 2.60817762e-02 -7.76408389e-02
1.83497295e-02 1.14087632e-02 7.36711558e-03 1.14087632e-02 1.10655384e-02 1.26535944e-02 7.36711558e-03 1.26535944e-02 -2.07378229e-02
2.74705773e-04 -5.71719816e-03 9.07002890e-04 -5.71719816e-03 4.77657331e-03 6.79374687e-04 9.07002890e-04 6.79374687e-04 -1.84336070e-03
-2.35738838e-03 -5.10951673e-03 -1.39507082e-02 -5.10951673e-03 7.11444615e-03 -7.80782812e-04 -1.39507082e-02 -7.80782812e-04 -2.79728446e-03
-3.13908165e-04 -3.83556201e-03 7.62446449e-04 -3.83556201e-03 2.96490243e-03 5.09743157e-04 7.62446449e-04 5.09743157e-04 -6.57377423e-04
9.21616564e-04 -1.43992297e-02 -1.30742289e-02 -1.43992297e-02 4.09474480e-04 -3.17953076e-04 -1.30742289e-02 -3.17953076e-04 3.62229039e-04
2.08116189e-03 -8.43502817e-03 1.68097991e-03 -8.43502817e-03 -2.07474211e-03 1.80830335e-04 1.68097991e-03 1.80830335e-04 1.70088169e-03
1.98171437e-02 -1.84263894e-03 -2.07101647e-02 -1.84263894e-03 -1.22232151e-02 -4.76063946e-02 -2.07101647e-02 -4.76063946e-02 2.58018263e-04
-1.46662351e-03 -2.96116271e-03 8.52776878e-03 -2.96116271e-03 -1.04297651e-04 6.73181145e-03 8.52776878e-03 6.73181145e-03 9.28726839e-03
4.03571129e-02 2.50836294e-02 -8.00904259e-03 2.50836294e-02 4.93686944e-02 6.67035580e-02 -8.00904259e-03 6.67035580e-02 -8.01902264e-02
1.89639031e-04 -5.70372637e-05 -5.88210435e-04 -5.70372637e-05 3.76474394e-04 4.17416550e-03 -5.88210435e-04 4.17416550e-03 -4.19759696e-06
-1.07698327e-03 -3.24409229e-03 2.37713840e-04 -3.24409229e-03 8.09761104e-04 1.63269646e-04 2.37713840e-04 1.63269646e-04 8.78498729e-04
-1.94054750e-04 2.28564100e-04 2.13995530e-04 2.28564100e-04 3.80171336e-04 -1.77512884e-05 2.13995530e-04 -1.77512884e-05 -3.60113399e-05
-1.58522496e-04 -2.49837685e-04 -9.98839951e-05 -2.49837685e-04 1.75000316e-04 8.67996860e-05 -9.98839951e-05 8.67996860e-05 1.32580921e-04
2.62731740e-04 -9.79051620e-04 4.36615359e-04 -9.79051620e-04 -5.02968127e-04 4.36400228e-06 4.36615359e-04 4.36400228e-06 3.58750178e-04
4.17903793e-04 -1.12167964e-03 -1.49920575e-04 -1.12167964e-03 -9.93312177e-04 -9.17937250e-05 -1.49920575e-04 -9.17937250e-05 6.92506033e-04
9.35766324e-02 2.02687178e-02 -2.20034346e-02 2.02687178e-02 1.39569804e-01 4.32804693e-04 -2.20034346e-02 4.32804693e-04 -2.07788035e-01
1.16030768e-01 5.38076228e-03 -1.28467130e-02 5.38076228e-03 1.26880914e-01 2.60958858e-02 -1.28467130e-02 2.60958858e-02 -2.20003918e-01
8.68098314e-02 -2.28013524e-02 2.24821238e-02 -2.28013524e-02 9.42772925e-02 2.57262600e-02 2.24821238e-02 2.57262600e-02 -1.53416624e-01
8.97085667e-02 -1.41759263e-02 3.06485575e-02 -1.41759263e-02 1.01923570e-01 1.32296147e-04 3.06485575e-02 1.32296147e-04 -1.63659960e-01
6.24440117e-05 3.93091414e-05 -6.39645498e-06 3.93091414e-05 -5.69393433e-05 -5.05100952e-05 -6.39645498e-06 -5.05100952e-05 3.00176961e-05
9.78930431e-03 -1.13120242e-02 4.18584362e-05 -1.13120242e-02 -3.74189978e-03 4.00065522e-04 4.18584362e-05 4.00065522e-04 -4.39869848e-03
8.80472144e-05 7.17496659e-05 2.18193645e-05 7.17496659e-05 -1.23694976e-04 3.14343088e-05 2.18193645e-05 3.14343088e-05 -4.23583970e-05
1.00210279e-01 -2.36049681e-02 1.70116918e-02 -2.36049681e-02 6.36288933e-02 1.84787456e-02 1.70116918e-02 1.84787456e-02 -1.39304556e-01
1.02508128e-01 4.67599975e-03 1.60290059e-02 4.67599975e-03 5.81444502e-02 -9.95559676e-05 1.60290059e-02 -9.95559676e-05 -1.34587392e-01
7.88538642e-02 7.10325874e-03 5.60134929e-03 7.10325874e-03 7.40122944e-02 3.16204317e-02 5.60134929e-03 3.16204317e-02 -1.31873079e-01
9.47490372e-02 -2.03461134e-02 -2.81631586e-03 -2.03461134e-02 5.58427814e-02 3.81420515e-02 -2.81631586e-03 3.81420515e-02 -1.28147099e-01
4.28644810e-02 1.09366095e-02 -1.70246139e-02 1.09366095e-02 2.36092145e-02 1.54003561e-02 -1.70246139e-02 1.54003561e-02 -5.02367727e-02
3.10217596e-02 -1.31923840e-02 -1.20741483e-02 -1.31923840e-02 4.35108989e-02 1.64154759e-02 -1.20741483e-02 1.64154759e-02 -5.74491043e-02
-8.78119527e-03 -3.02734541e-02 -8.21188180e-04 -3.02734541e-02 6.79994537e-03 4.04341277e-04 -8.21188180e-04 4.04341277e-04 4.89539332e-03
-3.36631744e-04 -4.91891551e-05 -6.11320502e-05 -4.91891551e-05 1.34503331e-04 1.84669270e-05 -6.11320502e-05 1.84669270e-05 2.26350225e-04
-9.29764210e-05 6.72495953e-05 -3.21630068e-06 6.72495953e-05 5.31817022e-06 -5.01519116e-06 -3.21630068e-06 -5.01519116e-06 3.53743599e-05
</DataArray>
<DataArray type="Float32" Name="Plastic_strain_components" NumberOfComponents="9" format="ascii">
2.80233119e-02 -6.42069292e-03 2.19469158e-03 -6.42069292e-03 2.44031330e-02 6.30380738e-03 2.19469158e-03 6.30380738e-03 -4.39752131e-02
2.43526323e-02 -1.09628730e-02 9.32417373e-04 -1.09628730e-02 2.56805613e-02 1.21377655e-02 9.32417373e-04 1.21377655e-02 -4.00311598e-02
3.22159189e-02 -4.57345275e-04 3.10110388e-03 -4.57345275e-04 4.23954967e-02 -3.36514646e-03 3.10110388e-03 -3.36514646e-03 -6.26414679e-02
2.87636495e-02 -9.20218095e-04 -2.65225300e-03 -9.20218095e-04 3.37793063e-02 -2.08344427e-04 -2.65225300e-03 -2.08344427e-04 -5.26830014e-02
1.61052358e-02 1.66782820e-03 1.26141115e-02 1.66782820e-03 2.07317350e-02 5.16799148e-04 1.26141115e-02 5.16799148e-04 -2.61927135e-02
2.23539259e-02 -7.12348501e-03 -6.12404421e-03 -7.12348501e-03 3.34755180e-02 1.84165114e-02 -6.12404421e-03 1.84165114e-02 -4.34131346e-02
4.92824889e-02 -4.77502425e-03 -5.17389619e-03 -4.77502425e-03 6.00212328e-02 -1.40018784e-02 -5.17389619e-03 -1.40018784e-02 -9.36060622e-02
3.97768370e-02 1.52901315e-02 7.30379083e-03 1.52901315e-02 4.89442106e-02 1.72740628e-02 7.30379083e-03 1.72740628e-02 -7.69984536e-02
4.23111110e-02 4.42683580e-04 -1.65474762e-02 4.42683580e-04 4.53987611e-02 2.23536831e-02 -1.65474762e-02 2.23536831e-02 -7.58435614e-02
5.32084126e-02 5.18053203e-04 -1.05071263e-02 5.18053203e-04 5.82834817e-02 2.01871567e-02 -1.05071263e-02 2.01871567e-02 -9.41098779e-02
6.25709035e-02 2.35160089e-02 -8.58202080e-02 2.35160089e-02 6.34826763e-02 -1.50969525e-02 -8.58202080e-02 -1.50969525e-02 -1.07575518e-01
7.45959803e-02 2.41818130e-02 -5.94457611e-02 2.41818130e-02 4.11872193e-02 -9.83538025e-03 -5.94457611e-02 -9.83538025e-03 -9.51934606e-02
0.00000000e+00 0.00000000e+00 0.00000000e+00 0.00000000e+00 0.00000000e+00 0.00000000e+00 0.00000000e+00 0.00000000e+00 0.00000000e+00
0.00000000e+00 0.00000000e+00 0.00000000e+00 0.00000000e+00 0.00000000e+00 0.00000000e+00 0.00000000e+00 0.00000000e+00 0.00000000e+00
0.00000000e+00 0.00000000e+00 0.00000000e+00 0.00000000e+00 0.00000000e+00 0.00000000e+00 0.00000000e+00 0.00000000e+00 0.00000000e+00
0.00000000e+00 0.00000000e+00 0.00000000e+00 0.00000000e+00 0.00000000e+00 0.00000000e+00 0.00000000e+00 0.00000000e+00 0.00000000e+00
0.00000000e+00 0.00000000e+00 0.00000000e+00 0.00000000e+00 0.00000000e+00 0.00000000e+00 0.00000000e+00 0.00000000e+00 0.00000000e+00
0.00000000e+00 0.00000000e+00 0.00000000e+00 0.00000000e+00 0.00000000e+00 0.00000000e+00 0.00000000e+00 0.00000000e+00 0.00000000e+00
0.00000000e+00 0.00000000e+00 0.00000000e+00 0.00000000e+00 0.00000000e+00 0.00000000e+00 0.00000000e+00 0.00000000e+00 0.00000000e+00
0.00000000e+00 0.00000000e+00 0.00000000e+00 0.00000000e+00 0.00000000e+00 0.00000000e+00 0.00000000e+00 0.00000000e+00 0.00000000e+00
4.16627992e-02 7.76116576e-06 9.20741772e-03 7.76116576e-06 4.36213128e-02 -2.07539869e-03 9.20741772e-03 -2.07539869e-03 -7.18113407e-02
4.27418845e-02 1.79123608e-03 6.21241960e-03 1.79123608e-03 4.20128834e-02 2.34493591e-03 6.21241960e-03 2.34493591e-03 -7.13590514e-02
4.12276462e-02 -8.12733689e-03 1.07744389e-02 -8.12733689e-03 4.26330087e-02 3.25419153e-03 1.07744389e-02 3.25419153e-03 -7.05456091e-02
3.98991397e-02 1.43813735e-03 9.55654739e-03 1.43813735e-03 4.46020886e-02 -5.02554083e-03 9.55654739e-03 -5.02554083e-03 -7.11312331e-02
5.36534172e-02 -6.42402301e-06 1.00965421e-02 -6.42402301e-06 4.02811617e-02 2.15042353e-04 1.00965421e-02 2.15042353e-04 -7.90461265e-02
5.18850517e-02 1.26187183e-03 2.35647586e-03 1.26187183e-03 4.26697033e-02 8.83006491e-03 2.35647586e-03 8.83006491e-03 -7.95789938e-02
5.29883173e-02 2.80092636e-03 1.32603540e-02 2.80092636e-03 4.32555163e-02 4.20958968e-03 1.32603540e-02 4.20958968e-03 -8.09453074e-02
5.45480829e-02 2.60010449e-03 1.35489374e-02 2.60010449e-03 4.32561086e-02 -7.55204819e-03 1.35489374e-02 -7.55204819e-03 -8.22616648e-02
4.60462691e-02 -9.41437460e-03 9.00108484e-03 -9.41437460e-03 3.68075669e-02 6.84090075e-04 9.00108484e-03 6.84090075e-04 -6.97071329e-02
4.50663297e-02 -1.10926375e-02 1.01405682e-02 -1.10926375e-02 4.09567943e-02 4.20690076e-03 1.01405682e-02 4.20690076e-03 -7.23121520e-02
4.85673249e-02 2.27934076e-03 -4.65530764e-04 2.27934076e-03 4.28048642e-02 4.79236043e-03 -4.65530764e-04 4.79236043e-03 -7.69425444e-02
4.82313740e-02 3.24284218e-03 1.08256526e-02 3.24284218e-03 4.62666028e-02 1.27277571e-02 1.08256526e-02 1.27277571e-02 -7.95344068e-02
4.92006326e-02 7.95868938e-04 3.31849692e-03 7.95868938e-04 3.37918745e-02 5.28254209e-03 3.31849692e-03 5.28254209e-03 -6.97994065e-02
4.74571623e-02 -5.05453101e-03 -4.52936697e-03 -5.05453101e-03 3.81531678e-02 -4.04282790e-03 -4.52936697e-03 -4.04282790e-03 -7.13691767e-02
4.68394868e-02 -4.71345393e-03 8.58278960e-04 -4.71345393e-03 3.87136899e-02 5.31031625e-03 8.58278960e-04 5.31031625e-03 -7.20308349e-02
4.51892763e-02 -4.54639085e-03 -4.84620105e-03 -4.54639085e-03 4.27828212e-02 4.32863148e-03 -4.84620105e-03 4.32863148e-03 -7.40174111e-02
5.09573957e-02 2.29785556e-03 -4.68818971e-03 2.29785556e-03 3.20520177e-02 -6.67131511e-04 -4.68818971e-03 -6.67131511e-04 -6.97864741e-02
5.02954293e-02 1.69346858e-03 -6.98016849e-03 1.69346858e-03 4.63602790e-02 -1.68978004e-05 -6.98016849e-03 -1.68978004e-05 -8.15016394e-02
4.51085670e-02 -2.02742999e-03 -6.62489736e-03 -2.02742999e-03 3.45321763e-02 4.24207102e-03 -6.62489736e-03 4.24207102e-03 -6.70400504e-02
4.44434457e-02 -8.74126860e-03 -1.03768856e-02 -8.74126860e-03 3.65794506e-02 -5.29001251e-03 -1.03768856e-02 -5.29001251e-03 -6.81209648e-02
4.83163930e-02 9.79862423e-04 2.69641704e-03 9.79862423e-04 3.32295089e-02 -3.58842334e-03 2.69641704e-03 -3.58842334e-03 -6.86038081e-02
4.95660850e-02 5.20281006e-04 3.44162094e-04 5.20281006e-04 4.48055672e-02 2.53832764e-03 3.44162094e-04 2.53832764e-03 -7.94571806e-02
3.96424104e-02 -3.47692883e-04 -1.17565682e-02 -3.47692883e-04 3.28183975e-02 -8.47850213e-04 -1.17565682e-02 -8.47850213e-04 -6.09748056e-02
4.19886354e-02 -2.56689430e-03 -9.24604764e-03 -2.56689430e-03 3.95557559e-02 -4.99940602e-03 -9.24604764e-03 -4.99940602e-03 -6.86017089e-02
4.62524667e-02 3.40937375e-04 2.79699417e-03 3.40937375e-04 3.30335526e-02 -3.57455015e-03 2.79699417e-03 -3.57455015e-03 -6.66729864e-02
4.58337497e-02 -2.54746013e-03 -1.84975777e-03 -2.54746013e-03 4.44964347e-02 -2.90594590e-03 -1.84975777e-03 -2.90594590e-03 -7.60340244e-02
3.62065956e-02 1.10964309e-02 -8.78242915e-03 1.10964309e-02 3.28135826e-02 -8.92422162e-03 -8.78242915e-03 -8.92422162e-03 -5.80502283e-02
4.08682516e-02 2.77894642e-03 -6.28834721e-03 2.77894642e-03 3.80387800e-02 -5.48803082e-03 -6.28834721e-03 -5.48803082e-03 -6.63405024e-02
3.71407836e-02 -1.37750948e-02 2.67021036e-02 -1.37750948e-02 4.66490341e-02 8.49821532e-04 2.67021036e-02 8.49821532e-04 -7.00255027e-02
3.14285867e-02 -1.12312098e-02 1.96363125e-02 -1.12312098e-02 4.99034580e-02 -3.00284207e-03 1.96363125e-02 -3.00284207e-03 -6.82356246e-02
5.70641058e-02 2.97070917e-04 3.44303455e-02 2.97070917e-04 4.72081737e-02 1.01930794e-02 3.44303455e-02 1.01930794e-02 -8.74497229e-02
5.42754438e-02 -1.61763608e-04 2.67628287e-02 -1.61763608e-04 4.72496636e-02 -1.95208102e-03 2.67628287e-02 -1.95208102e-03 -8.52523427e-02
4.88302702e-02 -1.43204794e-03 1.92277831e-02 -1.43204794e-03 4.49516986e-02 -3.88645095e-03 1.92277831e-02 -3.88645095e-03 -7.94612137e-02
5.13376836e-02 1.02996767e-02 1.03286488e-02 1.02996767e-02 4.81871800e-02 -6.55937998e-03 1.03286488e-02 -6.55937998e-03 -8.34596390e-02
5.88015296e-02 -1.26270052e-02 -5.24891296e-02 -1.26270052e-02 5.40848911e-02 -6.82350714e-04 -5.24891296e-02 -6.82350714e-04 -9.36141014e-02
4.32625112e-02 6.65213682e-03 -3.81914752e-02 6.65213682e-03 4.65576776e-02 -7.68458843e-03 -3.81914752e-02 -7.68458843e-03 -7.65082272e-02
5.65981371e-02 -1.34466367e-03 -1.55195973e-02 -1.34466367e-03 6.44210381e-02 1.10125619e-02 -1.55195973e-02 1.10125619e-02 -1.01762543e-01
4.68547039e-02 -5.80592647e-03 -5.04185908e-02 -5.80592647e-03 3.76903230e-02 7.23040719e-03 -5.04185908e-02 7.23040719e-03 -6.96556687e-02
5.57077592e-02 -3.77993664e-03 -1.84340100e-03 -3.77993664e-03 6.12954013e-02 9.61746412e-03 -1.84340100e-03 9.61746412e-03 -9.85152405e-02
4.82915547e-02 2.24953919e-03 -1.92731922e-02 2.24953919e-03 5.47060696e-02 -1.36952207e-03 -1.92731922e-02 -1.36952207e-03 -8.66993871e-02
4.99549750e-02 -1.82496785e-03 -3.90852708e-03 -1.82496785e-03 6.24833219e-02 3.41864559e-03 -3.90852708e-03 3.41864559e-03 -9.46395248e-02
4.55132443e-02 -3.15512205e-03 -1.95773644e-02 -3.15512205e-03 5.53914458e-02 -1.45276734e-02 -1.95773644e-02 -1.45276734e-02 -8.47393796e-02
3.20654416e-02 -8.20529789e-03 3.54279240e-02 -8.20529789e-03 4.59789937e-02 1.43058977e-03 3.54279240e-02 1.43058977e-03 -6.50803915e-02
2.67571695e-02 2.71018210e-03 2.79040723e-02 2.71018210e-03 4.49139159e-02 4.18460427e-03 2.79040723e-02 4.18460427e-03 -5.98926088e-02
6.17264009e-02 -4.15150552e-03 4.06979756e-02 -4.15150552e-03 5.05348854e-02 -8.84636957e-03 4.06979756e-02 -8.84636957e-03 -9.45008461e-02
4.79336055e-02 1.84622678e-03 4.08160361e-02 1.84622678e-03 5.00918357e-02 -1.18976522e-02 4.08160361e-02 -1.18976522e-02 -8.20127875e-02
4.38176049e-02 -2.29833666e-02 4.98723364e-02 -2.29833666e-02 5.81672266e-02 -5.45017063e-02 4.98723364e-02 -5.45017063e-02 -8.31992216e-02
6.77795090e-02 -3.25173419e-04 1.05970725e-02 -3.25173419e-04 5.07399805e-02 -4.29963596e-02 1.05970725e-02 -4.29963596e-02 -1.00153564e-01
-1.86262242e-02 -9.51908007e-02 -1.86535731e-01 -9.51908007e-02 -1.95795624e-03 -1.19289316e-01 -1.86535731e-01 -1.19289316e-01 3.20640467e-02
1.58957019e-02 -3.58752596e-03 -1.37050860e-02 -3.58752596e-03 1.27525367e-02 -2.58972719e-02 -1.37050860e-02 -2.58972719e-02 -1.59959830e-02
2.57326985e-02 -2.68167605e-03 1.33032999e-02 -2.68167605e-03 3.35141625e-02 2.09882406e-02 1.33032999e-02 2.09882406e-02 -4.92312711e-02
2.60383571e-02 -6.47048780e-03 2.34445295e-02 -6.47048780e-03 3.68364849e-02 5.22550161e-03 2.34445295e-02 5.22550161e-03 -5.26992092e-02
2.01107177e-02 -4.63183453e-03 2.62061543e-02 -4.63183453e-03 2.58819678e-02 1.81739177e-02 2.62061543e-02 1.81739177e-02 -3.04855313e-02
2.83645547e-02 -4.32589470e-03 1.32275320e-02 -4.32589470e-03 3.61335040e-02 1.02979313e-02 1.32275320e-02 1.02979313e-02 -4.86357585e-02
2.99462792e-02 5.77435386e-03 -1.88890006e-03 5.77435386e-03 3.85118835e-02 4.08581865e-03 -1.88890006e-03 4.08581865e-03 -5.84017187e-02
5.83415119e-02 1.17378223e-02 -1.48787122e-02 1.17378223e-02 6.73040950e-02 3.57453872e-02 -1.48787122e-02 3.57453872e-02 -1.09565593e-01
3.49066616e-02 1.28688239e-02 7.78553099e-03 1.28688239e-02 5.11876047e-02 9.15065483e-03 7.78553099e-03 9.15065483e-03 -6.93621570e-02
2.93434444e-02 4.61661439e-03 1.35175872e-02 4.61661439e-03 4.14216057e-02 6.53320393e-02 1.35175872e-02 6.53320393e-02 -5.74254226e-02
7.96209462e-02 -1.01667251e-02 6.58234805e-02 -1.01667251e-02 6.87576327e-02 2.84722024e-02 6.58234805e-02 2.84722024e-02 -1.26500644e-01
4.37734164e-02 -1.57451380e-02 -3.22283983e-02 -1.57451380e-02 6.76784053e-02 -1.59548040e-02 -3.22283983e-02 -1.59548040e-02 -9.32949826e-02
2.83013657e-02 -2.79815798e-03 7.76235596e-03 -2.79815798e-03 3.98470499e-02 1.01300781e-02 7.76235596e-03 1.01300781e-02 -5.68143502e-02
2.26014717e-02 1.24182587e-02 -6.29613153e-03 1.24182587e-02 2.34977358e-02 -5.53991995e-04 -6.29613153e-03 -5.53991995e-04 -2.82737460e-02
4.96710110e-02 -1.08490949e-02 1.76677401e-02 -1.08490949e-02 7.14024995e-02 -1.49572273e-02 1.76677401e-02 -1.49572273e-02 -1.04080491e-01
5.98100331e-02 -1.70671740e-02 -4.20153360e-02 -1.70671740e-02 6.67759422e-02 5.05207926e-02 -4.20153360e-02 5.05207926e-02 -1.06563788e-01
3.20625808e-02 3.94607267e-02 1.40275088e-04 3.94607267e-02 6.46101062e-02 -1.07306821e-01 1.40275088e-04 -1.07306821e-01 -7.73259277e-02
6.43561115e-02 -5.48727792e-03 -1.17006820e-02 -5.48727792e-03 3.73775971e-02 -2.64374640e-02 -1.17006820e-02 -2.64374640e-02 -8.48359838e-02
6.60438165e-02 6.90239540e-06 3.30054713e-03 6.90239540e-06 4.07964811e-02 -2.95576267e-03 3.30054713e-03 -2.95576267e-03 -8.98003504e-02
6.13555377e-02 3.11359251e-03 3.62725049e-03 3.11359251e-03 4.45574624e-02 4.77521431e-03 3.62725049e-03 4.77521431e-03 -8.90961383e-02
6.35635573e-02 1.18734905e-02 7.67779688e-03 1.18734905e-02 4.59358748e-02 4.91991537e-03 7.67779688e-03 4.91991537e-03 -9.20713600e-02
6.94418568e-02 3.05048405e-03 9.27125430e-03 3.05048405e-03 4.30192761e-02 -2.64123810e-03 9.27125430e-03 -2.64123810e-03 -9.45084020e-02
5.06125651e-02 8.03345861e-03 -9.81246863e-04 8.03345861e-03 5.07316831e-02 7.73097604e-03 -9.81246863e-04 7.73097604e-03 -8.53142943e-02
5.10060429e-02 1.63355052e-02 3.90702911e-03 1.63355052e-02 5.08609251e-02 6.44646779e-03 3.90702911e-03 6.44646779e-03 -8.56626891e-02
4.22045337e-02 5.15576673e-03 -2.00736494e-03 5.15576673e-03 5.14359223e-02 2.26753531e-03 -2.00736494e-03 2.26753531e-03 -7.88464937e-02
3.86112095e-02 8.30783564e-03 -3.28210241e-04 8.30783564e-03 5.21558253e-02 8.62998299e-03 -3.28210241e-04 8.62998299e-03 -7.62392636e-02
3.72084081e-02 -4.20257438e-03 -1.26246113e-03 -4.20257438e-03 4.77525303e-02 8.55252147e-04 -1.26246113e-03 8.55252147e-04 -7.15287942e-02
3.34194582e-02 -4.11183039e-03 -3.02886998e-03 -4.11183039e-03 4.75164829e-02 1.25555165e-03 -3.02886998e-03 1.25555165e-03 -6.82614977e-02
3.25465710e-02 -4.98729653e-03 -4.58967790e-03 -4.98729653e-03 4.48864354e-02 -7.16320264e-04 -4.58967790e-03 -7.16320264e-04 -6.51663765e-02
3.34679447e-02 -8.48131221e-03 -8.48068122e-03 -8.48131221e-03 4.01059613e-02 -2.21706461e-03 -8.48068122e-03 -2.21706461e-03 -6.19959305e-02
2.87532406e-02 1.25696615e-03 -7.63417222e-04 1.25696615e-03 4.75868788e-02 4.78141010e-06 -7.63417222e-04 4.78141010e-06 -6.41935840e-02
3.25659388e-02 -7.04619638e-03 -3.39144585e-03 -7.04619638e-03 4.01281882e-02 -1.00600852e-02 -3.39144585e-03 -1.00600852e-02 -6.08898392e-02
6.39545748e-02 1.52574754e-02 1.84033760e-02 1.52574754e-02 3.88198977e-02 4.60082095e-03 1.84033760e-02 4.60082095e-03 -8.31158245e-02
7.75877759e-02 8.71920027e-03 2.78608480e-02 8.71920027e-03 4.87287380e-02 -8.18670238e-03 2.78608480e-02 -8.18670238e-03 -1.06028693e-01
4.86037322e-02 1.84284968e-02 1.27772633e-03 1.84284968e-02 4.08726936e-02 3.08579636e-03 1.27772633e-03 3.08579636e-03 -7.29662776e-02
3.33041879e-02 1.51475274e-02 -1.71630001e-02 1.51475274e-02 3.77603170e-02 -3.17711788e-03 -1.71630001e-02 -3.17711788e-03 -5.92656902e-02
2.15778592e-02 -7.79043351e-05 -2.17692989e-02 -7.79043351e-05 3.33864207e-02 -1.51329948e-03 -2.17692989e-02 -1.51329948e-03 -4.58238778e-02
1.90925812e-02 -9.01130750e-03 -2.51065223e-02 -9.01130750e-03 2.99316027e-02 -8.58830068e-03 -2.51065223e-02 -8.58830068e-03 -4.00922157e-02
2.48903235e-02 -1.76570738e-02 -3.01210464e-02 -1.76570738e-02 3.12362472e-02 -1.68921618e-02 -3.01210464e-02 -1.68921618e-02 -4.73417100e-02
8.87322898e-02 -1.84441141e-03 5.88057575e-02 -1.84441141e-03 4.66098965e-02 -1.36251747e-02 5.88057575e-02 -1.36251747e-02 -1.13902674e-01
8.32979505e-02 -1.49440787e-02 5.34981713e-02 -1.49440787e-02 5.04959778e-02 -1.71350824e-02 5.34981713e-02 -1.71350824e-02 -1.11607502e-01
6.72491423e-02 1.60281776e-02 5.19855779e-03 1.60281776e-02 3.25174583e-02 -3.48707720e-02 5.19855779e-03 -3.48707720e-02 -8.38868109e-02
1.40300244e-02 1.21263578e-02 -2.27521219e-02 1.21263578e-02 7.13957838e-03 -5.54779645e-03 -2.27521219e-02 -5.54779645e-03 -1.33298590e-02
8.27982184e-03 -5.63976802e-02 -8.23844373e-02 -5.63976802e-02 -2.94352453e-02 -7.80397356e-02 -8.23844373e-02 -7.80397356e-02 2.76189595e-02
-1.97004862e-03 3.33315459e-03 -1.49404915e-03 3.33315459e-03 2.98313600e-03 -1.29436795e-03 -1.49404915e-03 -1.29436795e-03 2.61989953e-03
9.46006160e-02 -9.31021641e-04 -6.19720109e-03 -9.31021641e-04 8.10569748e-02 5.23971086e-02 -6.19720109e-03 5.23971086e-02 -1.50956776e-01
9.30103833e-02 1.10272042e-02 -3.51012007e-02 1.10272042e-02 8.94951175e-02 4.13891536e-02 -3.51012007e-02 4.13891536e-02 -1.57716259e-01
8.83392133e-02 -1.51885531e-02 1.71864536e-02 -1.51885531e-02 4.58817929e-02 -5.01903044e-02 1.71864536e-02 -5.01903044e-02 -1.12146765e-01
5.49648171e-02 -2.20185324e-03 -1.32663525e-02 -2.20185324e-03 6.95239214e-02 2.16563529e-02 -1.32663525e-02 2.16563529e-02 -9.79869297e-02
5.74216302e-02 -4.05019188e-03 1.32510962e-02 -4.05019188e-03 6.76947145e-02 -2.10265703e-03 1.32510962e-02 -2.10265703e-03 -9.88441480e-02
8.71762782e-02 -3.91404098e-03 8.18222202e-03 -3.91404098e-03 7.66625255e-02 2.62722309e-02 8.18222202e-03 2.62722309e-02 -1.40499450e-01
7.64496289e-02 3.64610495e-03 1.26165191e-02 3.64610495e-03 6.76954631e-02 -1.33291217e-02 1.26165191e-02 -1.33291217e-02 -1.20786332e-01
8.02666638e-02 2.07229845e-02 -1.13966264e-02 2.07229845e-02 7.62786679e-02 -2.69632735e-02 -1.13966264e-02 -2.69632735e-02 -1.32550802e-01
9.05778427e-02 -1.31998789e-02 -2.22194802e-02 -1.31998789e-02 5.35197994e-02 3.93797904e-02 -2.22194802e-02 3.93797904e-02 -1.20935576e-01
5.42736725e-02 1.01705673e-02 6.11746208e-03 1.01705673e-02 2.16449390e-02 -1.18215787e-02 6.11746208e-03 -1.18215787e-02 -6.12551258e-02
3.62737463e-02 -1.99118974e-02 2.73301278e-03 -1.99118974e-02 3.28980238e-02 3.41232913e-03 2.73301278e-03 3.41232913e-03 -5.51667050e-02
-1.86790079e-02 3.01105976e-02 2.00441070e-02 3.01105976e-02 -9.47111379e-03 -1.48272691e-02 2.00441070e-02 -1.48272691e-02 3.54745463e-02
-3.61591647e-03 -6.65480550e-03 7.79339764e-03 -6.65480550e-03 -8.69814306e-03 6.12409273e-03 7.79339764e-03 6.12409273e-03 2.06585433e-02
1.25110058e-02 -3.28636647e-02 -9.83784766e-03 -3.28636647e-02 -1.74679798e-02 3.28737627e-02 -9.83784766e-03 3.28737627e-02 9.04232925e-03
-5.08961481e-03 -2.42661510e-02 1.99310569e-03 -2.42661510e-02 5.64283878e-03 -3.52607435e-02 1.99310569e-03 -3.52607435e-02 4.97204662e-03
0.00000000e+00 0.00000000e+00 0.00000000e+00 0.00000000e+00 0.00000000e+00 0.00000000e+00 0.00000000e+00 0.00000000e+00 0.00000000e+00
0.00000000e+00 0.00000000e+00 0.00000000e+00 0.00000000e+00 0.00000000e+00 0.00000000e+00 0.00000000e+00 0.00000000e+00 0.00000000e+00
0.00000000e+00 0.00000000e+00 0.00000000e+00 0.00000000e+00 0.00000000e+00 0.00000000e+00 0.00000000e+00 0.00000000e+00 0.00000000e+00
0.00000000e+00 0.00000000e+00 0.00000000e+00 0.00000000e+00 0.00000000e+00 0.00000000e+00 0.00000000e+00 0.00000000e+00 0.00000000e+00
1.93016151e-05 -2.91397850e-05 -2.39003793e-05 -2.91397850e-05 -4.02771673e-05 -3.64770862e-05 -2.39003793e-05 -3.64770862e-05 9.39548490e-06
0.00000000e+00 0.00000000e+00 0.00000000e+00 0.00000000e+00 0.00000000e+00 0.00000000e+00 0.00000000e+00 0.00000000e+00 0.00000000e+00
0.00000000e+00 0.00000000e+00 0.00000000e+00 0.00000000e+00 0.00000000e+00 0.00000000e+00 0.00000000e+00 0.00000000e+00 0.00000000e+00
-3.19626439e-05 -1.54033303e-04 1.33613200e-05 -1.54033303e-04 8.58990704e-06 4.43362448e-06 1.33613200e-05 4.43362448e-06 3.41875614e-05
7.06539154e-02 6.40691724e-07 2.12245504e-06 6.40691724e-07 4.29364331e-02 5.87489922e-07 2.12245504e-06 5.87489922e-07 -9.54693630e-02
6.44724723e-02 5.87118976e-03 -9.07202048e-06 5.87118976e-03 4.68147025e-02 4.13884525e-03 -9.07202048e-06 4.13884525e-03 -9.36260149e-02
6.92008547e-02 1.74192511e-02 3.60739109e-03 1.74192511e-02 4.42107460e-02 6.84732781e-03 3.60739109e-03 6.84732781e-03 -9.52478722e-02
7.65228532e-02 5.07013779e-03 1.65696937e-03 5.07013779e-03 4.11294717e-02 -2.68949225e-06 1.65696937e-03 -2.68949225e-06 -9.87654999e-02
5.10690250e-02 5.47555811e-03 -2.91405158e-05 5.47555811e-03 5.46476692e-02 9.13399691e-03 -2.91405158e-05 9.13399691e-03 -8.89834836e-02
5.26624806e-02 2.16970672e-02 4.25313774e-03 2.16970672e-02 5.16412714e-02 6.53630646e-03 4.25313774e-03 6.53630646e-03 -8.76577422e-02
3.91606707e-02 8.40618741e-03 -2.53155522e-05 8.40618741e-03 5.81924934e-02 6.18734723e-03 -2.53155522e-05 6.18734723e-03 -8.18600953e-02
3.79373953e-02 1.40381355e-02 5.92023320e-03 1.40381355e-02 5.50471358e-02 9.26339091e-03 5.92023320e-03 9.26339091e-03 -7.79612102e-02
3.21896514e-02 1.54198316e-03 -1.13366514e-06 1.54198316e-03 5.65636512e-02 1.96698459e-03 -1.13366514e-06 1.96698459e-03 -7.45631568e-02
3.04457843e-02 2.60914603e-03 1.10169002e-02 2.60914603e-03 5.45148142e-02 8.12798459e-03 1.10169002e-02 8.12798459e-03 -7.17514120e-02
3.07480041e-02 -3.81103135e-03 -7.12820474e-06 -3.81103135e-03 5.28801288e-02 1.21531575e-04 -7.12820474e-06 1.21531575e-04 -7.02793561e-02
2.63607237e-02 -8.60043027e-03 1.25459388e-02 -8.60043027e-03 5.20577990e-02 1.25084867e-03 1.25459388e-02 1.25084867e-03 -6.67627417e-02
2.83713657e-02 -1.74944513e-02 2.18618152e-05 -1.74944513e-02 5.68114556e-02 5.70602203e-03 2.18618152e-05 5.70602203e-03 -7.14223981e-02
2.53273118e-02 -1.24855503e-02 1.57347047e-02 -1.24855503e-02 5.32175172e-02 -1.40924524e-02 1.57347047e-02 -1.40924524e-02 -6.66451193e-02
7.82502145e-02 2.46527873e-02 -6.46181818e-03 2.46527873e-02 5.37315886e-02 1.28029550e-02 -6.46181818e-03 1.28029550e-02 -1.11485038e-01
8.79010484e-02 4.42754827e-03 -4.23269509e-03 4.42754827e-03 5.97742889e-02 1.81853524e-04 -4.23269509e-03 1.81853524e-04 -1.25139102e-01
4.48390767e-02 3.48606906e-02 -1.11403897e-04 3.48606906e-02 4.05266662e-02 1.43552113e-02 -1.11403897e-04 1.43552113e-02 -6.87502483e-02
3.39723141e-02 2.50389336e-02 9.35537135e-03 2.50389336e-02 4.31420058e-02 1.29057015e-02 9.35537135e-03 1.29057015e-02 -6.60777809e-02
1.36238865e-02 -2.52522017e-03 9.74714337e-03 -2.52522017e-03 2.62035052e-02 8.25541682e-03 9.74714337e-03 8.25541682e-03 -3.25193180e-02
5.82745924e-03 -4.72564134e-03 8.88434344e-03 -4.72564134e-03 1.07826066e-02 -1.37377433e-03 8.88434344e-03 -1.37377433e-03 -1.05408018e-02
1.00559808e-02 -9.31617431e-03 6.61091739e-03 -9.31617431e-03 3.95530765e-03 -6.37036876e-03 6.61091739e-03 -6.37036876e-03 -8.09737621e-03
8.91218670e-02 -4.91281739e-03 3.22925504e-02 -4.91281739e-03 7.65751153e-02 1.83918932e-02 3.22925504e-02 1.83918932e-02 -1.38885930e-01
9.81928259e-02 -5.53198904e-03 2.37775873e-02 -5.53198904e-03 8.66122842e-02 -9.18746809e-05 2.37775873e-02 -9.18746809e-05 -1.55126274e-01
6.99299114e-02 2.88418078e-02 1.05661036e-02 2.88418078e-02 3.99653135e-02 2.91998982e-02 1.05661036e-02 2.91998982e-02 -9.60040490e-02
-2.33427016e-03 -4.25704170e-03 4.11009739e-03 -4.25704170e-03 3.55261867e-03 6.09809079e-03 4.11009739e-03 6.09809079e-03 5.42985438e-03
-1.30828665e-03 -4.84890839e-03 2.32200212e-03 -4.84890839e-03 -1.37728621e-03 -1.65603160e-05 2.32200212e-03 -1.65603160e-05 4.58780327e-03
-2.56127026e-03 -5.95043837e-03 -1.43371148e-02 -5.95043837e-03 7.84184242e-03 -6.96566499e-04 -1.43371148e-02 -6.96566499e-04 -3.82633267e-03
-4.09651845e-04 -6.26033230e-04 2.01119051e-03 -6.26033230e-04 -7.97056387e-04 7.22655706e-04 2.01119051e-03 7.22655706e-04 2.26675767e-03
9.10501636e-04 -1.42120687e-02 -1.29699259e-02 -1.42120687e-02 5.09951496e-04 -2.77587969e-04 -1.29699259e-02 -2.77587969e-04 3.88575922e-04
1.50257361e-03 -7.75872826e-03 1.59593031e-03 -7.75872826e-03 -1.95654045e-03 2.17228080e-04 1.59593031e-03 2.17228080e-04 1.15354889e-03
1.77477467e-02 3.39195598e-04 -1.90952187e-02 3.39195598e-04 -1.03741178e-02 -3.78499087e-02 -1.90952187e-02 -3.78499087e-02 -1.91115681e-03
-1.53001011e-02 -3.84279224e-03 5.78854454e-03 -3.84279224e-03 -2.11634140e-03 8.01056903e-03 5.78854454e-03 8.01056903e-03 2.28321366e-02
4.92196940e-02 2.55284999e-02 -6.48854487e-03 2.55284999e-02 5.14138825e-02 6.58311844e-02 -6.48854487e-03 6.58311844e-02 -8.86880085e-02
2.11454098e-05 -2.76673122e-04 -4.39152984e-04 -2.76673122e-04 1.52672401e-05 4.28335182e-03 -4.39152984e-04 4.28335182e-03 -3.84740742e-05
-1.29298138e-03 -3.25246974e-03 6.21744208e-05 -3.25246974e-03 7.47768834e-04 4.69282647e-05 6.21744208e-05 4.69282647e-05 8.56949001e-04
-1.25471100e-04 8.92497837e-06 -1.51220038e-05 8.92497837e-06 1.68133010e-04 2.17285572e-05 -1.51220038e-05 2.17285572e-05 -5.54161082e-05
-8.55200493e-05 -2.82627705e-05 -6.89425855e-05 -2.82627705e-05 8.88814570e-05 -1.62568052e-05 -6.89425855e-05 -1.62568052e-05 -4.73742807e-05
1.81319803e-04 -8.68909236e-04 4.81695053e-04 -8.68909236e-04 -3.11073731e-04 1.68351767e-06 4.81695053e-04 1.68351767e-06 2.26321965e-04
4.43354424e-04 -1.11770048e-03 -8.36970867e-05 -1.11770048e-03 -8.51806835e-04 -3.02990593e-05 -8.36970867e-05 -3.02990593e-05 5.91775985e-04
9.05314088e-02 2.01994758e-02 -2.19977386e-02 2.01994758e-02 1.32450148e-01 -5.69107244e-04 -2.19977386e-02 -5.69107244e-04 -1.85500070e-01
1.14449494e-01 6.71768794e-03 -9.97850206e-03 6.71768794e-03 1.23641901e-01 2.37001721e-02 -9.97850206e-03 2.37001721e-02 -1.98082834e-01
9.45960830e-02 -2.47470449e-02 1.92335810e-02 -2.47470449e-02 1.03980273e-01 2.86230128e-02 1.92335810e-02 2.86230128e-02 -1.70183182e-01
9.79244597e-02 -1.45891840e-02 3.14158332e-02 -1.45891840e-02 1.14906054e-01 1.23765359e-03 3.14158332e-02 1.23765359e-03 -1.82729110e-01
4.33909040e-05 -6.68639564e-05 5.35357515e-07 -6.68639564e-05 -2.88133335e-05 -1.31692600e-05 5.35357515e-07 -1.31692600e-05 -2.74639700e-05
1.04034634e-03 -3.51987905e-03 4.30737203e-04 -3.51987905e-03 -1.43543569e-03 1.89976416e-03 4.30737203e-04 1.89976416e-03 2.11069148e-03
0.00000000e+00 0.00000000e+00 0.00000000e+00 0.00000000e+00 0.00000000e+00 0.00000000e+00 0.00000000e+00 0.00000000e+00 0.00000000e+00
9.88610685e-02 -2.30880105e-02 1.67032098e-02 -2.30880105e-02 6.28677234e-02 1.81909865e-02 1.67032098e-02 1.81909865e-02 -1.35752015e-01
1.01978779e-01 4.62877098e-03 1.60749257e-02 4.62877098e-03 5.78026175e-02 -6.26789697e-05 1.60749257e-02 -6.26789697e-05 -1.34217724e-01
8.73678848e-02 5.53019810e-03 4.01352497e-03 5.53019810e-03 8.03518482e-02 3.37209795e-02 4.01352497e-03 3.37209795e-02 -1.44205563e-01
1.02868840e-01 -2.45184060e-02 -3.71862308e-03 -2.45184060e-02 5.98088950e-02 4.00839169e-02 -3.71862308e-03 4.00839169e-02 -1.38747014e-01
2.08447123e-02 1.37471768e-02 -1.09586176e-02 1.37471768e-02 4.25983174e-03 7.38033833e-03 -1.09586176e-02 7.38033833e-03 -1.13928467e-02
-2.84684484e-03 -3.56559737e-03 -8.82951124e-03 -3.56559737e-03 3.00038811e-02 7.03968990e-03 -8.82951124e-03 7.03968990e-03 -1.38673000e-02
-3.82879205e-03 -9.95565753e-03 -5.60616434e-04 -9.95565753e-03 1.40564487e-04 4.13047976e-03 -5.60616434e-04 4.13047976e-03 6.42755446e-03
-1.88362566e-04 -1.17037125e-04 -5.66968220e-06 -1.17037125e-04 8.84040637e-05 -1.43838452e-05 -5.66968220e-06 -1.43838452e-05 1.31786015e-04
0.00000000e+00 0.00000000e+00 0.00000000e+00 0.00000000e+00 0.00000000e+00 0.00000000e+00 0.00000000e+00 0.00000000e+00 0.00000000e+00
</DataArray>
<DataArray type="Float32" Name="Spatial_displacement" NumberOfComponents="3" format="ascii">
3.18099260e-02 1.87299505e-01 -8.95006359e-02
5.36793172e-02 1.78842232e-01 -7.14169443e-02
5.43969348e-02 2.25176454e-01 -1.04806699e-01
2.71814093e-02 2.19455034e-01 -1.13687225e-01
2.58826688e-02 2.15981632e-01 -1.36443943e-01
5.82260564e-02 2.13927388e-01 -1.30331159e-01
4.86489981e-02 2.73747325e-01 -1.72009632e-01
2.82323584e-02 2.47406989e-01 -1.64004475e-01
9.27356035e-02 1.65628225e-01 -5.63410670e-02
1.00633837e-01 2.16790587e-01 -1.03141747e-01
9.21890587e-02 2.06215799e-01 -1.47683769e-01
1.33130327e-01 2.58279741e-01 -2.18509778e-01
9.58361104e-02 1.60362631e-01 3.09050083e-05
9.58352312e-02 1.62937149e-01 2.71499157e-05
9.32574868e-02 1.62944138e-01 -1.51842833e-05
9.32321548e-02 1.60373136e-01 -3.15159559e-05
9.58283395e-02 1.60419270e-01 1.86413527e-05
9.58190858e-02 1.63003653e-01 3.49134207e-05
9.32362750e-02 1.62991971e-01 -2.57343054e-05
9.32538807e-02 1.60406545e-01 -2.07573175e-05
0.00000000e+00 0.00000000e+00 -2.13536859e-01
4.03599292e-02 0.00000000e+00 -2.15466291e-01
4.22589630e-02 4.39366251e-02 -2.09662899e-01
0.00000000e+00 4.24417555e-02 -2.04966545e-01
0.00000000e+00 0.00000000e+00 -2.86544800e-01
5.48531562e-02 0.00000000e+00 -2.86338925e-01
5.62073290e-02 4.35255840e-02 -2.84161001e-01
0.00000000e+00 4.08365354e-02 -2.77175248e-01
8.92896727e-02 0.00000000e+00 -2.27915570e-01
7.93994665e-02 3.68018150e-02 -2.19517484e-01
1.06262431e-01 0.00000000e+00 -2.94796228e-01
1.08666874e-01 4.57245931e-02 -2.95219809e-01
1.32930532e-01 0.00000000e+00 -2.41609722e-01
1.33776292e-01 3.22212949e-02 -2.38507807e-01
1.58128008e-01 0.00000000e+00 -3.09291750e-01
1.53162241e-01 4.01258394e-02 -3.08485836e-01
1.85487747e-01 0.00000000e+00 -2.54101187e-01
1.87916428e-01 3.38410512e-02 -2.58484542e-01
2.03176111e-01 0.00000000e+00 -3.20418388e-01
2.01022357e-01 3.30952182e-02 -3.26615781e-01
2.39967793e-01 0.00000000e+00 -2.69678235e-01
2.40988195e-01 3.63906473e-02 -2.67154545e-01
2.46157408e-01 0.00000000e+00 -3.28138769e-01
2.45792449e-01 3.15573514e-02 -3.39186937e-01
2.89840102e-01 0.00000000e+00 -2.75576085e-01
2.90208161e-01 3.60890478e-02 -2.72955865e-01
2.80367196e-01 0.00000000e+00 -3.30998451e-01
2.91910589e-01 3.07898000e-02 -3.39308977e-01
2.91447118e-02 8.26097429e-02 -1.90548599e-01
0.00000000e+00 9.44654197e-02 -1.87619805e-01
5.58990836e-02 8.85260105e-02 -2.62725681e-01
0.00000000e+00 8.86982381e-02 -2.60932744e-01
7.77082443e-02 8.33225399e-02 -2.11182341e-01
1.16211511e-01 9.35089439e-02 -2.88534105e-01
1.24971852e-01 8.93455967e-02 -2.48677373e-01
1.60686687e-01 8.77812058e-02 -3.38555545e-01
1.85130179e-01 9.92365330e-02 -2.57644415e-01
1.93373561e-01 7.63044208e-02 -3.53986800e-01
2.38978446e-01 9.23237652e-02 -2.56820500e-01
2.43140727e-01 8.57916027e-02 -3.52256209e-01
2.85198569e-01 9.55551267e-02 -2.61484087e-01
2.87938476e-01 8.63810182e-02 -3.53006184e-01
2.45861411e-02 1.42254472e-01 -1.52617455e-01
0.00000000e+00 1.39389962e-01 -1.56650588e-01
5.19987717e-02 1.40007228e-01 -2.32969657e-01
0.00000000e+00 1.38342783e-01 -2.21982241e-01
6.95243329e-02 1.24742463e-01 -1.80956542e-01
1.30367428e-01 1.44599199e-01 -2.98473656e-01
5.64496964e-02 1.07655443e-01 -4.33334529e-01
1.85571909e-01 1.27266064e-01 -3.93337458e-01
2.44456753e-02 1.75125033e-01 -1.27189100e-01
0.00000000e+00 1.81698382e-01 -1.31764591e-01
4.04101983e-02 1.93054467e-01 -1.78849593e-01
0.00000000e+00 1.98146790e-01 -1.94228306e-01
0.00000000e+00 2.10622594e-01 -1.39441758e-01
3.73510569e-02 2.50699997e-01 -1.93442434e-01
0.00000000e+00 2.35234931e-01 -2.04314113e-01
6.00959808e-02 1.75726280e-01 -9.83369499e-02
9.43606198e-02 2.03519180e-01 -2.02986568e-01
9.15832967e-02 2.35822812e-01 -1.93998531e-01
0.00000000e+00 2.49976322e-01 -1.74066886e-01
5.30504063e-02 2.97647357e-01 -2.53153741e-01
0.00000000e+00 3.10318559e-01 -2.37901047e-01
9.21382010e-02 3.14913452e-01 -2.54406869e-01
1.24072455e-01 2.17107832e-01 -3.05216283e-01
1.93279266e-01 2.50421703e-01 -3.00294608e-01
0.00000000e+00 0.00000000e+00 -3.67119431e-01
6.85427636e-02 0.00000000e+00 -3.69829834e-01
7.18685389e-02 4.50238287e-02 -3.66507471e-01
0.00000000e+00 4.18315306e-02 -3.64088416e-01
1.25487804e-01 0.00000000e+00 -3.73902261e-01
1.33984983e-01 5.25393337e-02 -3.74787390e-01
1.73078433e-01 0.00000000e+00 -3.80750477e-01
1.78496018e-01 5.48208617e-02 -3.82582754e-01
2.15520978e-01 0.00000000e+00 -3.88618171e-01
2.11099878e-01 4.94766384e-02 -3.89780402e-01
2.49869376e-01 0.00000000e+00 -3.92012060e-01
2.44691476e-01 4.39389050e-02 -3.96309286e-01
2.77642667e-01 0.00000000e+00 -3.93492699e-01
2.78933048e-01 4.73977253e-02 -3.94169033e-01
8.30441117e-02 9.67332870e-02 -3.60298097e-01
0.00000000e+00 8.77077654e-02 -3.52564603e-01
1.50085568e-01 1.06676839e-01 -3.76399100e-01
1.92996770e-01 1.06246442e-01 -3.99977446e-01
2.17422083e-01 9.48839560e-02 -4.18870926e-01
2.34784395e-01 8.13008621e-02 -4.29828823e-01
2.56069541e-01 8.51880610e-02 -4.29529220e-01
8.50244388e-02 1.33418173e-01 -3.25533152e-01
0.00000000e+00 1.49612039e-01 -3.10035408e-01
1.68704942e-01 1.38662934e-01 -3.83232951e-01
2.23029584e-01 1.31727993e-01 -4.40821826e-01
2.08337367e-01 5.85983582e-02 -4.95183468e-01
2.36726224e-01 1.17088296e-01 -4.57884550e-01
8.96429569e-02 1.87774211e-01 -2.58299500e-01
0.00000000e+00 1.75583571e-01 -2.92428821e-01
1.81082711e-01 1.76266432e-01 -3.53197545e-01
7.43467212e-02 2.80336797e-01 -3.17288131e-01
0.00000000e+00 2.86307573e-01 -3.16787452e-01
8.92667249e-02 3.69388759e-01 -3.46628934e-01
0.00000000e+00 3.65265489e-01 -3.35004091e-01
1.35572731e-01 2.56265819e-01 -3.16905767e-01
2.04191610e-01 3.21258783e-01 -3.41657072e-01
2.06847191e-01 1.84931129e-01 -4.18179035e-01
2.91390628e-01 2.09179848e-01 -3.92948747e-01
6.03245273e-02 1.60420179e-01 -5.57399988e-01
1.77883267e-01 1.58928394e-01 -4.86892819e-01
2.66031206e-01 1.17256828e-01 -4.59214807e-01
2.82149971e-01 1.18616253e-01 -4.58850682e-01
2.66410410e-01 1.02657758e-01 -4.59084451e-01
2.66286224e-01 8.78480449e-02 -4.59097743e-01
2.81099796e-01 8.77441987e-02 -4.59057510e-01
2.81172752e-01 1.02587126e-01 -4.58994031e-01
2.66371667e-01 1.02638140e-01 -4.59086239e-01
2.66335040e-01 8.78154859e-02 -4.59076285e-01
2.81097114e-01 8.77171084e-02 -4.59065616e-01
2.81295300e-01 1.02435187e-01 -4.58998680e-01
0.00000000e+00 0.00000000e+00 -4.59051013e-01
7.29918033e-02 0.00000000e+00 -4.59051013e-01
7.92749226e-02 4.88671586e-02 -4.59051013e-01
0.00000000e+00 4.35640439e-02 -4.59051013e-01
1.35191858e-01 0.00000000e+00 -4.59051013e-01
1.40989453e-01 5.71170002e-02 -4.59051013e-01
1.79573551e-01 0.00000000e+00 -4.59051013e-01
1.88390881e-01 6.13604710e-02 -4.59051013e-01
2.17588812e-01 0.00000000e+00 -4.59051013e-01
2.19170734e-01 6.08959310e-02 -4.59051013e-01
2.49972627e-01 0.00000000e+00 -4.59051013e-01
2.46024787e-01 5.62451929e-02 -4.59051013e-01
2.83504844e-01 0.00000000e+00 -4.59051013e-01
2.65239179e-01 6.37627766e-02 -4.59051013e-01
9.64708775e-02 8.80794525e-02 -4.59051013e-01
0.00000000e+00 8.32584947e-02 -4.59051013e-01
1.68627247e-01 1.07321970e-01 -4.59051013e-01
2.05104664e-01 1.15276545e-01 -4.59051013e-01
2.27095217e-01 1.06589004e-01 -4.59051013e-01
2.33027831e-01 9.43000615e-02 -4.59051013e-01
2.45860517e-01 9.32737514e-02 -4.59051013e-01
1.05836459e-01 1.69836879e-01 -4.59051013e-01
0.00000000e+00 1.75878212e-01 -4.59051013e-01
1.96493089e-01 1.48219049e-01 -4.59051013e-01
2.35931292e-01 1.39188543e-01 -4.59051013e-01
2.37360090e-01 1.17954142e-01 -4.59051013e-01
2.37186357e-01 1.01889469e-01 -4.59710598e-01
2.37696707e-01 1.02636598e-01 -4.59051013e-01
2.39070430e-01 8.98026153e-02 -4.60252821e-01
2.39269912e-01 9.14752185e-02 -4.59051013e-01
2.51991391e-01 1.33229122e-01 -4.71426725e-01
2.58364648e-01 1.41780704e-01 -4.59051013e-01
2.49789163e-01 1.68656349e-01 -4.59051013e-01
2.51851499e-01 1.16939038e-01 -4.58806157e-01
2.52017766e-01 1.17178142e-01 -4.59051013e-01
2.51660019e-01 1.02794997e-01 -4.59112465e-01
2.51747251e-01 1.02694988e-01 -4.59051013e-01
2.51444995e-01 8.81946832e-02 -4.59024370e-01
2.51353145e-01 8.80450234e-02 -4.59051013e-01
0.00000000e+00 1.50051370e-01 -4.59051013e-01
1.19180933e-01 1.73484758e-01 -4.59051013e-01
1.02473229e-01 3.05056602e-01 -4.59051013e-01
0.00000000e+00 3.20740163e-01 -4.59051013e-01
2.66321182e-01 1.02631830e-01 -4.59051013e-01
2.66450047e-01 1.17321946e-01 -4.59051013e-01
2.66366571e-01 8.78373086e-02 -4.59051013e-01
1.09740138e-01 3.87305796e-01 -4.59051013e-01
0.00000000e+00 3.82324338e-01 -4.59051013e-01
1.70002237e-01 2.62151539e-01 -4.59051013e-01
2.46453941e-01 3.17657471e-01 -4.59051013e-01
2.22808719e-01 1.67424545e-01 -4.59051013e-01
3.08385432e-01 1.96436793e-01 -4.59051013e-01
2.82547534e-01 1.17811404e-01 -4.59051013e-01
2.81313896e-01 1.02373928e-01 -4.59051013e-01
2.81091660e-01 8.77143368e-02 -4.59051013e-01
</DataArray>
<DataArray type="Float32" Name="Spatial_acceleration" NumberOfComponents="3" format="ascii">
-1.84893608e-07 -9.71635131e-07 3.87191761e-07
-3.24408205e-07 -9.33567662e-07 4.70320373e-07
-2.90195146e-07 -1.31424270e-06 5.46137471e-07
-1.20043751e-07 -1.18939079e-06 5.59171042e-07
-1.97211904e-07 -1.15358830e-06 7.19785703e-07
-3.34149320e-07 -1.12097598e-06 6.83012445e-07
-3.06765230e-07 -1.48598349e-06 9.53674316e-07
-1.96297961e-07 -1.44354499e-06 9.18070441e-07
-3.91006466e-07 -8.96980339e-07 4.45048016e-07
-6.24457982e-07 -1.16491321e-06 6.24338782e-07
-5.19434593e-07 -1.09990435e-06 8.35842570e-07
-6.95228550e-07 -1.36673452e-06 1.13805129e-06
-5.03004856e-07 -9.30445651e-07 -3.97821253e-07
-6.74088767e-07 -8.95261735e-07 4.08058355e-07
-3.83446604e-07 -8.24276356e-07 -4.16462626e-07
-4.40518050e-07 -8.08725758e-07 3.36721541e-07
-4.61616537e-07 -7.72659973e-07 5.65756125e-07
-3.81386513e-07 -1.04419576e-06 -7.00173246e-07
-6.28282635e-07 -9.98040036e-07 6.85917826e-07
-5.16351292e-07 -7.89367903e-07 -7.31645116e-07
0.00000000e+00 0.00000000e+00 1.20480854e-06
-1.98483463e-07 0.00000000e+00 1.20798745e-06
-2.14536982e-07 -2.18093390e-07 1.17190677e-06
0.00000000e+00 -1.99347738e-07 1.14377337e-06
0.00000000e+00 0.00000000e+00 1.55385328e-06
-2.93746581e-07 0.00000000e+00 1.54177349e-06
-2.96314568e-07 -2.13275356e-07 1.53509779e-06
0.00000000e+00 -1.76588699e-07 1.49154664e-06
-4.58677619e-07 0.00000000e+00 1.26075747e-06
-3.96966925e-07 -1.66093301e-07 1.23818711e-06
-5.69224369e-07 0.00000000e+00 1.66002906e-06
-5.64773870e-07 -2.36392012e-07 1.61361697e-06
-6.78698200e-07 0.00000000e+00 1.29699708e-06
-6.79175059e-07 -1.53819713e-07 1.33482615e-06
-8.20239393e-07 0.00000000e+00 1.71025590e-06
-7.89791329e-07 -2.18341739e-07 1.69563293e-06
-9.51508696e-07 0.00000000e+00 1.34404502e-06
-9.45885972e-07 -1.60177549e-07 1.38886764e-06
-1.04717412e-06 0.00000000e+00 1.72996522e-06
-1.03398168e-06 -1.76469484e-07 1.74268087e-06
-1.20510651e-06 0.00000000e+00 1.39840438e-06
-1.25896929e-06 -2.01006728e-07 1.41970315e-06
-1.25881036e-06 0.00000000e+00 1.75412492e-06
-1.28126146e-06 -1.59204006e-07 1.79290771e-06
-1.53398514e-06 0.00000000e+00 1.47883100e-06
-1.53195856e-06 -2.07116202e-07 1.42955776e-06
-1.46969160e-06 0.00000000e+00 1.75221760e-06
-1.52540201e-06 -1.47799653e-07 1.84758505e-06
-1.39633812e-07 -4.30742887e-07 1.02265676e-06
0.00000000e+00 -5.08705796e-07 9.99768531e-07
-3.00765038e-07 -4.67300424e-07 1.43527984e-06
0.00000000e+00 -4.73996010e-07 1.44131980e-06
-3.79153647e-07 -4.42277809e-07 1.11243833e-06
-5.88913736e-07 -4.74413241e-07 1.56879423e-06
-6.36545849e-07 -4.66918948e-07 1.30818682e-06
-8.37507685e-07 -4.25883684e-07 1.84340706e-06
-9.30150350e-07 -5.20984315e-07 1.33768719e-06
-9.98814926e-07 -4.16819262e-07 1.87683111e-06
-1.21680898e-06 -5.15739146e-07 1.37329096e-06
-1.21704738e-06 -4.36305982e-07 1.90544131e-06
-1.43890577e-06 -5.49197182e-07 1.39363601e-06
-1.49167704e-06 -4.48544824e-07 1.92260745e-06
-1.00839706e-07 -7.37144831e-07 8.57398618e-07
0.00000000e+00 -6.63399703e-07 7.82330801e-07
-2.83695385e-07 -7.56536224e-07 1.20053971e-06
0.00000000e+00 -7.54356392e-07 1.27983094e-06
-3.38077541e-07 -6.24497716e-07 9.58760552e-07
-6.90269474e-07 -7.48570756e-07 1.58131922e-06
-2.27928155e-07 -5.98927329e-07 2.27260580e-06
-9.11288794e-07 -7.10381414e-07 2.03959144e-06
-1.66302627e-07 -8.77289551e-07 6.23430537e-07
0.00000000e+00 -9.16950398e-07 7.03493754e-07
-2.56008576e-07 -1.03143850e-06 1.03717377e-06
0.00000000e+00 -1.04224682e-06 1.08814243e-06
0.00000000e+00 -1.15430350e-06 7.98225415e-07
-2.05039981e-07 -1.37665154e-06 1.13078522e-06
0.00000000e+00 -1.32010382e-06 1.16411843e-06
-3.73681388e-07 -9.54409415e-07 5.46773265e-07
-5.28812393e-07 -1.05826064e-06 1.09608970e-06
-5.15492786e-07 -1.29083003e-06 9.99450663e-07
0.00000000e+00 -1.43456452e-06 9.35872379e-07
-2.76764240e-07 -1.61925948e-06 1.45689648e-06
0.00000000e+00 -1.72249474e-06 1.48391723e-06
-4.63724120e-07 -1.76167487e-06 1.29445391e-06
-6.84102361e-07 -1.22282245e-06 1.43856471e-06
-9.75502871e-07 -1.33217702e-06 1.43941247e-06
0.00000000e+00 0.00000000e+00 2.02560432e-06
-3.63190964e-07 0.00000000e+00 1.98936459e-06
-3.88681883e-07 -2.43266413e-07 1.97537747e-06
0.00000000e+00 -2.43425376e-07 1.97728468e-06
-7.11371513e-07 0.00000000e+00 1.99508668e-06
-7.14282180e-07 -2.69810357e-07 2.04404182e-06
-9.32514638e-07 0.00000000e+00 2.05357878e-06
-9.38733422e-07 -2.62419377e-07 2.06756590e-06
-1.11881889e-06 0.00000000e+00 2.11715701e-06
-1.11325585e-06 -2.55028397e-07 2.07265225e-06
-1.32807099e-06 0.00000000e+00 2.14322404e-06
-1.28022828e-06 -1.95821130e-07 2.14513148e-06
-1.41670307e-06 0.00000000e+00 2.11207066e-06
-1.43734610e-06 -2.77360272e-07 2.14958186e-06
-4.57207364e-07 -5.18878323e-07 1.92324319e-06
0.00000000e+00 -4.62690991e-07 1.87810258e-06
-7.63972594e-07 -5.46952094e-07 2.03196214e-06
-9.98496944e-07 -5.48402454e-07 2.14322404e-06
-1.17878687e-06 -4.97000542e-07 2.28736508e-06
-1.24624046e-06 -4.24914901e-07 2.28203680e-06
-1.38897371e-06 -3.89099114e-07 2.29983857e-06
-4.17921285e-07 -7.16315355e-07 1.82257759e-06
0.00000000e+00 -8.13802103e-07 1.69372561e-06
-8.71102031e-07 -7.37137270e-07 2.01246485e-06
-1.18313892e-06 -6.24232825e-07 2.39774909e-06
-9.71555664e-07 -3.99748473e-07 2.76088713e-06
-1.29356386e-06 -6.00941974e-07 2.49888103e-06
-4.53154229e-07 -1.04522701e-06 1.51062011e-06
0.00000000e+00 -1.03908121e-06 1.76154242e-06
-8.46068076e-07 -8.77459854e-07 1.88827516e-06
-3.50740237e-07 -1.51366658e-06 1.78866924e-06
0.00000000e+00 -1.56052909e-06 1.84885664e-06
-4.31299213e-07 -1.91132222e-06 1.89781190e-06
0.00000000e+00 -1.86483066e-06 1.86602267e-06
-6.40392273e-07 -1.40094755e-06 1.60980221e-06
-9.94682296e-07 -1.73187254e-06 1.78654989e-06
-1.08750658e-06 -9.54151119e-07 2.11652127e-06
-1.64079665e-06 -1.15736327e-06 1.98682142e-06
-1.45991635e-07 -7.21057233e-07 3.04905575e-06
-9.52005394e-07 -9.42448764e-07 2.60893512e-06
-1.41918656e-06 -5.48541550e-07 2.42471697e-06
-1.53255462e-06 -6.44365969e-07 2.44628063e-06
-1.47307242e-06 -5.81331619e-07 2.22796052e-06
-1.42374131e-06 -4.26003083e-07 2.57592774e-06
-1.58481794e-06 -4.97266626e-07 2.26632756e-06
-1.53118117e-06 -1.93728752e-07 2.51925076e-06
-1.47255264e-06 -4.43371135e-07 2.51588222e-06
-1.62919036e-06 -5.15990791e-07 2.33602691e-06
-1.53461099e-06 -5.17268973e-07 2.44381772e-06
-1.60566969e-06 -5.99755197e-07 2.32270372e-06
0.00000000e+00 0.00000000e+00 2.45897036e-06
-4.32550905e-07 0.00000000e+00 2.45897036e-06
-4.26799062e-07 -2.44289623e-07 2.45897036e-06
0.00000000e+00 -2.10444128e-07 2.45897036e-06
-7.03573221e-07 0.00000000e+00 2.45897036e-06
-7.58488966e-07 -2.67823538e-07 2.45897036e-06
-9.46601233e-07 0.00000000e+00 2.45897036e-06
-1.00457669e-06 -3.30607094e-07 2.45897036e-06
-1.14162765e-06 0.00000000e+00 2.45897036e-06
-1.18128457e-06 -3.47932172e-07 2.45897036e-06
-1.34273364e-06 0.00000000e+00 2.45897036e-06
-1.31573279e-06 -2.73704529e-07 2.45897036e-06
-1.53550502e-06 0.00000000e+00 2.45897036e-06
-1.36788685e-06 -2.96274806e-07 2.45897036e-06
-5.11964174e-07 -4.45524847e-07 2.45897036e-06
0.00000000e+00 -4.54425816e-07 2.45897036e-06
-8.97884377e-07 -5.73267528e-07 2.45897036e-06
-1.09672544e-06 -5.92231743e-07 2.45897036e-06
-1.22543179e-06 -5.34693413e-07 2.45897036e-06
-1.21874609e-06 -4.71949562e-07 2.45897036e-06
-1.35652226e-06 -4.44571185e-07 2.45897036e-06
-4.59750481e-07 -8.95500193e-07 2.45897036e-06
0.00000000e+00 -8.84870701e-07 2.45897036e-06
-1.06461846e-06 -8.21643425e-07 2.45897036e-06
-1.32449463e-06 -7.72158273e-07 2.45897036e-06
-1.24343239e-06 -6.05106322e-07 2.45897036e-06
-1.29127500e-06 -5.02030048e-07 2.44665148e-06
-1.35056177e-06 -5.05685819e-07 2.45897036e-06
-1.31607055e-06 -2.97069533e-07 2.38323219e-06
-1.36947631e-06 -3.28381844e-07 2.45897036e-06
-1.50426229e-06 -7.38779704e-07 2.37147015e-06
-1.30516287e-06 -6.27358759e-07 2.45897036e-06
-1.21259689e-06 -9.63509024e-07 2.45897036e-06
-1.38802000e-06 -6.38961808e-07 2.38696748e-06
-1.45921445e-06 -5.70509201e-07 2.45897036e-06
-1.37444340e-06 -4.84704969e-07 2.54204861e-06
-1.43408772e-06 -5.21042693e-07 2.45897036e-06
-1.38823191e-06 -3.55720516e-07 2.46953960e-06
-1.28555291e-06 -3.23136646e-07 2.45897036e-06
0.00000000e+00 -9.54937263e-07 2.45897036e-06
-4.88213573e-07 -1.06004154e-06 2.45897036e-06
-4.75618577e-07 -1.64553853e-06 2.45897036e-06
0.00000000e+00 -1.75746277e-06 2.45897036e-06
-1.46842001e-06 -4.80016070e-07 2.45897036e-06
-1.52089865e-06 -5.93397374e-07 2.45897036e-06
-1.42238537e-06 -3.00407407e-07 2.45897036e-06
-5.00698889e-07 -2.02389560e-06 2.45897036e-06
0.00000000e+00 -1.98188673e-06 2.45897036e-06
-8.45193881e-07 -1.42391525e-06 2.45897036e-06
-1.22388201e-06 -1.75762170e-06 2.45897036e-06
-1.20464961e-06 -9.40243410e-07 2.45897036e-06
-1.71073270e-06 -1.03664399e-06 2.45897036e-06
-1.63809455e-06 -5.83012877e-07 2.45897036e-06
-1.55504540e-06 -4.13894639e-07 2.45897036e-06
-1.62496167e-06 -2.07304950e-07 2.45897036e-06
</DataArray>
<DataArray type="Float32" Name="Spatial_velocity" NumberOfComponents="3" format="ascii">
9.22674808e-05 4.32518806e-04 -2.26972174e-04
1.49271917e-04 4.06312232e-04 -1.96750771e-04
1.54924594e-04 5.21885115e-04 -2.76127452e-04
8.63622336e-05 5.14756364e-04 -2.78225169e-04
7.52029810e-05 5.01080765e-04 -3.53735872e-04
1.56404727e-04 4.84749326e-04 -3.23258428e-04
1.34498478e-04 6.28389011e-04 -4.17409698e-04
8.32339792e-05 5.83737739e-04 -4.23874357e-04
2.43350369e-04 3.74502823e-04 -1.46976221e-04
2.64765898e-04 4.89358732e-04 -2.66499585e-04
2.14400323e-04 4.76763438e-04 -3.65106534e-04
3.07270820e-04 5.55010280e-04 -4.57531278e-04
2.68411794e-04 3.21946398e-04 9.83303181e-08
2.68392847e-04 3.15857033e-04 4.04319209e-08
2.74460763e-04 3.15812882e-04 1.22235491e-07
2.74450344e-04 3.21972650e-04 -7.28268077e-08
2.68336385e-04 3.21974221e-04 -6.43421316e-08
2.68323987e-04 3.15870624e-04 2.12356042e-07
2.74484715e-04 3.15935817e-04 -8.62690186e-08
2.74416903e-04 3.21957748e-04 1.83290211e-07
0.00000000e+00 0.00000000e+00 -4.46567661e-04
8.56681363e-05 0.00000000e+00 -4.47488215e-04
9.40286700e-05 9.64823485e-05 -4.45559534e-04
0.00000000e+00 9.15340206e-05 -4.41151729e-04
0.00000000e+00 0.00000000e+00 -5.97300357e-04
1.11821901e-04 0.00000000e+00 -5.93360106e-04
1.16065094e-04 9.99823606e-05 -5.95605699e-04
0.00000000e+00 9.23495027e-05 -5.83141169e-04
1.91942308e-04 0.00000000e+00 -4.61535034e-04
1.74005676e-04 8.86774869e-05 -4.56612994e-04
2.16903616e-04 0.00000000e+00 -6.07376336e-04
2.21171504e-04 1.06945779e-04 -6.06409449e-04
2.85641669e-04 0.00000000e+00 -4.78328700e-04
2.87706236e-04 8.69019423e-05 -4.73428285e-04
3.25682136e-04 0.00000000e+00 -6.26522931e-04
3.12070973e-04 9.35805656e-05 -6.19992847e-04
3.97852156e-04 0.00000000e+00 -4.89846105e-04
4.02998063e-04 8.82713721e-05 -4.93000727e-04
4.25759383e-04 0.00000000e+00 -6.37140532e-04
4.17834468e-04 8.09531921e-05 -6.42567698e-04
5.23883966e-04 0.00000000e+00 -5.00642112e-04
5.20247384e-04 9.12921387e-05 -5.00982744e-04
5.27733529e-04 0.00000000e+00 -6.49138994e-04
5.24118368e-04 8.44451351e-05 -6.57192664e-04
6.45424065e-04 0.00000000e+00 -4.99039539e-04
6.37767254e-04 9.90010667e-05 -5.04165306e-04
6.14468649e-04 0.00000000e+00 -6.54718664e-04
6.39305275e-04 9.28499067e-05 -6.56657910e-04
7.12722249e-05 1.85872967e-04 -4.26326646e-04
0.00000000e+00 2.07955556e-04 -4.22670855e-04
1.16600902e-04 1.96335794e-04 -5.77901606e-04
0.00000000e+00 1.94995650e-04 -5.78497769e-04
1.83476470e-04 1.95184868e-04 -4.37745766e-04
2.37230546e-04 2.12175786e-04 -5.94432349e-04
2.74539227e-04 2.00097275e-04 -4.82797856e-04
3.30038049e-04 2.04858603e-04 -6.49134396e-04
3.87825945e-04 2.17768888e-04 -5.00482041e-04
3.97935015e-04 1.83779281e-04 -6.72321126e-04
4.94272623e-04 2.13662657e-04 -4.89163620e-04
5.05508855e-04 2.04053926e-04 -6.79375022e-04
5.86930139e-04 2.46244599e-04 -4.96244349e-04
5.89653268e-04 2.25681419e-04 -6.82079000e-04
7.31069158e-05 3.13489785e-04 -3.75500880e-04
0.00000000e+00 3.09479656e-04 -3.73116956e-04
1.18985110e-04 3.10137577e-04 -5.29232260e-04
0.00000000e+00 3.13080993e-04 -5.37852990e-04
1.66570200e-04 2.75345170e-04 -3.99887154e-04
2.66085146e-04 3.12215852e-04 -5.99100313e-04
1.18757045e-04 2.24597461e-04 -8.31412268e-04
3.61990154e-04 2.90393888e-04 -7.83577387e-04
7.74303553e-05 3.94955918e-04 -3.20094201e-04
0.00000000e+00 4.08260967e-04 -3.40733997e-04
1.07563952e-04 4.31194843e-04 -4.50671650e-04
0.00000000e+00 4.51669010e-04 -4.99467656e-04
0.00000000e+00 4.93389845e-04 -3.63954925e-04
8.67342678e-05 5.79824089e-04 -5.00581053e-04
0.00000000e+00 5.41996618e-04 -5.24565985e-04
1.65625228e-04 3.95817828e-04 -2.75219238e-04
2.12502535e-04 4.54244058e-04 -4.61920106e-04
1.97403569e-04 5.28686214e-04 -4.63275006e-04
0.00000000e+00 5.95498597e-04 -4.35163762e-04
1.19011893e-04 6.59838377e-04 -5.93312026e-04
0.00000000e+00 6.93158538e-04 -5.64739341e-04
1.89268365e-04 6.98278192e-04 -5.64772577e-04
2.35893836e-04 5.00896655e-04 -6.04421424e-04
3.88124899e-04 5.45127958e-04 -6.16948528e-04
0.00000000e+00 0.00000000e+00 -7.56798428e-04
1.35854541e-04 0.00000000e+00 -7.57967413e-04
1.40003685e-04 1.03103390e-04 -7.58032838e-04
0.00000000e+00 9.62766426e-05 -7.52297230e-04
2.48159486e-04 0.00000000e+00 -7.63819611e-04
2.64159054e-04 1.17107942e-04 -7.67129299e-04
3.49296810e-04 0.00000000e+00 -7.77305744e-04
3.58332181e-04 1.17503529e-04 -7.70317158e-04
4.49879735e-04 0.00000000e+00 -7.84994860e-04
4.33045992e-04 1.06606458e-04 -7.80683244e-04
5.29995654e-04 0.00000000e+00 -7.92209059e-04
5.17751963e-04 1.01021709e-04 -7.95099768e-04
5.94168261e-04 0.00000000e+00 -8.01351154e-04
5.96805941e-04 1.12793590e-04 -7.90563237e-04
1.53289802e-04 2.09676946e-04 -7.49858795e-04
0.00000000e+00 1.96146779e-04 -7.48970546e-04
2.88868992e-04 2.30768943e-04 -7.61390489e-04
3.82222293e-04 2.41097237e-04 -7.91765866e-04
4.40928299e-04 2.19518246e-04 -8.21973314e-04
4.85031400e-04 1.89620579e-04 -8.36096879e-04
5.42687252e-04 2.12194223e-04 -8.39482294e-04
1.52604101e-04 2.98008847e-04 -7.19787786e-04
0.00000000e+00 3.23760119e-04 -7.16398121e-04
3.17287719e-04 3.11005570e-04 -7.63820659e-04
4.44164907e-04 3.05416877e-04 -8.87581322e-04
4.28458065e-04 1.30095490e-04 -1.00206200e-03
4.73102380e-04 2.80343229e-04 -9.31474962e-04
1.63505305e-04 4.31892666e-04 -6.31901436e-04
0.00000000e+00 4.20173688e-04 -6.94118557e-04
3.16325983e-04 3.77567485e-04 -6.84994215e-04
1.30887129e-04 6.10144809e-04 -7.14133668e-04
0.00000000e+00 6.26867695e-04 -7.15794275e-04
1.65752353e-04 7.71793886e-04 -7.55195855e-04
0.00000000e+00 7.58977199e-04 -7.38592411e-04
2.52622151e-04 5.75274113e-04 -6.69243513e-04
3.82935250e-04 6.82456826e-04 -7.16963026e-04
3.96424875e-04 4.24501632e-04 -8.38819891e-04
5.65397844e-04 4.72800835e-04 -7.94149470e-04
2.79935248e-05 3.91742738e-04 -1.11867313e-03
3.26355745e-04 3.53974028e-04 -9.70686728e-04
5.19863504e-04 2.79166241e-04 -9.31346847e-04
5.43115370e-04 2.78720632e-04 -9.31565475e-04
5.19325782e-04 2.56026280e-04 -9.31161689e-04
5.18983579e-04 2.32825245e-04 -9.31332470e-04
5.42207272e-04 2.32461869e-04 -9.31213784e-04
5.42578346e-04 2.55657185e-04 -9.31148767e-04
5.19408146e-04 2.55980034e-04 -9.31188930e-04
5.19081077e-04 2.32733233e-04 -9.31276358e-04
5.42306516e-04 2.32424878e-04 -9.31229384e-04
5.42635564e-04 2.55642022e-04 -9.31187358e-04
0.00000000e+00 0.00000000e+00 -9.31243820e-04
1.42574092e-04 0.00000000e+00 -9.31243820e-04
1.50136766e-04 1.06391468e-04 -9.31243820e-04
0.00000000e+00 9.82667698e-05 -9.31243820e-04
2.65009963e-04 0.00000000e+00 -9.31243820e-04
2.75277911e-04 1.21644145e-04 -9.31243820e-04
3.59555503e-04 0.00000000e+00 -9.31243820e-04
3.78882251e-04 1.28967571e-04 -9.31243820e-04
4.54959518e-04 0.00000000e+00 -9.31243820e-04
4.50423453e-04 1.26379528e-04 -9.31243820e-04
5.25422336e-04 0.00000000e+00 -9.31243820e-04
5.21494367e-04 1.21448858e-04 -9.31243820e-04
6.00246422e-04 0.00000000e+00 -9.31243820e-04
5.57319087e-04 1.36779912e-04 -9.31243820e-04
1.76177913e-04 1.96818946e-04 -9.31243820e-04
0.00000000e+00 1.90198160e-04 -9.31243820e-04
3.21915606e-04 2.34481849e-04 -9.31243820e-04
4.04578139e-04 2.59870256e-04 -9.31243820e-04
4.55891190e-04 2.45702278e-04 -9.31243820e-04
4.77667869e-04 2.19469526e-04 -9.31243820e-04
5.25919371e-04 2.29304176e-04 -9.31243820e-04
1.70237123e-04 3.40802391e-04 -9.31243820e-04
0.00000000e+00 3.42057116e-04 -9.31243820e-04
3.67805129e-04 3.09684518e-04 -9.31243820e-04
4.67923033e-04 3.27484770e-04 -9.31243820e-04
4.73946333e-04 2.79559434e-04 -9.31243820e-04
4.72684624e-04 2.56764644e-04 -9.31641553e-04
4.72935411e-04 2.56595958e-04 -9.31243820e-04
4.74124477e-04 2.34382605e-04 -9.32340103e-04
4.74249246e-04 2.35273677e-04 -9.31243820e-04
4.95659071e-04 3.04380752e-04 -9.64318519e-04
5.16946486e-04 3.31414805e-04 -9.31243820e-04
4.83102776e-04 3.64055537e-04 -9.31243820e-04
4.96528111e-04 2.79700849e-04 -9.31175600e-04
4.96313558e-04 2.79372645e-04 -9.31243820e-04
4.96207678e-04 2.56382860e-04 -9.31163318e-04
4.96213674e-04 2.56389030e-04 -9.31243820e-04
4.95700282e-04 2.32972161e-04 -9.31150164e-04
4.95738641e-04 2.33011582e-04 -9.31243820e-04
0.00000000e+00 3.84071871e-04 -9.31243820e-04
1.64145938e-04 4.31160093e-04 -9.31243820e-04
1.74397210e-04 6.40896033e-04 -9.31243820e-04
0.00000000e+00 6.94974093e-04 -9.31243820e-04
5.19380090e-04 2.56012485e-04 -9.31243820e-04
5.19646564e-04 2.79287837e-04 -9.31243820e-04
5.19145979e-04 2.32763516e-04 -9.31243820e-04
1.90252118e-04 8.02192779e-04 -9.31243820e-04
0.00000000e+00 7.64265598e-04 -9.31243820e-04
3.20485211e-04 5.80443884e-04 -9.31243820e-04
4.45071521e-04 6.76157360e-04 -9.31243820e-04
4.16035386e-04 3.93544702e-04 -9.31243820e-04
6.02109358e-04 4.48946463e-04 -9.31243820e-04
5.42857859e-04 2.78945750e-04 -9.31243820e-04
5.42632886e-04 2.55607913e-04 -9.31243820e-04
5.42299415e-04 2.32417791e-04 -9.31243820e-04
</DataArray>
<DataArray type="Float32" Name="Reaction_force" NumberOfComponents="3" format="ascii">
0.00000000e+00 0.00000000e+00 0.00000000e+00
0.00000000e+00 0.00000000e+00 0.00000000e+00
0.00000000e+00 0.00000000e+00 0.00000000e+00
0.00000000e+00 0.00000000e+00 0.00000000e+00
0.00000000e+00 0.00000000e+00 0.00000000e+00
0.00000000e+00 0.00000000e+00 0.00000000e+00
0.00000000e+00 0.00000000e+00 0.00000000e+00
0.00000000e+00 0.00000000e+00 0.00000000e+00
0.00000000e+00 0.00000000e+00 0.00000000e+00
0.00000000e+00 0.00000000e+00 0.00000000e+00
0.00000000e+00 0.00000000e+00 0.00000000e+00
0.00000000e+00 0.00000000e+00 0.00000000e+00
0.00000000e+00 0.00000000e+00 0.00000000e+00
0.00000000e+00 0.00000000e+00 0.00000000e+00
0.00000000e+00 0.00000000e+00 0.00000000e+00
0.00000000e+00 0.00000000e+00 0.00000000e+00
0.00000000e+00 0.00000000e+00 0.00000000e+00
0.00000000e+00 0.00000000e+00 0.00000000e+00
0.00000000e+00 0.00000000e+00 0.00000000e+00
0.00000000e+00 0.00000000e+00 0.00000000e+00
-2.28839666e-02 -2.49012962e-01 0.00000000e+00
0.00000000e+00 7.82914400e-01 0.00000000e+00
0.00000000e+00 0.00000000e+00 0.00000000e+00
1.64536071e+00 0.00000000e+00 0.00000000e+00
2.99517900e-01 1.01012087e+00 0.00000000e+00
0.00000000e+00 1.60177255e+00 0.00000000e+00
0.00000000e+00 0.00000000e+00 0.00000000e+00
9.80949402e-01 0.00000000e+00 0.00000000e+00
0.00000000e+00 1.49828470e+00 0.00000000e+00
0.00000000e+00 0.00000000e+00 0.00000000e+00
0.00000000e+00 1.42030454e+00 0.00000000e+00
0.00000000e+00 0.00000000e+00 0.00000000e+00
0.00000000e+00 2.08170247e+00 0.00000000e+00
0.00000000e+00 0.00000000e+00 0.00000000e+00
0.00000000e+00 1.64058268e+00 0.00000000e+00
0.00000000e+00 0.00000000e+00 0.00000000e+00
0.00000000e+00 3.03222418e+00 0.00000000e+00
0.00000000e+00 0.00000000e+00 0.00000000e+00
0.00000000e+00 1.45205319e+00 0.00000000e+00
0.00000000e+00 0.00000000e+00 0.00000000e+00
0.00000000e+00 1.56269622e+00 0.00000000e+00
0.00000000e+00 0.00000000e+00 0.00000000e+00
0.00000000e+00 -6.89859390e-02 0.00000000e+00
0.00000000e+00 0.00000000e+00 0.00000000e+00
0.00000000e+00 3.76257896e-01 0.00000000e+00
0.00000000e+00 0.00000000e+00 0.00000000e+00
0.00000000e+00 -2.48686343e-01 0.00000000e+00
0.00000000e+00 0.00000000e+00 0.00000000e+00
0.00000000e+00 0.00000000e+00 0.00000000e+00
1.47077882e+00 0.00000000e+00 0.00000000e+00
0.00000000e+00 0.00000000e+00 0.00000000e+00
9.77521002e-01 0.00000000e+00 0.00000000e+00
0.00000000e+00 0.00000000e+00 0.00000000e+00
0.00000000e+00 0.00000000e+00 0.00000000e+00
0.00000000e+00 0.00000000e+00 0.00000000e+00
0.00000000e+00 0.00000000e+00 0.00000000e+00
0.00000000e+00 0.00000000e+00 0.00000000e+00
0.00000000e+00 0.00000000e+00 0.00000000e+00
0.00000000e+00 0.00000000e+00 0.00000000e+00
0.00000000e+00 0.00000000e+00 0.00000000e+00
0.00000000e+00 0.00000000e+00 0.00000000e+00
0.00000000e+00 0.00000000e+00 0.00000000e+00
0.00000000e+00 0.00000000e+00 0.00000000e+00
4.27619368e-02 0.00000000e+00 0.00000000e+00
0.00000000e+00 0.00000000e+00 0.00000000e+00
1.55694270e+00 0.00000000e+00 0.00000000e+00
0.00000000e+00 0.00000000e+00 0.00000000e+00
0.00000000e+00 0.00000000e+00 0.00000000e+00
0.00000000e+00 0.00000000e+00 0.00000000e+00
0.00000000e+00 0.00000000e+00 0.00000000e+00
0.00000000e+00 0.00000000e+00 0.00000000e+00
7.83883393e-01 0.00000000e+00 0.00000000e+00
0.00000000e+00 0.00000000e+00 0.00000000e+00
9.17960465e-01 0.00000000e+00 0.00000000e+00
5.23851693e-01 0.00000000e+00 0.00000000e+00
0.00000000e+00 0.00000000e+00 0.00000000e+00
2.01445460e-01 0.00000000e+00 0.00000000e+00
0.00000000e+00 0.00000000e+00 0.00000000e+00
0.00000000e+00 0.00000000e+00 0.00000000e+00
0.00000000e+00 0.00000000e+00 0.00000000e+00
-5.80356240e-01 0.00000000e+00 0.00000000e+00
0.00000000e+00 0.00000000e+00 0.00000000e+00
5.63062787e-01 0.00000000e+00 0.00000000e+00
0.00000000e+00 0.00000000e+00 0.00000000e+00
0.00000000e+00 0.00000000e+00 0.00000000e+00
0.00000000e+00 0.00000000e+00 0.00000000e+00
3.39272231e-01 1.65726912e+00 0.00000000e+00
0.00000000e+00 2.13241100e+00 0.00000000e+00
0.00000000e+00 0.00000000e+00 0.00000000e+00
5.61514199e-01 0.00000000e+00 0.00000000e+00
0.00000000e+00 5.19203067e-01 0.00000000e+00
0.00000000e+00 0.00000000e+00 0.00000000e+00
0.00000000e+00 2.63077199e-01 0.00000000e+00
0.00000000e+00 0.00000000e+00 0.00000000e+00
0.00000000e+00 -4.94260430e-01 0.00000000e+00
0.00000000e+00 0.00000000e+00 0.00000000e+00
0.00000000e+00 -2.25438666e+00 0.00000000e+00
0.00000000e+00 0.00000000e+00 0.00000000e+00
0.00000000e+00 -2.10217810e+00 0.00000000e+00
0.00000000e+00 0.00000000e+00 0.00000000e+00
0.00000000e+00 0.00000000e+00 0.00000000e+00
1.26747108e+00 0.00000000e+00 0.00000000e+00
0.00000000e+00 0.00000000e+00 0.00000000e+00
0.00000000e+00 0.00000000e+00 0.00000000e+00
0.00000000e+00 0.00000000e+00 0.00000000e+00
0.00000000e+00 0.00000000e+00 0.00000000e+00
0.00000000e+00 0.00000000e+00 0.00000000e+00
0.00000000e+00 0.00000000e+00 0.00000000e+00
-3.10404718e-01 0.00000000e+00 0.00000000e+00
0.00000000e+00 0.00000000e+00 0.00000000e+00
0.00000000e+00 0.00000000e+00 0.00000000e+00
0.00000000e+00 0.00000000e+00 0.00000000e+00
0.00000000e+00 0.00000000e+00 0.00000000e+00
0.00000000e+00 0.00000000e+00 0.00000000e+00
1.02395427e+00 0.00000000e+00 0.00000000e+00
0.00000000e+00 0.00000000e+00 0.00000000e+00
0.00000000e+00 0.00000000e+00 0.00000000e+00
4.06372547e-01 0.00000000e+00 0.00000000e+00
0.00000000e+00 0.00000000e+00 0.00000000e+00
9.26610410e-01 0.00000000e+00 0.00000000e+00
0.00000000e+00 0.00000000e+00 0.00000000e+00
0.00000000e+00 0.00000000e+00 0.00000000e+00
0.00000000e+00 0.00000000e+00 0.00000000e+00
0.00000000e+00 0.00000000e+00 0.00000000e+00
0.00000000e+00 0.00000000e+00 0.00000000e+00
0.00000000e+00 0.00000000e+00 0.00000000e+00
0.00000000e+00 0.00000000e+00 0.00000000e+00
0.00000000e+00 0.00000000e+00 0.00000000e+00
0.00000000e+00 0.00000000e+00 0.00000000e+00
0.00000000e+00 0.00000000e+00 0.00000000e+00
0.00000000e+00 0.00000000e+00 0.00000000e+00
0.00000000e+00 0.00000000e+00 0.00000000e+00
0.00000000e+00 0.00000000e+00 0.00000000e+00
0.00000000e+00 0.00000000e+00 0.00000000e+00
0.00000000e+00 0.00000000e+00 0.00000000e+00
0.00000000e+00 0.00000000e+00 0.00000000e+00
1.10919587e-01 8.47126007e-01 -9.37056160e+00
0.00000000e+00 1.20967340e+00 -1.86770267e+01
0.00000000e+00 0.00000000e+00 -3.69869499e+01
1.18980408e-01 0.00000000e+00 -1.88743343e+01
0.00000000e+00 1.76436067e-01 -1.86356983e+01
0.00000000e+00 0.00000000e+00 -3.69235840e+01
0.00000000e+00 -3.34304005e-01 -1.86476593e+01
0.00000000e+00 0.00000000e+00 -3.40863609e+01
0.00000000e+00 -8.87475848e-01 -1.70220776e+01
0.00000000e+00 0.00000000e+00 -3.07624035e+01
0.00000000e+00 -1.65422773e+00 -1.43277178e+01
0.00000000e+00 0.00000000e+00 -2.74610596e+01
0.00000000e+00 -1.82485640e+00 -7.74879742e+00
0.00000000e+00 0.00000000e+00 -1.52184181e+01
0.00000000e+00 0.00000000e+00 -4.12238235e+01
1.86240411e+00 0.00000000e+00 -2.26201496e+01
0.00000000e+00 0.00000000e+00 -3.06090355e+01
0.00000000e+00 0.00000000e+00 -2.33570290e+01
0.00000000e+00 0.00000000e+00 -1.93486233e+01
0.00000000e+00 0.00000000e+00 -1.89653645e+01
0.00000000e+00 0.00000000e+00 -1.18754416e+01
0.00000000e+00 0.00000000e+00 -2.94440556e+01
-8.58354747e-01 0.00000000e+00 -1.78231773e+01
0.00000000e+00 0.00000000e+00 -2.31723785e+01
0.00000000e+00 0.00000000e+00 -1.22881622e+01
0.00000000e+00 0.00000000e+00 -7.50937939e+00
0.00000000e+00 0.00000000e+00 0.00000000e+00
0.00000000e+00 0.00000000e+00 -9.56421375e+00
0.00000000e+00 0.00000000e+00 0.00000000e+00
0.00000000e+00 0.00000000e+00 -5.44983578e+00
0.00000000e+00 0.00000000e+00 0.00000000e+00
0.00000000e+00 0.00000000e+00 -3.32883883e+00
0.00000000e+00 0.00000000e+00 -1.14379930e+01
0.00000000e+00 0.00000000e+00 0.00000000e+00
0.00000000e+00 0.00000000e+00 2.40466380e+00
0.00000000e+00 0.00000000e+00 0.00000000e+00
0.00000000e+00 0.00000000e+00 5.55600452e+00
0.00000000e+00 0.00000000e+00 0.00000000e+00
0.00000000e+00 0.00000000e+00 3.30774069e+00
7.38867164e-01 0.00000000e+00 -1.71610241e+01
0.00000000e+00 0.00000000e+00 -1.90239639e+01
0.00000000e+00 0.00000000e+00 -3.17725563e+01
2.20626664e+00 0.00000000e+00 -2.14809761e+01
0.00000000e+00 0.00000000e+00 1.64216673e+00
0.00000000e+00 0.00000000e+00 -5.90199947e+00
0.00000000e+00 0.00000000e+00 -8.80849659e-01
0.00000000e+00 0.00000000e+00 -1.60726986e+01
3.80165800e-02 0.00000000e+00 -6.30593252e+00
0.00000000e+00 0.00000000e+00 -1.78109684e+01
0.00000000e+00 0.00000000e+00 -1.74276409e+01
0.00000000e+00 0.00000000e+00 -1.12630157e+01
0.00000000e+00 0.00000000e+00 -1.05763178e+01
0.00000000e+00 0.00000000e+00 -6.01200247e+00
0.00000000e+00 0.00000000e+00 4.16156650e-01
0.00000000e+00 0.00000000e+00 -8.62863585e-02
</DataArray>
<DataArray type="Float32" Name="Equivalent_plastic_strain" format="ascii">
4.51149521e-02
4.51723524e-02
6.27804650e-02
5.26351808e-02
3.42935787e-02
4.83140206e-02
9.36950352e-02
7.46496497e-02
7.29346601e-02
9.33741815e-02
1.10899024e-01
1.03437025e-01
0.00000000e+00
0.00000000e+00
0.00000000e+00
0.00000000e+00
0.00000000e+00
0.00000000e+00
0.00000000e+00
0.00000000e+00
7.19173588e-02
7.15111680e-02
7.10725924e-02
7.13664796e-02
7.94771090e-02
7.99353477e-02
8.16594325e-02
8.29788893e-02
7.01775681e-02
7.31862783e-02
7.70234670e-02
7.98687339e-02
7.04497695e-02
7.30398023e-02
7.21799806e-02
7.44856317e-02
7.05742389e-02
8.16893391e-02
6.72700461e-02
6.88710390e-02
6.90865703e-02
7.96117568e-02
6.13178983e-02
6.90898746e-02
6.73274659e-02
7.63125233e-02
5.85488807e-02
6.70796800e-02
7.34363813e-02
6.99132998e-02
8.97943741e-02
8.68516788e-02
7.68330001e-02
8.43034135e-02
1.02235897e-01
7.72472040e-02
1.02357270e-01
7.83712015e-02
9.86898094e-02
8.69819950e-02
9.50197056e-02
8.63009878e-02
6.96759740e-02
6.25981633e-02
9.77003372e-02
8.55537616e-02
9.79358647e-02
1.03594232e-01
9.70886946e-02
2.61127825e-02
5.22793345e-02
5.53392768e-02
4.77715349e-02
5.86624029e-02
5.76600870e-02
1.06315222e-01
7.54421949e-02
7.32264780e-02
1.27475593e-01
9.97879729e-02
5.83642535e-02
4.51196074e-02
1.00993019e-01
1.13235829e-01
1.05028028e-01
9.38544770e-02
9.09573361e-02
8.97825137e-02
9.30220038e-02
9.58260149e-02
8.55750442e-02
8.65158318e-02
7.89708942e-02
7.72389239e-02
7.16992486e-02
6.86182007e-02
6.54903818e-02
6.24805004e-02
6.48298487e-02
6.22690497e-02
9.08288516e-02
1.08774709e-01
7.75655552e-02
6.20194762e-02
4.78117748e-02
4.39646781e-02
5.06049898e-02
1.20293085e-01
1.18241906e-01
8.72091850e-02
2.41995218e-02
5.51445782e-02
2.96498677e-03
1.56967966e-01
1.53652720e-01
1.13956250e-01
1.09892697e-01
1.09671037e-01
1.37327794e-01
1.22096486e-01
1.34006048e-01
1.25688422e-01
5.55059463e-02
6.34467397e-02
-8.89960583e-03
1.12392278e-02
3.20797117e-02
8.32335463e-03
0.00000000e+00
0.00000000e+00
0.00000000e+00
0.00000000e+00
-6.18176799e-05
0.00000000e+00
0.00000000e+00
5.77369841e-05
9.67629179e-02
9.42652225e-02
9.69860442e-02
1.00779515e-01
8.92962515e-02
8.88222829e-02
8.27070437e-02
7.94928987e-02
7.57116713e-02
7.23802131e-02
7.12172017e-02
6.67849034e-02
7.34435245e-02
6.79590106e-02
1.12478239e-01
1.24876428e-01
7.63120521e-02
6.59232996e-02
3.52028515e-02
1.70637546e-02
1.51099935e-02
1.40056707e-01
1.55985445e-01
9.25504739e-02
4.68355935e-03
-1.61590138e-03
9.44956762e-03
-6.38019868e-04
9.74935584e-03
3.38942080e-03
3.29178940e-02
-9.01838939e-03
8.40884373e-02
-1.10687773e-05
1.66407943e-03
-6.80821872e-05
-2.34935188e-04
5.15491818e-04
9.78551689e-04
1.90239251e-01
2.02041194e-01
1.65953875e-01
1.78874254e-01
-6.87814913e-05
4.41470420e-04
0.00000000e+00
1.38679899e-01
1.36464253e-01
1.38620853e-01
1.39531247e-01
2.78539625e-02
3.03546605e-02
1.98258462e-03
1.69879335e-04
0.00000000e+00
</DataArray>
<DataArray type="Float32" Name="Stress_Mises" format="ascii">
1.83595311e+01
2.78800305e+01
5.86234493e+01
3.17376674e+01
2.20366139e+01
3.75277424e+01
4.19468217e+01
2.46185527e+01
5.43535436e+01
1.21547997e+02
1.13751417e+02
1.01002295e+02
1.64685154e+00
1.30725873e+00
2.07079279e+00
2.93359709e+00
8.30363750e-01
6.72707200e-01
1.08345163e+00
1.21558821e+00
2.90189638e+01
2.87780294e+01
2.38665541e+01
2.81200542e+01
2.39772506e+01
2.98613639e+01
2.74601499e+01
3.00735760e+01
2.37830029e+01
2.45778906e+01
2.94701157e+01
3.14885824e+01
2.27258594e+01
2.60048540e+01
2.67469261e+01
2.79930594e+01
2.05538593e+01
2.65576616e+01
2.40120392e+01
2.43618014e+01
1.65605912e+01
2.98685744e+01
1.38547207e+01
2.35656839e+01
1.26995826e+01
2.41145655e+01
1.54077520e+01
2.20841725e+01
2.54249364e+01
2.48242350e+01
3.68500435e+01
2.89931645e+01
4.05989001e+01
3.57514202e+01
1.09150816e+02
3.74029854e+01
8.29170084e+01
6.85821068e+01
6.42716045e+01
7.57132530e+01
5.26997032e+01
7.20663700e+01
2.75680114e+01
2.68566561e+01
4.04096990e+01
2.24150932e+01
1.34539791e+02
6.19572617e+01
6.21495743e+01
2.55906982e+01
2.31266098e+01
1.52642010e+01
2.81698160e+01
2.51814308e+01
2.21855893e+01
2.41133396e+01
3.66257801e+01
8.13855190e+01
1.42131172e+02
5.47480621e+01
3.22928998e+01
4.75713234e+01
4.35085011e+01
5.86385379e+01
1.17609075e+02
4.38104687e+01
2.65411501e+01
3.02886753e+01
3.06082355e+01
3.14024664e+01
3.49217162e+01
3.60785152e+01
3.62458997e+01
4.01866038e+01
3.37332239e+01
3.09848539e+01
2.50559082e+01
2.45098582e+01
2.74586926e+01
3.73049567e+01
4.59801197e+01
5.39407654e+01
3.91252140e+01
3.33227487e+01
3.36757852e+01
4.64839760e+01
4.93343646e+01
5.95438077e+01
6.65293528e+01
4.65458781e+01
3.12940666e+01
4.37972794e+01
2.20957386e+01
5.44155500e+01
3.76708191e+01
1.65547684e+02
6.93065831e+01
4.72205241e+01
2.66451464e+01
2.33809718e+01
6.80723739e+01
4.88398733e+01
5.70501122e+01
3.06850917e+01
4.46210594e+01
2.15843506e+01
2.82598662e+01
2.39512258e+01
4.09792757e+00
1.86650014e+00
3.11982894e+00
4.59914017e+00
1.31451665e+01
7.12733030e+00
5.07561612e+00
1.75950120e+01
3.00484200e+01
3.13525391e+01
3.06540828e+01
3.06098628e+01
3.75399895e+01
3.66971402e+01
4.07230625e+01
4.63782792e+01
3.95665073e+01
4.50164671e+01
3.68481960e+01
3.37118254e+01
5.05183067e+01
4.56572514e+01
4.88835497e+01
3.92607999e+01
4.47353275e+01
4.15371690e+01
2.42991166e+01
2.44337850e+01
3.26723766e+01
1.35191818e+02
1.46551315e+02
3.66259295e+01
2.38467509e+01
1.59123811e+01
2.25098882e+01
2.01209720e+01
3.09738426e+01
2.56920443e+01
5.52871323e+01
1.86354079e+01
5.05837708e+01
2.29240446e+01
1.88954832e+01
2.36128054e+01
1.93354645e+01
2.02453833e+01
1.97498608e+01
1.17521530e+02
1.76947861e+02
5.75468750e+01
3.45573707e+01
1.28666699e+01
2.36039632e+01
9.56031704e+00
2.73187369e+01
1.61407356e+01
3.30417309e+01
4.18222160e+01
3.61028271e+01
2.50895419e+01
1.86056328e+01
1.60616612e+01
5.42098713e+00
</DataArray>
<DataArray type="Float32" Name="Stress_Max_Principal" format="ascii">
1.66588171e+01
6.36392856e+00
1.21509333e+01
1.83028728e-01
2.32847618e+01
3.92049531e+01
-1.43980253e+00
1.26037549e+01
-1.30990579e+01
-7.35888882e+01
-5.54465785e+01
-4.83582362e+01
9.08910722e-01
7.05994993e-01
1.05448905e+00
1.73454499e+00
5.97784698e-01
5.31578541e-01
7.03980982e-01
8.26332271e-01
1.25038457e+00
1.80937701e+00
6.28872333e+00
2.58428681e+00
5.89760709e+00
5.81806600e-01
4.36827534e+00
9.24606994e-01
6.43895483e+00
7.75183876e+00
7.03109622e-01
2.99432158e-01
7.01625893e+00
1.46020790e+01
3.76403163e+00
4.36877450e+00
9.29135865e+00
4.51320875e+00
6.25355661e+00
1.86892429e+01
1.25140991e+01
1.24210356e+01
1.50786073e+01
8.42893709e+00
1.54787817e+01
2.28850466e+01
2.38328958e+01
1.59532655e+01
6.21431458e+00
6.75048327e+00
-4.28198504e+00
1.45395994e+00
2.39860534e+01
-3.60318823e+00
-6.35411720e+01
2.32859719e+01
-4.26182828e+01
-2.97515518e+01
-2.66035881e+01
-3.62789202e+01
-1.52983303e+01
-3.02107086e+01
4.74127122e+00
1.98021631e+01
-6.68832718e+00
7.64741695e+00
-7.85504332e+01
-1.80152069e+01
1.42080048e+02
1.20130933e+01
3.15717800e+01
1.36976746e+01
3.53559489e+01
1.47428691e+01
1.90242640e+01
2.67883408e+01
1.47063887e+01
-3.86268947e+01
-8.92154160e+01
1.22738505e+01
6.40641975e+00
1.57835069e+01
1.89228468e+01
-5.21155238e+00
-3.55600204e+01
3.07066091e+00
4.47144374e+00
6.68752313e-01
8.96009069e-01
6.01478755e-01
-3.10530257e+00
-3.46201344e+00
-4.28506207e+00
-5.79557147e+00
-1.50867382e+00
1.43292152e+00
5.72485217e+00
9.46902311e+00
4.64991510e+00
4.69696927e+00
-2.74669193e+00
1.07244592e+01
-2.94947952e+00
1.61772627e+01
2.41523502e+01
9.87948092e+00
8.68564606e+00
-2.06103379e+01
-2.81822988e+01
2.60456487e+01
5.30777854e+01
1.02560822e+02
2.91352398e+01
-1.65719784e+01
1.41397158e+00
-8.84611778e+01
-1.87941231e+01
-6.85755563e+00
1.76042134e+01
6.73298216e+00
-2.56578053e+01
-8.31697178e+00
2.52025814e+01
2.88449268e+01
1.06269394e+02
6.26154213e+01
2.63395615e+01
2.02776912e+01
2.53080845e+00
9.08157468e-01
1.82163644e+00
2.86957526e+00
9.15518737e+00
2.00998527e+00
1.36373100e+00
8.11399825e+00
1.76826608e+00
-4.55899239e-02
1.22121978e+00
1.53216648e+00
-5.25489104e+00
-3.46603654e+00
-6.68097651e+00
-9.90857124e+00
-5.08348489e+00
-8.28295422e+00
-2.60707852e+00
1.87378120e+00
-1.10956135e+01
-6.33788800e+00
1.36098047e+01
-3.96611977e+00
1.73800266e+00
2.61533890e+01
3.37164836e+01
2.50935984e+01
2.47284123e+01
-8.20087643e+01
-9.68606415e+01
3.64632520e+01
4.59527676e+01
3.96208107e+01
2.64526982e+01
3.43665533e+01
1.24876418e+01
3.88023329e+01
6.34691272e+01
4.33008175e+01
1.22711954e+01
3.23861955e+01
2.00473792e+01
1.85886400e+01
1.47412159e+01
9.34264493e+00
7.17986751e+00
-6.19125900e+01
-1.17433472e+02
2.30995735e+01
1.94225407e+00
7.55411595e+00
3.38158992e+01
3.58854795e+00
6.99839973e+00
1.47940044e+01
1.48140907e+00
-3.99950671e+00
2.09224658e+01
2.92654605e+01
3.46719961e+01
6.69785523e+00
8.59559953e-01
</DataArray>
<DataArray type="Float32" Name="Stress_Mid_Principal" format="ascii">
1.20556391e+01
-1.10993791e+00
-7.02792454e+00
-1.84007578e+00
1.63139479e+01
2.04767500e+01
-1.51167352e+01
9.51845911e+00
-1.84272461e+01
-8.14251289e+01
-7.29398206e+01
-7.05528326e+01
-3.46544411e-01
-3.57564315e-01
-1.11341044e-01
-6.05041146e-01
2.75887083e-02
-6.17433339e-02
1.12992994e-01
1.54057937e-02
5.12018442e-01
3.61736089e-01
4.40307095e+00
7.69575708e-01
4.53830862e+00
-2.99984574e-01
2.48190425e+00
-9.84355986e-01
4.33202571e+00
4.66824429e+00
3.17764461e-01
-1.53610891e+00
5.51461786e+00
8.92426583e+00
1.92764349e+00
1.63101706e+00
6.97706981e+00
1.76269048e+00
4.13309479e+00
1.21166914e+01
1.05737491e+01
6.10474205e+00
1.43980784e+01
5.62334083e+00
1.43907213e+01
1.58952736e+01
1.89620657e+01
1.04214694e+01
1.81590068e+00
2.30141139e+00
-6.66749945e+00
5.77976823e-01
1.13000172e+01
-6.69740716e+00
-7.37007172e+01
1.11262947e+01
-4.79863253e+01
-3.38184678e+01
-3.20701365e+01
-4.17509265e+01
-2.37808580e+01
-4.21364946e+01
-1.00078923e-02
1.19983120e+01
-8.93080023e+00
5.85092008e+00
-9.93958941e+01
-2.82925156e+01
8.42585678e+01
7.06167348e+00
2.17550325e+01
1.22766916e+01
2.13504001e+01
8.83336139e+00
1.39325942e+01
1.64266900e+01
3.30714285e+00
-4.69501142e+01
-1.00923199e+02
-7.19296064e+00
1.47063446e+00
1.58340216e+00
3.36668205e+00
-2.50493784e+01
-6.14811732e+01
-1.32233693e+01
1.41627741e+00
-1.16531765e+00
-1.94820398e+00
-3.07949807e+00
-5.32481778e+00
-6.98939635e+00
-6.30729818e+00
-1.17099283e+01
-4.79033256e+00
-2.88082758e+00
2.81272639e+00
5.28121740e+00
-2.17383862e-01
-3.60958958e+00
-1.14541370e+01
-4.42808914e+00
-9.49831784e+00
5.18965030e+00
1.10528848e+01
-5.08568652e+00
-7.90167427e+00
-2.99583791e+01
-3.41424945e+01
5.66754532e+00
3.13635238e+01
5.90805931e+01
1.39413398e+01
-2.25907273e+01
-3.72404925e+00
-1.42302212e+02
-2.85401306e+01
-1.25937977e+01
9.99659044e+00
5.24526453e+00
-3.74799299e+01
-2.18429498e+01
-3.17900610e+00
1.44342422e+01
6.55316772e+01
4.35690956e+01
3.08375260e+00
5.69788835e+00
-1.08401430e+00
-1.35699615e-01
-5.95997274e-01
-1.25334013e+00
-6.89610273e-01
-8.26354409e-01
4.59551238e-01
3.52799241e+00
-1.95448875e+00
-2.29825911e+00
-2.38266027e+00
-2.67816067e+00
-7.70477653e+00
-8.11748260e+00
-1.17948538e+01
-1.84948304e+01
-1.14795001e+01
-1.75813458e+01
-9.31676960e+00
-8.22056782e+00
-2.45275173e+01
-2.05307035e+01
-3.97813845e+00
-1.21879702e+01
-1.20896558e+01
8.56804895e+00
2.23817377e+01
1.77110565e+01
4.19320583e+00
-9.84007034e+01
-1.02955780e+02
1.39639807e+01
3.52432909e+01
2.92111189e+01
7.82836394e+00
2.25963513e+01
-2.80203056e+00
3.05029199e+01
2.69709845e+01
2.88313522e+01
-2.06943583e+00
1.36561664e+01
8.59938582e+00
2.78557199e+00
7.99152920e+00
4.94630122e+00
1.72661304e+00
-8.90660553e+01
-1.34056778e+02
5.13531399e+00
-7.39570236e+00
3.15420170e+00
2.23115776e+01
-2.87378347e+00
-1.39434624e+00
9.63732243e+00
-4.01220798e+00
-1.64220171e+01
3.86812687e+00
1.05203362e+01
2.29432063e+01
3.50839621e+00
1.52922720e-02
</DataArray>
<DataArray type="Float32" Name="Stress_Min_Principal" format="ascii">
-3.17849491e+00
-2.43174467e+01
-5.03940201e+01
-3.24319386e+01
4.29075956e-02
-1.33676706e+00
-4.84612670e+01
-1.26108818e+01
-6.98846478e+01
-1.98859055e+02
-1.76635967e+02
-1.58315233e+02
-9.55643445e-01
-7.41662502e-01
-1.33637664e+00
-1.52286777e+00
-3.54892045e-01
-1.99261934e-01
-5.46456575e-01
-5.71327269e-01
-2.81302781e+01
-2.76644913e+01
-1.84416590e+01
-2.63877208e+01
-1.87300847e+01
-2.97099972e+01
-2.37748551e+01
-3.00550920e+01
-1.83237655e+01
-1.79651765e+01
-2.89575443e+01
-3.19940313e+01
-1.64148405e+01
-1.23366349e+01
-2.38498577e+01
-2.47285004e+01
-1.23066888e+01
-2.32896041e+01
-1.87477911e+01
-6.76046109e+00
-4.92981666e+00
-1.87377913e+01
9.01953220e-01
-1.61549383e+01
2.27714682e+00
-2.21833086e+00
7.62487125e+00
-7.64090300e+00
-2.10793966e+01
-1.99859035e+01
-4.22337739e+01
-2.79596295e+01
-1.82790339e+01
-4.07721583e+01
-1.77093663e+02
-1.63923010e+01
-1.28080355e+02
-1.00151397e+02
-9.34318142e+01
-1.14552118e+02
-7.17247009e+01
-1.07495964e+02
-2.48196937e+01
-8.36119008e+00
-4.80855740e+01
-1.55853218e+01
-2.22268436e+02
-8.42809882e+01
7.63579407e+01
-1.55119998e+01
7.64686530e+00
-2.22116351e+00
5.58592955e+00
-1.16763446e+01
-4.11481309e+00
6.93476949e-01
-2.46680588e+01
-1.23709162e+02
-2.36817238e+02
-4.70857635e+01
-2.72217236e+01
-3.42476101e+01
-2.73165722e+01
-7.04336901e+01
-1.62025302e+02
-4.48457355e+01
-2.34650297e+01
-3.04819072e+01
-3.10332377e+01
-3.24771886e+01
-3.90825481e+01
-4.11732453e+01
-4.14996047e+01
-4.85929707e+01
-3.67596889e+01
-3.14701364e+01
-2.06513300e+01
-1.64448296e+01
-2.49152255e+01
-3.52563868e+01
-5.16830595e+01
-4.58018017e+01
-4.47406357e+01
-1.98352175e+01
-1.19520998e+01
-4.05835279e+01
-4.54422518e+01
-8.41794581e+01
-9.74651292e+01
-2.50687762e+01
1.83985618e+01
5.84532356e+01
5.06269197e+00
-7.34252794e+01
-3.80995687e+01
-2.73830803e+02
-9.08008137e+01
-5.59957027e+01
-1.05816493e+01
-1.73325825e+01
-9.88243356e+01
-6.23822267e+01
-3.93930078e+01
-5.81354165e+00
5.85808105e+01
3.91706123e+01
-5.04831994e+00
-5.85611725e+00
-1.92099380e+00
-1.24674213e+00
-1.70010459e+00
-2.09072137e+00
-5.03217468e+00
-5.75036319e+00
-4.08992290e+00
-1.12486928e+01
-2.99680729e+01
-3.24558706e+01
-3.10665288e+01
-3.09639317e+01
-4.39473476e+01
-4.22358781e+01
-4.97193251e+01
-5.99557819e+01
-4.74295835e+01
-5.72189963e+01
-4.23490543e+01
-3.56973617e+01
-6.69723969e+01
-5.73622131e+01
-3.91336718e+01
-4.66867533e+01
-4.75585513e+01
-1.95325464e+01
7.26226664e+00
-9.03732538e-01
-1.26427155e+01
-2.24577576e+02
-2.46364426e+02
-4.12490209e+00
2.05217605e+01
2.15542288e+01
1.61029243e+00
1.17833872e+01
-2.26845369e+01
1.01607494e+01
8.53748322e-02
2.22993207e+01
-4.39345970e+01
7.05303494e+00
-1.70295842e+00
-8.24666584e+00
-7.00016691e+00
-1.27225547e+01
-1.45693460e+01
-1.90634125e+02
-3.02106384e+02
-3.63283335e+01
-3.62858515e+01
-6.42987400e+00
7.11370722e+00
-7.32645035e+00
-2.32672844e+01
-3.29497218e+00
-3.39305934e+01
-5.06252270e+01
-1.94107838e+01
7.91491508e-01
1.45820885e+01
-1.06792278e+01
-4.93402719e+00
</DataArray>
<DataArray type="Float32" Name="Stress_Pressure" format="ascii">
-8.51198721e+00
6.35448569e+00
1.50903368e+01
1.13629949e+01
-1.32138727e+01
-1.94483109e+01
2.16726017e+01
-3.17044425e+00
3.38036494e+01
1.17957691e+02
1.01674123e+02
9.24087677e+01
1.31092381e-01
1.31077264e-01
1.31076228e-01
1.31121326e-01
-9.01604518e-02
-9.01910886e-02
-9.01724547e-02
-9.01369303e-02
8.78929192e+00
8.49779260e+00
2.58328818e+00
7.67795277e+00
2.76472330e+00
9.80939166e+00
5.64155829e+00
1.00382807e+01
2.51759517e+00
1.84836477e+00
9.31222343e+00
1.10769022e+01
1.29465455e+00
-3.72990292e+00
6.05272722e+00
6.24290283e+00
-1.32058001e+00
5.67123473e+00
2.78704670e+00
-8.01515734e+00
-6.05267709e+00
7.06710815e-02
-1.01262130e+01
7.00886451e-01
-1.07155505e+01
-1.21873299e+01
-1.68066102e+01
-6.24461138e+00
4.34972754e+00
3.64466953e+00
1.77277527e+01
8.64256446e+00
-5.66901193e+00
1.70242512e+01
1.04778519e+02
-6.00665539e+00
7.28949852e+01
5.45738053e+01
5.07018471e+01
6.41939878e+01
3.69346304e+01
5.99477215e+01
6.69614349e+00
-7.81309515e+00
2.12349000e+01
6.95661068e-01
1.33404921e+02
4.35295720e+01
-1.00898849e+02
-1.18758901e+00
-2.03245595e+01
-7.91773415e+00
-2.07640931e+01
-3.96662760e+00
-9.61401525e+00
-1.46361684e+01
2.21817601e+00
6.97620566e+01
1.42318619e+02
1.40016253e+01
6.44822311e+00
5.62690067e+00
1.67568016e+00
3.35648727e+01
8.63555018e+01
1.83328152e+01
5.85910241e+00
1.03261574e+01
1.06951445e+01
1.16517365e+01
1.58375558e+01
1.72082191e+01
1.73639877e+01
2.20328236e+01
1.43528988e+01
1.09726808e+01
4.03791726e+00
5.64862072e-01
6.82756495e+00
1.13896685e+01
2.19612963e+01
1.31684780e+01
1.90628116e+01
-5.10564744e-01
-7.75104441e+00
1.19299107e+01
1.48860931e+01
4.49160578e+01
5.32633058e+01
-2.21480536e+00
-3.42799578e+01
-7.33648834e+01
-1.60464238e+01
3.75293307e+01
1.34698817e+01
1.68198059e+02
4.60450226e+01
2.51490192e+01
-5.67305124e+00
1.78477859e+00
5.39873580e+01
3.08473817e+01
5.78981161e+00
-1.24885426e+01
-7.67939606e+01
-4.84517097e+01
-8.12499827e+00
-6.70648750e+00
1.58066556e-01
1.58094764e-01
1.58155158e-01
1.58162072e-01
-1.14446740e+00
1.52224409e+00
7.55546875e-01
-1.31099120e-01
1.00514317e+01
1.15999069e+01
1.07426564e+01
1.07033086e+01
1.89690046e+01
1.79397991e+01
2.27317190e+01
2.94530619e+01
2.13308573e+01
2.76944315e+01
1.80909677e+01
1.40147157e+01
3.41985092e+01
2.80769348e+01
9.83400106e+00
2.09469471e+01
1.93034024e+01
-5.06296253e+00
-2.11201630e+01
-1.39669743e+01
-5.42630100e+00
1.34995682e+02
1.48726959e+02
-1.54341091e+01
-3.39059398e+01
-3.01287197e+01
-1.19637852e+01
-2.29154310e+01
4.33297488e+00
-2.64886688e+01
-3.01751614e+01
-3.14771633e+01
1.12442780e+01
-1.76984658e+01
-8.98126872e+00
-4.37584877e+00
-5.24419284e+00
-5.22130489e-01
1.88762167e+00
1.13870926e+02
1.84532211e+02
2.69781494e+00
1.39131002e+01
-1.42614785e+00
-2.10803947e+01
2.20389515e+00
5.88774395e+00
-7.04545164e+00
1.21537981e+01
2.36822500e+01
-1.79327011e+00
-1.35257635e+01
-2.40657644e+01
1.57658696e-01
1.35305834e+00
</DataArray>
<DataArray type="Float32" Name="Stress_Tresca" format="ascii">
1.98373121e+01
3.06813750e+01
6.25449543e+01
3.26149673e+01
2.32418540e+01
4.05417204e+01
4.70214658e+01
2.52146368e+01
5.67855902e+01
1.25270164e+02
1.21189388e+02
1.09956993e+02
1.86455417e+00
1.44765753e+00
2.39086568e+00
3.25741267e+00
9.52676773e-01
7.30840445e-01
1.25043750e+00
1.39765954e+00
2.93806629e+01
2.94738684e+01
2.47303817e+01
2.89720073e+01
2.46276913e+01
3.02918048e+01
2.81431303e+01
3.09796987e+01
2.47627196e+01
2.57170153e+01
2.96606541e+01
3.22934635e+01
2.34310987e+01
2.69387140e+01
2.76138892e+01
2.90972748e+01
2.15980468e+01
2.78028129e+01
2.50013471e+01
2.54497039e+01
1.74439158e+01
3.11588273e+01
1.41766539e+01
2.45838754e+01
1.32016344e+01
2.51033773e+01
1.62080250e+01
2.35941682e+01
2.72937114e+01
2.67363863e+01
3.79517884e+01
2.94135900e+01
4.22650885e+01
3.71689701e+01
1.13552492e+02
3.96782733e+01
8.54620705e+01
7.03998459e+01
6.68282261e+01
7.82731991e+01
5.64263687e+01
7.72852554e+01
2.95609651e+01
2.81633534e+01
4.13972465e+01
2.32327390e+01
1.43718008e+02
6.62657799e+01
6.57221069e+01
2.75250937e+01
2.39249148e+01
1.59188383e+01
2.97700195e+01
2.64192140e+01
2.31390772e+01
2.60948642e+01
3.93744483e+01
8.50822673e+01
1.47601822e+02
5.93596130e+01
3.36281433e+01
5.00311174e+01
4.62394180e+01
6.52221365e+01
1.26465279e+02
4.79163965e+01
2.79364738e+01
3.11506600e+01
3.19292475e+01
3.30786676e+01
3.59772453e+01
3.77112316e+01
3.72145424e+01
4.27973999e+01
3.52510157e+01
3.29030582e+01
2.63761826e+01
2.59138533e+01
2.95651407e+01
3.99533548e+01
4.89363668e+01
5.65262613e+01
4.17911562e+01
3.60124807e+01
3.61044497e+01
5.04630089e+01
5.41278979e+01
6.35691210e+01
6.92828306e+01
5.11144250e+01
3.46792234e+01
4.41075859e+01
2.40725473e+01
5.68532999e+01
3.95135396e+01
1.85369621e+02
7.20066910e+01
4.91381474e+01
2.81858625e+01
2.40655642e+01
7.31665282e+01
5.40652533e+01
6.45955896e+01
3.46584694e+01
4.76885834e+01
2.34448090e+01
3.13878822e+01
2.61338081e+01
4.45180225e+00
2.15489960e+00
3.52174091e+00
4.96029663e+00
1.41873622e+01
7.76034832e+00
5.45365381e+00
1.93626912e+01
3.17363396e+01
3.24102812e+01
3.22877483e+01
3.24960980e+01
3.86924553e+01
3.87698417e+01
4.30383472e+01
5.00472107e+01
4.23460989e+01
4.89360437e+01
3.97419758e+01
3.75711432e+01
5.58767853e+01
5.10243263e+01
5.27434759e+01
4.27206335e+01
4.92965536e+01
4.56859355e+01
2.64542165e+01
2.59973307e+01
3.73711281e+01
1.42568810e+02
1.49503784e+02
4.05881538e+01
2.54310069e+01
1.80665822e+01
2.48424053e+01
2.25831661e+01
3.51721783e+01
2.86415834e+01
6.33837528e+01
2.10014973e+01
5.62057915e+01
2.53331610e+01
2.17503373e+01
2.68353052e+01
2.17413826e+01
2.20651999e+01
2.17492132e+01
1.28721527e+02
1.84672913e+02
5.94279073e+01
3.82281046e+01
1.39839897e+01
2.67021923e+01
1.09149985e+01
3.02656841e+01
1.80889759e+01
3.54120035e+01
4.66257210e+01
4.03332481e+01
2.84739685e+01
2.00899076e+01
1.73770828e+01
5.79358721e+00
</DataArray>
<DataArray type="Float32" Name="Stress_Third_Invariant" format="ascii">
-1.40303455e+01
-2.45034232e+01
-3.31901569e+01
-3.08941490e+01
-1.07181625e+01
-3.91437374e+00
-3.61008273e+01
-1.96599286e+01
-5.36488001e+01
-1.20958332e+02
-1.09603961e+02
-9.40542240e+01
1.35575396e+00
1.12793195e+00
-7.13882476e-01
2.46053076e+00
5.75733900e-01
6.39925361e-01
-4.93771821e-01
7.89062738e-01
-2.89964991e+01
-2.86939344e+01
-2.36166309e+01
-2.79530344e+01
-2.38894367e+01
-2.98299747e+01
-2.63041424e+01
-2.99280198e+01
-2.35602801e+01
-2.29253236e+01
-2.94637113e+01
-3.08898584e+01
-2.25884364e+01
-1.83435249e+01
-2.65925038e+01
-2.67168754e+01
-2.02048321e+01
-2.60679886e+01
-2.37981768e+01
-1.47575582e+01
-1.62975572e+01
-2.14566948e+01
-1.37990103e+01
-2.19524142e+01
-1.25723312e+01
-1.14868250e+01
-7.48690414e+00
-1.60273829e+01
-2.43966429e+01
-2.38627213e+01
-3.63738215e+01
-2.89400584e+01
-1.82986794e+01
-3.53513823e+01
-1.07056334e+02
-1.80401220e+01
-8.24986610e+01
-6.79212273e+01
-6.37390785e+01
-7.51818237e+01
-5.11296158e+01
-6.97940521e+01
-2.63659285e+01
-1.48791893e+01
-3.95988953e+01
-2.21618378e+01
-1.30740713e+02
-5.93041142e+01
6.10044556e+01
-2.21884713e+01
-4.68031313e+00
-1.50927435e+01
-2.40761399e+00
-1.79241204e+01
-1.36471167e+01
-8.45017729e+00
-2.26502194e+01
-7.99631786e+01
-1.40975143e+02
-3.18460571e+01
-2.68488638e+01
-2.61830311e+01
-2.24258261e+01
-4.43738906e+01
-9.97606888e+01
-2.65519950e+01
-2.61409931e+01
-3.01226425e+01
-3.03031284e+01
-3.09050210e+01
-3.47585711e+01
-3.56830533e+01
-3.61182156e+01
-3.91291910e+01
-3.33616343e+01
-3.02562965e+01
-2.46438828e+01
-2.15054833e+01
-2.64559822e+01
-3.03645546e+01
-3.92100817e+01
-3.20767241e+01
-3.67160714e+01
-1.99062688e+01
-1.48698912e+01
-3.01923081e+01
-3.29980628e+01
-5.75454556e+01
-6.58422546e+01
-1.81667800e+01
5.88726958e+00
4.37871475e+01
6.51221676e+00
-5.00733247e+01
-3.31907749e+01
-1.41795845e+02
-5.98954471e+01
-4.27153862e+01
-1.69714041e+01
-2.31967288e+01
-6.55544691e+01
-4.37400427e+01
-2.88673108e+01
-1.17841748e+01
4.33779030e+01
2.05393906e+01
2.52254133e+01
-3.00166146e+00
3.89859748e+00
-7.05361426e-01
2.62289166e+00
4.42272377e+00
5.28690958e+00
-2.76674602e+00
-4.84366679e+00
-1.59063004e+01
-2.95229073e+01
-3.11456585e+01
-3.01435201e+01
-2.99448500e+01
-3.73214893e+01
-3.59248970e+01
-3.99907227e+01
-4.44546986e+01
-3.82824841e+01
-4.27623959e+01
-3.54344215e+01
-2.98711953e+01
-4.62380714e+01
-4.00145493e+01
-2.79393606e+01
-3.72491541e+01
-3.46371017e+01
-1.64432876e+01
-5.59730268e+00
-1.11285474e+01
-1.06929970e+00
-1.32702450e+02
-1.46265747e+02
-7.91116079e-01
3.11394751e-01
3.14182156e+00
1.99402325e+01
2.92431206e+00
-1.05508900e+00
-2.13969259e+01
3.02228718e+01
1.56202817e+01
-4.56634216e+01
1.96684898e+01
6.00467602e-01
7.33622086e+00
-1.59467974e+01
-1.90629139e+01
-1.72181778e+01
-1.10126770e+02
-1.75178177e+02
-2.41828283e+01
-3.13301737e+01
-6.93342304e+00
4.41529115e-01
5.62432694e+00
-2.14773159e+01
-1.41005249e+01
-3.18768888e+01
-3.73184872e+01
-1.71217651e+01
1.99943962e+01
1.41514587e+00
-1.51791086e+01
-5.27002525e+00
</DataArray>
<DataArray type="Float32" Name="Logarithmic_strain_Max_Principal" format="ascii">
3.33297027e-02
3.97554191e-02
4.55100108e-02
3.40621322e-02
3.75103306e-02
4.98289673e-02
6.85402183e-02
4.60782452e-02
4.72641280e-02
5.66004980e-02
7.69528523e-02
8.25820155e-02
2.35914786e-05
1.82030108e-05
2.66746692e-05
4.30207147e-05
1.31230663e-05
1.14639606e-05
1.60971504e-05
1.89275306e-05
4.38606888e-02
4.48908918e-02
4.75752410e-02
4.53764154e-02
5.38760722e-02
5.22448113e-02
5.34643102e-02
5.49159301e-02
4.83267829e-02
5.08190338e-02
4.90533421e-02
5.08762882e-02
4.94916542e-02
5.31813772e-02
4.78793392e-02
4.81179594e-02
5.14090173e-02
5.58764907e-02
4.54345793e-02
4.76698438e-02
4.88671735e-02
5.23051717e-02
3.99656733e-02
4.69988324e-02
4.70599867e-02
5.16126323e-02
4.10633199e-02
4.72626034e-02
5.42214890e-02
5.25547992e-02
5.76137281e-02
5.44182900e-02
4.98258471e-02
5.65997073e-02
6.89366765e-02
5.16512325e-02
6.59379512e-02
5.34227498e-02
6.23901738e-02
5.55154225e-02
6.22575916e-02
5.57248928e-02
5.31270690e-02
4.73089293e-02
6.36178649e-02
5.35872858e-02
7.68260658e-02
7.37051427e-02
1.20623752e-01
4.64244125e-02
3.74291193e-02
3.94774149e-02
5.45891859e-02
5.54043315e-02
3.75025067e-02
6.15229729e-02
6.56968849e-02
5.13966307e-02
7.77946264e-02
7.36653700e-02
4.22163457e-02
6.37460854e-02
6.81308582e-02
8.80416837e-02
8.62595340e-02
8.27820587e-02
6.62941076e-02
6.17223345e-02
6.61826758e-02
6.96819574e-02
5.54161100e-02
6.04059095e-02
5.22656571e-02
5.45268008e-02
4.83085886e-02
4.80545675e-02
4.55541862e-02
4.29496486e-02
4.77087200e-02
4.55238940e-02
7.71139972e-02
7.79683758e-02
6.45903954e-02
4.87977341e-02
3.96087955e-02
3.72446934e-02
3.86870696e-02
8.50343965e-02
8.58557324e-02
6.94602144e-02
4.13026819e-02
6.60947710e-02
1.79203941e-02
9.26906187e-02
9.75370035e-02
9.55668986e-02
9.31796928e-02
9.19521488e-02
9.05857142e-02
7.91999176e-02
8.97328891e-02
1.00227924e-01
7.19724055e-02
6.99929912e-02
1.11947030e-01
5.84462918e-02
4.25583393e-02
3.38911503e-02
6.28154230e-05
2.30685619e-05
4.58551913e-05
7.06471546e-05
1.96548676e-04
6.66587536e-05
4.11731708e-05
2.59533355e-04
7.08259791e-02
6.52054418e-02
7.24430680e-02
7.68615380e-02
5.81060350e-02
6.39608605e-02
5.91718834e-02
5.89492843e-02
5.67371678e-02
5.34684164e-02
5.31774443e-02
4.99696583e-02
5.94626628e-02
5.21412361e-02
8.37815199e-02
8.58441107e-02
7.20731746e-02
5.08025251e-02
3.36254165e-02
2.82728416e-02
2.76895808e-02
9.18416083e-02
9.80984718e-02
6.56623592e-02
2.71282336e-02
6.91909564e-03
1.21154955e-02
4.75369893e-03
1.17821484e-02
5.83437597e-03
4.83302455e-02
1.17333136e-02
6.04819469e-02
2.69359576e-03
1.95948411e-03
5.33784925e-04
2.77891086e-04
7.09998894e-04
8.44474016e-04
1.42032519e-01
1.27543822e-01
1.06401918e-01
1.21922474e-01
1.41041255e-04
1.24154149e-02
1.12849895e-04
1.08077545e-01
1.02631584e-01
8.95515382e-02
1.05880219e-01
4.91973441e-02
6.28791098e-02
1.65280579e-02
2.80984226e-04
3.56609744e-05
</DataArray>
<DataArray type="Float32" Name="Logarithmic_strain_Min_Principal" format="ascii">
-4.49335151e-02
-5.15359477e-02
-6.55160556e-02
-5.35170538e-02
-5.40629653e-02
-6.66888601e-02
-8.54403581e-02
-6.32393509e-02
-7.30743418e-02
-9.77569222e-02
-1.08647130e-01
-1.14332549e-01
-2.10891940e-05
-1.62619613e-05
-3.05333260e-05
-3.46127154e-05
-9.42257157e-06
-6.02348064e-06
-1.38372470e-05
-1.44217311e-05
-7.23922998e-02
-7.21699130e-02
-7.11390451e-02
-7.20679127e-02
-7.95439631e-02
-8.03353041e-02
-8.19569780e-02
-8.33145641e-02
-7.01695923e-02
-7.31940996e-02
-7.77309984e-02
-8.07206053e-02
-7.00385105e-02
-7.58523224e-02
-7.26438724e-02
-7.51853632e-02
-7.01362491e-02
-8.13808069e-02
-6.74043279e-02
-6.88857017e-02
-6.89437445e-02
-7.98374042e-02
-6.11751247e-02
-6.95708641e-02
-6.70921691e-02
-7.61677232e-02
-5.80300838e-02
-6.72490858e-02
-7.28985025e-02
-6.93176538e-02
-9.09640184e-02
-8.73400606e-02
-8.15239123e-02
-8.62484546e-02
-1.10415091e-01
-7.68475128e-02
-1.05849316e-01
-8.30421150e-02
-1.00201629e-01
-8.97819754e-02
-9.59330648e-02
-8.86187032e-02
-6.89697409e-02
-6.19080923e-02
-9.62192576e-02
-8.58809073e-02
-1.09434281e-01
-1.07033271e-01
-1.09374210e-01
-5.42421254e-02
-5.38619480e-02
-5.36183091e-02
-7.97346036e-02
-8.07290450e-02
-5.38968304e-02
-8.77208593e-02
-8.70803688e-02
-7.80981593e-02
-1.22713432e-01
-1.00599094e-01
-6.05448503e-02
-8.67962744e-02
-9.34036002e-02
-1.11814223e-01
-1.17043816e-01
-9.66161167e-02
-9.02451053e-02
-8.97116121e-02
-9.29831434e-02
-9.53065231e-02
-8.62959139e-02
-8.68752059e-02
-7.99227357e-02
-7.79962679e-02
-7.23952614e-02
-6.82587484e-02
-6.55039176e-02
-6.23296155e-02
-6.46716841e-02
-6.35411497e-02
-1.02249314e-01
-1.08700918e-01
-8.60976456e-02
-6.23084456e-02
-5.15161715e-02
-4.74350664e-02
-4.81815239e-02
-1.14885523e-01
-1.18245825e-01
-8.56052786e-02
-3.94714239e-02
-6.77365959e-02
-1.17334204e-02
-1.35882329e-01
-1.37144198e-01
-1.23489577e-01
-1.39105091e-01
-1.36683727e-01
-1.29769571e-01
-1.26281582e-01
-1.33478846e-01
-1.26685174e-01
-8.44638366e-02
-7.65650058e-02
-6.70711249e-02
-4.26575467e-02
-2.53700404e-02
-3.36848503e-02
-4.39868272e-05
-2.83606860e-05
-3.86519096e-05
-4.84442862e-05
-1.49128005e-04
-1.19317233e-04
-8.93611686e-05
-3.57423938e-04
-9.59918648e-02
-9.43683833e-02
-9.58081279e-02
-9.93071906e-02
-9.01356451e-02
-8.86866879e-02
-8.30985270e-02
-8.03448111e-02
-7.57813491e-02
-7.11112712e-02
-7.13113174e-02
-6.27442785e-02
-7.33244717e-02
-6.36328217e-02
-1.10159984e-01
-1.20983329e-01
-8.51598307e-02
-5.96690644e-02
-3.94638404e-02
-2.90541230e-02
-2.74778670e-02
-1.50073335e-01
-1.66119829e-01
-7.90398816e-02
-2.22946731e-02
-2.56824691e-03
-7.67990158e-03
-2.20031949e-03
-1.09053408e-02
-5.87423542e-03
-3.38718249e-02
-6.43520476e-03
-8.91597345e-02
-2.24730208e-03
-2.25381312e-03
-3.26493355e-04
-2.28855220e-04
-9.22097301e-04
-1.38523873e-03
-2.08137095e-01
-2.20632240e-01
-1.54680590e-01
-1.64596014e-01
-1.33642773e-04
-6.40256574e-03
-1.48851042e-04
-1.40059464e-01
-1.34920180e-01
-1.33092940e-01
-1.29837167e-01
-5.19887190e-02
-5.88190481e-02
-1.84764299e-02
-4.54538429e-04
-1.03404709e-04
</DataArray>
<DataArray type="Float32" Name="Plastic_strain_Max_Principal" format="ascii">
3.30498479e-02
3.98416410e-02
4.41253046e-02
3.40365190e-02
4.14930284e-02
4.71465659e-02
7.33721480e-02
5.42882569e-02
5.18312426e-02
5.84676303e-02
8.82263482e-02
7.97267407e-02
0.00000000e+00
0.00000000e+00
0.00000000e+00
0.00000000e+00
0.00000000e+00
0.00000000e+00
0.00000000e+00
0.00000000e+00
4.38053031e-02
4.47021918e-02
4.74401657e-02
4.51537557e-02
5.36535047e-02
5.21221329e-02
5.32723074e-02
5.47726341e-02
4.81098481e-02
5.05814562e-02
4.88485945e-02
5.08190696e-02
4.93195523e-02
5.07222004e-02
4.76523126e-02
4.78880149e-02
5.10461153e-02
5.60317640e-02
4.52817539e-02
4.72095651e-02
4.84245485e-02
5.19972397e-02
3.96754118e-02
4.66476800e-02
4.65923958e-02
5.11002205e-02
4.07241192e-02
4.67316648e-02
5.38744656e-02
5.24230041e-02
5.76822353e-02
5.42899417e-02
5.01796273e-02
5.64376912e-02
7.09609866e-02
5.42870930e-02
6.65415972e-02
5.39032370e-02
6.31713672e-02
5.62357428e-02
6.26855735e-02
5.62302917e-02
5.32013119e-02
4.68889726e-02
6.52547234e-02
5.32914633e-02
7.82550052e-02
7.51531146e-02
1.12166755e-01
6.81907386e-02
3.60401228e-02
3.99342827e-02
5.06779406e-02
4.88626789e-02
4.01251633e-02
7.40938394e-02
5.64732188e-02
5.30973850e-02
8.76782760e-02
7.64284864e-02
4.05802932e-02
4.48793811e-02
7.33511318e-02
9.11554247e-02
8.55982378e-02
8.23603335e-02
6.60578534e-02
6.15908159e-02
6.59635998e-02
6.95368554e-02
5.53295854e-02
6.03080504e-02
5.21471724e-02
5.43172900e-02
4.82111908e-02
4.86555393e-02
4.54409812e-02
4.31856401e-02
4.76091914e-02
4.47059236e-02
7.69674396e-02
7.83002842e-02
5.88424078e-02
4.79639529e-02
3.68358276e-02
3.42412650e-02
4.12723664e-02
9.01824435e-02
8.65980039e-02
7.10911329e-02
2.38682874e-02
6.16879910e-02
2.05345469e-02
1.09680634e-01
1.11913214e-01
9.56505947e-02
8.22982869e-02
7.14575043e-02
9.63194966e-02
7.69676976e-02
9.59376618e-02
1.01296702e-01
5.99460131e-02
5.73659041e-02
3.79384868e-02
2.14428511e-02
4.83005219e-02
2.67431201e-02
0.00000000e+00
0.00000000e+00
0.00000000e+00
0.00000000e+00
3.45069680e-05
0.00000000e+00
0.00000000e+00
6.84106005e-05
7.06539154e-02
6.50113877e-02
7.23396037e-02
7.67039917e-02
5.80351464e-02
6.38756761e-02
5.91002591e-02
5.84682822e-02
5.65882903e-02
5.50546879e-02
5.30430991e-02
5.40037034e-02
5.92909269e-02
5.58266267e-02
8.57344382e-02
8.84584300e-02
6.16358658e-02
5.61192865e-02
2.85842731e-02
1.70704918e-02
1.54461046e-02
9.16308872e-02
9.88488793e-02
7.98598106e-02
2.02196257e-02
6.96002386e-03
1.24768674e-02
3.24200164e-03
1.14919715e-02
5.08646166e-03
4.11443645e-02
2.40269252e-02
6.61538020e-02
2.20853045e-03
1.71599903e-03
1.82240407e-04
1.56077707e-04
4.97571018e-04
6.51155948e-04
1.35119602e-01
1.24742083e-01
1.16501721e-01
1.34801339e-01
5.85495117e-05
3.05132088e-03
0.00000000e+00
1.06564250e-01
1.02100343e-01
9.79971774e-02
1.14173777e-01
4.09647357e-02
3.82256992e-02
7.36725313e-03
1.32017740e-04
0.00000000e+00
</DataArray>
<DataArray type="Float32" Name="Plastic_strain_Min_Principal" format="ascii">
-4.49673799e-02
-4.71655220e-02
-6.29181266e-02
-5.29610487e-02
-4.65460960e-02
-5.69675422e-02
-9.57778729e-02
-7.82019049e-02
-7.84493499e-02
-9.50877592e-02
-1.24084371e-01
-1.02957062e-01
0.00000000e+00
0.00000000e+00
0.00000000e+00
0.00000000e+00
0.00000000e+00
0.00000000e+00
0.00000000e+00
0.00000000e+00
-7.20041394e-02
-7.15574641e-02
-7.09853517e-02
-7.14390911e-02
-7.92596079e-02
-7.97781702e-02
-8.15498829e-02
-8.27568173e-02
-6.99051693e-02
-7.28991088e-02
-7.70110805e-02
-8.01120922e-02
-6.99314177e-02
-7.17383781e-02
-7.21524693e-02
-7.47423712e-02
-6.98584486e-02
-8.17409353e-02
-6.72096349e-02
-6.89039435e-02
-6.87148683e-02
-7.95815205e-02
-6.13635369e-02
-6.91150525e-02
-6.70307186e-02
-7.61546418e-02
-5.84811568e-02
-6.69022985e-02
-7.24164825e-02
-6.91817105e-02
-9.01304791e-02
-8.68621226e-02
-8.11112204e-02
-8.41951827e-02
-1.07115468e-01
-8.07757633e-02
-1.02481740e-01
-8.14365789e-02
-9.88455024e-02
-8.74265432e-02
-9.48379859e-02
-8.64017084e-02
-6.90446235e-02
-6.17780890e-02
-9.88971623e-02
-8.54726974e-02
-1.06549004e-01
-1.06545763e-01
-1.30255803e-01
-6.56749023e-02
-5.26108534e-02
-5.49483160e-02
-5.64726807e-02
-6.06625094e-02
-5.90389473e-02
-1.12904700e-01
-7.02029746e-02
-7.77142420e-02
-1.33551896e-01
-1.02359205e-01
-5.77257350e-02
-4.73584105e-02
-1.04934715e-01
-1.15458468e-01
-1.14039034e-01
-9.85444436e-02
-8.98352638e-02
-8.91907699e-02
-9.22583630e-02
-9.47129074e-02
-8.54698196e-02
-8.59036380e-02
-7.89007172e-02
-7.66850188e-02
-7.16034528e-02
-6.87867105e-02
-6.52262531e-02
-6.28685327e-02
-6.42402470e-02
-6.21001096e-02
-9.52782726e-02
-1.07806403e-01
-7.61609227e-02
-6.09082435e-02
-4.79725007e-02
-4.30639709e-02
-5.17052058e-02
-1.20441575e-01
-1.16253185e-01
-8.69597333e-02
-2.08883073e-02
-7.44980723e-02
-1.18407715e-02
-1.64659807e-01
-1.61014222e-01
-1.16503302e-01
-1.10064153e-01
-1.01448547e-01
-1.42257210e-01
-1.21698968e-01
-1.38078123e-01
-1.25963539e-01
-6.83057631e-02
-6.06375979e-02
-3.19389664e-02
-1.10874940e-02
-2.82265146e-02
-2.48823668e-02
0.00000000e+00
0.00000000e+00
0.00000000e+00
0.00000000e+00
-5.26660671e-05
0.00000000e+00
0.00000000e+00
-9.15982043e-05
-9.54693630e-02
-9.36531499e-02
-9.53382496e-02
-9.87704061e-02
-8.91330354e-02
-8.77594724e-02
-8.19392949e-02
-7.82011729e-02
-7.45722242e-02
-7.21482560e-02
-7.02793933e-02
-6.71033394e-02
-7.15044290e-02
-6.76373057e-02
-1.11808611e-01
-1.25164274e-01
-6.92283725e-02
-6.66349940e-02
-3.34406583e-02
-1.65130299e-02
-1.35737290e-02
-1.40478447e-01
-1.55709594e-01
-9.74432180e-02
-1.50851256e-02
-4.30264609e-03
-8.31853337e-03
-2.23634427e-03
-1.05278358e-02
-5.56217763e-03
-3.01058264e-02
-1.61758456e-02
-9.63851064e-02
-2.20940297e-03
-2.22562758e-03
-1.36323606e-04
-1.50235862e-04
-6.16677455e-04
-1.06080435e-03
-1.85880110e-01
-1.98612630e-01
-1.71416457e-01
-1.83639266e-01
-4.43831148e-05
-2.77405138e-03
0.00000000e+00
-1.36497207e-01
-1.34553626e-01
-1.45442002e-01
-1.40440017e-01
-3.35696074e-02
-2.66123088e-02
-7.81294011e-03
-2.00401351e-04
0.00000000e+00
</DataArray>
</PointData>
<Cells>
<DataArray type="Int32" Name="connectivity" format="ascii">
0 1 2 3 4 5 6 7
1 8 9 2 5 10 11 6
12 13 14 15 16 17 18 19
20 21 22 23 24 25 26 27
21 28 29 22 25 30 31 26
28 32 33 29 30 34 35 31
32 36 37 33 34 38 39 35
36 40 41 37 38 42 43 39
40 44 45 41 42 46 47 43
23 22 48 49 27 26 50 51
22 29 52 48 26 31 53 50
29 33 54 52 31 35 55 53
33 37 56 54 35 39 57 55
37 41 58 56 39 43 59 57
41 45 60 58 43 47 61 59
49 48 62 63 51 50 64 65
48 52 66 62 50 53 67 64
52 54 68 66 53 55 69 67
63 62 70 71 65 64 72 73
71 70 4 74 73 72 75 76
70 77 5 4 72 78 79 75
74 4 7 80 76 75 81 82
4 5 6 7 75 79 83 81
5 10 11 6 79 84 85 83
24 25 26 27 86 87 88 89
25 30 31 26 87 90 91 88
30 34 35 31 90 92 93 91
34 38 39 35 92 94 95 93
38 42 43 39 94 96 97 95
42 46 47 43 96 98 99 97
27 26 50 51 89 88 100 101
26 31 53 50 88 91 102 100
31 35 55 53 91 93 103 102
35 39 57 55 93 95 104 103
39 43 59 57 95 97 105 104
43 47 61 59 97 99 106 105
51 50 64 65 101 100 107 108
50 53 67 64 100 102 109 107
53 55 69 67 102 103 110 109
55 57 111 69 103 104 112 110
65 64 72 73 108 107 113 114
64 67 78 72 107 109 115 113
73 72 75 76 114 113 116 117
76 75 81 82 117 116 118 119
75 79 83 81 116 120 121 118
79 84 85 83 120 122 123 121
84 124 125 85 122 126 127 123
128 129 130 131 132 133 134 135
86 87 88 89 136 137 138 139
87 90 91 88 137 140 141 138
90 92 93 91 140 142 143 141
92 94 95 93 142 144 145 143
94 96 97 95 144 146 147 145
96 98 99 97 146 148 149 147
89 88 100 101 139 138 150 151
88 91 102 100 138 141 152 150
91 93 103 102 141 143 153 152
93 95 104 103 143 145 154 153
95 97 105 104 145 147 155 154
97 99 106 105 147 149 156 155
101 100 107 108 151 150 157 158
100 102 109 107 150 152 159 157
102 103 110 109 152 153 160 159
103 104 112 110 153 154 161 160
104 105 162 112 154 155 163 161
105 106 164 162 155 156 165 163
109 110 166 115 159 160 167 168
110 112 169 166 160 161 170 167
112 162 171 169 161 163 172 170
162 164 173 171 163 165 174 172
114 113 116 117 175 176 177 178
169 171 132 126 170 172 179 180
171 173 133 132 172 174 181 179
117 116 118 119 178 177 182 183
116 120 121 118 177 184 185 182
120 122 123 121 184 186 187 185
122 126 127 123 186 180 188 187
126 132 135 127 180 179 189 188
132 133 134 135 179 181 190 189
</DataArray>
<DataArray type="Int32" Name="offsets" format="ascii">
8
16
24
32
40
48
56
64
72
80
88
96
104
112
120
128
136
144
152
160
168
176
184
192
200
208
216
224
232
240
248
256
264
272
280
288
296
304
312
320
328
336
344
352
360
368
376
384
392
400
408
416
424
432
440
448
456
464
472
480
488
496
504
512
520
528
536
544
552
560
568
576
584
592
600
608
616
624
632
</DataArray>
<DataArray type="UInt8" Name="types" format="ascii">
12
12
12
12
12
12
12
12
12
12
12
12
12
12
12
12
12
12
12
12
12
12
12
12
12
12
12
12
12
12
12
12
12
12
12
12
12
12
12
12
12
12
12
12
12
12
12
12
12
12
12
12
12
12
12
12
12
12
12
12
12
12
12
12
12
12
12
12
12
12
12
12
12
12
12
12
12
12
12
</DataArray>
</Cells>
</Piece>
</UnstructuredGrid>
</VTKFile>
