<VTKFile type="UnstructuredGrid" version="0.1" byte_order="LittleEndian">
<UnstructuredGrid>
<Piece NumberOfPoints="173" NumberOfCells="80">
<Points>
<DataArray type="Float64" NumberOfComponents="3" format="ascii">
 0.00000000e+00  0.00000000e+00  0.00000000e+00
 1.00273693e+00  0.00000000e+00  0.00000000e+00
 1.00324392e+00  1.00881243e+00  0.00000000e+00
 0.00000000e+00  1.00822842e+00  0.00000000e+00
 0.00000000e+00  0.00000000e+00  9.90320563e-01
 1.00295913e+00  0.00000000e+00  9.89709020e-01
 1.00297594e+00  1.00786638e+00  9.90369856e-01
 0.00000000e+00  1.00774932e+00  9.91213858e-01
 2.00642037e+00  0.00000000e+00  0.00000000e+00
 2.00677848e+00  1.01028538e+00  0.00000000e+00
 2.00658965e+00  0.00000000e+00  9.87604320e-01
 2.00683403e+00  1.00852764e+00  9.89134550e-01
 3.01091933e+00  0.00000000e+00  0.00000000e+00
 3.01097584e+00  1.01207280e+00  0.00000000e+00
 3.01175499e+00  0.00000000e+00  9.85565901e-01
 3.01135683e+00  1.00944459e+00  9.87361848e-01
 4.01716566e+00  0.00000000e+00  0.00000000e+00
 4.01579666e+00  1.01333547e+00  0.00000000e+00
 4.01820993e+00  0.00000000e+00  9.84162509e-01
 4.01688290e+00  1.00982463e+00  9.84964192e-01
 5.02571917e+00  0.00000000e+00  0.00000000e+00
 5.02268028e+00  1.01479089e+00  0.00000000e+00
 5.02603149e+00  0.00000000e+00  9.81030583e-01
 5.02420425e+00  1.01037550e+00  9.82696891e-01
 6.03612137e+00  0.00000000e+00  0.00000000e+00
 6.02956343e+00  1.02015674e+00  0.00000000e+00
 6.03370953e+00  0.00000000e+00  9.79174495e-01
 6.03274775e+00  1.01342046e+00  9.79602098e-01
 1.00391626e+00  2.01468992e+00  0.00000000e+00
 0.00000000e+00  2.01413369e+00  0.00000000e+00
 1.00334370e+00  2.01414776e+00  9.92868006e-01
 0.00000000e+00  2.01374340e+00  9.92835522e-01
 2.00762796e+00  2.01627016e+00  0.00000000e+00
 2.00691080e+00  2.01540732e+00  9.93284166e-01
 3.01065016e+00  2.01818514e+00  0.00000000e+00
 3.01016641e+00  2.01666856e+00  9.94670391e-01
 4.01342583e+00  2.02090621e+00  0.00000000e+00
 4.01424742e+00  2.01773071e+00  9.93642628e-01
 5.01591873e+00  2.02249646e+00  0.00000000e+00
 5.01757622e+00  2.01928258e+00  9.94221210e-01
 6.01887035e+00  2.02740335e+00  0.00000000e+00
 6.02268505e+00  2.02430105e+00  9.93924856e-01
 1.00417447e+00  3.01753473e+00  0.00000000e+00
 0.00000000e+00  3.01719856e+00  0.00000000e+00
 1.00353992e+00  3.01751804e+00  9.95200515e-01
 0.00000000e+00  3.01736546e+00  9.94440734e-01
 2.00753307e+00  3.01823425e+00  0.00000000e+00
 2.00687432e+00  3.01815224e+00  9.96708274e-01
 3.00957036e+00  3.01950550e+00  0.00000000e+00
 3.00878048e+00  3.01906061e+00  9.98976529e-01
 4.00996828e+00  3.02114749e+00  0.00000000e+00
 4.00954056e+00  3.01992726e+00  1.00041080e+00
 5.01228189e+00  3.02202415e+00  0.00000000e+00
 5.01190376e+00  3.02091360e+00  1.00082922e+00
 6.01234341e+00  3.02682805e+00  0.00000000e+00
 6.01257563e+00  3.02622628e+00  1.00057638e+00
 1.00400126e+00  4.01873589e+00  0.00000000e+00
 0.00000000e+00  4.01885223e+00  0.00000000e+00
 1.00342238e+00  4.01907730e+00  9.95963693e-01
 0.00000000e+00  4.01913023e+00  9.95354772e-01
 2.00692391e+00  4.01897240e+00  0.00000000e+00
 2.00615311e+00  4.01878309e+00  9.97507989e-01
 3.00807643e+00  4.01960468e+00  0.00000000e+00
 3.00736141e+00  4.01937008e+00  9.99453604e-01
 4.00794744e+00  4.02096033e+00  0.00000000e+00
 4.00785828e+00  4.02096272e+00  9.99984086e-01
 6.00843620e+00  4.02449608e+00  0.00000000e+00
 5.00830030e+00  4.02235222e+00  0.00000000e+00
 6.00848818e+00  4.02466393e+00  1.00000679e+00
 5.00831795e+00  4.02248096e+00  1.00011098e+00
 1.00367594e+00  5.02012444e+00  0.00000000e+00
 0.00000000e+00  5.02054787e+00  0.00000000e+00
 1.00314510e+00  5.02035093e+00  9.95796084e-01
 0.00000000e+00  5.02064466e+00  9.94746089e-01
 2.00615096e+00  5.01953602e+00  0.00000000e+00
 2.00523949e+00  5.01967859e+00  9.97597277e-01
 3.00672650e+00  5.01993799e+00  0.00000000e+00
 3.00635934e+00  5.01988363e+00  9.99576628e-01
 4.00675917e+00  5.02094793e+00  0.00000000e+00
 4.00662756e+00  5.02094364e+00  1.00005722e+00
 5.00663042e+00  5.02248573e+00  0.00000000e+00
 5.00666761e+00  5.02250290e+00  9.99997675e-01
 6.00663137e+00  5.02421474e+00  0.00000000e+00
 6.00666046e+00  5.02416706e+00  9.99958932e-01
 1.00413907e+00  6.02221680e+00  0.00000000e+00
 0.00000000e+00  6.02282000e+00  0.00000000e+00
 1.00322497e+00  6.02222776e+00  9.95194554e-01
 0.00000000e+00  6.02292633e+00  9.93955910e-01
 2.00625563e+00  6.02064753e+00  0.00000000e+00
 2.00519991e+00  6.02130651e+00  9.97004926e-01
 3.00610948e+00  6.02010441e+00  0.00000000e+00
 3.00585699e+00  6.02053308e+00  9.99289036e-01
 4.00554943e+00  6.02103090e+00  0.00000000e+00
 4.00541973e+00  6.02102423e+00  1.00006974e+00
 5.00518322e+00  6.02251673e+00  0.00000000e+00
 5.00516891e+00  6.02252531e+00  1.00003278e+00
 6.00510025e+00  6.02411890e+00  0.00000000e+00
 6.00511408e+00  6.02409172e+00  1.00002527e+00
 0.00000000e+00  0.00000000e+00  1.98138499e+00
 1.00368869e+00  0.00000000e+00  1.98026454e+00
 1.00329947e+00  1.00620615e+00  1.98178470e+00
 0.00000000e+00  1.00654626e+00  1.98246920e+00
 2.00839424e+00  0.00000000e+00  1.97855222e+00
 2.00716305e+00  1.00501883e+00  1.97835124e+00
 3.01349664e+00  0.00000000e+00  1.97503805e+00
 3.01356816e+00  1.00463593e+00  1.97531378e+00
 4.02071190e+00  0.00000000e+00  1.97014093e+00
 4.02007389e+00  1.00513721e+00  1.97421563e+00
 5.02761078e+00  0.00000000e+00  1.96637619e+00
 5.02728081e+00  1.00532925e+00  1.97064948e+00
 6.03293896e+00  0.00000000e+00  1.96399093e+00
 6.03462934e+00  1.00505233e+00  1.96773326e+00
 1.00213349e+00  2.01232147e+00  1.98492205e+00
 0.00000000e+00  2.01274133e+00  1.98650610e+00
 2.00613236e+00  2.01198959e+00  1.98435807e+00
 3.01190567e+00  2.01316357e+00  1.98350728e+00
 4.01897907e+00  2.01458287e+00  1.97864747e+00
 5.02718782e+00  2.01500678e+00  1.97808373e+00
 6.03632355e+00  2.01456022e+00  1.97428894e+00
 1.00184834e+00  3.01747155e+00  1.98922884e+00
 0.00000000e+00  3.01722717e+00  1.99042428e+00
 2.00461817e+00  3.01762033e+00  1.99286044e+00
 3.00408006e+00  3.01782870e+00  2.00091314e+00
 1.00224507e+00  4.01998997e+00  1.99237323e+00
 0.00000000e+00  4.01986980e+00  1.99148190e+00
 2.00429583e+00  4.01939011e+00  1.99539506e+00
 3.00516868e+00  4.01799774e+00  1.99820495e+00
 1.00187230e+00  5.02113914e+00  1.99208915e+00
 0.00000000e+00  5.02150536e+00  1.99110794e+00
 2.00388169e+00  5.02045488e+00  1.99490643e+00
 3.00650525e+00  5.01955986e+00  1.99621153e+00
 1.00109994e+00  6.02346134e+00  1.99011517e+00
 0.00000000e+00  6.02263737e+00  1.99064803e+00
 2.00338650e+00  6.02413368e+00  1.99205220e+00
 3.00705838e+00  6.02345085e+00  1.99312913e+00
 5.00671768e+00  5.02249098e+00  2.00000715e+00
 6.00672483e+00  5.02404213e+00  1.99995935e+00
 6.00515032e+00  6.02406073e+00  2.00002098e+00
 5.00513411e+00  6.02249336e+00  2.00004220e+00
 0.00000000e+00  0.00000000e+00  2.97209883e+00
 1.00515628e+00  0.00000000e+00  2.97128391e+00
 1.00504339e+00  1.00526941e+00  2.97321606e+00
 0.00000000e+00  1.00528109e+00  2.97415614e+00
 2.01129580e+00  0.00000000e+00  2.96833181e+00
 2.00986767e+00  1.00389111e+00  2.97125149e+00
 3.01699328e+00  0.00000000e+00  2.96564102e+00
 3.01704478e+00  1.00276399e+00  2.96669102e+00
 4.02384186e+00  0.00000000e+00  2.96291018e+00
 4.02385521e+00  1.00301981e+00  2.96175408e+00
 5.02960873e+00  0.00000000e+00  2.95916629e+00
 5.03018332e+00  1.00347471e+00  2.95976067e+00
 6.03408623e+00  0.00000000e+00  2.95751333e+00
 6.03518867e+00  1.00263155e+00  2.95838737e+00
 1.00299489e+00  2.00975180e+00  2.97778344e+00
 0.00000000e+00  2.01163673e+00  2.97853899e+00
 2.00862288e+00  2.00917411e+00  2.97119188e+00
 3.01514006e+00  2.01056099e+00  2.96370625e+00
 4.02454281e+00  2.01211405e+00  2.96348166e+00
 5.03179455e+00  2.00993419e+00  2.96158671e+00
 6.03749132e+00  2.00780487e+00  2.96093535e+00
 1.00157511e+00  3.01677346e+00  2.98563957e+00
 0.00000000e+00  3.01673412e+00  2.98312664e+00
 2.00772452e+00  3.01551723e+00  2.97861457e+00
 1.00126624e+00  4.02040195e+00  2.98898125e+00
 0.00000000e+00  4.02125072e+00  2.98795366e+00
 2.00346541e+00  4.02043915e+00  2.99362016e+00
 1.00149465e+00  5.02323437e+00  2.98857737e+00
 0.00000000e+00  5.02226400e+00  2.98920488e+00
 2.00376940e+00  5.02377129e+00  2.98872972e+00
 3.00297451e+00  4.02138662e+00  3.00110531e+00
 3.00827360e+00  5.02135944e+00  2.98929191e+00
 1.00106740e+00  6.02469492e+00  2.98779058e+00
 0.00000000e+00  6.02486753e+00  2.98595190e+00
</DataArray>
</Points>
<PointData Tensors="Stress_Components,Plastic_strain_components" Vevtors="Spatial_displacement,Reaction_force" Scalars="Equivalent_plastic_strain,Stress_Mises,Stress_Max_Principal,Stress_Mid_Principal,Stress_Min_Principal,Stress_Pressure,Stress_Tresca,Stress_Third_Invariant,Plastic_strain_Max_Principal,Plastic_strain_Min_Principal">
<DataArray type="Float32" Name="Stress_Components" NumberOfComponents="9" format="ascii">
-4.25385141e+00 -8.91536474e-04 1.36685092e-04 -8.91536474e-04 4.92611742e+00 -1.74676999e-03 1.36685092e-04 -1.74676999e-03 -2.77601070e+01
-4.89897418e+00 4.18013886e-01 -1.22889597e-03 4.18013886e-01 4.17733526e+00 1.66520461e-01 -1.22889597e-03 1.66520461e-01 -2.93401527e+01
-3.54819411e+00 1.41426471e+00 -7.97561973e-01 1.41426471e+00 3.26638719e+00 -2.43719678e-01 -7.97561973e-01 -2.43719678e-01 -2.92709451e+01
-2.50099218e+00 5.26260436e-01 -4.16050598e-01 5.26260436e-01 4.34318912e+00 4.40155622e-04 -4.16050598e-01 4.40155622e-04 -2.70969152e+01
-3.72225595e+00 7.62102776e-04 8.48978937e-01 7.62102776e-04 4.70768833e+00 -4.27158698e-01 8.48978937e-01 -4.27158698e-01 -2.76093884e+01
-3.84308667e+00 3.02044428e-02 4.57319371e-01 3.02044428e-02 4.00675899e+00 -6.20711900e-01 4.57319371e-01 -6.20711900e-01 -2.87083898e+01
-2.78056453e+00 5.90892090e-01 1.88585829e-01 5.90892090e-01 3.78277675e+00 -9.75127608e-01 1.88585829e-01 -9.75127608e-01 -2.80195262e+01
-2.85709086e+00 1.25541285e-01 3.96313231e-01 1.25541285e-01 4.21941179e+00 -8.45810220e-01 3.96313231e-01 -8.45810220e-01 -2.75429111e+01
-7.61947036e+00 2.29418211e-01 -7.46749435e-03 2.29418211e-01 1.76256792e+00 2.06149193e-02 -7.46749435e-03 2.06149193e-02 -3.50140734e+01
-4.64177154e+00 1.94923639e+00 -1.29461554e+00 1.94923639e+00 2.12320956e+00 7.61024561e-02 -1.29461554e+00 7.61024561e-02 -3.15911908e+01
-3.50641211e+00 2.61615109e-01 9.25976053e-01 2.61615109e-01 3.09861855e+00 -7.84196381e-01 9.25976053e-01 -7.84196381e-01 -2.96730967e+01
-4.49939358e+00 9.21105459e-01 7.35096447e-03 9.21105459e-01 1.55416385e+00 -1.22469403e+00 7.35096447e-03 -1.22469403e+00 -3.24786465e+01
-9.73975134e+00 2.41582394e-01 -1.58120058e-02 2.41582394e-01 -3.68812531e-01 6.65892422e-01 -1.58120058e-02 6.65892422e-01 -3.97015858e+01
-5.79689622e+00 1.24128193e+00 -1.90230563e+00 1.24128193e+00 9.20532325e-01 5.64194238e-02 -1.90230563e+00 5.64194238e-02 -3.43810210e+01
-4.27456081e+00 -3.77227187e-01 9.83926833e-01 -3.77227187e-01 1.09991581e+00 -4.63719215e-01 9.83926833e-01 -4.63719215e-01 -3.30944896e+01
-5.00650659e+00 -1.02991143e-01 6.29449598e-01 -1.02991143e-01 3.52664206e-01 -6.05816328e-01 6.29449598e-01 -6.05816328e-01 -3.43109229e+01
-8.01993012e+00 -9.37763482e-01 -5.97819872e-03 -9.37763482e-01 -5.77788234e-01 5.61760440e-01 -5.97819872e-03 5.61760440e-01 -3.85079908e+01
-8.25202072e+00 -5.65468274e-01 -2.58472610e+00 -5.65468274e-01 -1.54877481e+00 6.90498434e-01 -2.58472610e+00 6.90498434e-01 -3.97618117e+01
-4.75503236e+00 -1.01003288e+00 5.85528634e-01 -1.01003288e+00 -9.43135858e-01 -3.22060607e-01 5.85528634e-01 -3.22060607e-01 -3.60459132e+01
-2.70933353e+00 -1.22618520e+00 6.55405253e-01 -1.22618520e+00 8.17091227e-01 5.93452640e-02 6.55405253e-01 5.93452640e-02 -3.14576519e+01
-7.42805782e+00 -1.51019061e+00 -9.57151316e-03 -1.51019061e+00 -1.36417961e+00 2.13210814e-01 -9.57151316e-03 2.13210814e-01 -3.90026751e+01
-7.28928936e+00 -1.94279411e+00 -2.78004822e+00 -1.94279411e+00 -1.83633482e+00 9.89634596e-01 -2.78004822e+00 9.89634596e-01 -3.88990307e+01
-2.77765083e+00 -1.05719537e+00 1.15639919e+00 -1.05719537e+00 4.08886909e-01 -6.44621491e-01 1.15639919e+00 -6.44621491e-01 -3.23807039e+01
-2.73347030e+00 -1.99318843e+00 1.62124893e+00 -1.99318843e+00 -5.08544885e-01 -5.67787569e-02 1.62124893e+00 -5.67787569e-02 -3.27749613e+01
-1.67573242e+01 -3.56472921e+00 -7.74670392e-03 -3.56472921e+00 -5.83412170e+00 -1.00745988e+00 -7.74670392e-03 -1.00745988e+00 -5.26746864e+01
-1.63164244e+01 -2.71634656e+00 -4.09225774e+00 -2.71634656e+00 -7.31246656e+00 2.53071165e+00 -4.09225774e+00 2.53071165e+00 -5.32613926e+01
-7.03450382e+00 -6.48710087e-01 3.43208760e-01 -6.48710087e-01 -1.02964520e-01 -1.38014179e+00 3.43208760e-01 -1.38014179e+00 -3.72621002e+01
-7.88544866e+00 -1.96546046e+00 5.18601239e-01 -1.96546046e+00 -3.25325329e+00 7.29292408e-02 5.18601239e-01 7.29292408e-02 -4.07731099e+01
1.21236616e+00 1.90045246e+00 -5.58030300e-01 1.90045246e+00 1.76105976e+00 -6.56682730e-01 -5.58030300e-01 -6.56682730e-01 -2.63394241e+01
7.40222573e-01 6.04851305e-01 -5.21359473e-01 6.04851305e-01 1.46151519e+00 -1.76508073e-03 -5.21359473e-01 -1.76508073e-03 -2.74393473e+01
-4.30798877e-01 1.32533477e+00 1.24022888e+00 1.32533477e+00 2.12061628e+00 -9.71180014e-01 1.24022888e+00 -9.71180014e-01 -2.76801248e+01
7.08093464e-01 5.48569925e-01 1.03917000e+00 5.48569925e-01 3.60377769e+00 -1.69306349e-01 1.03917000e+00 -1.69306349e-01 -2.51109786e+01
2.82503272e+00 2.59153944e+00 -1.21233739e+00 2.59153944e+00 3.03532207e+00 -9.38646898e-01 -1.21233739e+00 -9.38646898e-01 -2.28008847e+01
4.81410831e-01 1.55102721e+00 1.74861684e+00 1.55102721e+00 2.65826418e+00 -4.69924584e-02 1.74861684e+00 -4.69924584e-02 -2.59936897e+01
7.41515976e+00 1.74047342e+00 -1.94605236e+00 1.74047342e+00 7.42068383e+00 -6.00288197e-01 -1.94605236e+00 -6.00288197e-01 -1.34493544e+01
1.43426685e+00 1.84141889e-01 3.43395322e+00 1.84141889e-01 3.40067513e+00 7.50616814e-01 3.43395322e+00 7.50616814e-01 -2.42130980e+01
7.73235905e+00 -1.04794769e+00 -3.47387865e+00 -1.04794769e+00 8.01014096e+00 8.17849107e-01 -3.47387865e+00 8.17849107e-01 -1.19963893e+01
-3.46839805e-01 -2.56000393e+00 4.34160427e+00 -2.56000393e+00 2.80706442e+00 1.53898879e+00 4.34160427e+00 1.53898879e+00 -2.58893611e+01
1.09240305e+01 -1.55861433e+00 -3.52364638e+00 -1.55861433e+00 8.14557624e+00 2.10670346e+00 -3.52364638e+00 2.10670346e+00 -6.65502262e+00
-1.46690547e-01 -3.26350276e+00 4.94680142e+00 -3.26350276e+00 7.38901923e-01 4.13879819e+00 4.94680142e+00 4.13879819e+00 -2.61946848e+01
9.38507348e+00 -2.08653253e+00 -4.06623185e+00 -2.08653253e+00 4.12623787e+00 4.27252227e+00 -4.06623185e+00 4.27252227e+00 -1.26656489e+01
-7.73706214e+00 -6.00896072e+00 5.40461516e+00 -6.00896072e+00 -6.42941411e+00 6.51626404e+00 5.40461516e+00 6.51626404e+00 -4.01162416e+01
5.49067163e+00 1.07569376e+00 -5.07659987e-02 1.07569376e+00 -6.48143232e-01 -1.04925102e+00 -5.07659987e-02 -1.04925102e+00 -2.38127179e+01
3.83932745e+00 6.21063799e-01 2.92629138e-01 6.21063799e-01 -2.22998151e+00 -2.59402744e-03 2.92629138e-01 -2.59402744e-03 -2.75824976e+01
3.50814602e+00 8.11492020e-01 2.06195226e+00 8.11492020e-01 -3.17667246e-01 -2.15474786e-01 2.06195226e+00 -2.15474786e-01 -2.59310708e+01
4.39653420e+00 2.90560581e-01 1.89379206e+00 2.90560581e-01 1.20473044e+00 8.97879124e-01 1.89379206e+00 8.97879124e-01 -2.35170922e+01
7.99109387e+00 1.74266836e+00 -6.52581472e-02 1.74266836e+00 2.23334426e+00 -1.41160041e+00 -6.52581472e-02 -1.41160041e+00 -1.81339626e+01
7.91033670e+00 9.92591441e-01 3.03035218e+00 9.92591441e-01 3.69852099e+00 1.28667397e+00 3.03035218e+00 1.28667397e+00 -1.70023019e+01
1.35798759e+01 1.17085032e+00 -1.63195220e+00 1.17085032e+00 9.88086158e+00 -2.53820282e+00 -1.63195220e+00 -2.53820282e+00 -4.88286465e+00
1.39588241e+01 -1.33356423e+00 2.09231561e+00 -1.33356423e+00 9.18374449e+00 -2.56193717e-01 2.09231561e+00 -2.56193717e-01 4.65836684e-01
1.67253586e+01 -4.90508588e+00 -5.04102556e+00 -4.90508588e+00 1.30192216e+01 -1.49774887e+00 -5.04102556e+00 -1.49774887e+00 1.14104176e+01
4.03100403e+00 -6.29192432e+00 4.29071490e+00 -6.29192432e+00 8.45867380e+00 2.76951879e+00 4.29071490e+00 2.76951879e+00 7.61713982e-01
1.58412351e+01 4.14072673e+00 -6.92188569e+00 4.14072673e+00 6.46002513e+00 -1.51298279e+00 -6.92188569e+00 -1.51298279e+00 1.24320711e+01
1.08347972e-01 7.41197427e-01 5.13836193e+00 7.41197427e-01 5.83403881e+00 -1.77252456e+00 5.13836193e+00 -1.77252456e+00 -3.68373950e-01
9.90170407e+00 -5.80313480e+00 -7.99496770e-01 -5.80313480e+00 -5.87377453e+00 2.75549310e+00 -7.99496770e-01 2.75549310e+00 7.19009209e+00
-1.02037859e+00 -2.84436584e+00 5.22665453e+00 -2.84436584e+00 -1.08129578e+01 -2.56180391e-02 5.22665453e+00 -2.56180391e-02 -1.84195566e+00
6.03409338e+00 -2.73474358e-01 6.88444421e-01 -2.73474358e-01 -2.96375509e+00 -1.21754289e+00 6.88444421e-01 -1.21754289e+00 -2.51457453e+01
4.94124889e+00 -3.03727090e-01 5.18457443e-01 -3.03727090e-01 -3.77695465e+00 7.36443326e-05 5.18457443e-01 7.36443326e-05 -2.74207582e+01
5.72842792e+00 -7.85221186e-01 2.05612598e+00 -7.85221186e-01 -1.53267655e+00 2.90669577e-01 2.05612598e+00 2.90669577e-01 -2.41558695e+01
4.99994731e+00 -2.20367827e-01 1.04105028e+00 -2.20367827e-01 -2.14287031e+00 1.04504421e+00 1.04105028e+00 1.04504421e+00 -2.57737665e+01
8.05122244e+00 -3.39551732e-01 -7.26320580e-01 -3.39551732e-01 4.09525335e-02 -2.29250446e+00 -7.26320580e-01 -2.29250446e+00 -1.98606911e+01
8.03652877e+00 -1.71075278e+00 2.02879533e+00 -1.71075278e+00 6.55122466e-01 1.28810749e+00 2.02879533e+00 1.28810749e+00 -1.87388424e+01
1.01670396e+01 -2.05600646e+00 -2.05828205e+00 -2.05600646e+00 7.69235550e+00 -5.73263001e+00 -2.05828205e+00 -5.73263001e+00 -6.93416917e+00
1.13491186e+01 -9.00739938e-01 -1.30221666e+00 -9.00739938e-01 5.13924269e+00 1.46425335e+00 -1.30221666e+00 1.46425335e+00 -1.04013485e+01
1.04252569e+01 -7.27733215e-01 -1.20465154e+00 -7.27733215e-01 7.01806613e+00 -2.45594831e+00 -1.20465154e+00 -2.45594831e+00 5.65070875e+00
1.62875220e+01 4.84069664e+00 -4.64482228e-01 4.84069664e+00 6.02742449e+00 4.52892576e+00 -4.64482228e-01 4.52892576e+00 -1.46809055e+00
5.93606949e+00 -2.16956377e-01 1.87756884e+00 -2.16956377e-01 -1.44772549e+01 5.21074429e-01 1.87756884e+00 5.21074429e-01 2.70827365e+00
5.46914033e+00 -5.24593798e+00 2.39453332e+00 -5.24593798e+00 2.21986914e+00 3.77549122e-01 2.39453332e+00 3.77549122e-01 1.13323998e+00
9.45094061e+00 -2.00137782e+00 1.85049772e-01 -2.00137782e+00 -1.63288298e+01 -5.70990209e-01 1.85049772e-01 -5.70990209e-01 5.20938206e+00
5.16426039e+00 -1.74416025e+00 -2.00470389e+00 -1.74416025e+00 4.48743674e+00 8.90108744e-02 -2.00470389e+00 8.90108744e-02 -9.28813577e-01
3.56189066e+00 -1.16413902e+00 5.70188515e-01 -1.16413902e+00 -2.07704664e+00 -1.11163010e+00 5.70188515e-01 -1.11163010e+00 -2.77204032e+01
3.16840720e+00 -8.74028325e-01 1.41121030e-01 -8.74028325e-01 -3.24666178e+00 3.01951496e-03 1.41121030e-01 3.01951496e-03 -2.93964891e+01
3.65879317e+00 -1.47705904e+00 2.47509286e-01 -1.47705904e+00 -1.15266971e+00 1.30827194e+00 2.47509286e-01 1.30827194e+00 -2.65001023e+01
3.11111844e+00 -6.05315134e-01 -4.36088063e-01 -6.05315134e-01 -2.28769988e+00 2.13547254e+00 -4.36088063e-01 2.13547254e+00 -2.82198591e+01
3.52661908e+00 -8.44613642e-01 6.62068829e-01 -8.44613642e-01 9.70253199e-02 -3.54131627e+00 6.62068829e-01 -3.54131627e+00 -2.44420972e+01
3.32671288e+00 -2.53310630e+00 6.04954112e-01 -2.53310630e+00 1.42282216e+00 2.43416999e+00 6.04954112e-01 2.43416999e+00 -2.40153260e+01
5.91277853e+00 -1.33639729e+00 -8.61879021e-01 -1.33639729e+00 7.01256180e+00 -4.76239663e+00 -8.61879021e-01 -4.76239663e+00 -1.65407081e+01
3.25876607e+00 7.75841673e-02 -1.23855603e+00 7.75841673e-02 2.91919798e+00 6.98711623e+00 -1.23855603e+00 6.98711623e+00 -2.05864646e+01
-1.65834165e+00 1.34437847e+00 -9.33307745e-02 1.34437847e+00 1.82668763e+00 -2.89916211e+00 -9.33307745e-02 -2.89916211e+00 2.57357161e+00
4.42118278e+00 2.03159493e+00 7.60476857e-01 2.03159493e+00 -4.44514930e-01 1.83159357e+00 7.60476857e-01 1.83159357e+00 -8.81095277e-01
-2.50573671e+00 1.55554152e+00 3.54297601e-01 1.55554152e+00 3.59931131e+00 7.72042796e-01 3.54297601e-01 7.72042796e-01 1.10179782e-02
2.63551521e-01 1.30890259e+00 -2.74550533e-01 1.30890259e+00 7.08886719e-01 -1.53088271e-01 -2.74550533e-01 -1.53088271e-01 -2.78353888e-01
1.59408394e+00 1.27234393e+00 -9.89552826e-01 1.27234393e+00 -6.29664934e+00 6.09460562e-01 -9.89552826e-01 6.09460562e-01 -2.09098637e-01
2.00381640e+00 5.10407289e-01 -9.40321108e-01 5.10407289e-01 -6.69695671e+00 4.39077069e-02 -9.40321108e-01 4.39077069e-02 1.10460236e+00
1.12594533e+00 -1.50496255e+00 -3.91656840e-02 -1.50496255e+00 -2.85355270e+00 -1.78539991e+00 -3.91656840e-02 -1.78539991e+00 -3.12155304e+01
1.67149520e+00 -9.71691906e-01 2.94214815e-01 -9.71691906e-01 -4.99886751e+00 2.50422023e-03 2.94214815e-01 2.50422023e-03 -3.29279251e+01
7.34255403e-01 -1.45971113e+00 1.36567622e-01 -1.45971113e+00 -2.47006420e+00 -8.67999867e-02 1.36567622e-01 -8.67999867e-02 -3.15567269e+01
1.77473909e+00 -1.53419429e+00 -1.57251453e+00 -1.53419429e+00 -2.30157065e+00 2.30798650e+00 -1.57251453e+00 2.30798650e+00 -2.99944029e+01
-2.75821686e+00 -2.72821200e+00 2.79691792e+00 -2.72821200e+00 2.70465672e-01 -4.32074475e+00 2.79691792e+00 -4.32074475e+00 -3.05619612e+01
-2.83975974e+00 -2.90734547e+00 2.88345641e+00 -2.90734547e+00 -1.76341400e-01 2.08684841e+00 2.88345641e+00 2.08684841e+00 -3.25375862e+01
-7.78345692e+00 -3.56753087e+00 6.32717681e+00 -3.56753087e+00 9.84820914e+00 -2.31686980e+00 6.32717681e+00 -2.31686980e+00 -1.94333706e+01
-7.18325933e+00 -3.90989914e+00 3.34846316e+00 -3.90989914e+00 2.52092044e-01 9.63918988e+00 3.34846316e+00 9.63918988e+00 -2.72006804e+01
-1.88063660e+01 -3.52652073e-02 9.31486487e-03 -3.52652073e-02 4.66931748e+00 -2.86097193e+00 9.31486487e-03 -2.86097193e+00 3.45999146e+00
-1.54013748e+01 -4.06458187e+00 2.50163760e-01 -4.06458187e+00 3.96731448e+00 5.29217601e+00 2.50163760e-01 5.29217601e+00 9.43968058e-01
-9.05682182e+00 2.00535178e+00 1.79364651e-01 2.00535178e+00 1.60205802e+00 -2.95893326e-01 1.79364651e-01 -2.95893326e-01 1.62360189e+00
-5.38377325e+00 9.55921412e-01 6.26673281e-01 9.55921412e-01 5.67274352e-01 -8.00615291e-01 6.26673281e-01 -8.00615291e-01 6.14915421e-01
-2.94902825e+00 1.47861481e+00 -5.60929298e-01 1.47861481e+00 -3.48837590e+00 2.88535565e-01 -5.60929298e-01 2.88535565e-01 1.50488198e+00
-1.58315015e+00 4.17655528e-01 7.79977083e-01 4.17655528e-01 -2.43745953e+00 3.60452235e-01 7.79977083e-01 3.60452235e-01 1.08315793e+00
-2.02381289e+00 -6.29658636e-04 5.71940988e-01 -6.29658636e-04 3.26996040e+00 -1.25099283e+00 5.71940988e-01 -1.25099283e+00 -2.81238537e+01
-1.44579887e+00 -3.09464626e-01 1.40015894e+00 -3.09464626e-01 2.34671716e+00 -4.21192583e-01 1.40015894e+00 -4.21192583e-01 -2.87227483e+01
-1.47163025e+00 -1.38171142e+00 1.00589905e+00 -1.38171142e+00 3.49631612e+00 -7.21089313e-01 1.00589905e+00 -7.21089313e-01 -2.70544295e+01
-2.46955881e+00 -2.55726084e-01 1.18275574e+00 -2.55726084e-01 3.59169242e+00 -4.47080791e-01 1.18275574e+00 -4.47080791e-01 -2.79323611e+01
1.29011270e+00 -1.18441850e+00 -3.11588775e-03 -1.18441850e+00 1.68639585e+00 -3.38978991e-02 -3.11588775e-03 -3.38978991e-02 -2.69182086e+01
-3.74677539e-01 -1.78228746e+00 3.63650262e-01 -1.78228746e+00 1.43750595e+00 -1.66093822e+00 3.63650262e-01 -1.66093822e+00 -2.79443099e+01
2.75648380e+00 9.80623625e-02 1.48439128e-01 9.80623625e-02 3.44123513e-01 -1.21659055e+00 1.48439128e-01 -1.21659055e+00 -2.66670175e+01
-5.41127309e-01 -7.15471543e-01 3.62950489e-01 -7.15471543e-01 -4.42720320e-01 4.48661704e-01 3.62950489e-01 4.48661704e-01 -3.04517665e+01
1.64047551e+00 -5.95277563e-01 3.02399337e+00 -5.95277563e-01 -1.86855361e+00 -1.21441658e+00 3.02399337e+00 -1.21441658e+00 -2.96931047e+01
-6.48650981e-01 -4.70637795e-01 6.71345131e-01 -4.70637795e-01 -5.73260486e-02 1.00907530e+00 6.71345131e-01 1.00907530e+00 -3.06502510e+01
2.10053146e+00 -4.01894093e-01 3.08418477e+00 -4.01894093e-01 7.34654672e-01 -9.03528325e-01 3.08418477e+00 -9.03528325e-01 -2.63055634e+01
8.45306776e-01 -1.72973800e-01 1.80433919e+00 -1.72973800e-01 7.34866530e-01 -5.24467453e-02 1.80433919e+00 -5.24467453e-02 -2.80650240e+01
3.44932485e+00 1.45374507e+00 2.74234772e+00 1.45374507e+00 3.18844211e+00 -1.33143449e+00 2.74234772e+00 -1.33143449e+00 -2.23587799e+01
3.86479843e+00 8.70186374e-01 2.41058394e-01 8.70186374e-01 3.21840584e+00 -1.08508963e+00 2.41058394e-01 -1.08508963e+00 -2.21698406e+01
-1.31156553e+00 -1.26814847e+00 1.49645597e+00 -1.26814847e+00 4.06229734e+00 -1.57638438e+00 1.49645597e+00 -1.57638438e+00 -2.61979685e+01
-1.95511799e+00 -6.25440910e-01 3.25678396e+00 -6.25440910e-01 4.89648443e+00 -1.63116434e+00 3.25678396e+00 -1.63116434e+00 -2.50081649e+01
-7.66600265e+00 -9.16505613e-01 3.94784258e+00 -9.16505613e-01 -4.03715663e+00 -1.85001067e-01 3.94784258e+00 -1.85001067e-01 -4.20555608e+01
-1.47464354e+01 -1.95159976e+00 7.17113128e+00 -1.95159976e+00 -1.21934162e+01 3.53029013e-01 7.17113128e+00 3.53029013e-01 -5.64405342e+01
-9.95729327e+00 -1.52440935e-01 1.54476994e+00 -1.52440935e-01 -6.63093078e+00 2.21610989e+00 1.54476994e+00 2.21610989e+00 -4.75359535e+01
-1.24586053e+01 4.57508862e-03 2.81756067e+00 4.57508862e-03 -1.01172353e+01 4.28057449e+00 2.81756067e+00 4.28057449e+00 -5.32589521e+01
-1.21510522e+01 4.93029535e-01 -4.38971102e-01 4.93029535e-01 -9.93123913e+00 3.33463877e+00 -4.38971102e-01 3.33463877e+00 -5.30141029e+01
1.67098499e+00 2.69212129e-01 4.55666816e+00 2.69212129e-01 5.30240913e+00 -2.82487184e-01 4.55666816e+00 -2.82487184e-01 -2.03529305e+01
2.50779103e-01 2.90554571e-02 2.77321440e+00 2.90554571e-02 4.91713790e+00 -1.78732476e+00 2.77321440e+00 -1.78732476e+00 -2.33885002e+01
-6.86413310e+00 -8.51745807e-01 6.17086758e+00 -8.51745807e-01 -1.91315161e+00 6.85536166e+00 6.17086758e+00 6.85536166e+00 -3.48786462e+01
-1.64912467e+01 -2.27067900e+00 3.70823669e+00 -2.27067900e+00 -5.34060657e+00 1.06808226e+01 3.70823669e+00 1.06808226e+01 -3.40099096e+00
3.96063907e+00 -4.26567578e-01 3.66970360e+00 -4.26567578e-01 2.15697118e+00 1.69614981e+00 3.66970360e+00 1.69614981e+00 -2.08450587e+01
3.41595399e+00 4.09269392e-01 2.78697875e+00 4.09269392e-01 2.76065536e+00 2.05539683e+00 2.78697875e+00 2.05539683e+00 -2.26928954e+01
7.15879497e+00 -4.14592729e+00 3.99402999e+00 -4.14592729e+00 6.24408053e+00 3.86013763e+00 3.99402999e+00 3.86013763e+00 -1.29496577e+01
8.06651338e+00 5.48764338e-01 -9.68570310e+00 5.48764338e-01 9.16237537e+00 5.24825247e+00 -9.68570310e+00 5.24825247e+00 -1.98342673e+00
1.77325366e+00 -2.48659976e+00 6.38592644e-01 -2.48659976e+00 9.35557429e-01 2.24731638e+00 6.38592644e-01 2.24731638e+00 -2.55663710e+01
5.06013781e+00 -1.08740298e+00 1.02979416e+00 -1.08740298e+00 2.31349277e+00 2.42328990e+00 1.02979416e+00 2.42328990e+00 -2.19790478e+01
6.75216414e-01 -2.46900337e+00 4.93911469e-01 -2.46900337e+00 2.12752726e-01 2.52265432e+00 4.93911469e-01 2.52265432e+00 -2.68495880e+01
1.51695149e+00 4.59277980e-01 -3.52528203e+00 4.59277980e-01 4.77104276e-01 3.38248426e+00 -3.52528203e+00 3.38248426e+00 -2.79982819e+01
-9.36073452e-01 9.13503403e-02 -1.26736195e+00 9.13503403e-02 2.59571761e+00 -6.47333622e-01 -1.26736195e+00 -6.47333622e-01 -2.80574703e+01
9.90797281e-01 2.08446127e+00 1.36950040e+00 2.08446127e+00 1.47129357e+00 -1.37658536e+00 1.36950040e+00 -1.37658536e+00 -2.72588758e+01
-2.07550335e+00 -1.06511548e-01 1.27066611e+00 -1.06511548e-01 9.57263649e-01 -8.35664310e-02 1.27066611e+00 -8.35664310e-02 -3.18272336e+01
-1.49390607e+01 4.08305176e-01 1.64331263e+00 4.08305176e-01 -1.35647049e+01 5.60073733e+00 1.64331263e+00 5.60073733e+00 -6.13146400e+01
1.03376910e-01 -6.69635206e-01 7.20434934e-02 -6.69635206e-01 -9.07533467e-02 -1.07124899e-01 7.20434934e-02 -1.07124899e-01 -3.63688655e-01
-2.47551411e-01 -4.86796528e-01 -3.06947708e-01 -4.86796528e-01 2.42485322e-01 -1.24464273e-01 -3.06947708e-01 -1.24464273e-01 -3.46012163e-01
1.92047929e-01 -1.44702055e-01 3.51920284e-01 -1.44702055e-01 3.16236824e-01 2.05753714e-01 3.51920284e-01 2.05753714e-01 -8.59349251e-01
1.62116542e-01 -3.27600747e-01 -2.36336991e-01 -3.27600747e-01 -3.97752330e-01 -2.48678565e-01 -2.36336991e-01 -2.48678565e-01 -1.15453884e-01
4.14886862e-01 -5.92861325e-05 2.00429440e+00 -5.92861325e-05 8.16155605e-01 -4.94261011e-01 2.00429440e+00 -4.94261011e-01 -2.85049067e+01
7.40349397e-01 7.61514320e-03 1.59516448e+00 7.61514320e-03 2.20774218e-01 1.66705512e-01 1.59516448e+00 1.66705512e-01 -2.88060694e+01
3.71137102e-01 -1.63397802e+00 2.15750254e+00 -1.63397802e+00 4.10739598e-01 6.11845084e-01 2.15750254e+00 6.11845084e-01 -2.86482875e+01
-6.00145832e-01 9.03031789e-02 2.03370936e+00 9.03031789e-02 8.72598529e-01 -9.83193040e-01 2.03370936e+00 -9.83193040e-01 -2.94693050e+01
2.49804698e+00 -1.56144160e+00 2.52522725e+00 -1.56144160e+00 -1.18013880e+00 1.92216229e-01 2.52522725e+00 1.92216229e-01 -2.79812684e+01
1.55467059e+00 -2.49595670e+00 1.59303662e+00 -2.49595670e+00 -8.81755089e-01 7.35453442e-01 1.59303662e+00 7.35453442e-01 -2.84990027e+01
4.33723581e+00 1.00884063e-01 9.45965216e-01 1.00884063e-01 -2.36798334e+00 1.21304417e+00 9.45965216e-01 1.21304417e+00 -2.70560455e+01
1.86274017e+00 -1.12903599e+00 -6.05671525e-01 -1.12903599e+00 -1.60553319e+00 -8.62175196e-01 -6.05671525e-01 -8.62175196e-01 -2.90248940e+01
5.50820175e+00 1.17460253e-01 -1.09764077e+00 1.17460253e-01 -1.28286071e+00 -3.43046889e-01 -1.09764077e+00 -3.43046889e-01 -2.47029831e+01
-8.55805930e-01 5.68481207e-01 -8.69616710e-01 5.68481207e-01 -2.75524524e+00 -1.01654701e-01 -8.69616710e-01 -1.01654701e-01 -3.33880713e+01
5.71925926e+00 6.00576729e-01 8.76276299e-01 6.00576729e-01 1.68867600e+00 -1.09785461e+00 8.76276299e-01 -1.09785461e+00 -2.16783495e+01
1.30860717e+00 7.05279000e-01 -1.22181280e-03 7.05279000e-01 -6.14517599e-01 1.84525806e-01 -1.22181280e-03 1.84525806e-01 -2.91294577e+01
7.52870917e+00 1.11486441e+00 1.18776500e+00 1.11486441e+00 2.79225588e+00 -1.39296678e+00 1.18776500e+00 -1.39296678e+00 -1.82009816e+01
5.09565582e+00 6.18530639e-01 3.30958236e-02 6.18530639e-01 2.45863849e+00 -9.91964266e-01 3.30958236e-02 -9.91964266e-01 -2.16264911e+01
-1.43390437e+00 -2.83464110e+00 4.71986994e+00 -2.83464110e+00 1.62554660e+00 -5.44651598e-01 4.71986994e+00 -5.44651598e-01 -2.67020197e+01
-1.18483549e+00 -1.87906063e+00 3.26261622e+00 -1.87906063e+00 4.21100378e+00 -5.32186605e-01 3.26261622e+00 -5.32186605e-01 -2.55489750e+01
-1.84179579e-01 -5.80646157e-01 2.34054383e+00 -5.80646157e-01 -1.09509722e+00 -1.16097196e+00 2.34054383e+00 -1.16097196e+00 -3.25004033e+01
-1.66120405e+01 -1.39381593e+00 -8.10461817e+00 -1.39381593e+00 -1.74029877e+01 1.07553148e-01 -8.10461817e+00 1.07553148e-01 -6.27935394e+01
-1.30087490e+01 2.08654851e-01 -2.18494055e+00 2.08654851e-01 -1.11546384e+01 1.80254764e+00 -2.18494055e+00 1.80254764e+00 -5.59962301e+01
-6.23907864e+00 -3.78295265e-01 -7.35078543e-01 -3.78295265e-01 -5.96601331e+00 9.75837454e-01 -7.35078543e-01 9.75837454e-01 -4.30891981e+01
-8.18660259e-01 1.88491412e-01 -5.84995806e-01 1.88491412e-01 -1.19057816e+00 2.07245737e-01 -5.84995806e-01 2.07245737e-01 -3.20418558e+01
-5.60575804e+00 -1.55232816e+00 6.11324181e+00 -1.55232816e+00 -8.90631169e-01 9.89131757e-02 6.11324181e+00 9.89131757e-02 -3.22277331e+01
1.76582569e+00 4.36666429e-01 4.33270198e+00 4.36666429e-01 8.81229892e+00 2.13028991e+00 4.33270198e+00 2.13028991e+00 -1.62716908e+01
-2.64983945e+01 -4.26859605e+00 1.02241932e+01 -4.26859605e+00 -2.38124762e+01 -9.65115720e+00 1.02241932e+01 -9.65115720e+00 -7.59228039e+01
6.06136650e-01 -8.34265632e-01 3.04820275e+00 -8.34265632e-01 5.22301778e+00 3.80835697e+00 3.04820275e+00 3.80835697e+00 -2.13460872e+01
1.57836586e+00 -1.54668942e+00 5.90762025e+00 -1.54668942e+00 6.01203448e+00 8.38998728e-01 5.90762025e+00 8.38998728e-01 -1.76356630e+01
-1.35744256e+01 -2.06765279e-01 1.09737968e+00 -2.06765279e-01 -6.50879943e+00 1.11726469e+01 1.09737968e+00 1.11726469e+01 -3.65268564e+01
8.37018396e+00 1.25081266e+00 3.03222737e+00 1.25081266e+00 9.98874006e+00 -1.24729684e-01 3.03222737e+00 -1.24729684e-01 -1.03097115e+01
3.96988153e+00 1.96647292e+00 3.38335633e-02 1.96647292e+00 6.14674574e+00 -1.20904139e+00 3.38335633e-02 -1.20904139e+00 -1.76478300e+01
6.16190422e+00 -1.01289247e+00 -1.13347634e+00 -1.01289247e+00 8.58512998e+00 2.13479475e+00 -1.13347634e+00 2.13479475e+00 -1.52666356e+01
-1.94384689e+01 1.08713703e+01 -1.86531620e+01 1.08713703e+01 -1.86970367e+01 1.10464811e+01 -1.86531620e+01 1.10464811e+01 -5.88861370e+00
-2.20491527e+01 3.51908159e+00 -1.43741217e+01 3.51908159e+00 -2.05887875e+01 3.60284197e+00 -1.43741217e+01 3.60284197e+00 -7.03679174e+01
-2.29558235e+00 2.58194704e+00 4.29490483e+00 2.58194704e+00 -2.18188405e-01 2.57561296e+00 4.29490483e+00 2.57561296e+00 -2.92511353e+01
-3.39622056e+00 -3.15362208e-01 1.98173213e+00 -3.15362208e-01 2.50669574e+00 3.27258396e+00 1.98173213e+00 3.27258396e+00 -2.93649187e+01
</DataArray>
<DataArray type="Float32" Name="Logarithmic_strain_components" NumberOfComponents="9" format="ascii">
2.81954091e-03 -3.28896022e-07 2.60742127e-07 -3.28896022e-07 8.28118343e-03 -3.59133992e-07 2.60742127e-07 -3.59133992e-07 -9.63856932e-03
3.17796471e-03 5.05244534e-04 -2.62191406e-07 5.05244534e-04 8.74642376e-03 2.21503105e-04 -2.62191406e-07 2.21503105e-04 -1.03714764e-02
3.50195653e-03 1.60824359e-03 -9.38708967e-04 1.60824359e-03 7.43580202e-03 -2.66512667e-04 -9.38708967e-04 -2.66512667e-04 -9.55666462e-03
3.18939611e-03 5.79977408e-04 -4.75901819e-04 5.79977408e-04 6.99299295e-03 2.79015694e-07 -4.75901819e-04 2.79015694e-07 -8.87468271e-03
2.97773234e-03 4.17361832e-07 9.01829073e-04 4.17361832e-07 7.74234557e-03 -6.17387588e-04 9.01829073e-04 -6.17387588e-04 -9.32715647e-03
3.37009062e-03 1.68791657e-05 6.67342363e-04 1.68791657e-05 7.91643548e-03 -8.97158108e-04 6.67342363e-04 -8.97158108e-04 -9.83358733e-03
3.41646225e-03 5.78051118e-04 2.99412844e-04 5.78051118e-04 7.05520902e-03 -1.02116130e-03 2.99412844e-04 -1.02116130e-03 -9.14201606e-03
3.05472070e-03 1.16558174e-04 4.33083573e-04 1.16558174e-04 6.93128502e-03 -8.51428020e-04 4.33083573e-04 -8.51428020e-04 -8.71881261e-03
4.06497030e-03 3.56308068e-04 4.84252723e-07 3.56308068e-04 1.02150994e-02 1.68116560e-04 4.84252723e-07 1.68116560e-04 -1.24915265e-02
4.02834982e-03 2.21758831e-03 -1.74371127e-03 2.21758831e-03 8.27255356e-03 5.71910641e-05 -1.74371127e-03 5.71910641e-05 -1.07522369e-02
4.23094298e-03 2.43665265e-04 1.54688244e-03 2.43665265e-04 8.33354518e-03 -1.11131163e-03 1.54688244e-03 -1.11131163e-03 -1.09396507e-02
4.35065152e-03 9.42467341e-04 2.55881896e-04 9.42467341e-04 7.84618437e-03 -1.32787665e-03 2.55881896e-04 -1.32787665e-03 -1.07065731e-02
5.11303451e-03 5.57897583e-05 7.09710548e-08 5.57897583e-05 1.17566432e-02 8.33554077e-04 7.09710548e-08 8.33554077e-04 -1.47889960e-02
4.81121987e-03 1.37565337e-03 -2.60435324e-03 1.37565337e-03 9.36369493e-03 3.80704638e-04 -2.60435324e-03 3.80704638e-04 -1.24024523e-02
5.53706835e-03 -3.95342526e-04 1.81855983e-03 -3.95342526e-04 9.14316950e-03 -4.62364093e-04 1.81855983e-03 -4.62364093e-04 -1.28191647e-02
5.28030167e-03 -1.51798512e-04 9.18136553e-04 -1.51798512e-04 8.57137039e-03 -8.24560026e-04 9.18136553e-04 -8.24560026e-04 -1.21339619e-02
6.64368318e-03 -1.35996117e-03 1.01253318e-06 -1.35996117e-03 1.25213740e-02 1.03549118e-03 1.01253318e-06 1.03549118e-03 -1.67107033e-02
6.15924096e-03 -5.16093030e-04 -3.47332994e-03 -5.16093030e-04 1.07226088e-02 1.07847163e-03 -3.47332994e-03 1.07847163e-03 -1.48242640e-02
7.21494434e-03 -1.31729970e-03 8.14422965e-04 -1.31729970e-03 9.87604749e-03 -5.42432863e-04 8.14422965e-04 -5.42432863e-04 -1.49359088e-02
6.30850735e-03 -1.51609755e-03 7.36219838e-04 -1.51609755e-03 8.73188797e-03 -2.46749565e-04 7.36219838e-04 -2.46749565e-04 -1.30603251e-02
8.78052833e-03 -3.01167974e-03 1.22811787e-06 -3.01167974e-03 1.40281846e-02 3.06979826e-04 1.22811787e-06 3.06979826e-04 -1.98244359e-02
7.48500950e-03 -1.49558045e-03 -4.36395919e-03 -1.49558045e-03 1.18048748e-02 1.50766302e-03 -4.36395919e-03 1.50766302e-03 -1.68319186e-02
8.20140971e-03 -1.81080174e-03 1.69380708e-03 -1.81080174e-03 1.07998031e-02 -1.59968619e-03 1.69380708e-03 -1.59968619e-03 -1.64579209e-02
7.76061276e-03 -2.42418467e-03 2.00034791e-03 -2.42418467e-03 9.44818894e-03 -4.68961281e-04 2.00034791e-03 -4.68961281e-04 -1.49080527e-02
8.36302154e-03 -6.49880990e-03 -6.21253821e-06 -6.49880990e-03 1.79700051e-02 -2.39759497e-03 -6.21253821e-06 -2.39759497e-03 -2.31011230e-02
7.80437351e-03 -3.27441929e-03 -6.63797278e-03 -3.27441929e-03 1.45265204e-02 3.14445398e-03 -6.63797278e-03 3.14445398e-03 -1.96881797e-02
7.61699048e-03 -9.50157817e-04 4.37318959e-04 -9.50157817e-04 1.33020240e-02 -3.47088277e-03 4.37318959e-04 -3.47088277e-03 -1.81954093e-02
7.88905844e-03 -2.47264939e-03 1.90893188e-05 -2.47264939e-03 1.14589096e-02 -6.90362459e-04 1.90893188e-05 -6.90362459e-04 -1.68723613e-02
3.79924040e-03 1.52742701e-03 -5.39329660e-04 1.52742701e-03 4.34481626e-03 -5.69762502e-04 -5.39329660e-04 -5.69762502e-04 -7.16476655e-03
3.83145350e-03 5.53632912e-04 -3.88721615e-04 5.53632912e-04 4.39814175e-03 2.78511379e-07 -3.88721615e-04 2.78511379e-07 -7.26785650e-03
3.55054461e-03 1.11038287e-03 1.25563279e-03 1.11038287e-03 4.91538865e-03 -6.61980226e-04 1.25563279e-03 -6.61980226e-04 -7.46330165e-03
3.20411025e-03 4.02237965e-04 9.31458926e-04 4.02237965e-04 4.66241827e-03 3.24098437e-05 9.31458926e-04 3.24098437e-05 -6.90437912e-03
3.49013897e-03 2.11714936e-03 -8.58821455e-04 2.11714936e-03 4.09605360e-03 -7.13653848e-04 -8.58821455e-04 -7.13653848e-04 -6.60789013e-03
3.64382606e-03 1.27584919e-03 1.68719003e-03 1.27584919e-03 5.04081027e-03 1.63280703e-04 1.68719003e-03 1.63280703e-04 -7.60419649e-03
2.80950859e-03 1.60939916e-03 -1.51168316e-03 1.60939916e-03 3.62665436e-03 -4.80888855e-04 -1.51168316e-03 -4.80888855e-04 -5.43039187e-03
3.70007644e-03 -1.02586681e-04 3.71398768e-03 -1.02586681e-04 5.23626515e-03 8.17183896e-04 3.71398768e-03 8.17183896e-04 -7.74971003e-03
2.97715166e-03 -7.59748873e-04 -3.16315715e-03 -7.59748873e-04 4.24373650e-03 8.18288405e-04 -3.16315715e-03 8.18288405e-04 -6.03563536e-03
4.02955261e-03 -2.02457958e-03 4.96928576e-03 -2.02457958e-03 6.30550769e-03 1.86849057e-03 4.96928576e-03 1.86849057e-03 -8.92960660e-03
2.96944441e-03 -1.95144009e-03 -3.20210709e-03 -1.95144009e-03 3.85387610e-03 1.65063827e-03 -3.20210709e-03 1.65063827e-03 -5.55876235e-03
4.26964768e-03 -3.04831661e-03 6.44363894e-03 -3.04831661e-03 6.49204637e-03 4.37860942e-03 6.44363894e-03 4.37860942e-03 -9.21089489e-03
3.31249158e-03 -3.70058045e-03 -3.08876520e-03 -3.70058045e-03 3.66698636e-03 3.79779958e-03 -3.08876520e-03 3.79779958e-03 -5.77017432e-03
4.87902838e-03 -5.11409342e-03 6.65214945e-03 -5.11409342e-03 7.59516901e-03 6.65215892e-03 6.65214945e-03 6.65215892e-03 -1.08928525e-02
3.64472845e-03 5.59235083e-04 -1.64809921e-05 5.59235083e-04 1.90601149e-03 -6.32498224e-04 -1.64809921e-05 -6.32498224e-04 -4.92673926e-03
4.07073810e-03 3.35748104e-04 1.66518810e-04 3.35748104e-04 2.26122892e-03 -2.66857285e-07 1.66518810e-04 -2.66857285e-07 -5.67106740e-03
3.48217611e-03 4.31768343e-04 1.52514499e-03 4.31768343e-04 2.51115581e-03 -1.93755477e-05 1.52514499e-03 -1.93755477e-05 -5.34796849e-03
3.27808893e-03 1.51662065e-04 1.28048290e-03 1.51662065e-04 2.43315037e-03 7.63797550e-04 1.28048290e-03 7.63797550e-04 -5.05654898e-03
2.60502653e-03 6.33480502e-04 -8.16749089e-05 6.33480502e-04 1.26147913e-03 -6.56957025e-04 -8.16749089e-05 -6.56957025e-04 -3.38695192e-03
2.56474127e-03 3.93260794e-04 1.81498188e-03 3.93260794e-04 1.63180148e-03 4.40661669e-04 1.81498188e-03 4.40661669e-04 -3.62695474e-03
1.05238118e-03 1.70912463e-04 -4.44508376e-04 1.70912463e-04 5.44986931e-04 -7.88995952e-04 -4.44508376e-04 -7.88995952e-04 -1.19036653e-03
7.40119023e-04 -5.03788144e-04 1.68850238e-03 -5.03788144e-04 5.63319885e-04 -1.00416219e-04 1.68850238e-03 -1.00416219e-04 -8.20482145e-04
7.10442245e-04 -1.58847640e-03 -1.22145342e-03 -1.58847640e-03 -2.29616623e-04 -4.27930926e-04 -1.22145342e-03 -4.27930926e-04 8.05973056e-05
3.13998171e-04 -2.79092344e-03 3.15526345e-03 -2.79092344e-03 8.17901678e-04 6.55917774e-04 3.15526345e-03 6.55917774e-04 -5.64982043e-04
4.68165536e-04 -2.53235456e-04 -1.11236082e-03 -2.53235456e-04 -5.47305353e-04 -3.77233509e-04 -1.11236082e-03 -3.77233509e-04 4.79169049e-04
1.50213096e-04 -1.10630902e-03 3.05577534e-03 -1.10630902e-03 5.17583646e-04 -4.25237506e-04 3.05577534e-03 -4.25237506e-04 -2.57581632e-04
4.06747589e-04 -4.05623112e-04 -6.03055785e-04 -4.05623112e-04 -1.11081108e-03 2.34374624e-04 -6.03055785e-04 2.34374624e-04 9.08271817e-04
2.81003217e-04 -1.78406027e-03 2.43825000e-03 -1.78406027e-03 -2.29081517e-04 -4.30411264e-05 2.43825000e-03 -4.30411264e-05 1.66254205e-04
3.36858333e-03 -1.88469274e-04 3.41316569e-04 -1.88469274e-04 1.20669024e-03 -5.76677412e-04 3.41316569e-04 -5.76677412e-04 -4.13262751e-03
3.82784382e-03 -1.16159124e-04 2.77609128e-04 -1.16159124e-04 1.50729174e-03 -9.45585725e-08 2.77609128e-04 -9.45585725e-08 -4.82306629e-03
2.99034029e-03 -3.70680009e-04 9.25044009e-04 -3.70680009e-04 1.33350787e-03 2.05436969e-04 9.25044009e-04 2.05436969e-04 -3.90253926e-03
3.31155205e-03 -5.27749671e-05 6.61749924e-04 -5.27749671e-05 1.53320492e-03 6.11306226e-04 6.61749924e-04 6.11306226e-04 -4.37362574e-03
2.05982223e-03 -2.55173398e-04 -1.88962236e-04 -2.55173398e-04 6.74674782e-04 -7.69273349e-04 -1.88962236e-04 -7.69273349e-04 -2.47133989e-03
1.91718200e-03 -6.70330242e-04 6.54717986e-04 -6.70330242e-04 7.11108853e-04 4.37199196e-04 6.54717986e-04 4.37199196e-04 -2.35500575e-03
5.22887080e-04 -4.27365005e-04 -2.34625990e-04 -4.27365005e-04 2.26943361e-04 -7.14535359e-04 -2.34625990e-04 -7.14535359e-04 -5.36220326e-04
8.39411834e-04 -2.86822256e-04 -3.11930282e-04 -2.86822256e-04 2.79290302e-04 2.68835722e-04 -3.11930282e-04 2.68835722e-04 -9.12482530e-04
1.38998511e-04 -9.81637374e-05 2.11322034e-06 -9.81637374e-05 3.64679145e-05 -8.91335973e-05 2.11322034e-06 -8.91335973e-05 9.02066119e-05
3.06048450e-04 1.86649001e-04 -9.07250699e-05 1.86649001e-04 1.54342163e-04 3.07236631e-04 -9.07250699e-05 3.07236631e-04 -1.94730494e-04
5.41799447e-04 -7.08061241e-04 1.67991195e-04 -7.08061241e-04 -9.04314482e-04 5.12824281e-05 1.67991195e-04 5.12824281e-05 4.07454778e-04
7.57336223e-05 -5.47529897e-04 1.28936716e-04 -5.47529897e-04 6.40668459e-05 1.76391301e-05 1.28936716e-04 1.76391301e-05 -2.47578835e-05
4.72217012e-04 -7.71507883e-04 -1.40859880e-04 -7.71507883e-04 -7.30282947e-04 -5.21072761e-05 -1.40859880e-04 -5.21072761e-05 3.04409838e-04
1.31401976e-06 -3.34632743e-04 -1.86338670e-04 -3.34632743e-04 2.69954149e-04 -8.97436257e-06 -1.86338670e-04 -8.97436257e-06 -1.57532009e-04
3.00352997e-03 -4.36402594e-04 2.25895070e-04 -4.36402594e-04 1.67167294e-03 -5.29158366e-04 2.25895070e-04 -5.29158366e-04 -4.28058452e-03
3.71604192e-03 -4.22702215e-04 9.65459985e-05 -4.22702215e-04 2.02888972e-03 6.53385541e-08 9.65459985e-05 6.53385541e-08 -5.22019691e-03
2.66012354e-03 -5.81212522e-04 1.20060561e-04 -5.81212522e-04 1.61757364e-03 5.31503578e-04 1.20060561e-04 5.31503578e-04 -3.91846488e-03
3.08762735e-03 -2.93147794e-04 -2.25028645e-04 -2.93147794e-04 1.84433951e-03 1.05468315e-03 -2.25028645e-04 1.05468315e-03 -4.50791529e-03
1.57737192e-03 -4.26929895e-04 1.42367378e-04 -4.26929895e-04 8.90054514e-04 -9.10110262e-04 1.42367378e-04 -9.10110262e-04 -2.35268770e-03
1.55854213e-03 -7.09810076e-04 2.06758588e-04 -7.09810076e-04 1.21320312e-03 7.62366581e-04 2.06758588e-04 7.62366581e-04 -2.59645883e-03
2.51785134e-04 -2.77400766e-04 -5.46427827e-05 -2.77400766e-04 1.97186648e-04 -3.67107270e-04 -5.46427827e-05 -3.67107270e-04 -4.76168490e-04
8.41004820e-04 -2.61637896e-04 -2.25417012e-04 -2.61637896e-04 5.87587228e-04 1.28641407e-03 -2.25417012e-04 1.28641407e-03 -1.39819024e-03
-5.18137567e-05 7.47502127e-05 -4.00277037e-06 7.47502127e-05 3.15568923e-05 -1.31988447e-04 -4.00277037e-06 -1.31988447e-04 5.27677057e-05
8.45987297e-05 9.05572779e-05 3.90146840e-05 9.05572779e-05 -3.85601659e-05 7.85949560e-05 3.90146840e-05 7.85949560e-05 -1.30166750e-05
-6.45472928e-05 7.49228657e-05 1.67738140e-05 7.49228657e-05 8.16848709e-05 3.71627575e-05 1.67738140e-05 3.71627575e-05 -4.23008800e-06
3.32381933e-06 6.27783527e-05 -1.33776834e-05 6.27783527e-05 1.41401540e-05 -7.24852148e-06 -1.33776834e-05 -7.24852148e-06 -9.49678356e-06
5.80063661e-05 6.11652868e-05 -4.76005698e-05 6.11652868e-05 -1.31480116e-04 2.92226869e-05 -4.76005698e-05 2.92226869e-05 1.43490297e-05
6.22914195e-05 2.44908539e-05 -4.50513198e-05 2.44908539e-05 -1.46376837e-04 2.05857305e-06 -4.50513198e-05 2.05857305e-06 4.08586414e-05
3.12503078e-03 -6.22095387e-04 1.02405920e-05 -6.22095387e-04 2.09263654e-03 -9.11407667e-04 1.02405920e-05 -9.11407667e-04 -4.81504994e-03
4.20776894e-03 -6.01591950e-04 1.06210617e-04 -6.01591950e-04 2.34753545e-03 -7.04094418e-08 1.06210617e-04 -7.04094418e-08 -5.98413451e-03
2.87744723e-03 -7.29634325e-04 1.53284636e-05 -7.29634325e-04 2.15526257e-03 1.60744457e-05 1.53284636e-05 1.60744457e-05 -4.67108004e-03
3.09418608e-03 -6.96678180e-04 -8.85550951e-04 -6.96678180e-04 2.15329020e-03 1.24443707e-03 -8.85550951e-04 1.24443707e-03 -4.81316075e-03
1.29152855e-03 -9.50580506e-04 6.57654658e-04 -9.50580506e-04 1.41870999e-03 -1.05430192e-03 6.57654658e-04 -1.05430192e-03 -2.69146496e-03
1.70825051e-03 -8.88109324e-04 1.14376304e-03 -8.88109324e-04 2.02038328e-03 6.22734273e-04 1.14376304e-03 6.22734273e-04 -3.58514034e-03
-1.15709514e-04 -4.25799444e-04 4.28651838e-04 -4.25799444e-04 4.03773636e-04 -2.52800746e-04 4.28651838e-04 -2.52800746e-04 -4.74304732e-04
7.97983880e-04 -8.53584196e-04 9.68663216e-04 -8.53584196e-04 1.15702635e-03 2.01919178e-03 9.68663216e-04 2.01919178e-03 -2.02270502e-03
-4.02986494e-04 -4.22306766e-06 -6.48098921e-06 -4.22306766e-06 1.42908233e-04 -1.29827618e-04 -6.48098921e-06 -1.29827618e-04 1.29245374e-04
-3.23182059e-04 -2.11964041e-04 6.35278570e-06 -2.11964041e-04 1.01916052e-04 2.41972404e-04 6.35278570e-06 2.41972404e-04 9.06017449e-05
-1.94298431e-04 9.64330793e-05 8.64839330e-06 9.64330793e-05 6.19327793e-05 -1.43898892e-05 8.64839330e-06 -1.43898892e-05 6.18910517e-05
-1.11894851e-04 4.56720260e-05 2.98810415e-05 4.56720260e-05 3.02087760e-05 -3.84523373e-05 2.98810415e-05 -3.84523373e-05 3.17016738e-05
-5.07545010e-05 7.11871253e-05 -2.68846834e-05 7.11871253e-05 -6.38417405e-05 1.39954327e-05 -2.68846834e-05 1.39954327e-05 5.67409879e-05
-2.63560332e-05 2.03715781e-05 3.73430630e-05 2.03715781e-05 -4.67573136e-05 1.73501799e-05 3.73430630e-05 1.73501799e-05 3.79796020e-05
3.76213179e-03 6.71883470e-07 1.09412061e-03 6.71883470e-07 6.60444959e-03 -1.13047007e-03 1.09412061e-03 -1.13047007e-03 -9.07103950e-03
4.24593856e-03 -3.87343964e-04 1.53393138e-03 -3.87343964e-04 6.24286220e-03 -3.35721306e-04 1.53393138e-03 -3.35721306e-04 -9.19593452e-03
3.62010830e-03 -1.53458710e-03 1.05918968e-03 -1.53458710e-03 6.18689088e-03 -1.04802592e-03 1.05918968e-03 -1.04802592e-03 -8.56355543e-03
3.33632802e-03 -3.37537254e-04 1.35630036e-03 -3.37537254e-04 6.39237370e-03 -6.90219371e-04 1.35630036e-03 -6.90219371e-04 -8.51889560e-03
5.26902673e-03 -1.22504955e-03 -2.03271535e-04 -1.22504955e-03 5.38002129e-03 -2.97034338e-04 -2.03271535e-04 -2.97034338e-04 -9.29980096e-03
4.86752635e-03 -1.90796441e-03 6.26720648e-04 -1.90796441e-03 5.72346553e-03 -1.75809423e-03 6.26720648e-04 -1.75809423e-03 -9.22971254e-03
6.37232035e-03 7.10508139e-05 2.77812549e-04 7.10508139e-05 4.85484290e-03 -1.64386707e-03 2.77812549e-04 -1.64386707e-03 -9.77075705e-03
6.09028561e-03 -7.40799860e-04 9.63678700e-04 -7.40799860e-04 6.21318101e-03 7.32487781e-04 9.63678700e-04 7.32487781e-04 -1.07308140e-02
7.06362945e-03 -6.30940645e-04 4.11729293e-03 -6.30940645e-04 5.14830142e-03 -1.58227753e-03 4.11729293e-03 -1.58227753e-03 -1.06432594e-02
6.60870224e-03 -5.28536968e-04 9.25274120e-04 -5.28536968e-04 7.04065163e-03 1.09962324e-03 9.25274120e-04 1.09962324e-03 -1.18967741e-02
6.50223775e-03 -3.24513399e-04 4.31848364e-03 -3.24513399e-04 5.71765297e-03 -1.33110183e-03 4.31848364e-03 -1.33110183e-03 -1.05704051e-02
6.79883960e-03 -2.62240964e-04 2.49920633e-03 -2.62240964e-04 7.02343305e-03 -3.10374096e-04 2.49920633e-03 -3.10374096e-04 -1.19764832e-02
6.04373473e-03 1.68559357e-03 3.78371554e-03 1.68559357e-03 5.76619362e-03 -2.21750769e-03 3.78371554e-03 -2.21750769e-03 -1.01429515e-02
6.63644762e-03 1.39987282e-03 -1.46867213e-04 1.39987282e-03 6.58708031e-03 -1.72396083e-03 -1.46867213e-04 -1.72396083e-03 -1.13403741e-02
3.04953518e-03 -1.09622908e-03 1.56308536e-03 -1.09622908e-03 5.60626853e-03 -1.25659101e-03 1.56308536e-03 -1.25659101e-03 -7.57742848e-03
2.37374334e-03 -4.15250070e-04 2.95802020e-03 -4.15250070e-04 5.56727347e-03 -1.59477507e-03 2.95802020e-03 -1.59477507e-03 -6.92201778e-03
5.03027539e-03 -9.19962175e-04 4.00871664e-03 -9.19962175e-04 6.65725009e-03 -8.02060988e-05 4.00871664e-03 -8.02060988e-05 -1.04983708e-02
7.00205630e-03 -1.62134120e-03 7.04747625e-03 -1.62134120e-03 8.43735375e-03 -1.90824375e-04 7.04747625e-03 -1.90824375e-04 -1.39493007e-02
7.63554312e-03 -1.89428421e-04 1.71542808e-03 -1.89428421e-04 9.41697066e-03 2.35226802e-03 1.71542808e-03 2.35226802e-03 -1.51705998e-02
8.68571107e-03 -1.39887772e-04 2.92672799e-03 -1.39887772e-04 9.67200985e-03 4.83514175e-03 2.92672799e-03 4.83514175e-03 -1.63945970e-02
9.12785251e-03 1.18077162e-03 -1.50644359e-03 1.18077162e-03 9.50296223e-03 3.49341345e-03 -1.50644359e-03 3.49341345e-03 -1.66075369e-02
2.11717065e-03 2.51222227e-04 3.37253933e-03 2.51222227e-04 3.63456373e-03 2.45601899e-04 3.37253933e-03 2.45601899e-04 -4.97765187e-03
2.17892189e-03 2.44927938e-04 2.18702821e-03 2.44927938e-04 3.88805196e-03 -1.20204958e-03 2.18702821e-03 -1.20204958e-03 -5.33605670e-03
2.56218283e-03 -7.59788054e-04 4.50727704e-03 -7.59788054e-04 4.58504469e-03 4.66173720e-03 4.50727704e-03 4.66173720e-03 -6.42021877e-03
-1.59015192e-03 -3.16801982e-03 6.12558867e-03 -3.16801982e-03 1.31356636e-03 3.32080713e-03 6.12558867e-03 3.32080713e-03 9.35988763e-04
2.14079347e-03 -2.29247824e-04 2.09591932e-03 -2.29247824e-04 1.82550322e-03 8.88112274e-04 2.09591932e-03 8.88112274e-04 -3.49953742e-03
2.16351624e-03 1.19037255e-04 1.40140591e-03 1.19037255e-04 2.05779896e-03 8.94884506e-04 1.40140591e-03 8.94884506e-04 -3.78698867e-03
1.36205730e-03 -1.31485292e-03 1.60187092e-03 -1.31485292e-03 1.18334089e-03 1.52327957e-03 1.60187092e-03 1.52327957e-03 -2.14964627e-03
2.56553797e-04 -1.39241214e-04 -2.02219848e-03 -1.39241214e-04 4.81737222e-04 6.20194963e-04 -2.02219848e-03 6.20194963e-04 -4.82056290e-04
2.02435620e-03 -1.09680528e-03 3.05804205e-04 -1.09680528e-03 1.82069914e-03 1.08330110e-03 3.05804205e-04 1.08330110e-03 -3.52748160e-03
1.80183700e-03 -3.65533015e-04 3.90583773e-04 -3.65533015e-04 1.31441168e-03 9.84221319e-04 3.90583773e-04 9.84221319e-04 -2.84309598e-03
2.38077150e-03 -1.24240670e-03 3.60948445e-04 -1.24240670e-03 2.43841620e-03 1.33765105e-03 3.60948445e-04 1.33765105e-03 -4.37247174e-03
2.73154562e-03 5.28915771e-05 -1.81417609e-03 5.28915771e-05 2.83786599e-03 2.26880956e-03 -1.81417609e-03 2.26880956e-03 -5.03931870e-03
1.68311309e-03 -2.58856971e-05 -7.49224317e-04 -2.58856971e-05 2.31011436e-03 -3.70470683e-04 -7.49224317e-04 -3.70470683e-04 -3.71683401e-03
1.76499749e-03 8.22531671e-04 5.08011377e-04 8.22531671e-04 1.79879775e-03 -5.34774561e-04 5.08011377e-04 -5.34774561e-04 -3.34168458e-03
2.93081353e-03 -5.04791686e-04 8.51792831e-04 -5.04791686e-04 3.63191217e-03 1.81046998e-05 8.51792831e-04 1.81046998e-05 -5.98002947e-03
5.84186672e-03 -9.95446535e-05 2.76621243e-03 -9.95446535e-05 6.07340585e-03 5.25189610e-03 2.76621243e-03 5.25189610e-03 -1.11463754e-02
4.25080623e-06 -3.19076207e-05 3.42215390e-06 -3.19076207e-05 -5.57036628e-07 -5.02983232e-06 3.42215390e-06 -5.02983232e-06 -7.08875700e-06
-4.71964722e-06 -2.34159752e-05 -1.42211120e-05 -2.34159752e-05 7.32188323e-06 -5.84161444e-06 -1.42211120e-05 -5.84161444e-06 -6.97120043e-06
6.16088460e-06 -7.14060366e-06 1.71968501e-05 -7.14060366e-06 8.84495580e-06 9.86362693e-06 1.71968501e-05 9.86362693e-06 -1.91783483e-05
4.66060351e-06 -1.58588246e-05 -1.15304174e-05 -1.58588246e-05 -8.24428685e-06 -1.17645268e-05 -1.15304174e-05 -1.17645268e-05 -1.39750449e-06
5.27098472e-03 8.33762897e-07 2.07646086e-03 8.33762897e-07 5.39426738e-03 -8.22634203e-04 2.07646086e-03 -8.22634203e-04 -9.34160408e-03
5.42098109e-03 -1.12349480e-04 1.94980559e-03 -1.12349480e-04 5.04180370e-03 -4.13595990e-06 1.94980559e-03 -4.13595990e-06 -9.17561771e-03
5.31389652e-03 -1.76888153e-03 2.49818979e-03 -1.76888153e-03 5.25228219e-03 6.56555163e-04 2.49818979e-03 6.56555163e-04 -9.24898242e-03
4.94194962e-03 -1.06889311e-05 2.26545456e-03 -1.06889311e-05 5.71172289e-03 -9.48311834e-04 2.26545456e-03 -9.48311834e-04 -9.34910704e-03
6.01025810e-03 -1.42003066e-03 2.94558163e-03 -1.42003066e-03 3.98602273e-03 1.59040468e-04 2.94558163e-03 1.59040468e-04 -8.74536159e-03
6.01221836e-03 -2.57542782e-03 1.36231013e-03 -2.57542782e-03 4.59910926e-03 5.06811266e-04 1.36231013e-03 5.06811266e-04 -9.27640079e-03
6.57317054e-03 5.08202975e-05 1.05878586e-03 5.08202975e-05 3.07379407e-03 1.05141125e-03 1.05878586e-03 1.05141125e-03 -8.42691178e-03
6.41521119e-03 -1.35500072e-03 -1.10082403e-03 -1.35500072e-03 4.70386649e-03 -1.16563601e-03 -1.10082403e-03 -1.16563601e-03 -9.70474898e-03
6.12225477e-03 1.27775456e-05 -1.16583492e-03 1.27775456e-05 2.84474331e-03 -3.41657059e-04 -1.16583492e-03 -3.41657059e-04 -7.80398888e-03
6.30127703e-03 6.98506767e-04 -5.49836113e-04 6.98506767e-04 5.78590794e-03 -2.49772340e-04 -5.49836113e-04 -2.49772340e-04 -1.06368773e-02
4.69572260e-03 5.72271616e-04 5.98041093e-04 5.72271616e-04 3.05335619e-03 -9.97632676e-04 5.98041093e-04 -9.97632676e-04 -6.72285480e-03
5.79796644e-03 8.90565356e-04 -3.33284584e-05 8.90565356e-04 5.10030665e-03 2.78936724e-04 -3.33284584e-05 2.78936724e-04 -9.54867201e-03
4.19852091e-03 1.09770836e-03 8.78772786e-04 1.09770836e-03 2.35748128e-03 -1.01040682e-03 8.78772786e-04 -1.01040682e-03 -5.63345500e-03
5.18760295e-03 8.52502410e-04 2.01255472e-04 8.52502410e-04 4.08985943e-03 -9.23696658e-04 2.01255472e-04 -9.23696658e-04 -8.00631673e-03
4.17613197e-03 -2.94974673e-03 5.34428493e-03 -2.94974673e-03 5.60067565e-03 -1.03767721e-03 5.34428493e-03 -1.03767721e-03 -8.43568420e-03
3.41642287e-03 -1.87246411e-03 3.46854998e-03 -1.87246411e-03 6.13459607e-03 -7.57540460e-04 3.46854998e-03 -7.57540460e-04 -8.30644474e-03
6.27407092e-03 -8.24004570e-04 2.82822631e-03 -8.24004570e-04 5.98876172e-03 -1.83869166e-03 2.82822631e-03 -1.83869166e-03 -1.08235560e-02
8.70089820e-03 -1.78227501e-03 -9.65371178e-03 -1.78227501e-03 7.54386615e-03 5.34919184e-04 -9.65371178e-03 5.34919184e-04 -1.47518706e-02
8.18720658e-03 3.61802260e-04 -1.72698939e-03 3.61802260e-04 8.94885999e-03 2.30045411e-03 -1.72698939e-03 2.30045411e-03 -1.54525135e-02
7.44999456e-03 -5.48810858e-04 -1.20728932e-03 -5.48810858e-04 7.43860239e-03 1.02533161e-03 -1.20728932e-03 1.02533161e-03 -1.32406317e-02
6.70562708e-03 1.66279628e-04 -1.07927353e-03 1.66279628e-04 6.19398314e-03 1.74047724e-04 -1.07927353e-03 1.74047724e-04 -1.12974751e-02
3.36251513e-03 -1.45392932e-03 5.64828495e-03 -1.45392932e-03 5.37774793e-03 -1.50695077e-04 5.64828495e-03 -1.50695077e-04 -7.68622995e-03
1.59561631e-03 3.31363126e-05 3.85948346e-03 3.31363126e-05 4.81352967e-03 2.52885744e-03 3.85948346e-03 2.52885744e-03 -5.42119343e-03
7.02971069e-03 -3.45154054e-03 9.60823754e-03 -3.45154054e-03 8.70849623e-03 -9.98130353e-03 9.60823754e-03 -9.98130353e-03 -1.44428394e-02
1.67637802e-03 -4.72214040e-04 1.96521075e-03 -4.72214040e-04 3.18057792e-03 2.57423954e-03 1.96521075e-03 2.57423954e-03 -4.25795728e-03
1.31869865e-03 -8.48715848e-04 3.63650359e-03 -8.48715848e-04 2.81062815e-03 1.03266625e-03 3.63650359e-03 1.03266625e-03 -3.52445024e-03
1.58222047e-03 -5.70492564e-04 1.55658537e-03 -5.70492564e-04 3.77085508e-03 6.11441844e-03 1.55658537e-03 6.11441844e-03 -4.83274518e-03
1.74903276e-03 6.53522057e-04 1.71258315e-03 6.53522057e-04 2.01353004e-03 3.63477551e-04 1.71258315e-03 3.63477551e-04 -3.14482496e-03
1.76005421e-03 9.68621855e-04 2.82575347e-04 9.68621855e-04 2.07288198e-03 -6.30995521e-04 2.82575347e-04 -6.30995521e-04 -3.34357785e-03
3.08497396e-03 -1.48699373e-03 -1.54889049e-03 -1.48699373e-03 4.13625474e-03 2.88845923e-03 -1.54889049e-03 2.88845923e-03 -6.16467757e-03
-1.16004352e-03 6.26435643e-03 -8.41606688e-03 6.26435643e-03 -7.12229055e-04 5.25478553e-03 -8.41606688e-03 5.25478553e-03 2.29559792e-03
6.47991771e-03 3.33459737e-03 -1.37810906e-02 3.33459737e-03 9.20528610e-03 5.55208768e-03 -1.37810906e-02 5.55208768e-03 -1.43755497e-02
3.12104906e-03 1.53300400e-03 4.11550402e-03 1.53300400e-03 3.50262827e-03 1.75042424e-03 4.11550402e-03 1.75042424e-03 -5.90859458e-03
1.98828307e-03 -1.72881802e-04 2.12165859e-03 -1.72881802e-04 3.53590236e-03 1.85005728e-03 2.12165859e-03 1.85005728e-03 -4.99628182e-03
</DataArray>
<DataArray type="Float32" Name="Plastic_strain_components" NumberOfComponents="9" format="ascii">
2.81400583e-03 -7.85803422e-10 2.90401658e-09 -7.85803422e-10 8.05528834e-03 6.17001206e-08 2.90401658e-09 6.17001206e-08 -9.08162538e-03
3.17621720e-03 4.85235170e-04 1.76462436e-08 4.85235170e-04 8.52709124e-03 2.13391031e-04 1.76462436e-08 2.13391031e-04 -9.78650991e-03
3.47031053e-03 1.54079092e-03 -9.00675019e-04 1.54079092e-03 7.24090484e-03 -2.54779537e-04 -9.00675019e-04 -2.54779537e-04 -8.97226157e-03
3.14796774e-03 5.54534636e-04 -4.55859976e-04 5.54534636e-04 6.78646378e-03 3.00819920e-08 -4.55859976e-04 3.00819920e-08 -8.32530111e-03
2.96117808e-03 2.21673538e-07 8.60904926e-04 2.21673538e-07 7.52347219e-03 -5.96817641e-04 8.60904926e-04 -5.96817641e-04 -8.77106888e-03
3.34891817e-03 1.55081318e-05 6.45416003e-04 1.55081318e-05 7.70700374e-03 -8.67485564e-04 6.45416003e-04 -8.67485564e-04 -9.25941090e-03
3.37529290e-03 5.49756858e-04 2.90417451e-04 5.49756858e-04 6.85630809e-03 -9.74282608e-04 2.90417451e-04 -9.74282608e-04 -8.57767428e-03
3.01892572e-03 1.10490333e-04 4.14050504e-04 1.10490333e-04 6.72593387e-03 -8.10799727e-04 4.14050504e-04 -8.10799727e-04 -8.16308171e-03
4.08882252e-03 3.45406210e-04 3.18786078e-07 3.45406210e-04 1.00136651e-02 1.67319209e-04 3.18786078e-07 1.67319209e-04 -1.18097286e-02
4.00711846e-03 2.12460881e-03 -1.68166743e-03 2.12460881e-03 8.08834855e-03 5.34195833e-05 -1.68166743e-03 5.34195833e-05 -1.01288802e-02
4.19384637e-03 2.31142862e-04 1.50229468e-03 2.31142862e-04 8.13832518e-03 -1.07377618e-03 1.50229468e-03 -1.07377618e-03 -1.03468609e-02
4.31962384e-03 8.98372702e-04 2.56131678e-04 8.98372702e-04 7.67052022e-03 -1.26918579e-03 2.56131678e-04 -1.26918579e-03 -1.00683463e-02
5.15557337e-03 4.43737354e-05 7.28452051e-07 4.43737354e-05 1.15733212e-02 7.98971945e-04 7.28452051e-07 7.98971945e-04 -1.40223815e-02
4.80050035e-03 1.31657266e-03 -2.51370668e-03 1.31657266e-03 9.19142354e-03 3.78355115e-04 -2.51370668e-03 3.78355115e-04 -1.17312486e-02
5.49565838e-03 -3.77082972e-04 1.77133796e-03 -3.77082972e-04 8.97277961e-03 -4.39615062e-04 1.77133796e-03 -4.39615062e-04 -1.21650645e-02
5.24598500e-03 -1.46920188e-04 8.89187002e-04 -1.46920188e-04 8.40937800e-03 -7.95655871e-04 8.89187002e-04 -7.95655871e-04 -1.14693487e-02
6.65184320e-03 -1.31375575e-03 1.02835065e-06 -1.31375575e-03 1.23475608e-02 1.00906054e-03 1.02835065e-06 1.00906054e-03 -1.59531119e-02
6.17302349e-03 -4.89308191e-04 -3.35028279e-03 -4.89308191e-04 1.05755222e-02 1.04559076e-03 -3.35028279e-03 1.04559076e-03 -1.40592251e-02
7.16842199e-03 -1.26877587e-03 7.85328186e-04 -1.26877587e-03 9.73907067e-03 -5.26730437e-04 7.85328186e-04 -5.26730437e-04 -1.42342546e-02
6.23575720e-03 -1.45721356e-03 7.05351413e-04 -1.45721356e-03 8.57518491e-03 -2.50478719e-04 7.05351413e-04 -2.50478719e-04 -1.24407337e-02
8.77823448e-03 -2.93807290e-03 1.45575621e-06 -2.93807290e-03 1.38782375e-02 2.97266568e-04 1.45575621e-06 2.97266568e-04 -1.90507062e-02
7.48474139e-03 -1.40471640e-03 -4.23238019e-03 -1.40471640e-03 1.16743969e-02 1.46096759e-03 -4.23238019e-03 1.46096759e-03 -1.60855053e-02
8.13870179e-03 -1.76119510e-03 1.63766401e-03 -1.76119510e-03 1.06631303e-02 -1.56947350e-03 1.63766401e-03 -1.56947350e-03 -1.58246022e-02
7.67821341e-03 -2.32841058e-03 1.92270568e-03 -2.32841058e-03 9.31298721e-03 -4.67388481e-04 1.92270568e-03 -4.67388481e-04 -1.42665205e-02
8.49363022e-03 -6.31889421e-03 -5.06470315e-06 -6.31889421e-03 1.78218652e-02 -2.34502158e-03 -5.06470315e-06 -2.34502158e-03 -2.20478382e-02
7.92623265e-03 -3.15184810e-03 -6.44415896e-03 -3.15184810e-03 1.44293602e-02 3.02522711e-03 -6.44415896e-03 3.02522711e-03 -1.86997103e-02
7.62658706e-03 -9.20735154e-04 4.18071693e-04 -9.20735154e-04 1.31488829e-02 -3.40495631e-03 4.18071693e-04 -3.40495631e-03 -1.74650601e-02
7.86829554e-03 -2.37849035e-03 -2.29408033e-06 -2.37849035e-03 1.13260446e-02 -6.94165949e-04 -2.29408033e-06 -6.94165949e-04 -1.60911363e-02
3.67668382e-03 1.43597650e-03 -5.12394152e-04 1.43597650e-03 4.20811895e-03 -5.38486405e-04 -5.12394152e-04 -5.38486405e-04 -6.62575138e-03
3.71290767e-03 5.24528237e-04 -3.63616549e-04 5.24528237e-04 4.26125026e-03 1.57967285e-07 -3.63616549e-04 1.57967285e-07 -6.70954678e-03
3.45776128e-03 1.04679818e-03 1.19611999e-03 1.04679818e-03 4.76081390e-03 -6.15399667e-04 1.19611999e-03 -6.15399667e-04 -6.90294424e-03
3.10242665e-03 3.75894604e-04 8.81412911e-04 3.75894604e-04 4.49073809e-03 4.07975140e-05 8.81412911e-04 4.07975140e-05 -6.38486771e-03
3.35375825e-03 1.99282338e-03 -8.00447364e-04 1.99282338e-03 3.95394629e-03 -6.68709938e-04 -8.00447364e-04 -6.68709938e-04 -6.12973899e-03
3.54215520e-03 1.20148328e-03 1.60353222e-03 1.20148328e-03 4.88611308e-03 1.65483722e-04 1.60353222e-03 1.65483722e-04 -7.07325997e-03
2.63195566e-03 1.52541600e-03 -1.41726329e-03 1.52541600e-03 3.44781691e-03 -4.52199325e-04 -1.41726329e-03 -4.52199325e-04 -5.10481675e-03
3.58610444e-03 -1.11724126e-04 3.54893688e-03 -1.11724126e-04 5.07486266e-03 7.81855064e-04 3.54893688e-03 7.81855064e-04 -7.24925074e-03
2.80298752e-03 -7.10484353e-04 -2.99616711e-03 -7.10484353e-04 4.06019995e-03 7.79014896e-04 -2.99616711e-03 7.79014896e-04 -5.73643448e-03
3.94119105e-03 -1.90245998e-03 4.76262839e-03 -1.90245998e-03 6.14202771e-03 1.79662538e-03 4.76262839e-03 1.79662538e-03 -8.41188307e-03
2.75061265e-03 -1.87582092e-03 -3.03182198e-03 -1.87582092e-03 3.69837465e-03 1.54928846e-03 -3.03182198e-03 1.54928846e-03 -5.35416126e-03
4.16334563e-03 -2.89203546e-03 6.20651885e-03 -2.89203546e-03 6.36450011e-03 4.18313550e-03 6.20651885e-03 4.18313550e-03 -8.69593350e-03
3.07800248e-03 -3.59989260e-03 -2.89017567e-03 -3.59989260e-03 3.55716195e-03 3.59355693e-03 -2.89017567e-03 3.59355693e-03 -5.47198369e-03
4.83369951e-03 -4.82436409e-03 6.38861170e-03 -4.82436409e-03 7.51760726e-03 6.34228221e-03 6.38861170e-03 6.34228221e-03 -1.01630851e-02
3.43625934e-03 5.07586185e-04 -1.40707259e-05 5.07586185e-04 1.84496047e-03 -5.81876229e-04 -1.40707259e-05 -5.81876229e-04 -4.43083106e-03
3.87460948e-03 3.05709458e-04 1.52464629e-04 3.05709458e-04 2.21064640e-03 6.95184497e-08 1.52464629e-04 6.95184497e-08 -5.11180656e-03
3.30750822e-03 3.92837118e-04 1.42628154e-03 3.92837118e-04 2.42804435e-03 -8.97377140e-06 1.42628154e-03 -8.97377140e-06 -4.81669168e-03
3.09920363e-03 1.37706102e-04 1.18906335e-03 1.37706102e-04 2.33118553e-03 7.20313401e-04 1.18906335e-03 7.20313401e-04 -4.56339819e-03
2.38045957e-03 5.49641685e-04 -7.84140866e-05 5.49641685e-04 1.17498801e-03 -5.89067728e-04 -7.84140866e-05 -5.89067728e-04 -2.98369443e-03
2.35147678e-03 3.45354317e-04 1.66936640e-03 3.45354317e-04 1.51977505e-03 3.78815355e-04 1.66936640e-03 3.78815355e-04 -3.24068457e-03
7.98728008e-04 1.14530234e-04 -3.65939093e-04 1.14530234e-04 3.80509635e-04 -6.66898806e-04 -3.65939093e-04 -6.66898806e-04 -9.99662603e-04
4.95234866e-04 -4.39686696e-04 1.58695353e-03 -4.39686696e-04 4.33203035e-04 -8.80042692e-05 1.58695353e-03 -8.80042692e-05 -7.38780024e-04
4.71594418e-04 -1.35256458e-03 -9.78234185e-04 -1.35256458e-03 -3.78570646e-04 -3.56243273e-04 -9.78234185e-04 -3.56243273e-04 -2.86861129e-05
2.66368950e-04 -2.48622677e-03 2.94600730e-03 -2.48622677e-03 6.64233007e-04 5.22310729e-04 2.94600730e-03 5.22310729e-04 -5.31422188e-04
2.26465922e-04 -4.51767351e-04 -7.78713613e-04 -4.51767351e-04 -5.62608208e-04 -3.04725249e-04 -7.78713613e-04 -3.04725249e-04 3.20762585e-04
1.66297085e-04 -1.14033380e-03 2.80616149e-03 -1.14033380e-03 3.96418007e-04 -3.39759061e-04 2.80616149e-03 -3.39759061e-04 -2.28181438e-04
2.12294974e-04 -1.27133884e-04 -5.64175076e-04 -1.27133884e-04 -9.26598179e-04 1.01389463e-04 -5.64175076e-04 1.01389463e-04 7.79668451e-04
2.44623632e-04 -1.64489326e-03 2.18510060e-03 -1.64489326e-03 -3.04527057e-05 -4.21148407e-05 2.18510060e-03 -4.21148407e-05 1.49915286e-04
3.13539879e-03 -1.75332319e-04 3.08161296e-04 -1.75332319e-04 1.18938781e-03 -5.18331100e-04 3.08161296e-04 -5.18331100e-04 -3.61681043e-03
3.60385119e-03 -1.01477166e-04 2.52736398e-04 -1.01477166e-04 1.49311795e-03 1.12720500e-08 2.52736398e-04 1.12720500e-08 -4.26876848e-03
2.77268805e-03 -3.32957208e-04 8.26362770e-04 -3.32957208e-04 1.29029196e-03 1.91470962e-04 8.26362770e-04 1.91470962e-04 -3.40236517e-03
3.09962191e-03 -4.22340563e-05 6.11498981e-04 -4.22340563e-05 1.49275971e-03 5.61362831e-04 6.11498981e-04 5.61362831e-04 -3.84633656e-03
1.81914636e-03 -2.38988658e-04 -1.54096331e-04 -2.38988658e-04 6.26471709e-04 -6.59341677e-04 -1.54096331e-04 -6.59341677e-04 -2.04176948e-03
1.68331673e-03 -5.88069437e-04 5.57385204e-04 -5.88069437e-04 6.54713440e-04 3.75441458e-04 5.57385204e-04 3.75441458e-04 -1.94607793e-03
3.22083974e-04 -3.28544310e-04 -1.35854676e-04 -3.28544310e-04 8.57443647e-05 -4.39438321e-04 -1.35854676e-04 -4.39438321e-04 -3.26626414e-04
5.90862442e-04 -2.43538299e-04 -2.49451205e-04 -2.43538299e-04 1.79865501e-04 1.98425073e-04 -2.49451205e-04 1.98425073e-04 -6.38576414e-04
-1.89200495e-05 -6.30931627e-05 6.01994010e-05 -6.30931627e-05 -3.97595682e-05 2.87324131e-05 6.01994010e-05 2.87324131e-05 4.70158602e-05
-1.39097407e-06 -4.57863233e-05 -6.82277376e-05 -4.57863233e-05 9.30819624e-05 8.96714911e-05 -6.82277376e-05 8.96714911e-05 -7.63869974e-05
3.76934826e-04 -6.98416086e-04 7.80852351e-05 -6.98416086e-04 -5.79601736e-04 2.67670075e-05 7.80852351e-05 2.67670075e-05 3.20718769e-04
-1.99756513e-05 -2.95324468e-04 1.38561531e-05 -2.95324468e-04 4.65572724e-05 -4.79964640e-07 1.38561531e-05 -4.79964640e-07 -1.65266332e-05
2.39589630e-04 -6.75445423e-04 -1.49691550e-04 -6.75445423e-04 -3.44793720e-04 -2.41387788e-05 -1.49691550e-04 -2.41387788e-05 1.73286287e-04
-8.72435774e-05 -2.50890486e-04 -9.00455246e-05 -2.50890486e-04 1.98022580e-04 -1.30422917e-05 -9.00455246e-05 -1.30422917e-05 -9.95319573e-05
2.81301886e-03 -3.80645881e-04 1.98635022e-04 -3.80645881e-04 1.61669645e-03 -4.75772969e-04 1.98635022e-04 -4.75772969e-04 -3.71969305e-03
3.52340634e-03 -3.80589423e-04 8.98686703e-05 -3.80589423e-04 1.99026905e-03 -1.29720092e-07 8.98686703e-05 -1.29720092e-07 -4.63200361e-03
2.47603797e-03 -5.10358977e-04 1.08102273e-04 -5.10358977e-04 1.54908269e-03 4.69009989e-04 1.08102273e-04 4.69009989e-04 -3.37886310e-03
2.90400325e-03 -2.64001392e-04 -2.03936765e-04 -2.64001392e-04 1.79006663e-03 9.52155722e-04 -2.03936765e-04 9.52155722e-04 -3.93974100e-03
1.40880322e-03 -3.86330859e-04 1.10776504e-04 -3.86330859e-04 8.04310890e-04 -7.40123534e-04 1.10776504e-04 -7.40123534e-04 -1.84966033e-03
1.40064517e-03 -5.88289711e-04 1.77550242e-04 -5.88289711e-04 1.10074373e-03 6.45442204e-04 1.77550242e-04 6.45442204e-04 -2.09768373e-03
9.53066605e-05 -2.13194304e-04 -1.32070977e-05 -2.13194304e-04 1.43890320e-05 -1.38364919e-04 -1.32070977e-05 -1.38364919e-04 -9.38733574e-05
7.05164525e-04 -2.65421332e-04 -1.66333790e-04 -2.65421332e-04 4.59630743e-04 9.51025606e-04 -1.66333790e-04 9.51025606e-04 -9.62568471e-04
-9.18542099e-07 1.02776723e-05 4.70339498e-07 1.02776723e-05 -1.20148092e-06 7.22140354e-06 4.70339498e-07 7.22140354e-06 1.93403706e-06
-9.21711791e-06 -7.00570436e-06 2.58249909e-06 -7.00570436e-06 -1.56547646e-05 -9.36975066e-06 2.58249909e-06 -9.36975066e-06 2.04424775e-05
-1.89008471e-08 -1.51359139e-08 -3.89285004e-09 -1.51359139e-08 8.53803162e-09 3.13920556e-10 -3.89285004e-09 3.13920556e-10 6.85060719e-09
5.64311449e-08 4.51904043e-08 1.16226524e-08 4.51904043e-08 -2.54914937e-08 -9.37254008e-10 1.16226524e-08 -9.37254008e-10 -2.04534516e-08
0.00000000e+00 0.00000000e+00 0.00000000e+00 0.00000000e+00 0.00000000e+00 0.00000000e+00 0.00000000e+00 0.00000000e+00 0.00000000e+00
0.00000000e+00 0.00000000e+00 0.00000000e+00 0.00000000e+00 0.00000000e+00 0.00000000e+00 0.00000000e+00 0.00000000e+00 0.00000000e+00
2.96680105e-03 -5.50198230e-04 1.21284252e-05 -5.50198230e-04 2.03044288e-03 -8.25536321e-04 1.21284252e-05 -8.25536321e-04 -4.19683231e-03
4.02568653e-03 -5.55227976e-04 9.18381120e-05 -5.55227976e-04 2.32511247e-03 -8.74697434e-08 9.18381120e-05 -8.74697434e-08 -5.33675356e-03
2.72832433e-03 -6.59703917e-04 8.78999708e-06 -6.59703917e-04 2.08293358e-03 2.04216412e-05 8.78999708e-06 2.04216412e-05 -4.04747325e-03
2.93000427e-03 -6.23022148e-04 -8.09889636e-04 -6.23022148e-04 2.08726968e-03 1.13340741e-03 -8.09889636e-04 1.13340741e-03 -4.21420799e-03
1.22582729e-03 -8.19993831e-04 5.23237133e-04 -8.19993831e-04 1.28035992e-03 -8.47039424e-04 5.23237133e-04 -8.47039424e-04 -2.09096691e-03
1.63449711e-03 -7.48863255e-04 1.00559139e-03 -7.48863255e-04 1.88276067e-03 5.22818705e-04 1.00559139e-03 5.22818705e-04 -2.94896704e-03
1.17648779e-06 -2.54322646e-04 1.24626791e-04 -2.54322646e-04 9.74708000e-05 -1.41368553e-04 1.24626791e-04 -1.41368553e-04 -7.74148730e-05
8.35719092e-04 -6.66505225e-04 8.08482046e-04 -6.66505225e-04 1.01644176e-03 1.55815983e-03 8.08482046e-04 1.55815983e-03 -1.50833606e-03
5.52597703e-06 -2.43521549e-06 -7.16596787e-06 -2.43521549e-06 -1.14628610e-05 7.48539605e-06 -7.16596787e-06 7.48539605e-06 3.48762183e-06
4.92520894e-06 -1.66217123e-05 -5.75481408e-06 -1.66217123e-05 -3.55539414e-05 -1.20238492e-05 -5.75481408e-06 -1.20238492e-05 2.59381850e-05
0.00000000e+00 0.00000000e+00 0.00000000e+00 0.00000000e+00 0.00000000e+00 0.00000000e+00 0.00000000e+00 0.00000000e+00 0.00000000e+00
0.00000000e+00 0.00000000e+00 0.00000000e+00 0.00000000e+00 0.00000000e+00 0.00000000e+00 0.00000000e+00 0.00000000e+00 0.00000000e+00
0.00000000e+00 0.00000000e+00 0.00000000e+00 0.00000000e+00 0.00000000e+00 0.00000000e+00 0.00000000e+00 0.00000000e+00 0.00000000e+00
0.00000000e+00 0.00000000e+00 0.00000000e+00 0.00000000e+00 0.00000000e+00 0.00000000e+00 0.00000000e+00 0.00000000e+00 0.00000000e+00
3.70421156e-03 6.48529493e-07 1.06662157e-03 6.48529493e-07 6.42017461e-03 -1.07053906e-03 1.06662157e-03 -1.07053906e-03 -8.50297045e-03
4.17017099e-03 -3.72492090e-04 1.46685066e-03 -3.72492090e-04 6.07670564e-03 -3.15624078e-04 1.46685066e-03 -3.15624078e-04 -8.61778855e-03
3.55446950e-03 -1.46813459e-03 1.01086269e-03 -1.46813459e-03 6.00250642e-03 -1.01309089e-03 1.01086269e-03 -1.01309089e-03 -8.01553729e-03
3.28854797e-03 -3.25253575e-04 1.29942503e-03 -3.25253575e-04 6.19944150e-03 -6.68742141e-04 1.29942503e-03 -6.68742141e-04 -7.95628061e-03
5.14256000e-03 -1.16858567e-03 -2.02918560e-04 -1.16858567e-03 5.24452073e-03 -2.95359390e-04 -2.02918560e-04 -2.95359390e-04 -8.75463220e-03
4.76446352e-03 -1.82201703e-03 6.07621128e-04 -1.82201703e-03 5.57702841e-03 -1.67879392e-03 6.07621128e-04 -1.67879392e-03 -8.66753148e-03
6.20920013e-03 6.62333678e-05 2.71057681e-04 6.62333678e-05 4.75056912e-03 -1.58625528e-03 2.71057681e-04 -1.58625528e-03 -9.23129544e-03
5.97030629e-03 -7.05938004e-04 9.42781757e-04 -7.05938004e-04 6.09028962e-03 7.10599543e-04 9.42781757e-04 7.10599543e-04 -1.01261953e-02
6.90361066e-03 -6.02430577e-04 3.97231302e-03 -6.02430577e-04 5.07314701e-03 -1.52433566e-03 3.97231302e-03 -1.52433566e-03 -1.00550598e-02
6.49384264e-03 -5.05833324e-04 8.92571930e-04 -5.05833324e-04 6.91059098e-03 1.05107874e-03 8.92571930e-04 1.05107874e-03 -1.12863734e-02
6.36064901e-03 -3.05717615e-04 4.17178392e-03 -3.05717615e-04 5.60935540e-03 -1.28833678e-03 4.17178392e-03 -1.28833678e-03 -1.00425319e-02
6.66520454e-03 -2.53830718e-04 2.40996478e-03 -2.53830718e-04 6.89167908e-03 -3.08137065e-04 2.40996478e-03 -3.08137065e-04 -1.14071930e-02
5.90148498e-03 1.61614950e-03 3.65304656e-03 1.61614950e-03 5.63152973e-03 -2.15675635e-03 3.65304656e-03 -2.15675635e-03 -9.68519575e-03
6.47293357e-03 1.35704211e-03 -1.61137315e-04 1.35704211e-03 6.43879140e-03 -1.67139168e-03 -1.61137315e-04 -1.67139168e-03 -1.08669279e-02
2.98545579e-03 -1.03524567e-03 1.49129646e-03 -1.03524567e-03 5.41357306e-03 -1.18124166e-03 1.49129646e-03 -1.18124166e-03 -7.04333710e-03
2.33246764e-03 -3.85401145e-04 2.80227372e-03 -3.85401145e-04 5.36167459e-03 -1.51660063e-03 2.80227372e-03 -1.51660063e-03 -6.41257036e-03
5.00436476e-03 -8.76641730e-04 3.82058010e-03 -8.76641730e-04 6.54503530e-03 -7.06915078e-05 3.82058010e-03 -7.06915078e-05 -9.70316745e-03
7.03934012e-03 -1.52907200e-03 6.70910040e-03 -1.52907200e-03 8.41447748e-03 -2.06770888e-04 6.70910040e-03 -2.06770888e-04 -1.29273869e-02
7.63093017e-03 -1.81923235e-04 1.64005993e-03 -1.81923235e-04 9.33280797e-03 2.24521493e-03 1.64005993e-03 2.24521493e-03 -1.42732901e-02
8.69962084e-03 -1.39472591e-04 2.79195025e-03 -1.39472591e-04 9.62990080e-03 4.62849681e-03 2.79195025e-03 4.62849681e-03 -1.54015929e-02
9.13472986e-03 1.15815114e-03 -1.48605191e-03 1.15815114e-03 9.45690461e-03 3.33726767e-03 -1.48605191e-03 3.33726767e-03 -1.56218912e-02
2.02000288e-03 2.38343551e-04 3.15322101e-03 2.38343551e-04 3.44929859e-03 2.57749038e-04 3.15322101e-03 2.57749038e-04 -4.54353658e-03
2.10079990e-03 2.43626779e-04 2.05455477e-03 2.43626779e-04 3.69828765e-03 -1.11627963e-03 2.05455477e-03 -1.11627963e-03 -4.84979386e-03
2.55997279e-03 -7.19766790e-04 4.21380234e-03 -7.19766790e-04 4.46400310e-03 4.33731991e-03 4.21380234e-03 4.33731991e-03 -5.76230158e-03
-1.31009310e-03 -3.05372471e-03 5.93560736e-03 -3.05372471e-03 1.32265199e-03 2.80460331e-03 5.93560736e-03 2.80460331e-03 9.04077082e-04
1.98562823e-03 -2.08890504e-04 1.91942006e-03 -2.08890504e-04 1.71365518e-03 8.06767237e-04 1.91942006e-03 8.06767237e-04 -3.05925193e-03
2.01507329e-03 9.94169714e-05 1.26757383e-03 9.94169714e-05 1.92514190e-03 7.96071385e-04 1.26757383e-03 7.96071385e-04 -3.30831367e-03
1.18911469e-03 -1.11569138e-03 1.41003896e-03 -1.11569138e-03 1.03267192e-03 1.33750064e-03 1.41003896e-03 1.33750064e-03 -1.83770134e-03
1.22161078e-04 -1.65589406e-04 -1.55723945e-03 -1.65589406e-04 3.20934904e-04 3.67164874e-04 -1.55723945e-03 3.67164874e-04 -3.74316005e-04
1.89020320e-03 -9.77638556e-04 2.75116874e-04 -9.77638556e-04 1.70636295e-03 9.75418723e-04 2.75116874e-04 9.75418723e-04 -3.00595441e-03
1.62096339e-03 -3.13274781e-04 3.41033374e-04 -3.13274781e-04 1.19963604e-03 8.67658993e-04 3.41033374e-04 8.67658993e-04 -2.37492050e-03
2.26172669e-03 -1.12414133e-03 3.38173630e-04 -1.12414133e-03 2.32993357e-03 1.21717136e-03 3.38173630e-04 1.21717136e-03 -3.83263265e-03
2.59130588e-03 3.13819255e-05 -1.64710658e-03 3.13819255e-05 2.72352700e-03 2.10643653e-03 -1.64710658e-03 2.10643653e-03 -4.47004667e-03
1.59940981e-03 -3.03564784e-05 -6.88283137e-04 -3.03564784e-05 2.14183074e-03 -3.39762930e-04 -6.88283137e-04 -3.39762930e-04 -3.14986490e-03
1.64327066e-03 7.22859841e-04 4.42010030e-04 7.22859841e-04 1.66494609e-03 -4.68700659e-04 4.42010030e-04 -4.68700659e-04 -2.78856093e-03
2.84654729e-03 -4.99482021e-04 7.90589756e-04 -4.99482021e-04 3.47349339e-03 1.92509360e-05 7.90589756e-04 1.92509360e-05 -5.34895889e-03
5.87605953e-03 -1.15608920e-04 2.69113482e-03 -1.15608920e-04 6.07535325e-03 4.99177177e-03 2.69113482e-03 4.99177177e-03 -1.00492423e-02
0.00000000e+00 0.00000000e+00 0.00000000e+00 0.00000000e+00 0.00000000e+00 0.00000000e+00 0.00000000e+00 0.00000000e+00 0.00000000e+00
0.00000000e+00 0.00000000e+00 0.00000000e+00 0.00000000e+00 0.00000000e+00 0.00000000e+00 0.00000000e+00 0.00000000e+00 0.00000000e+00
0.00000000e+00 0.00000000e+00 0.00000000e+00 0.00000000e+00 0.00000000e+00 0.00000000e+00 0.00000000e+00 0.00000000e+00 0.00000000e+00
0.00000000e+00 0.00000000e+00 0.00000000e+00 0.00000000e+00 0.00000000e+00 0.00000000e+00 0.00000000e+00 0.00000000e+00 0.00000000e+00
5.15278848e-03 8.35172273e-07 1.98038807e-03 8.35172273e-07 5.26625291e-03 -7.99016270e-04 1.98038807e-03 -7.99016270e-04 -8.76807887e-03
5.29022678e-03 -1.12569398e-04 1.87300958e-03 -1.12569398e-04 4.92385577e-03 -1.20122422e-05 1.87300958e-03 -1.20122422e-05 -8.59414251e-03
5.19589591e-03 -1.69103974e-03 2.39566890e-03 -1.69103974e-03 5.13289525e-03 6.27382316e-04 2.39566890e-03 6.27382316e-04 -8.67700507e-03
4.83970426e-03 -1.48162371e-05 2.16746284e-03 -1.48162371e-05 5.57396316e-03 -9.01352527e-04 2.16746284e-03 -9.01352527e-04 -8.75770999e-03
5.84276940e-03 -1.34515815e-03 2.82429700e-03 -1.34515815e-03 3.90662882e-03 1.49543541e-04 2.82429700e-03 1.49543541e-04 -8.18289618e-03
5.86239761e-03 -2.45572801e-03 1.28662059e-03 -2.45572801e-03 4.50811157e-03 4.72995343e-04 1.28662059e-03 4.72995343e-04 -8.70582851e-03
6.36891439e-03 4.58796694e-05 1.01348929e-03 4.58796694e-05 3.02972819e-03 9.95246650e-04 1.01348929e-03 9.95246650e-04 -7.88244547e-03
6.24597631e-03 -1.29980329e-03 -1.06931817e-03 -1.29980329e-03 4.61744014e-03 -1.12395163e-03 -1.06931817e-03 -1.12395163e-03 -9.12169984e-03
5.90268790e-03 7.14562111e-06 -1.11205358e-03 7.14562111e-06 2.78928701e-03 -3.25209508e-04 -1.11205358e-03 -3.25209508e-04 -7.29502225e-03
6.17190823e-03 6.71020809e-04 -5.09044858e-04 6.71020809e-04 5.70020149e-03 -2.44501687e-04 -5.09044858e-04 -2.44501687e-04 -9.98175808e-03
4.49432066e-03 5.42977650e-04 5.56399304e-04 5.42977650e-04 2.95006047e-03 -9.44885989e-04 5.56399304e-04 -9.44885989e-04 -6.26175967e-03
5.65134559e-03 8.56525945e-04 -3.28222454e-05 8.56525945e-04 4.99955978e-03 2.70249686e-04 -3.28222454e-05 2.70249686e-04 -8.96691153e-03
3.97947873e-03 1.04415370e-03 8.22235452e-04 1.04415370e-03 2.25322630e-03 -9.43126157e-04 8.22235452e-04 -9.43126157e-04 -5.23237674e-03
5.00408188e-03 8.23282819e-04 1.99794500e-04 8.23282819e-04 3.96939600e-03 -8.76673526e-04 1.99794500e-04 -8.76673526e-04 -7.55132351e-03
4.09902073e-03 -2.81359516e-03 5.11745986e-03 -2.81359516e-03 5.44962758e-03 -1.00963090e-03 5.11745986e-03 -1.00963090e-03 -7.90452212e-03
3.35599080e-03 -1.78260729e-03 3.31410352e-03 -1.78260729e-03 5.94521861e-03 -7.32060216e-04 3.31410352e-03 -7.32060216e-04 -7.78788712e-03
6.15151366e-03 -7.95443143e-04 2.71665950e-03 -7.95443143e-04 5.88702743e-03 -1.78058144e-03 2.71665950e-03 -1.78058144e-03 -1.01749434e-02
8.75752550e-03 -1.71889819e-03 -9.27589331e-03 -1.71889819e-03 7.61952763e-03 5.22708357e-04 -9.27589331e-03 5.22708357e-04 -1.36069205e-02
8.19659838e-03 3.51777853e-04 -1.61907855e-03 3.51777853e-04 8.91470327e-03 2.21382815e-03 -1.61907855e-03 2.21382815e-03 -1.44077463e-02
7.39456096e-03 -5.30859630e-04 -1.17342369e-03 -5.30859630e-04 7.37685687e-03 9.81066318e-04 -1.17342369e-03 9.81066318e-04 -1.24337592e-02
6.59502856e-03 1.58101597e-04 -1.05251221e-03 1.58101597e-04 6.09206385e-03 1.63052173e-04 -1.05251221e-03 1.63052173e-04 -1.06776920e-02
3.34452361e-03 -1.37841864e-03 5.35328656e-03 -1.37841864e-03 5.24733437e-03 -1.50662614e-04 5.35328656e-03 -1.50662614e-04 -7.06539676e-03
1.52487983e-03 1.24544513e-05 3.65169777e-03 1.24544513e-05 4.57385991e-03 2.42505019e-03 3.65169777e-03 2.42505019e-03 -5.05757943e-03
7.18189508e-03 -3.25720286e-03 9.12949664e-03 -3.25720286e-03 8.80149682e-03 -9.55399423e-03 9.12949664e-03 -9.55399423e-03 -1.31504501e-02
1.59775935e-03 -4.32201092e-04 1.81972311e-03 -4.32201092e-04 2.99137259e-03 2.39044483e-03 1.81972311e-03 2.39044483e-03 -3.80942754e-03
1.23950573e-03 -7.74280328e-04 3.35209000e-03 -7.74280328e-04 2.62396777e-03 9.92149144e-04 3.35209000e-03 9.92149144e-04 -3.14286887e-03
1.68760972e-03 -5.58819971e-04 1.49863120e-03 -5.58819971e-04 3.70634825e-03 5.58320893e-03 1.49863120e-03 5.58320893e-03 -4.18274963e-03
1.57646503e-03 5.93415291e-04 1.56458274e-03 5.93415291e-04 1.80195806e-03 3.68610677e-04 1.56458274e-03 3.68610677e-04 -2.86729459e-03
1.63441940e-03 8.74810634e-04 2.81251210e-04 8.74810634e-04 1.89560434e-03 -5.72713529e-04 2.81251210e-04 -5.72713529e-04 -2.95281046e-03
2.92725668e-03 -1.43864649e-03 -1.49320282e-03 -1.43864649e-03 3.91965799e-03 2.78084031e-03 -1.49320282e-03 2.78084031e-03 -5.80227222e-03
-8.86956695e-04 5.73889771e-03 -7.51350680e-03 5.73889771e-03 -4.56372392e-04 4.72145109e-03 -7.51350680e-03 4.72145109e-03 2.24480452e-03
6.62737526e-03 3.17283052e-03 -1.31183621e-02 3.17283052e-03 9.32182601e-03 5.39923102e-03 -1.31183621e-02 5.39923102e-03 -1.31416344e-02
3.06352871e-03 1.41255796e-03 3.91942896e-03 1.41255796e-03 3.39627100e-03 1.63269031e-03 3.91942896e-03 1.63269031e-03 -5.34687703e-03
1.94797094e-03 -1.57740185e-04 2.02843480e-03 -1.57740185e-04 3.35628306e-03 1.69156358e-03 2.02843480e-03 1.69156358e-03 -4.42050840e-03
</DataArray>
<DataArray type="Float32" Name="Spatial_displacement" NumberOfComponents="3" format="ascii">
0.00000000e+00 0.00000000e+00 0.00000000e+00
2.73691770e-03 0.00000000e+00 0.00000000e+00
3.24396882e-03 8.81242100e-03 0.00000000e+00
0.00000000e+00 8.22843984e-03 0.00000000e+00
0.00000000e+00 0.00000000e+00 -9.67941433e-03
2.95908004e-03 0.00000000e+00 -1.02909822e-02
2.97593325e-03 7.86643103e-03 -9.63013526e-03
0.00000000e+00 7.74930464e-03 -8.78612045e-03
6.42040092e-03 0.00000000e+00 0.00000000e+00
6.77857036e-03 1.02854315e-02 0.00000000e+00
6.58961711e-03 0.00000000e+00 -1.23956706e-02
6.83402829e-03 8.52762163e-03 -1.08654397e-02
1.09192478e-02 0.00000000e+00 0.00000000e+00
1.09759197e-02 1.20728258e-02 0.00000000e+00
1.17548918e-02 0.00000000e+00 -1.44341206e-02
1.13568269e-02 9.44455713e-03 -1.26381684e-02
1.71655472e-02 0.00000000e+00 0.00000000e+00
1.57968532e-02 1.33354925e-02 0.00000000e+00
1.82097089e-02 0.00000000e+00 -1.58375185e-02
1.68830771e-02 9.82465409e-03 -1.50357895e-02
2.57191658e-02 0.00000000e+00 0.00000000e+00
2.26803310e-02 1.47908647e-02 0.00000000e+00
2.60315929e-02 0.00000000e+00 -1.89694408e-02
2.42042094e-02 1.03754457e-02 -1.73031278e-02
3.61214802e-02 0.00000000e+00 0.00000000e+00
2.95632239e-02 2.01567411e-02 0.00000000e+00
3.37093771e-02 0.00000000e+00 -2.08254773e-02
3.27479020e-02 1.34204440e-02 -2.03979053e-02
3.91629571e-03 1.46898553e-02 0.00000000e+00
0.00000000e+00 1.41337961e-02 0.00000000e+00
3.34371952e-03 1.41478740e-02 -7.13198632e-03
0.00000000e+00 1.37434173e-02 -7.16446806e-03
7.62798591e-03 1.62701346e-02 0.00000000e+00
6.91088894e-03 1.54072754e-02 -6.71584625e-03
1.06502259e-02 1.81851573e-02 0.00000000e+00
1.01665109e-02 1.66686494e-02 -5.32962009e-03
1.34260599e-02 2.09061503e-02 0.00000000e+00
1.42475180e-02 1.77307799e-02 -6.35738298e-03
1.59186199e-02 2.24964432e-02 0.00000000e+00
1.75760128e-02 1.92825980e-02 -5.77880535e-03
1.88705139e-02 2.74033733e-02 0.00000000e+00
2.26850212e-02 2.43011303e-02 -6.07513357e-03
4.17446345e-03 1.75348073e-02 0.00000000e+00
0.00000000e+00 1.71985589e-02 0.00000000e+00
3.53986584e-03 1.75180733e-02 -4.79947682e-03
0.00000000e+00 1.73654556e-02 -5.55925537e-03
7.53298774e-03 1.82342175e-02 0.00000000e+00
6.87441137e-03 1.81522891e-02 -3.29174474e-03
9.57029779e-03 1.95054561e-02 0.00000000e+00
8.78058001e-03 1.90606769e-02 -1.02345273e-03
9.96846985e-03 2.11474299e-02 0.00000000e+00
9.54039302e-03 1.99273266e-02 4.10780311e-04
1.22820716e-02 2.20240913e-02 0.00000000e+00
1.19035365e-02 2.09134817e-02 8.29184428e-04
1.23434793e-02 2.68279947e-02 0.00000000e+00
1.25754606e-02 2.62263529e-02 5.76348975e-04
4.00121324e-03 1.87357850e-02 0.00000000e+00
0.00000000e+00 1.88520439e-02 0.00000000e+00
3.42241721e-03 1.90774165e-02 -4.03632969e-03
0.00000000e+00 1.91301201e-02 -4.64524981e-03
6.92400336e-03 1.89722627e-02 0.00000000e+00
6.15306385e-03 1.87832266e-02 -2.49203108e-03
8.07640422e-03 1.96046680e-02 0.00000000e+00
7.36150518e-03 1.93701275e-02 -5.46373427e-04
7.94749148e-03 2.09603533e-02 0.00000000e+00
7.85835553e-03 2.09627710e-02 -1.59274787e-05
8.43636971e-03 2.44960748e-02 0.00000000e+00
8.30028579e-03 2.23520175e-02 0.00000000e+00
8.48818757e-03 2.46640295e-02 6.77257776e-06
8.31797998e-03 2.24808790e-02 1.11030415e-04
3.67591949e-03 2.01245453e-02 0.00000000e+00
0.00000000e+00 2.05478705e-02 0.00000000e+00
3.14511079e-03 2.03510672e-02 -4.20389697e-03
0.00000000e+00 2.06447262e-02 -5.25391288e-03
6.15101913e-03 1.95358582e-02 0.00000000e+00
5.23950532e-03 1.96787156e-02 -2.40274705e-03
6.72646984e-03 1.99381579e-02 0.00000000e+00
6.35942351e-03 1.98835917e-02 -4.23390418e-04
6.75926777e-03 2.09477507e-02 0.00000000e+00
6.62733754e-03 2.09437422e-02 5.71608543e-05
6.63051289e-03 2.24858634e-02 0.00000000e+00
6.66756649e-03 2.25028694e-02 -2.34693289e-06
6.63129333e-03 2.42145788e-02 0.00000000e+00
6.66054338e-03 2.41670962e-02 -4.10936773e-05
4.13904339e-03 2.22170204e-02 0.00000000e+00
0.00000000e+00 2.28201672e-02 0.00000000e+00
3.22498661e-03 2.22277138e-02 -4.80542146e-03
0.00000000e+00 2.29263939e-02 -6.04406837e-03
6.25568070e-03 2.06475183e-02 0.00000000e+00
5.19993808e-03 2.13063285e-02 -2.99504772e-03
6.10957155e-03 2.01045126e-02 0.00000000e+00
5.85699594e-03 2.05329228e-02 -7.10960478e-04
5.54960081e-03 2.10308768e-02 0.00000000e+00
5.41980378e-03 2.10241489e-02 6.97840005e-05
5.18321758e-03 2.25169081e-02 0.00000000e+00
5.16901584e-03 2.25255266e-02 3.27583402e-05
5.10042068e-03 2.41187438e-02 0.00000000e+00
5.11426199e-03 2.40918156e-02 2.52481550e-05
0.00000000e+00 0.00000000e+00 -1.86149776e-02
3.68867582e-03 0.00000000e+00 -1.97353996e-02
3.29946261e-03 6.20611198e-03 -1.82152539e-02
0.00000000e+00 6.54620444e-03 -1.75308082e-02
8.39425623e-03 0.00000000e+00 -2.14477554e-02
7.16308970e-03 5.01886522e-03 -2.16487404e-02
1.34966653e-02 0.00000000e+00 -2.49619260e-02
1.35680726e-02 4.63597802e-03 -2.46862322e-02
2.07118616e-02 0.00000000e+00 -2.98590660e-02
2.00741068e-02 5.13716554e-03 -2.57843416e-02
2.76106615e-02 0.00000000e+00 -3.36237848e-02
2.72807628e-02 5.32922056e-03 -2.93505564e-02
3.29389200e-02 0.00000000e+00 -3.60090658e-02
3.46291400e-02 5.05229365e-03 -3.22667062e-02
2.13350542e-03 1.23215690e-02 -1.50779327e-02
0.00000000e+00 1.27413590e-02 -1.34939170e-02
6.13243878e-03 1.19896010e-02 -1.56419482e-02
1.19056804e-02 1.31635629e-02 -1.64927263e-02
1.89791135e-02 1.45828854e-02 -2.13525649e-02
2.71878671e-02 1.50067499e-02 -2.19162423e-02
3.63236293e-02 1.45603046e-02 -2.57110205e-02
1.84832793e-03 1.74715072e-02 -1.07711386e-02
0.00000000e+00 1.72271822e-02 -9.57576744e-03
4.61822608e-03 1.76204257e-02 -7.13956915e-03
4.08004876e-03 1.78286433e-02 9.13232565e-04
2.24506576e-03 1.99899785e-02 -7.62679800e-03
0.00000000e+00 1.98699981e-02 -8.51809699e-03
4.29581804e-03 1.93898808e-02 -4.60487790e-03
5.16876485e-03 1.79979801e-02 -1.79510191e-03
1.87230110e-03 2.11393461e-02 -7.91089889e-03
0.00000000e+00 2.15052683e-02 -8.89201276e-03
3.88162816e-03 2.04546899e-02 -5.09356614e-03
6.50525186e-03 1.95600428e-02 -3.78847495e-03
1.09996088e-03 2.34615766e-02 -9.88478307e-03
0.00000000e+00 2.26375163e-02 -9.35198553e-03
3.38649470e-03 2.41335072e-02 -7.94775132e-03
7.05829542e-03 2.34507564e-02 -6.87081181e-03
6.71763346e-03 2.24908479e-02 7.09481537e-06
6.72472827e-03 2.40420401e-02 -4.06615436e-05
5.15019940e-03 2.40609311e-02 2.08690763e-05
5.13429614e-03 2.24933326e-02 4.21889126e-05
0.00000000e+00 0.00000000e+00 -2.79011168e-02
5.15627861e-03 0.00000000e+00 -2.87161116e-02
5.04344003e-03 5.26946178e-03 -2.67838314e-02
0.00000000e+00 5.28104091e-03 -2.58439630e-02
1.12958569e-02 0.00000000e+00 -3.16682383e-02
9.86764487e-03 3.89112858e-03 -2.87486184e-02
1.69933513e-02 0.00000000e+00 -3.43589671e-02
1.70448273e-02 2.76400987e-03 -3.33090276e-02
2.38417201e-02 0.00000000e+00 -3.70899364e-02
2.38550100e-02 3.01982369e-03 -3.82458717e-02
2.96085905e-02 0.00000000e+00 -4.08337414e-02
3.01834960e-02 3.47472727e-03 -4.02394384e-02
3.40861641e-02 0.00000000e+00 -4.24866676e-02
3.51886004e-02 2.63151014e-03 -4.16126847e-02
2.99488427e-03 9.75187309e-03 -2.22165380e-02
0.00000000e+00 1.16367973e-02 -2.14609355e-02
8.62283166e-03 9.17408243e-03 -2.88080871e-02
1.51400659e-02 1.05610164e-02 -3.62938046e-02
2.45429464e-02 1.21141188e-02 -3.65183651e-02
3.17946076e-02 9.93425399e-03 -3.84133793e-02
3.74911577e-02 7.80495163e-03 -3.90645899e-02
1.57506112e-03 1.67735759e-02 -1.43604288e-02
0.00000000e+00 1.67342238e-02 -1.68732572e-02
7.72448489e-03 1.55171417e-02 -2.13854257e-02
1.26622897e-03 2.04018764e-02 -1.10187260e-02
0.00000000e+00 2.12508030e-02 -1.20463669e-02
3.46531393e-03 2.04390585e-02 -6.37980551e-03
1.49460882e-03 2.32342612e-02 -1.14226891e-02
0.00000000e+00 2.22638827e-02 -1.07950764e-02
3.76944803e-03 2.37711407e-02 -1.12703815e-02
2.97452090e-03 2.13864669e-02 1.10541843e-03
8.27361178e-03 2.13595554e-02 -1.07079959e-02
1.06736459e-03 2.46947948e-02 -1.22093279e-02
0.00000000e+00 2.48675328e-02 -1.40481889e-02
</DataArray>
<DataArray type="Float32" Name="Spatial_acceleration" NumberOfComponents="3" format="ascii">
0.00000000e+00 0.00000000e+00 0.00000000e+00
3.34103902e-07 0.00000000e+00 0.00000000e+00
3.23752545e-07 -2.77360286e-08 0.00000000e+00
0.00000000e+00 1.21752421e-07 0.00000000e+00
0.00000000e+00 0.00000000e+00 -5.00996919e-07
2.07384431e-07 0.00000000e+00 -2.40643828e-07
1.84694926e-07 2.18768918e-07 -2.22841891e-07
0.00000000e+00 1.14758805e-07 -2.96910599e-07
4.76201365e-07 0.00000000e+00 0.00000000e+00
5.84940096e-07 1.91926958e-07 0.00000000e+00
4.75207969e-07 0.00000000e+00 -2.02814732e-07
5.21222717e-07 2.66989076e-07 -3.88781217e-07
9.10758956e-07 0.00000000e+00 0.00000000e+00
6.17732610e-07 8.34465013e-08 0.00000000e+00
9.12944472e-07 0.00000000e+00 -3.92278025e-07
8.18769138e-07 2.19662979e-07 -3.34262836e-07
9.05513730e-07 0.00000000e+00 0.00000000e+00
1.12238524e-06 3.78469622e-07 0.00000000e+00
1.11547115e-06 0.00000000e+00 -4.64121484e-07
1.01168951e-06 2.35994648e-07 -4.53313191e-07
1.38250982e-06 0.00000000e+00 0.00000000e+00
1.03371337e-06 4.84049338e-07 0.00000000e+00
1.31776926e-06 0.00000000e+00 -4.92413847e-07
1.29695729e-06 2.74747606e-07 -4.18345138e-07
1.52508142e-06 0.00000000e+00 0.00000000e+00
1.49734808e-06 2.11238856e-07 0.00000000e+00
1.72555440e-06 0.00000000e+00 -5.04175830e-07
1.62370998e-06 5.82496341e-07 -5.17527269e-07
1.02043153e-07 2.40484866e-07 0.00000000e+00
0.00000000e+00 3.55482086e-07 0.00000000e+00
3.12040243e-07 4.06304991e-07 -4.40915414e-07
0.00000000e+00 3.89019647e-07 -6.99361138e-08
4.61975731e-07 3.55561582e-07 0.00000000e+00
6.05136165e-07 5.09341533e-07 -3.68754058e-07
8.61406306e-07 6.25848770e-07 0.00000000e+00
5.60192802e-07 3.55130140e-07 -2.97546393e-07
7.45534862e-07 4.50730312e-07 0.00000000e+00
8.41418910e-07 4.76254371e-07 -3.17043742e-07
1.08075142e-06 1.11993154e-06 0.00000000e+00
9.92430614e-07 4.24120174e-07 -5.94245080e-07
1.04014077e-06 7.77542596e-07 0.00000000e+00
1.22494168e-06 7.34329205e-07 -3.68754087e-07
1.79290765e-07 6.33418551e-07 0.00000000e+00
0.00000000e+00 6.62803643e-07 0.00000000e+00
3.52740273e-07 5.06778576e-07 -5.59806836e-07
0.00000000e+00 6.56445820e-07 -2.77201337e-07
8.42889165e-07 5.56230532e-07 0.00000000e+00
3.99351109e-07 7.33633840e-07 -2.22762424e-07
8.71340433e-07 8.40266523e-07 0.00000000e+00
6.24603729e-07 7.12182782e-07 2.31001120e-08
5.62667879e-07 6.78804213e-07 0.00000000e+00
9.67449637e-07 5.18798856e-07 6.67572024e-08
9.59581826e-07 4.30636931e-07 0.00000000e+00
1.03537241e-06 8.06808487e-07 -4.62426073e-07
1.76191327e-06 1.16411843e-06 0.00000000e+00
6.67254142e-07 8.13802103e-07 2.45412195e-07
5.57661053e-07 8.21789115e-07 0.00000000e+00
0.00000000e+00 6.39915470e-07 0.00000000e+00
3.91483297e-07 1.01064643e-06 -4.73499284e-07
0.00000000e+00 6.97553162e-07 -7.78833993e-08
8.23736173e-07 6.15124918e-07 0.00000000e+00
5.88496505e-07 7.06553465e-07 -2.99771614e-07
8.18967806e-07 1.10054020e-06 0.00000000e+00
8.10623192e-07 6.89983381e-07 -7.92609356e-08
6.81135418e-07 3.62608176e-07 0.00000000e+00
3.27640123e-07 5.95728579e-07 1.53647528e-09
-5.51342964e-07 5.19752518e-07 0.00000000e+00
4.83406893e-07 2.34444940e-07 0.00000000e+00
9.91468596e-07 5.18798799e-07 -3.21646525e-07
2.52617724e-07 1.53393216e-06 5.26984536e-07
4.85485430e-07 9.43064663e-07 0.00000000e+00
0.00000000e+00 5.98986958e-07 0.00000000e+00
3.56788433e-07 1.03843206e-06 -5.22613504e-07
0.00000000e+00 7.83085795e-07 -5.90006493e-07
9.58124815e-07 7.58985664e-07 0.00000000e+00
5.14109900e-07 7.54793462e-07 -3.32514446e-07
5.69581971e-07 7.89006549e-07 0.00000000e+00
6.49505182e-07 5.55780218e-07 5.95092786e-07
3.99271642e-07 1.17913885e-06 0.00000000e+00
5.81299275e-07 3.76303973e-07 3.49462027e-07
4.42385669e-07 6.01053216e-07 0.00000000e+00
5.93678180e-07 9.53563074e-07 -8.17054513e-07
8.12053656e-07 8.61803699e-07 0.00000000e+00
2.16272142e-07 3.98582898e-07 1.81213682e-06
2.45412195e-07 9.98814926e-07 0.00000000e+00
0.00000000e+00 8.80504615e-07 0.00000000e+00
3.62714133e-07 1.10840801e-06 -6.87917066e-07
0.00000000e+00 1.22501456e-06 -3.46501650e-07
9.38405606e-07 8.36213417e-07 0.00000000e+00
7.02718864e-07 9.33527929e-07 -4.13258874e-07
1.02488195e-06 7.30355566e-07 0.00000000e+00
7.12712620e-07 9.92774972e-07 5.00149220e-08
5.65846733e-07 1.36772783e-07 0.00000000e+00
1.39204656e-06 8.96692256e-07 -6.32524461e-07
1.02758406e-06 1.62776314e-06 0.00000000e+00
3.24196293e-07 6.52021811e-07 6.25762709e-07
-1.23405826e-07 -5.16017280e-07 0.00000000e+00
3.15974148e-07 1.50649248e-06 -7.70241002e-07
0.00000000e+00 0.00000000e+00 -3.19798772e-07
2.19901395e-07 0.00000000e+00 -7.50859556e-07
3.29732899e-07 2.62940915e-07 -6.48975345e-07
0.00000000e+00 1.60932544e-07 -5.83330802e-07
4.70062105e-07 0.00000000e+00 -9.73701503e-07
4.87566012e-07 2.69889824e-07 -7.37190248e-07
8.76794275e-07 0.00000000e+00 -7.82648726e-07
8.22464642e-07 2.87592400e-07 -7.23203016e-07
1.22587892e-06 0.00000000e+00 -9.06944251e-07
1.25396252e-06 2.06980857e-07 -7.61508943e-07
1.59062938e-06 0.00000000e+00 -8.31286115e-07
1.54021382e-06 2.62816741e-07 -1.06159848e-06
1.77901484e-06 0.00000000e+00 -1.27601618e-06
1.95328403e-06 5.29110423e-07 -1.36470794e-06
1.86602279e-07 4.85042733e-07 -5.84284464e-07
0.00000000e+00 5.74111937e-07 -7.34329205e-07
3.42686974e-07 5.36986761e-07 -6.90641855e-07
7.79310881e-07 6.32222509e-07 -7.14111309e-07
1.20620928e-06 7.47551496e-07 -7.61032084e-07
1.50099390e-06 6.72330430e-07 -9.00904354e-07
1.51185191e-06 1.13910437e-06 -1.08973188e-06
2.45432062e-07 7.72491092e-07 -4.31219746e-07
0.00000000e+00 8.29696660e-07 -7.00950636e-07
2.67346707e-07 6.61532113e-07 -5.19858474e-07
1.02043153e-07 6.83625558e-07 -7.32739736e-08
2.08655990e-07 9.60310331e-07 -6.05026855e-07
0.00000000e+00 1.05301535e-06 -8.30650322e-07
3.48976670e-07 8.43683893e-07 -3.72114641e-07
4.97818007e-07 5.27064003e-07 -1.78019199e-08
2.63571735e-07 1.28498675e-06 -7.91867592e-07
0.00000000e+00 1.01605053e-06 -6.65028892e-07
3.60329949e-07 1.09368557e-06 -5.72840349e-07
7.39336031e-07 7.70966210e-07 -3.38236475e-07
1.42415360e-07 1.59426531e-06 -1.34531660e-06
0.00000000e+00 1.43078967e-06 -1.15903219e-06
2.49087805e-07 1.86475120e-06 -1.08273821e-06
1.42999488e-06 1.55202542e-06 -1.22706092e-06
1.47926315e-07 2.32841558e-06 2.45512524e-06
5.18361730e-07 2.13648877e-06 -1.13586580e-07
1.44932415e-07 2.05996139e-06 4.54599643e-07
4.28160035e-07 2.54592305e-06 -1.56654914e-06
0.00000000e+00 0.00000000e+00 -1.19145705e-06
2.38239764e-07 0.00000000e+00 -1.06239315e-06
3.58114647e-07 1.82996189e-07 -1.18319190e-06
0.00000000e+00 1.91887224e-07 -1.00803379e-06
6.63633159e-07 0.00000000e+00 -1.23087568e-06
5.62081709e-07 2.74538991e-07 -1.24963128e-06
9.54985580e-07 0.00000000e+00 -1.21593473e-06
9.95755158e-07 2.35160186e-07 -1.32179264e-06
1.24907490e-06 0.00000000e+00 -1.37551626e-06
1.43978991e-06 2.87751362e-07 -1.37424468e-06
1.81102746e-06 0.00000000e+00 -1.52905784e-06
1.87095009e-06 3.38062648e-07 -1.56545639e-06
2.24363794e-06 0.00000000e+00 -1.58945716e-06
2.16492026e-06 2.64267129e-07 -1.61393484e-06
2.82367068e-07 4.23550603e-07 -1.11897782e-06
0.00000000e+00 5.05765286e-07 -1.05953211e-06
6.37871892e-07 4.92232175e-07 -1.02851504e-06
9.49541743e-07 6.49642971e-07 -1.49154664e-06
1.32107732e-06 9.17077045e-07 -1.54050190e-06
1.70800092e-06 9.53475649e-07 -1.49599714e-06
2.22824019e-06 8.28584007e-07 -1.61107380e-06
8.14710361e-08 9.06898833e-07 -1.02924162e-06
0.00000000e+00 8.42889165e-07 -9.46044906e-07
5.01791646e-07 9.58760552e-07 -8.15073633e-07
2.77292145e-07 1.20644336e-06 -9.66026619e-07
0.00000000e+00 1.43218040e-06 -1.09815596e-06
4.67141462e-07 1.30724902e-06 -8.33511365e-07
8.19961201e-08 1.76626440e-06 -1.24526025e-06
0.00000000e+00 1.54783322e-06 -1.18064884e-06
5.15165766e-07 1.59699573e-06 -1.27374562e-06
4.59869710e-07 1.27474470e-06 5.00837984e-07
8.34994864e-07 1.35760843e-06 -1.51485870e-06
3.00844505e-07 1.67498979e-06 -1.48900347e-06
0.00000000e+00 1.72185901e-06 -1.42987562e-06
</DataArray>
<DataArray type="Float32" Name="Spatial_velocity" NumberOfComponents="3" format="ascii">
0.00000000e+00 0.00000000e+00 0.00000000e+00
3.25534420e-05 0.00000000e+00 0.00000000e+00
3.73524672e-05 9.01502790e-05 0.00000000e+00
0.00000000e+00 8.46385738e-05 0.00000000e+00
0.00000000e+00 0.00000000e+00 -9.96949530e-05
3.44388609e-05 0.00000000e+00 -1.04167390e-04
3.48188951e-05 8.16034080e-05 -9.90942790e-05
0.00000000e+00 8.03123985e-05 -9.05322086e-05
7.47880549e-05 0.00000000e+00 0.00000000e+00
7.73355132e-05 1.03313112e-04 0.00000000e+00
7.50803010e-05 0.00000000e+00 -1.22431171e-04
7.83717842e-05 8.86256166e-05 -1.11641588e-04
1.22978265e-04 0.00000000e+00 0.00000000e+00
1.26172425e-04 1.21316676e-04 0.00000000e+00
1.32119618e-04 0.00000000e+00 -1.41476179e-04
1.26965111e-04 9.79584220e-05 -1.29154505e-04
1.91894564e-04 0.00000000e+00 0.00000000e+00
1.76863294e-04 1.34809859e-04 0.00000000e+00
2.00585986e-04 0.00000000e+00 -1.57188377e-04
1.85980069e-04 1.01262878e-04 -1.48420455e-04
2.76959385e-04 0.00000000e+00 0.00000000e+00
2.48361641e-04 1.46241247e-04 0.00000000e+00
2.80529290e-04 0.00000000e+00 -1.84593999e-04
2.62611808e-04 1.06496511e-04 -1.65481688e-04
3.75699368e-04 0.00000000e+00 0.00000000e+00
3.11309035e-04 1.95048793e-04 0.00000000e+00
3.58750345e-04 0.00000000e+00 -1.97839967e-04
3.46045621e-04 1.39258846e-04 -1.92493535e-04
4.43241624e-05 1.53462781e-04 0.00000000e+00
0.00000000e+00 1.48417035e-04 0.00000000e+00
3.86544125e-05 1.48656196e-04 -7.76849993e-05
0.00000000e+00 1.43920726e-04 -7.60508046e-05
8.77961429e-05 1.71450214e-04 0.00000000e+00
7.95314845e-05 1.60699725e-04 -7.56964728e-05
1.22260652e-04 1.90771389e-04 0.00000000e+00
1.16801537e-04 1.74097673e-04 -6.10735442e-05
1.52164808e-04 2.17024659e-04 0.00000000e+00
1.59436007e-04 1.84801727e-04 -6.82346144e-05
1.74272674e-04 2.29254147e-04 0.00000000e+00
1.94001259e-04 1.95981542e-04 -6.37686026e-05
2.09154488e-04 2.76014151e-04 0.00000000e+00
2.46437965e-04 2.43756876e-04 -6.59468424e-05
4.85714954e-05 1.87756363e-04 0.00000000e+00
0.00000000e+00 1.83352269e-04 0.00000000e+00
4.14574570e-05 1.87460246e-04 -5.50345321e-05
0.00000000e+00 1.85435812e-04 -6.07169604e-05
8.89060248e-05 1.94655091e-04 0.00000000e+00
8.09952689e-05 1.94270528e-04 -3.75890122e-05
1.12858324e-04 2.09373160e-04 0.00000000e+00
1.05487568e-04 2.03829157e-04 -1.29688542e-05
1.16547853e-04 2.25416181e-04 0.00000000e+00
1.11473099e-04 2.11612467e-04 3.31052524e-06
1.37272669e-04 2.24781179e-04 0.00000000e+00
1.33282563e-04 2.11522842e-04 1.11613072e-05
1.39781929e-04 2.75782921e-04 0.00000000e+00
1.42046221e-04 2.68090749e-04 8.26801897e-06
4.79508708e-05 2.02351483e-04 0.00000000e+00
0.00000000e+00 2.04408730e-04 0.00000000e+00
4.11186411e-05 2.06124183e-04 -4.57587739e-05
0.00000000e+00 2.07612451e-04 -5.16811415e-05
8.39724453e-05 2.04698197e-04 0.00000000e+00
7.52559499e-05 2.01758463e-04 -2.80843888e-05
9.88404427e-05 2.10028389e-04 0.00000000e+00
9.12612086e-05 2.06964804e-04 -6.93772063e-06
9.64398350e-05 2.22579678e-04 0.00000000e+00
9.57149459e-05 2.22044080e-04 -8.72014994e-07
9.85888983e-05 2.44267139e-04 0.00000000e+00
9.71193076e-05 2.31761267e-04 0.00000000e+00
9.85751903e-05 2.45532661e-04 4.11222658e-07
9.70292167e-05 2.32575054e-04 4.61607868e-07
4.46916638e-05 2.19700669e-04 0.00000000e+00
0.00000000e+00 2.25412223e-04 0.00000000e+00
3.86388310e-05 2.22891758e-04 -4.77705980e-05
0.00000000e+00 2.26364180e-04 -5.93364894e-05
7.66565136e-05 2.10223559e-04 0.00000000e+00
6.52644885e-05 2.12349390e-04 -2.69866505e-05
8.49347052e-05 2.13477513e-04 0.00000000e+00
8.17838227e-05 2.11876002e-04 -3.19199103e-06
8.57539417e-05 2.22126720e-04 0.00000000e+00
8.52101730e-05 2.21841547e-04 4.85879923e-07
8.56914703e-05 2.32877559e-04 0.00000000e+00
8.60154687e-05 2.32196937e-04 -1.21509163e-06
8.58520871e-05 2.44354014e-04 0.00000000e+00
8.49220887e-05 2.43507748e-04 -1.11098711e-06
5.01156755e-05 2.45805073e-04 0.00000000e+00
0.00000000e+00 2.52451806e-04 0.00000000e+00
4.02298101e-05 2.45657429e-04 -5.56663472e-05
0.00000000e+00 2.54515850e-04 -6.83929320e-05
7.96747481e-05 2.25575655e-04 0.00000000e+00
6.49878639e-05 2.35701664e-04 -3.60765735e-05
7.93599102e-05 2.14871645e-04 0.00000000e+00
7.80782284e-05 2.21362730e-04 -6.74461580e-06
7.60200637e-05 2.22263217e-04 0.00000000e+00
7.53743370e-05 2.22043818e-04 4.51201714e-07
7.50761319e-05 2.33451414e-04 0.00000000e+00
7.45652287e-05 2.31559636e-04 1.45535262e-06
7.49400642e-05 2.44518247e-04 0.00000000e+00
7.51026528e-05 2.42849841e-04 2.75599859e-06
0.00000000e+00 0.00000000e+00 -1.89044644e-04
4.09588429e-05 0.00000000e+00 -2.02072843e-04
3.77818105e-05 6.61442973e-05 -1.87761310e-04
0.00000000e+00 6.86621424e-05 -1.83545781e-04
9.25705026e-05 0.00000000e+00 -2.18584202e-04
7.97578759e-05 5.51940138e-05 -2.18448258e-04
1.46343591e-04 0.00000000e+00 -2.50398763e-04
1.47429368e-04 5.15927422e-05 -2.48825003e-04
2.22723043e-04 0.00000000e+00 -2.94848927e-04
2.15853783e-04 5.52929487e-05 -2.60565110e-04
2.96680810e-04 0.00000000e+00 -3.27996182e-04
2.91500095e-04 5.82444809e-05 -2.91069271e-04
3.55026103e-04 0.00000000e+00 -3.51239927e-04
3.72942566e-04 5.79282132e-05 -3.17303784e-04
2.68509175e-05 1.30323271e-04 -1.59375064e-04
0.00000000e+00 1.36094357e-04 -1.45138736e-04
6.99792145e-05 1.27786276e-04 -1.67643448e-04
1.29988461e-04 1.38899122e-04 -1.74271656e-04
2.04079130e-04 1.55797548e-04 -2.13855077e-04
2.89896911e-04 1.59645802e-04 -2.14552463e-04
3.78510740e-04 1.60612006e-04 -2.47155578e-04
2.21239316e-05 1.85036130e-04 -1.18860349e-04
0.00000000e+00 1.85143217e-04 -1.06845051e-04
5.70382617e-05 1.87107551e-04 -8.72261007e-05
5.08060039e-05 1.86423655e-04 9.53479412e-06
2.67334854e-05 2.17724286e-04 -8.63525420e-05
0.00000000e+00 2.15373017e-04 -9.71299742e-05
5.42622438e-05 2.08476195e-04 -5.34293176e-05
6.63943429e-05 1.88209902e-04 -1.99716360e-05
2.52679711e-05 2.31637299e-04 -8.97307036e-05
0.00000000e+00 2.36452528e-04 -9.98888645e-05
4.96365428e-05 2.23104245e-04 -5.93369805e-05
8.76259437e-05 2.10363476e-04 -4.50058360e-05
1.61990356e-05 2.62823422e-04 -1.15101582e-04
0.00000000e+00 2.53606355e-04 -1.09444409e-04
4.64630102e-05 2.72257545e-04 -9.47687004e-05
9.74656723e-05 2.66448071e-04 -9.07768044e-05
8.54592363e-05 2.24394782e-04 -4.15824343e-06
8.54633181e-05 2.36433145e-04 -4.01303123e-06
7.23856720e-05 2.36744861e-04 6.61753575e-06
7.20462194e-05 2.24494186e-04 3.59137198e-06
0.00000000e+00 0.00000000e+00 -2.88456911e-04
5.47512500e-05 0.00000000e+00 -2.93418416e-04
5.49059405e-05 5.80211708e-05 -2.77269748e-04
0.00000000e+00 5.70009906e-05 -2.67132506e-04
1.20765704e-04 0.00000000e+00 -3.20682273e-04
1.04994826e-04 4.38446368e-05 -2.95726117e-04
1.79330309e-04 0.00000000e+00 -3.46692716e-04
1.80328076e-04 3.22477026e-05 -3.37381498e-04
2.51147547e-04 0.00000000e+00 -3.72174574e-04
2.52396450e-04 3.47638343e-05 -3.82754137e-04
3.15333426e-04 0.00000000e+00 -4.09267814e-04
3.20703810e-04 3.94877279e-05 -4.01438796e-04
3.68262932e-04 0.00000000e+00 -4.25135309e-04
3.77383170e-04 3.28180577e-05 -4.15317103e-04
3.38231876e-05 1.05450308e-04 -2.35023937e-04
0.00000000e+00 1.24543716e-04 -2.29629964e-04
9.47352673e-05 1.01388810e-04 -2.88486131e-04
1.63531629e-04 1.15887022e-04 -3.62297549e-04
2.56664760e-04 1.30420507e-04 -3.72212759e-04
3.34228651e-04 1.11220455e-04 -3.81996855e-04
3.97040683e-04 9.36607175e-05 -3.90001049e-04
2.01785533e-05 1.82667543e-04 -1.62101569e-04
0.00000000e+00 1.78987349e-04 -1.81188050e-04
8.44096867e-05 1.65008212e-04 -2.25619646e-04
1.73079661e-05 2.20724760e-04 -1.29175532e-04
0.00000000e+00 2.30232370e-04 -1.33538022e-04
4.89335616e-05 2.19042049e-04 -7.98473702e-05
2.05502674e-05 2.57986598e-04 -1.32925052e-04
0.00000000e+00 2.47334305e-04 -1.26606799e-04
5.31253318e-05 2.62841961e-04 -1.32426212e-04
5.10868704e-05 2.33963350e-04 2.24654723e-05
1.07793086e-04 2.40941474e-04 -1.43774712e-04
1.94312943e-05 2.83667003e-04 -1.47768165e-04
0.00000000e+00 2.85318180e-04 -1.68165672e-04
</DataArray>
<DataArray type="Float32" Name="Reaction_force" NumberOfComponents="3" format="ascii">
9.65206921e-01 -1.29777741e+00 6.99646997e+00
0.00000000e+00 -2.29618263e+00 1.44830961e+01
0.00000000e+00 0.00000000e+00 2.79824791e+01
1.48866129e+00 0.00000000e+00 1.40659885e+01
1.66229296e+00 -2.39162087e+00 0.00000000e+00
0.00000000e+00 -4.20428324e+00 0.00000000e+00
0.00000000e+00 0.00000000e+00 0.00000000e+00
2.64455009e+00 0.00000000e+00 0.00000000e+00
0.00000000e+00 -1.90217042e+00 1.53168659e+01
0.00000000e+00 0.00000000e+00 2.83247375e+01
0.00000000e+00 -2.56087542e+00 0.00000000e+00
0.00000000e+00 0.00000000e+00 0.00000000e+00
0.00000000e+00 -1.33126903e+00 1.63184052e+01
0.00000000e+00 0.00000000e+00 2.85340881e+01
0.00000000e+00 -1.26685023e+00 0.00000000e+00
0.00000000e+00 0.00000000e+00 0.00000000e+00
0.00000000e+00 -8.35875034e-01 1.67881241e+01
0.00000000e+00 0.00000000e+00 2.92804985e+01
0.00000000e+00 -1.32052696e+00 0.00000000e+00
0.00000000e+00 0.00000000e+00 0.00000000e+00
0.00000000e+00 -1.54984307e+00 1.53185606e+01
0.00000000e+00 0.00000000e+00 2.82966957e+01
0.00000000e+00 -2.94094563e+00 0.00000000e+00
0.00000000e+00 0.00000000e+00 0.00000000e+00
0.00000000e+00 -1.73904884e+00 7.40909863e+00
0.00000000e+00 0.00000000e+00 1.46508064e+01
0.00000000e+00 -2.50150919e+00 0.00000000e+00
0.00000000e+00 0.00000000e+00 0.00000000e+00
0.00000000e+00 0.00000000e+00 2.62945919e+01
-4.30918932e-02 0.00000000e+00 1.37948933e+01
0.00000000e+00 0.00000000e+00 0.00000000e+00
1.09735930e+00 0.00000000e+00 0.00000000e+00
0.00000000e+00 0.00000000e+00 2.36913376e+01
0.00000000e+00 0.00000000e+00 0.00000000e+00
0.00000000e+00 0.00000000e+00 2.11250439e+01
0.00000000e+00 0.00000000e+00 0.00000000e+00
0.00000000e+00 0.00000000e+00 1.67903023e+01
0.00000000e+00 0.00000000e+00 0.00000000e+00
0.00000000e+00 0.00000000e+00 1.76903877e+01
0.00000000e+00 0.00000000e+00 0.00000000e+00
0.00000000e+00 0.00000000e+00 1.28688240e+01
0.00000000e+00 0.00000000e+00 0.00000000e+00
0.00000000e+00 0.00000000e+00 2.47354412e+01
-1.84690404e+00 0.00000000e+00 1.33338575e+01
0.00000000e+00 0.00000000e+00 0.00000000e+00
-1.79706717e+00 0.00000000e+00 0.00000000e+00
0.00000000e+00 0.00000000e+00 2.11127987e+01
0.00000000e+00 0.00000000e+00 0.00000000e+00
0.00000000e+00 0.00000000e+00 1.40288515e+01
0.00000000e+00 0.00000000e+00 0.00000000e+00
0.00000000e+00 0.00000000e+00 4.05577135e+00
0.00000000e+00 0.00000000e+00 0.00000000e+00
0.00000000e+00 0.00000000e+00 5.50952148e+00
0.00000000e+00 0.00000000e+00 0.00000000e+00
0.00000000e+00 0.00000000e+00 4.47068977e+00
0.00000000e+00 0.00000000e+00 0.00000000e+00
0.00000000e+00 0.00000000e+00 2.50730057e+01
-2.57231617e+00 0.00000000e+00 1.35274143e+01
0.00000000e+00 0.00000000e+00 0.00000000e+00
-4.46082783e+00 0.00000000e+00 0.00000000e+00
0.00000000e+00 0.00000000e+00 2.04239063e+01
0.00000000e+00 0.00000000e+00 0.00000000e+00
0.00000000e+00 0.00000000e+00 9.90706062e+00
0.00000000e+00 0.00000000e+00 0.00000000e+00
0.00000000e+00 0.00000000e+00 -3.28943968e+00
0.00000000e+00 0.00000000e+00 0.00000000e+00
0.00000000e+00 0.00000000e+00 -2.72276425e+00
0.00000000e+00 0.00000000e+00 -3.13463378e+00
0.00000000e+00 0.00000000e+00 0.00000000e+00
0.00000000e+00 0.00000000e+00 0.00000000e+00
0.00000000e+00 0.00000000e+00 2.73905964e+01
-2.51573277e+00 0.00000000e+00 1.35918159e+01
0.00000000e+00 0.00000000e+00 0.00000000e+00
-3.94211197e+00 0.00000000e+00 0.00000000e+00
0.00000000e+00 0.00000000e+00 2.47034798e+01
0.00000000e+00 0.00000000e+00 0.00000000e+00
0.00000000e+00 0.00000000e+00 1.69791203e+01
0.00000000e+00 0.00000000e+00 0.00000000e+00
0.00000000e+00 0.00000000e+00 1.57785869e+00
0.00000000e+00 0.00000000e+00 0.00000000e+00
0.00000000e+00 0.00000000e+00 -1.37957668e+00
0.00000000e+00 0.00000000e+00 0.00000000e+00
0.00000000e+00 0.00000000e+00 4.05076206e-01
0.00000000e+00 0.00000000e+00 0.00000000e+00
0.00000000e+00 0.00000000e+00 1.43074312e+01
-1.38777590e+00 0.00000000e+00 6.78166151e+00
0.00000000e+00 0.00000000e+00 0.00000000e+00
-1.67325926e+00 0.00000000e+00 0.00000000e+00
0.00000000e+00 0.00000000e+00 1.49399986e+01
0.00000000e+00 0.00000000e+00 0.00000000e+00
0.00000000e+00 0.00000000e+00 1.13065805e+01
0.00000000e+00 0.00000000e+00 0.00000000e+00
0.00000000e+00 0.00000000e+00 2.27950311e+00
0.00000000e+00 0.00000000e+00 0.00000000e+00
0.00000000e+00 0.00000000e+00 -4.68451917e-01
0.00000000e+00 0.00000000e+00 0.00000000e+00
0.00000000e+00 0.00000000e+00 4.21763062e-02
0.00000000e+00 0.00000000e+00 0.00000000e+00
6.72436774e-01 -1.89840519e+00 0.00000000e+00
0.00000000e+00 -2.74720168e+00 0.00000000e+00
0.00000000e+00 0.00000000e+00 0.00000000e+00
2.04104376e+00 0.00000000e+00 0.00000000e+00
0.00000000e+00 -1.36939263e+00 0.00000000e+00
0.00000000e+00 0.00000000e+00 0.00000000e+00
0.00000000e+00 9.73755419e-01 0.00000000e+00
0.00000000e+00 0.00000000e+00 0.00000000e+00
0.00000000e+00 2.03024459e+00 0.00000000e+00
0.00000000e+00 0.00000000e+00 0.00000000e+00
0.00000000e+00 -3.38550508e-02 0.00000000e+00
0.00000000e+00 0.00000000e+00 0.00000000e+00
0.00000000e+00 -2.03993425e-01 0.00000000e+00
0.00000000e+00 0.00000000e+00 0.00000000e+00
0.00000000e+00 0.00000000e+00 0.00000000e+00
1.52594411e+00 0.00000000e+00 0.00000000e+00
0.00000000e+00 0.00000000e+00 0.00000000e+00
0.00000000e+00 0.00000000e+00 0.00000000e+00
0.00000000e+00 0.00000000e+00 0.00000000e+00
0.00000000e+00 0.00000000e+00 0.00000000e+00
0.00000000e+00 0.00000000e+00 0.00000000e+00
0.00000000e+00 0.00000000e+00 0.00000000e+00
-6.00415587e-01 0.00000000e+00 0.00000000e+00
0.00000000e+00 0.00000000e+00 0.00000000e+00
0.00000000e+00 0.00000000e+00 0.00000000e+00
0.00000000e+00 0.00000000e+00 0.00000000e+00
-2.17291045e+00 0.00000000e+00 0.00000000e+00
0.00000000e+00 0.00000000e+00 0.00000000e+00
0.00000000e+00 0.00000000e+00 0.00000000e+00
0.00000000e+00 0.00000000e+00 0.00000000e+00
-1.72767949e+00 0.00000000e+00 0.00000000e+00
0.00000000e+00 0.00000000e+00 0.00000000e+00
0.00000000e+00 0.00000000e+00 0.00000000e+00
0.00000000e+00 0.00000000e+00 0.00000000e+00
-2.19019160e-01 0.00000000e+00 0.00000000e+00
0.00000000e+00 0.00000000e+00 0.00000000e+00
0.00000000e+00 0.00000000e+00 0.00000000e+00
0.00000000e+00 0.00000000e+00 0.00000000e+00
0.00000000e+00 0.00000000e+00 0.00000000e+00
0.00000000e+00 0.00000000e+00 0.00000000e+00
0.00000000e+00 0.00000000e+00 0.00000000e+00
-2.59297848e-01 -3.77871633e-01 0.00000000e+00
0.00000000e+00 6.60640538e-01 0.00000000e+00
0.00000000e+00 0.00000000e+00 0.00000000e+00
8.09630096e-01 0.00000000e+00 0.00000000e+00
0.00000000e+00 1.57178092e+00 0.00000000e+00
0.00000000e+00 0.00000000e+00 0.00000000e+00
0.00000000e+00 2.91443896e+00 0.00000000e+00
0.00000000e+00 0.00000000e+00 0.00000000e+00
0.00000000e+00 4.54818535e+00 0.00000000e+00
0.00000000e+00 0.00000000e+00 0.00000000e+00
0.00000000e+00 4.15713501e+00 0.00000000e+00
0.00000000e+00 0.00000000e+00 0.00000000e+00
0.00000000e+00 2.57751369e+00 0.00000000e+00
0.00000000e+00 0.00000000e+00 0.00000000e+00
0.00000000e+00 0.00000000e+00 0.00000000e+00
1.26218557e+00 0.00000000e+00 0.00000000e+00
0.00000000e+00 0.00000000e+00 0.00000000e+00
0.00000000e+00 0.00000000e+00 0.00000000e+00
0.00000000e+00 0.00000000e+00 0.00000000e+00
0.00000000e+00 0.00000000e+00 0.00000000e+00
0.00000000e+00 0.00000000e+00 0.00000000e+00
0.00000000e+00 0.00000000e+00 0.00000000e+00
2.27389860e+00 0.00000000e+00 0.00000000e+00
0.00000000e+00 0.00000000e+00 0.00000000e+00
0.00000000e+00 0.00000000e+00 0.00000000e+00
4.80484962e-03 0.00000000e+00 0.00000000e+00
0.00000000e+00 0.00000000e+00 0.00000000e+00
0.00000000e+00 0.00000000e+00 0.00000000e+00
1.94925070e-03 0.00000000e+00 0.00000000e+00
0.00000000e+00 0.00000000e+00 0.00000000e+00
0.00000000e+00 0.00000000e+00 0.00000000e+00
0.00000000e+00 0.00000000e+00 0.00000000e+00
0.00000000e+00 0.00000000e+00 0.00000000e+00
1.61836469e+00 0.00000000e+00 0.00000000e+00
</DataArray>
<DataArray type="Float32" Name="Equivalent_plastic_strain" format="ascii">
9.54213459e-03
1.02316327e-02
9.28237964e-03
8.58933106e-03
9.14742937e-03
9.59039503e-03
8.82871472e-03
8.44349805e-03
1.22387586e-02
1.04975821e-02
1.05970146e-02
1.02582552e-02
1.44464374e-02
1.20676837e-02
1.22956613e-02
1.16687415e-02
1.62590006e-02
1.43549528e-02
1.42700518e-02
1.26522532e-02
1.92457214e-02
1.64071438e-02
1.58926209e-02
1.45442338e-02
2.27818005e-02
1.95143670e-02
1.76717527e-02
1.65646146e-02
6.72033546e-03
6.75107515e-03
7.02258921e-03
6.44973316e-03
6.28772436e-03
7.23278470e-03
5.20419737e-03
7.53571545e-03
6.01450528e-03
8.92136285e-03
5.84405789e-03
9.77868276e-03
6.20904309e-03
1.16807008e-02
4.53944365e-03
5.19609544e-03
4.90467873e-03
4.62818600e-03
3.05198511e-03
3.36600514e-03
9.58578807e-04
1.01238953e-03
3.43413092e-04
2.13079847e-03
-8.20916612e-05
1.78572281e-03
3.48918955e-04
1.94346657e-03
3.77914013e-03
4.42080945e-03
3.52639027e-03
3.98235628e-03
2.15570687e-03
2.09218828e-03
4.33442307e-04
7.05424415e-04
-6.22606570e-05
8.16910671e-05
6.30163995e-04
5.36716485e-05
3.63419473e-04
6.00359936e-05
3.78989725e-03
4.70618648e-03
3.44960918e-03
4.02658584e-03
1.94007650e-03
2.15498713e-03
8.44600872e-05
1.07945497e-03
-9.92672803e-07
-2.36440185e-05
-1.87480094e-08
5.59748230e-08
0.00000000e+00
0.00000000e+00
4.27268492e-03
5.41298324e-03
4.07705491e-03
4.28674428e-03
2.21642386e-03
3.03348334e-03
1.13329981e-04
1.83530903e-03
-1.30739299e-05
-2.50382764e-05
0.00000000e+00
0.00000000e+00
0.00000000e+00
0.00000000e+00
8.65508104e-03
8.69628205e-03
8.22801702e-03
8.17592139e-03
8.71372200e-03
8.93550919e-03
9.22613009e-03
1.03256127e-02
1.02580469e-02
1.13063235e-02
1.02889977e-02
1.14749576e-02
9.86311352e-03
1.09153502e-02
7.23678444e-03
6.84102601e-03
9.85496478e-03
1.34862086e-02
1.43616544e-02
1.56289861e-02
1.58521724e-02
4.94168885e-03
5.06721600e-03
6.73475186e-03
4.89296939e-03
3.41644464e-03
3.37316631e-03
2.05020962e-03
3.67138768e-04
3.15267252e-03
2.37901337e-03
4.05164293e-03
4.50943940e-03
3.15680983e-03
2.77373393e-03
5.18370490e-03
1.01536235e-02
0.00000000e+00
0.00000000e+00
0.00000000e+00
0.00000000e+00
8.81300261e-03
8.64702370e-03
8.81703466e-03
8.83940025e-03
8.36182048e-03
8.88623990e-03
8.09389562e-03
9.29717452e-03
7.45648879e-03
1.00908063e-02
6.31293748e-03
8.98913259e-03
5.33982832e-03
7.59115233e-03
8.77641409e-03
8.07775196e-03
9.94761501e-03
1.47871416e-02
1.44314549e-02
1.24784140e-02
1.07255261e-02
8.14818744e-03
5.55773103e-03
1.51220150e-02
4.16212519e-03
3.84656998e-03
6.46536768e-03
2.72835357e-03
3.08096129e-03
5.57630722e-03
4.81202034e-03
1.49865430e-02
5.94075071e-03
4.71718900e-03
</DataArray>
<DataArray type="Float32" Name="Stress_Mises" format="ascii">
2.91993599e+01
3.00475435e+01
2.99230700e+01
2.86991243e+01
2.90825424e+01
2.96386137e+01
2.92276669e+01
2.89630642e+01
3.31044416e+01
3.12588873e+01
3.01485829e+01
3.16827655e+01
3.56348553e+01
3.28443909e+01
3.19265275e+01
3.27376189e+01
3.48766804e+01
3.57994518e+01
3.34520965e+01
3.11976228e+01
3.51107588e+01
3.54835134e+01
3.14725609e+01
3.21004775e+01
4.29286957e+01
4.37094879e+01
3.43381491e+01
3.68046479e+01
2.82276311e+01
2.87188044e+01
2.90029104e+01
2.75388579e+01
2.65841722e+01
2.82519329e+01
2.18568666e+01
2.79629775e+01
2.18575122e+01
2.94180654e+01
1.94511960e+01
3.06014274e+01
2.37070484e+01
3.90189209e+01
2.70541444e+01
2.89573412e+01
2.82578771e+01
2.68534207e+01
2.43624015e+01
2.46567895e+01
1.91803842e+01
2.16498418e+01
1.59113757e+01
2.23330193e+01
2.49062608e+01
3.03395004e+01
2.70207119e+01
3.30086765e+01
2.79627948e+01
2.90215731e+01
2.74764514e+01
2.81455441e+01
2.56179318e+01
2.51753325e+01
2.19340744e+01
2.24576505e+01
1.55997229e+01
2.40223452e+01
2.35390720e+01
2.23317299e+01
2.95808258e+01
2.44462477e+01
2.91746850e+01
2.99306927e+01
2.85072951e+01
2.93556256e+01
2.83725958e+01
2.78261955e+01
2.80894966e+01
3.00443764e+01
1.22449825e+01
1.61245577e+01
8.57744026e+00
4.94382744e+00
9.84396362e+00
1.05109037e+01
3.10336180e+01
3.18420372e+01
3.12236557e+01
3.04752474e+01
3.21613245e+01
3.26554914e+01
3.37169666e+01
3.47601153e+01
2.55442734e+01
2.98306742e+01
1.19988315e+01
6.84695943e+00
5.50299978e+00
3.62845075e+00
2.92079763e+01
2.94942064e+01
2.87437019e+01
2.92008023e+01
2.85226350e+01
2.93753572e+01
2.84701166e+01
3.07719474e+01
3.03203359e+01
3.06329107e+01
2.83592863e+01
2.93091953e+01
2.63738031e+01
2.62822652e+01
2.84650230e+01
2.79331908e+01
3.73434277e+01
4.62591560e+01
3.97346897e+01
4.31904898e+01
4.30546570e+01
2.61396093e+01
2.72202969e+01
3.69990193e+01
4.14974346e+01
2.60101826e+01
2.66477766e+01
2.44951948e+01
2.74918378e+01
2.84516530e+01
2.62857828e+01
2.94709371e+01
3.12253587e+01
2.99826121e+01
2.95278645e+01
3.17804606e+01
4.82670078e+01
1.54336023e+00
2.23745960e+00
1.44653213e+00
1.91128379e+00
2.93411798e+01
2.95073962e+01
2.96285973e+01
2.99355268e+01
2.92847080e+01
2.97008462e+01
2.87918148e+01
3.00782247e+01
2.75554695e+01
3.22672627e+01
2.58617892e+01
2.97683575e+01
2.40798407e+01
2.57675920e+01
2.94417949e+01
2.82768002e+01
3.32257276e+01
5.07028160e+01
4.44332123e+01
3.72908735e+01
3.13452349e+01
3.37010523e+01
2.39603853e+01
6.15516977e+01
2.73110041e+01
2.49392042e+01
4.19345913e+01
2.18529689e+01
2.48595667e+01
2.71715961e+01
4.40290527e+01
5.77273394e+01
3.20591474e+01
3.11092434e+01
</DataArray>
<DataArray type="Float32" Name="Stress_Max_Principal" format="ascii">
4.92611742e+00
4.19675541e+00
3.63516912e+00
4.39230609e+00
4.73000097e+00
4.01322043e+00
3.88838030e+00
4.23308092e+00
1.76820190e+00
2.84584667e+00
3.13424528e+00
1.75864929e+00
-3.62348616e-01
1.27426476e+00
1.15715546e+00
5.96510999e-01
-4.59279478e-01
-1.23002429e+00
-6.69592440e-01
1.55059874e+00
-1.00654268e+00
-2.33798996e-01
7.79262781e-01
1.38974507e+00
-4.77209377e+00
-5.20051038e+00
-3.67832184e-02
-9.15237457e-01
4.02949777e+00
2.82062560e+00
3.09181220e+00
3.82958097e+00
6.48179936e+00
4.24062554e+00
1.05356596e+01
5.08941409e+00
1.17702162e+01
5.88031584e+00
1.43941531e+01
5.97374401e+00
1.27378154e+01
7.71972477e-01
5.87603450e+00
3.91016757e+00
4.03099120e+00
4.64791518e+00
9.01323390e+00
9.36473739e+00
1.61515560e+01
1.98187340e+01
2.26346633e+01
1.78327001e+01
2.68924427e+01
2.06343727e+01
1.76111879e+01
1.18140130e+01
6.11055648e+00
4.95182800e+00
5.88702786e+00
5.04041326e+00
8.32058370e+00
8.68100065e+00
1.50482483e+01
1.36706034e+01
1.69588420e+01
2.20376835e+01
8.59088278e+00
1.63763714e+01
1.27447891e+01
1.82997325e+01
3.95041649e+00
3.28783178e+00
4.41149893e+00
3.33624616e+00
6.49118805e+00
6.05040200e+00
1.41144874e+01
1.06107450e+01
7.08571086e+00
1.04898609e+01
5.33565390e+00
3.08689835e+00
3.11104119e+00
3.14535971e+00
2.42519384e+00
1.81020582e+00
1.66303619e+00
2.51865023e+00
4.80488622e+00
2.20258996e+00
1.58718319e+01
6.07428328e+00
6.31836510e+00
9.98703027e+00
2.51300651e+00
1.55255300e+00
1.57087123e+00
1.35072890e+00
3.28048778e+00
2.44009613e+00
3.98688066e+00
3.73464790e+00
2.70483782e+00
3.09636021e+00
2.84571720e+00
1.59971557e+00
1.84360313e+00
1.51078174e+00
2.49973919e+00
2.59422925e+00
4.83793640e+00
5.51422012e+00
4.49364667e+00
5.34935486e+00
-3.25516905e+00
-9.26471840e+00
-6.49590659e+00
-9.82882917e+00
-9.82166171e+00
6.57736629e+00
5.31884694e+00
1.14473311e+00
1.54798322e+01
6.02438211e+00
4.60399747e+00
1.19441103e+01
1.84961211e+01
4.71263352e+00
5.59909391e+00
4.77146946e+00
4.56551893e+00
2.71772295e+00
3.58104047e+00
1.83493909e+00
-1.31069760e+01
7.51342565e-01
1.30918533e+00
5.17109305e-01
1.10885614e+00
9.54657331e-01
1.09841892e+00
2.27397346e+00
1.03111948e+00
3.10014322e+00
3.41702555e+00
4.39514822e+00
3.44157194e+00
5.52858075e+00
1.23865902e+00
5.90191507e+00
2.37893533e+00
7.86072922e+00
5.74658453e+00
4.52941197e+00
5.17559320e+00
1.25701455e+00
-1.33194362e+01
-1.00904356e+01
-5.20864177e+00
-7.24948704e-01
2.67394089e+00
9.62366122e+00
-1.62892628e+01
6.30051141e+00
8.33478928e+00
-1.50843394e+00
1.19747707e+01
8.41923892e+00
1.15314678e+01
7.76393080e+00
-1.34218679e+01
3.28735304e+00
3.28134598e+00
</DataArray>
<DataArray type="Float32" Name="Stress_Mid_Principal" format="ascii">
-4.25385141e+00
-4.91725743e+00
-3.89561859e+00
-2.54457581e+00
-3.71463227e+00
-3.81127693e+00
-2.82018414e+00
-2.82997683e+00
-7.62508368e+00
-5.31342676e+00
-3.47518579e+00
-4.58732639e+00
-9.73138309e+00
-6.04634219e+00
-4.29441574e+00
-5.01109745e+00
-8.12806439e+00
-8.38126835e+00
-5.00388849e+00
-3.17911739e+00
-7.78423238e+00
-8.65920937e+00
-3.08375454e+00
-4.28768930e+00
-1.77908669e+01
-1.79193172e+01
-7.03295928e+00
-9.70208994e+00
-1.03088054e+00
-6.09369248e-01
-1.28443685e+00
5.22982538e-01
-5.36875844e-01
-9.10356343e-01
4.49531291e+00
3.62610127e-01
4.61463064e+00
-2.54472433e+00
5.67769748e+00
-3.51768084e+00
2.32617998e+00
-1.22190897e+01
-9.95905697e-01
-2.29742277e+00
-5.98990291e-01
1.12719439e+00
1.28827822e+00
2.95162728e+00
7.87284398e+00
8.68187598e+00
1.37840357e+01
3.17459758e+00
9.32987285e+00
-1.53685474e+00
5.55393004e+00
-1.29796457e+00
-2.97183354e+00
-3.77616882e+00
-1.37989853e+00
-2.00764993e+00
-7.78429210e-03
5.42775996e-01
5.42531040e+00
4.19017176e+00
6.46451978e+00
2.91525976e+00
2.70561317e+00
1.71878449e+00
5.38286757e+00
-7.05030680e-01
-2.41506177e+00
-3.36532223e+00
-1.76726066e+00
-2.33752994e+00
-2.37975216e+00
-8.97640282e-01
2.10713472e-01
-1.72737094e+00
2.39155818e+00
5.11513114e-01
1.61131829e-01
1.96986878e-01
-1.58318102e-01
1.30245388e+00
-4.05231214e+00
-5.13447428e+00
-3.25461714e+00
-2.78895915e+00
-6.39970505e+00
-4.52348213e+00
-1.14247041e+01
-7.76265128e+00
3.51563334e+00
2.39066744e+00
1.55478598e+00
1.29790465e-01
-1.72135413e+00
-1.58085695e+00
-1.96408117e+00
-1.46484795e+00
-1.80593574e+00
-2.47414768e+00
2.98243761e-01
-1.65775873e+00
3.35402980e-01
-2.16742652e+00
-1.68315142e+00
-2.10714489e+00
7.26134658e-01
-8.12648311e-01
2.19466615e+00
1.81474805e+00
-1.50926084e+00
-1.94787758e+00
-7.86570723e+00
-1.57968343e+01
-9.84184337e+00
-1.19606656e+01
-1.15610943e+01
1.63213045e+00
3.80849425e-01
-6.08194470e+00
-8.31650102e+00
1.25498326e+00
2.08952499e+00
3.82805520e+00
9.11114868e+00
-1.31409522e+00
2.06120860e+00
-3.04758299e+00
-1.38223994e+00
-4.94073212e-01
-5.77182174e-01
-2.79872179e+00
-1.46063614e+01
-7.95302093e-02
-4.82134506e-01
1.95101680e-01
-4.38698396e-01
4.21126693e-01
-1.85797364e-03
-1.24410191e+00
-5.70389371e-01
-1.54038012e+00
-2.48086855e+00
-2.33516660e+00
-2.94783863e+00
-1.23442572e+00
-4.68558972e+00
1.63453619e+00
-1.63778982e+00
2.65022331e+00
1.89301318e+00
-3.12666329e+00
-1.77910302e+00
-1.69403344e+00
-1.75562618e+01
-1.38067135e+01
-6.81104434e+00
-1.08007926e+00
-6.86483923e+00
1.90534535e+00
-2.74073429e+01
1.22013589e+00
8.54111895e-01
-8.84017396e+00
7.64276911e+00
2.72727633e+00
5.68044349e+00
-9.50602436e+00
-2.40092901e+01
-3.81397702e+00
-3.03457260e+00
</DataArray>
<DataArray type="Float32" Name="Stress_Min_Principal" format="ascii">
-2.77601070e+01
-2.93412895e+01
-2.92923031e+01
-2.71024485e+01
-2.76393251e+01
-2.87466612e+01
-2.80855103e+01
-2.75836949e+01
-3.50140934e+01
-3.16421723e+01
-2.97399497e+01
-3.25951993e+01
-3.97164173e+01
-3.44853077e+01
-3.31318755e+01
-3.45501795e+01
-3.85183659e+01
-3.99513144e+01
-3.60706015e+01
-3.17213755e+01
-3.90041370e+01
-3.91316469e+01
-3.24449756e+01
-3.31190323e+01
-5.27031708e+01
-5.37704563e+01
-3.73298264e+01
-4.12944846e+01
-2.63646154e+01
-2.74488659e+01
-2.77976830e+01
-2.51516705e+01
-2.28854530e+01
-2.61842837e+01
-1.36444834e+01
-2.48301803e+01
-1.26387370e+01
-2.67647281e+01
-7.65726674e+00
-2.80585369e+01
-1.42183337e+01
-4.28356005e+01
-2.38503184e+01
-2.75858965e+01
-2.61725924e+01
-2.36909370e+01
-1.82110369e+01
-1.77098089e+01
-5.44652706e+00
-4.89220436e+00
4.73629912e+00
-7.75590563e+00
-1.48898441e+00
-1.35235044e+01
-1.19470968e+01
-2.41913404e+01
-2.52141294e+01
-2.74321232e+01
-2.44672475e+01
-2.59494529e+01
-2.00813158e+01
-1.92709675e+01
-9.54833263e+00
-1.17737620e+01
-3.29330067e-01
-4.10608705e+00
-1.71294069e+01
-9.27290661e+00
-1.97961645e+01
-8.87181868e+00
-2.77709136e+01
-2.93972530e+01
-2.66382172e+01
-2.83951564e+01
-2.49298887e+01
-2.44185526e+01
-1.79405687e+01
-2.32918746e+01
-6.73535150e+00
-7.90580121e+00
-4.39219327e+00
-2.58980093e+00
-7.86438704e+00
-8.03635152e+00
-3.13160191e+01
-3.29310303e+01
-3.17009549e+01
-3.02509251e+01
-3.14548931e+01
-3.32327952e+01
-2.18157463e+01
-3.24434795e+01
-2.05110559e+01
-2.28677902e+01
-9.89895439e+00
-5.88392687e+00
-4.78203917e+00
-2.70732373e+00
-2.81941128e+01
-2.87970781e+01
-2.72106886e+01
-2.80707273e+01
-2.69447813e+01
-2.83200831e+01
-2.67475300e+01
-3.08679029e+01
-3.00816350e+01
-3.07598648e+01
-2.66962514e+01
-2.82664316e+01
-2.27536154e+01
-2.24156044e+01
-2.64316220e+01
-2.54682760e+01
-4.26378441e+01
-5.83188324e+01
-4.77864275e+01
-5.40452986e+01
-5.37136383e+01
-2.15890331e+01
-2.39202790e+01
-3.87187188e+01
-3.23961744e+01
-2.20068136e+01
-2.32098088e+01
-1.53189475e+01
-1.23618078e+01
-2.62560978e+01
-2.22657199e+01
-2.76855049e+01
-2.91875064e+01
-2.86214762e+01
-2.78006449e+01
-3.19816909e+01
-6.21050663e+01
-1.02287748e+00
-1.17812914e+00
-1.06327549e+00
-1.02124742e+00
-2.86496487e+01
-2.89415064e+01
-2.88962827e+01
-2.96575823e+01
-2.82231236e+01
-2.87622445e+01
-2.71467743e+01
-2.92614204e+01
-2.47717967e+01
-3.35521917e+01
-2.18068652e+01
-2.91765133e+01
-1.83909693e+01
-2.17117938e+01
-2.79131260e+01
-2.59192972e+01
-3.33426613e+01
-6.59328705e+01
-5.62624683e+01
-4.32746048e+01
-3.22460651e+01
-3.45332238e+01
-1.72225727e+01
-8.25370693e+01
-2.30375799e+01
-1.92341638e+01
-4.62614727e+01
-1.15683277e+01
-1.86777182e+01
-1.77315130e+01
-4.22820244e+01
-7.55746994e+01
-3.12382812e+01
-3.05012169e+01
</DataArray>
<DataArray type="Float32" Name="Stress_Pressure" format="ascii">
9.02928066e+00
1.00205970e+01
9.85091722e+00
8.41823959e+00
8.87465239e+00
9.51490581e+00
9.00577134e+00
8.72686338e+00
1.36236582e+01
1.13699178e+01
1.00269634e+01
1.18079587e+01
1.66033835e+01
1.30857952e+01
1.20897117e+01
1.29882551e+01
1.57019033e+01
1.65208690e+01
1.39146936e+01
1.11166315e+01
1.59316378e+01
1.60082181e+01
1.15831559e+01
1.20056587e+01
2.50887108e+01
2.56300945e+01
1.47998562e+01
1.73039372e+01
7.78866613e+00
8.41253662e+00
8.66343570e+00
6.93303579e+00
5.64684339e+00
7.61800486e+00
-4.62163329e-01
6.45938525e+00
-1.24870342e+00
7.80971225e+00
-4.13819472e+00
8.53415823e+00
-2.81887054e-01
1.80942390e+01
6.32339668e+00
8.65771699e+00
7.58019730e+00
5.97194266e+00
2.63650815e+00
1.79781475e+00
-6.19262442e+00
-7.86946855e+00
-1.37183326e+01
-4.41713067e+00
-1.15777767e+01
-1.85800429e+00
-3.73934042e+00
4.55843067e+00
7.35846889e+00
8.75215483e+00
6.65337276e+00
7.63889658e+00
3.92283869e+00
3.34906361e+00
-3.64174205e+00
-2.02900419e+00
-7.69801076e+00
-6.94895188e+00
1.94430387e+00
-2.94074988e+00
5.56169033e-01
-2.90762778e+00
8.74518645e+00
9.82491446e+00
7.99799293e+00
9.13214707e+00
6.93948436e+00
6.42193037e+00
1.20512262e+00
4.80283358e+00
-9.13972616e-01
-1.03185755e+00
-3.68197560e-01
-2.31361455e-01
1.63722134e+00
1.19617934e+00
1.09810462e+01
1.20850992e+01
1.10975119e+01
1.01737447e+01
1.10165708e+01
1.18512292e+01
5.78953958e+00
1.13772823e+01
3.55901909e+00
3.49669743e+00
1.94372070e+00
1.40052784e+00
1.64417410e+00
9.79150578e-01
8.95923543e+00
9.27394342e+00
8.34324801e+00
8.93674254e+00
7.98056674e+00
8.96049401e+00
7.85546994e+00
1.04785379e+01
9.97372746e+00
1.04520761e+01
7.82345909e+00
8.82828358e+00
5.24033761e+00
5.02887895e+00
7.81574553e+00
7.35559964e+00
1.79195730e+01
2.77934612e+01
2.13747253e+01
2.52782640e+01
2.50321312e+01
4.45984559e+00
6.07352757e+00
1.45519769e+01
8.41094775e+00
4.90914951e+00
5.50542864e+00
-1.51072689e-01
-5.08182069e+00
7.61918664e+00
4.86847240e+00
8.65387291e+00
8.66807532e+00
8.79927540e+00
8.26559472e+00
1.09818244e+01
2.99394684e+01
1.17021691e-01
1.17026083e-01
1.17021501e-01
1.17029894e-01
9.09128809e+00
9.28164876e+00
9.28880364e+00
9.73228407e+00
8.88778675e+00
9.27536237e+00
8.36226428e+00
9.58922893e+00
6.82588080e+00
1.23330408e+01
4.75680473e+00
9.47845602e+00
2.62667227e+00
4.69073224e+00
8.83679241e+00
7.50760221e+00
1.12598931e+01
3.22695221e+01
2.67198725e+01
1.84314299e+01
1.13503647e+01
1.29080405e+01
1.89785522e+00
4.20778923e+01
5.17231085e+00
3.34842102e+00
1.88700269e+01
-2.68307082e+00
2.51040092e+00
1.73200607e-01
1.46747065e+01
3.76686185e+01
1.05883019e+01
1.00848145e+01
</DataArray>
<DataArray type="Float32" Name="Stress_Tresca" format="ascii">
3.26862259e+01
3.35380459e+01
3.29274731e+01
3.14947548e+01
3.23693266e+01
3.27598815e+01
3.19738905e+01
3.18167763e+01
3.67822952e+01
3.44880190e+01
3.28741946e+01
3.43538482e+01
3.93540688e+01
3.57595720e+01
3.42890310e+01
3.51466906e+01
3.80590878e+01
3.87212901e+01
3.54010086e+01
3.32719748e+01
3.79975948e+01
3.88978481e+01
3.32242374e+01
3.45087769e+01
4.79310760e+01
4.85699463e+01
3.72930431e+01
4.03792467e+01
3.03941126e+01
3.02694921e+01
3.08894954e+01
2.89812517e+01
2.93672523e+01
3.04249091e+01
2.41801429e+01
2.99195944e+01
2.44089530e+01
3.26450440e+01
2.20514197e+01
3.40322809e+01
2.69561496e+01
4.36075738e+01
2.97263536e+01
3.14960642e+01
3.02035835e+01
2.83388524e+01
2.72242713e+01
2.70745459e+01
2.15980835e+01
2.47109385e+01
1.78983641e+01
2.55886059e+01
2.83814268e+01
3.41578782e+01
2.95582848e+01
3.60053539e+01
3.13246856e+01
3.23839521e+01
3.03542752e+01
3.09898663e+01
2.84018998e+01
2.79519682e+01
2.45965810e+01
2.54443658e+01
1.72881721e+01
2.61437702e+01
2.57202902e+01
2.56492774e+01
3.25409546e+01
2.71715514e+01
3.17213302e+01
3.26850853e+01
3.10497160e+01
3.17314029e+01
3.14210768e+01
3.04689546e+01
3.20550561e+01
3.39026200e+01
1.38210621e+01
1.83956623e+01
9.72784734e+00
5.67669926e+00
1.09754281e+01
1.11817109e+01
3.37412128e+01
3.47412376e+01
3.33639908e+01
3.27695751e+01
3.62597809e+01
3.54353857e+01
3.76875782e+01
3.85177625e+01
2.68294210e+01
3.28548212e+01
1.24119611e+01
7.43648005e+00
6.35291052e+00
4.05805254e+00
3.14746008e+01
3.12371740e+01
3.11975694e+01
3.18053761e+01
2.96496186e+01
3.14164436e+01
2.95932469e+01
3.24676182e+01
3.19252377e+01
3.22706468e+01
2.91959901e+01
3.08606610e+01
2.75915518e+01
2.79298244e+01
3.09252689e+01
3.08176308e+01
3.93826746e+01
4.90541130e+01
4.12905207e+01
4.42164698e+01
4.38919773e+01
2.81663997e+01
2.92391267e+01
3.98634523e+01
4.78760052e+01
2.80311956e+01
2.78138065e+01
2.72630580e+01
3.08579292e+01
3.09687307e+01
2.78648138e+01
3.24569743e+01
3.37530253e+01
3.13391986e+01
3.13816853e+01
3.38166306e+01
4.89980888e+01
1.77421999e+00
2.48731446e+00
1.58038485e+00
2.13010347e+00
2.96043062e+01
3.00399251e+01
3.11702564e+01
3.06887016e+01
3.13232670e+01
3.21792696e+01
3.15419226e+01
3.27029929e+01
3.03003778e+01
3.47908502e+01
2.77087798e+01
3.15554485e+01
2.62516985e+01
2.74583783e+01
3.24425383e+01
3.10948906e+01
3.45996756e+01
5.26134346e+01
4.61720333e+01
3.80659637e+01
3.15211163e+01
3.72071645e+01
2.68462343e+01
6.62478046e+01
2.93380914e+01
2.75689535e+01
4.47530403e+01
2.35430981e+01
2.70969577e+01
2.92629807e+01
5.00459557e+01
6.21528295e+01
3.45256343e+01
3.37825632e+01
</DataArray>
<DataArray type="Float32" Name="Stress_Third_Invariant" format="ascii">
-2.56378613e+01
-2.66091223e+01
-2.75017762e+01
-2.65693197e+01
-2.60985279e+01
-2.71410403e+01
-2.73198025e+01
-2.68254251e+01
-2.98622446e+01
-2.85416288e+01
-2.83355465e+01
-3.01259286e+01
-3.25683460e+01
-3.04445791e+01
-3.08116941e+01
-3.15191050e+01
-3.28479548e+01
-3.37200241e+01
-3.27891159e+01
-3.03075433e+01
-3.35638437e+01
-3.29703522e+01
-3.09276166e+01
-3.07601346e+01
-3.80924454e+01
-3.88089695e+01
-3.26606503e+01
-3.42322087e+01
-2.71056767e+01
-2.82198153e+01
-2.80719948e+01
-2.68895116e+01
-2.42717657e+01
-2.69964957e+01
-1.95451119e+01
-2.66705998e+01
-1.78847996e+01
-2.61875722e+01
-9.02221030e+00
-2.58741552e+01
-1.32944067e+01
-3.22994757e+01
-2.45624566e+01
-2.71751909e+01
-2.71070054e+01
-2.59991374e+01
-2.09742904e+01
-2.19535052e+01
-6.91884351e+00
-2.68188500e+00
1.66651917e+00
1.22505253e+01
1.40429959e+01
1.64524670e+01
-2.39991760e+00
-2.76952362e+00
-2.40397205e+01
-2.58113842e+01
-2.50711367e+01
-2.60075808e+01
-2.00254707e+01
-2.02434177e+01
-3.81774807e+00
-1.25056167e+01
-1.31194433e-01
1.29689684e+01
-2.09181285e+01
1.32089917e+01
-2.73026180e+01
1.36488342e+01
-2.71368823e+01
-2.81483994e+01
-2.67891595e+01
-2.79150352e+01
-2.18435795e+01
-2.49096992e+01
-1.00289645e+01
-1.29752849e+01
-9.03224546e+00
2.57753050e+00
2.34662831e+00
6.12850904e-01
-7.92821383e+00
-9.25755350e+00
-2.93823795e+01
-3.00664616e+01
-3.02454152e+01
-2.93715429e+01
-2.71912804e+01
-3.08227482e+01
2.97730093e+01
-1.25753034e+01
-2.51928539e+01
-2.73730164e+01
-1.17946925e+01
-6.46459715e+00
2.19055104e+00
3.19790602e+00
-2.81179838e+01
-2.88558135e+01
-2.73789754e+01
-2.76547503e+01
-2.82926621e+01
-2.83335834e+01
-2.80679669e+01
-3.02003949e+01
-2.98401732e+01
-3.01131265e+01
-2.82082763e+01
-2.88489070e+01
-2.60597219e+01
-2.56666679e+01
-2.67567127e+01
-2.54896092e+01
-3.65292546e+01
-4.47837044e+01
-3.93809052e+01
-4.30704746e+01
-4.29572544e+01
-2.47057724e+01
-2.57844844e+01
-3.44430920e+01
-3.87041092e-01
-2.48808410e+01
-2.63724408e+01
-1.97378095e+01
-2.29002701e+01
-2.69102101e+01
-2.57074208e+01
-2.63660501e+01
-2.98465319e+01
-2.92048259e+01
-2.88422527e+01
-3.09211159e+01
-4.82111378e+01
-1.02237374e-01
1.89744520e+00
-1.36228633e+00
1.67204773e+00
-2.93302574e+01
-2.94544911e+01
-2.89590878e+01
-2.97920852e+01
-2.84243798e+01
-2.82364655e+01
-2.68635893e+01
-2.82859981e+01
-2.55592113e+01
-3.09104381e+01
-2.49794626e+01
-2.90925698e+01
-2.27342339e+01
-2.50449476e+01
-2.67587693e+01
-2.62065134e+01
-3.29191557e+01
-5.00657990e+01
-4.40734863e+01
-3.72124386e+01
-3.13401861e+01
-2.90616951e+01
-2.07557464e+01
-5.88673353e+01
-2.56618990e+01
-2.09179940e+01
-3.90880961e+01
-1.97076295e+01
-2.28613710e+01
-2.27523174e+01
-3.50949593e+01
-5.49808248e+01
-2.71201448e+01
-2.96147194e+01
</DataArray>
<DataArray type="Float32" Name="Logarithmic_strain_Max_Principal" format="ascii">
8.28118343e-03
8.75794329e-03
7.64612027e-03
7.02070119e-03
7.75426743e-03
7.92272133e-03
7.10719387e-03
6.93949766e-03
1.02202785e-02
8.67101608e-03
8.36736662e-03
7.94515217e-03
1.17567624e-02
9.57236590e-03
9.19296290e-03
8.72529543e-03
1.26019767e-02
1.09305701e-02
1.00480833e-02
9.23722668e-03
1.44382743e-02
1.26949365e-02
1.11248351e-02
1.07247273e-02
1.89687293e-02
1.61255044e-02
1.33456644e-02
1.32071669e-02
5.18056017e-03
4.88370494e-03
5.28718700e-03
4.74128762e-03
5.28265652e-03
5.68461569e-03
4.71230439e-03
6.01099834e-03
5.66722825e-03
7.53331285e-03
6.03014289e-03
8.37155113e-03
6.67162100e-03
1.02196087e-02
3.75126104e-03
4.08879027e-03
3.67001616e-03
3.39980039e-03
2.79513659e-03
2.99992596e-03
1.37958844e-03
2.02938080e-03
1.35965174e-03
2.91860441e-03
1.44258281e-03
2.87222280e-03
1.09391770e-03
2.65897391e-03
3.38709052e-03
3.82929808e-03
3.02747719e-03
3.32394382e-03
2.10573408e-03
2.04175264e-03
8.01763985e-04
1.02537397e-03
3.08820803e-04
5.61984906e-04
7.18854280e-04
5.20150405e-04
7.06806662e-04
6.51697919e-04
3.07314558e-03
3.74283525e-03
2.79675974e-03
3.14453238e-03
1.87898782e-03
1.91618195e-03
5.29750112e-04
1.23364773e-03
1.53986926e-04
2.33055591e-04
1.23533563e-04
7.11306835e-05
9.45128486e-05
8.96950684e-05
3.41511879e-03
4.25520446e-03
3.12050624e-03
3.27840145e-03
2.18669185e-03
2.49285920e-03
6.82801619e-04
1.67384297e-03
1.82677592e-04
2.77444822e-04
8.37091739e-05
5.41839327e-05
5.83163637e-05
4.43545396e-05
6.62365253e-03
6.30239944e-03
6.47691946e-03
6.47156697e-03
5.95667842e-03
6.70160359e-03
6.43094163e-03
7.43902056e-03
7.19497330e-03
7.96491961e-03
6.75850373e-03
8.12276942e-03
6.78478740e-03
8.00438796e-03
5.80424926e-03
5.77028573e-03
7.08438809e-03
9.69183259e-03
9.48402868e-03
9.84576344e-03
1.00509655e-02
4.12517451e-03
4.06704220e-03
5.67978279e-03
6.60432235e-03
2.71181014e-03
2.48783169e-03
2.13538932e-03
1.82478413e-03
2.61509122e-03
1.90758079e-03
3.37933190e-03
3.59340332e-03
2.39367835e-03
2.23322900e-03
3.95776721e-03
6.49998395e-03
1.95643543e-05
3.28272872e-05
1.36913877e-05
2.76543888e-05
5.47131733e-03
5.52729389e-03
6.24404364e-03
5.81826689e-03
6.24585454e-03
6.92563580e-03
6.59444917e-03
7.30822713e-03
6.12996414e-03
7.64349615e-03
4.79411986e-03
6.49212598e-03
4.37163236e-03
5.61043015e-03
7.25035486e-03
6.64488249e-03
7.21859626e-03
1.05208101e-02
9.77451447e-03
8.01865698e-03
6.71921275e-03
6.97298404e-03
5.18644229e-03
1.20998267e-02
3.52626124e-03
3.53480736e-03
5.60323603e-03
2.52908227e-03
2.67608883e-03
5.13533613e-03
5.28611708e-03
1.23175291e-02
4.86967768e-03
3.90159420e-03
</DataArray>
<DataArray type="Float32" Name="Logarithmic_strain_Min_Principal" format="ascii">
-9.63856932e-03
-1.03723831e-02
-9.57066449e-03
-8.87827156e-03
-9.34679899e-03
-9.86610143e-03
-9.18188004e-03
-8.74172361e-03
-1.24919536e-02
-1.07930799e-02
-1.09995152e-02
-1.07721832e-02
-1.47977350e-02
-1.24846734e-02
-1.28635364e-02
-1.22753154e-02
-1.67222125e-02
-1.49560776e-02
-1.49597062e-02
-1.32685637e-02
-1.98252629e-02
-1.70195266e-02
-1.65152319e-02
-1.52202559e-02
-2.31471248e-02
-2.00884175e-02
-1.83144761e-02
-1.73234304e-02
-7.17771996e-03
-7.27114547e-03
-7.51841848e-03
-6.92485459e-03
-6.63559721e-03
-7.70554523e-03
-5.50125621e-03
-8.13648311e-03
-6.31610048e-03
-9.46618725e-03
-5.93102165e-03
-1.03834479e-02
-6.33762893e-03
-1.25196683e-02
-4.93842317e-03
-5.67194866e-03
-5.44439262e-03
-5.12888760e-03
-3.40527488e-03
-3.85749416e-03
-1.29213232e-03
-1.79598815e-03
-1.07789082e-03
-2.49194492e-03
-1.14815752e-03
-2.31013624e-03
-1.47660327e-03
-2.64571147e-03
-4.14897618e-03
-4.82610869e-03
-3.97008439e-03
-4.43064549e-03
-2.50840664e-03
-2.44662815e-03
-7.06036939e-04
-1.05089875e-03
-1.33193321e-04
-2.84288040e-04
-1.08289527e-03
-3.94212443e-04
-9.74846305e-04
-3.92908267e-04
-4.29209380e-03
-5.22051915e-03
-3.94726152e-03
-4.55176306e-03
-2.40884803e-03
-2.65742830e-03
-5.33386396e-04
-1.60982670e-03
-1.68058075e-04
-1.92995427e-04
-1.10051838e-04
-6.50951846e-05
-1.69089828e-04
-1.78504539e-04
-4.84161335e-03
-5.98447351e-03
-4.69830038e-03
-4.89194971e-03
-2.78308999e-03
-3.71420133e-03
-5.68951335e-04
-2.51206577e-03
-4.44501129e-04
-5.05204880e-04
-2.14498228e-04
-1.23926729e-04
-9.49350870e-05
-5.33075472e-05
-9.11489734e-03
-9.23977094e-03
-8.66332918e-03
-8.59660562e-03
-9.32149705e-03
-9.49386519e-03
-9.82955797e-03
-1.10318102e-02
-1.09538666e-02
-1.19676463e-02
-1.08951388e-02
-1.21191142e-02
-1.04706702e-02
-1.15405652e-02
-7.69714941e-03
-7.15850457e-03
-1.07995370e-02
-1.47904567e-02
-1.53130102e-02
-1.67941144e-02
-1.70800136e-02
-5.50367089e-03
-5.55947865e-03
-7.81167097e-03
-5.79168228e-03
-3.86580013e-03
-3.92048759e-03
-2.62953501e-03
-1.94323065e-03
-3.68780497e-03
-2.90739292e-03
-4.57887806e-03
-5.37068502e-03
-3.86154430e-03
-3.43751058e-03
-6.02383423e-03
-1.17105425e-02
-2.27141963e-05
-2.67399901e-05
-2.41716089e-05
-2.33341652e-05
-9.42585850e-03
-9.26515274e-03
-9.40609735e-03
-9.46900737e-03
-8.91799130e-03
-9.42277914e-03
-8.47183727e-03
-9.86607769e-03
-7.84338894e-03
-1.07381755e-02
-6.77875313e-03
-9.57748981e-03
-5.69678866e-03
-8.05589405e-03
-9.21074150e-03
-8.51905835e-03
-1.13567452e-02
-1.69286918e-02
-1.56049624e-02
-1.33705256e-02
-1.14424210e-02
-8.87728755e-03
-5.99120744e-03
-1.79384025e-02
-4.83146410e-03
-4.11416288e-03
-7.87610142e-03
-3.34665630e-03
-3.63220763e-03
-6.67956318e-03
-6.68574031e-03
-1.70774544e-02
-6.74975541e-03
-5.46709844e-03
</DataArray>
<DataArray type="Float32" Name="Plastic_strain_Max_Principal" format="ascii">
8.05528834e-03
8.53814650e-03
7.44247518e-03
6.81298156e-03
7.53485388e-03
7.71315501e-03
6.90582622e-03
6.73383579e-03
1.00187166e-02
8.46976659e-03
8.17144045e-03
7.76471064e-03
1.15733994e-02
9.39190574e-03
9.02137300e-03
8.55770230e-03
1.24252522e-02
1.07761973e-02
9.90449428e-03
9.06320493e-03
1.42797516e-02
1.25271739e-02
1.09793595e-02
1.05443720e-02
1.87940914e-02
1.59827974e-02
1.31910387e-02
1.30182477e-02
4.98970388e-03
4.71455534e-03
5.10955520e-03
4.56425920e-03
5.05826774e-03
5.49269241e-03
4.45919897e-03
5.81008452e-03
5.39617694e-03
7.29685246e-03
5.72867820e-03
8.11911165e-03
6.35766634e-03
9.96917145e-03
3.53361887e-03
3.89094872e-03
3.48331389e-03
3.21525033e-03
2.54649250e-03
2.75351899e-03
1.06711910e-03
1.65463738e-03
9.94090369e-04
2.53900614e-03
1.08769188e-03
2.39451524e-03
8.44938884e-04
2.31702506e-03
3.15212953e-03
3.60507146e-03
2.80607989e-03
3.11114732e-03
1.85980677e-03
1.79301345e-03
4.91701903e-04
7.23341989e-04
6.59505093e-05
1.46828553e-04
4.90856939e-04
1.64953764e-04
3.95849638e-04
2.49908296e-04
2.87363346e-03
3.54733714e-03
2.59477255e-03
2.95549416e-03
1.64053941e-03
1.69478709e-03
2.10654955e-04
9.24225526e-04
1.25709768e-05
2.17687811e-05
1.13165317e-08
6.22619041e-08
0.00000000e+00
0.00000000e+00
3.22626112e-03
4.06986428e-03
2.94928224e-03
3.09650472e-03
1.94022839e-03
2.30000363e-03
2.35276628e-04
1.39500891e-03
8.88442901e-06
2.75435850e-05
0.00000000e+00
0.00000000e+00
0.00000000e+00
0.00000000e+00
6.43934100e-03
6.13402855e-03
6.28081267e-03
6.27535465e-03
5.79691329e-03
6.51536853e-03
6.26582874e-03
7.26687827e-03
7.03027402e-03
7.79739756e-03
6.60850643e-03
7.94615626e-03
6.61006966e-03
7.80093344e-03
5.60145552e-03
5.55404637e-03
6.95394991e-03
9.59982425e-03
9.39666224e-03
9.80053842e-03
1.00149200e-02
3.91036726e-03
3.86852882e-03
5.48737962e-03
6.11308706e-03
2.50838630e-03
2.31139601e-03
1.84958096e-03
1.50057549e-03
2.41135401e-03
1.71434454e-03
3.16269795e-03
3.38295504e-03
2.22492867e-03
2.04943930e-03
3.78024759e-03
6.50992931e-03
0.00000000e+00
0.00000000e+00
0.00000000e+00
0.00000000e+00
5.34009398e-03
5.38859109e-03
6.08131214e-03
5.67713077e-03
6.06427318e-03
6.73156342e-03
6.38887868e-03
7.10063108e-03
5.90998516e-03
7.46312254e-03
4.58849099e-03
6.31992659e-03
4.14504623e-03
5.41173131e-03
7.03039212e-03
6.43280335e-03
7.06565513e-03
1.05018273e-02
9.71615594e-03
7.93934113e-03
6.60754181e-03
6.75721570e-03
4.92785219e-03
1.20216028e-02
3.31202396e-03
3.29338119e-03
5.41866943e-03
2.28303633e-03
2.44546283e-03
4.87927949e-03
4.90568439e-03
1.22726002e-02
4.68427618e-03
3.70392983e-03
</DataArray>
<DataArray type="Float32" Name="Plastic_strain_Min_Principal" format="ascii">
-9.08162538e-03
-9.78738954e-03
-8.98576248e-03
-8.32875911e-03
-8.79001711e-03
-9.29106469e-03
-8.61599215e-03
-8.18503019e-03
-1.18101691e-02
-1.01685566e-02
-1.04052674e-02
-1.01312521e-02
-1.40307159e-02
-1.18110995e-02
-1.22087337e-02
-1.16051247e-02
-1.59644051e-02
-1.41865558e-02
-1.42574795e-02
-1.26428243e-02
-1.90515034e-02
-1.62676179e-02
-1.58804320e-02
-1.45708350e-02
-2.20931713e-02
-1.90881249e-02
-1.75827611e-02
-1.65303135e-02
-6.63811946e-03
-6.71260688e-03
-6.95534714e-03
-6.40444888e-03
-6.15542696e-03
-7.17041222e-03
-5.17097150e-03
-7.62153304e-03
-6.00165874e-03
-8.92797058e-03
-5.70300920e-03
-9.82475832e-03
-6.00322802e-03
-1.17248208e-02
-4.44160600e-03
-5.11260680e-03
-4.90753778e-03
-4.63170005e-03
-3.00019229e-03
-3.45510870e-03
-1.08967336e-03
-1.59395835e-03
-1.04550379e-03
-2.25462014e-03
-1.02450983e-03
-1.96663457e-03
-1.16671360e-03
-2.12828640e-03
-3.63152055e-03
-4.27153893e-03
-3.46250436e-03
-3.89921974e-03
-2.07361067e-03
-2.02508814e-03
-4.36958697e-04
-7.45490518e-04
-7.33195005e-05
-1.38399243e-04
-6.95198018e-04
-1.38346538e-04
-5.07038028e-04
-1.46081321e-04
-3.73000005e-03
-4.63230908e-03
-3.40438046e-03
-3.97938478e-03
-1.89419003e-03
-2.14914852e-03
-1.60847778e-04
-1.11053072e-03
-1.17091021e-05
-1.79028052e-05
-2.08537809e-08
-3.37870972e-08
0.00000000e+00
0.00000000e+00
-4.22099151e-03
-5.33702923e-03
-4.07132140e-03
-4.28700494e-03
-2.16142158e-03
-3.06182250e-03
-1.45783844e-04
-1.87362691e-03
-1.22847759e-05
-3.74471783e-05
0.00000000e+00
0.00000000e+00
0.00000000e+00
0.00000000e+00
-8.54537170e-03
-8.65988899e-03
-8.11168237e-03
-8.03085044e-03
-8.77577323e-03
-8.92305549e-03
-9.28824279e-03
-1.04172672e-02
-1.03568137e-02
-1.13548076e-02
-1.03584096e-02
-1.15450952e-02
-1.00038936e-02
-1.10615313e-02
-7.15768046e-03
-6.63825835e-03
-9.99082598e-03
-1.37246704e-02
-1.44097321e-02
-1.57823183e-02
-1.60786416e-02
-5.04055867e-03
-5.06064453e-03
-7.06421219e-03
-5.13010193e-03
-3.39811161e-03
-3.42949951e-03
-2.26184237e-03
-1.64570027e-03
-3.14992419e-03
-2.43307868e-03
-4.01910383e-03
-4.77498333e-03
-3.28208937e-03
-2.87140266e-03
-5.38923882e-03
-1.05966600e-02
0.00000000e+00
0.00000000e+00
0.00000000e+00
0.00000000e+00
-8.84895073e-03
-8.68059625e-03
-8.82832741e-03
-8.87322426e-03
-8.34999478e-03
-8.84634187e-03
-7.92529329e-03
-9.27741150e-03
-7.33279181e-03
-1.00793464e-02
-6.31462934e-03
-8.99460842e-03
-5.29121421e-03
-7.59891258e-03
-8.65122944e-03
-7.99203583e-03
-1.06901103e-02
-1.57126216e-02
-1.45541257e-02
-1.25595219e-02
-1.08178556e-02
-8.20237179e-03
-5.60625142e-03
-1.64985636e-02
-4.34322599e-03
-3.69648408e-03
-6.99330796e-03
-3.05347051e-03
-3.21855495e-03
-6.29523503e-03
-5.86160226e-03
-1.57290959e-02
-6.14396465e-03
-4.86448652e-03
</DataArray>
</PointData>
<Cells>
<DataArray type="Int32" Name="connectivity" format="ascii">
0 1 2 3 4 5 6 7
1 8 9 2 5 10 11 6
8 12 13 9 10 14 15 11
12 16 17 13 14 18 19 15
16 20 21 17 18 22 23 19
20 24 25 21 22 26 27 23
3 2 28 29 7 6 30 31
2 9 32 28 6 11 33 30
9 13 34 32 11 15 35 33
13 17 36 34 15 19 37 35
17 21 38 36 19 23 39 37
21 25 40 38 23 27 41 39
29 28 42 43 31 30 44 45
28 32 46 42 30 33 47 44
32 34 48 46 33 35 49 47
34 36 50 48 35 37 51 49
36 38 52 50 37 39 53 51
38 40 54 52 39 41 55 53
43 42 56 57 45 44 58 59
42 46 60 56 44 47 61 58
46 48 62 60 47 49 63 61
48 50 64 62 49 51 65 63
52 54 66 67 53 55 68 69
57 56 70 71 59 58 72 73
56 60 74 70 58 61 75 72
60 62 76 74 61 63 77 75
62 64 78 76 63 65 79 77
64 67 80 78 65 69 81 79
67 66 82 80 69 68 83 81
71 70 84 85 73 72 86 87
70 74 88 84 72 75 89 86
74 76 90 88 75 77 91 89
76 78 92 90 77 79 93 91
78 80 94 92 79 81 95 93
80 82 96 94 81 83 97 95
4 5 6 7 98 99 100 101
5 10 11 6 99 102 103 100
10 14 15 11 102 104 105 103
14 18 19 15 104 106 107 105
18 22 23 19 106 108 109 107
22 26 27 23 108 110 111 109
7 6 30 31 101 100 112 113
6 11 33 30 100 103 114 112
11 15 35 33 103 105 115 114
15 19 37 35 105 107 116 115
19 23 39 37 107 109 117 116
23 27 41 39 109 111 118 117
31 30 44 45 113 112 119 120
30 33 47 44 112 114 121 119
33 35 49 47 114 115 122 121
45 44 58 59 120 119 123 124
44 47 61 58 119 121 125 123
47 49 63 61 121 122 126 125
59 58 72 73 124 123 127 128
58 61 75 72 123 125 129 127
61 63 77 75 125 126 130 129
73 72 86 87 128 127 131 132
72 75 89 86 127 129 133 131
75 77 91 89 129 130 134 133
81 83 97 95 135 136 137 138
98 99 100 101 139 140 141 142
99 102 103 100 140 143 144 141
102 104 105 103 143 145 146 144
104 106 107 105 145 147 148 146
106 108 109 107 147 149 150 148
108 110 111 109 149 151 152 150
101 100 112 113 142 141 153 154
100 103 114 112 141 144 155 153
103 105 115 114 144 146 156 155
105 107 116 115 146 148 157 156
107 109 117 116 148 150 158 157
109 111 118 117 150 152 159 158
113 112 119 120 154 153 160 161
112 114 121 119 153 155 162 160
120 119 123 124 161 160 163 164
119 121 125 123 160 162 165 163
124 123 127 128 164 163 166 167
123 125 129 127 163 165 168 166
125 126 130 129 165 169 170 168
128 127 131 132 167 166 171 172
</DataArray>
<DataArray type="Int32" Name="offsets" format="ascii">
8
16
24
32
40
48
56
64
72
80
88
96
104
112
120
128
136
144
152
160
168
176
184
192
200
208
216
224
232
240
248
256
264
272
280
288
296
304
312
320
328
336
344
352
360
368
376
384
392
400
408
416
424
432
440
448
456
464
472
480
488
496
504
512
520
528
536
544
552
560
568
576
584
592
600
608
616
624
632
640
</DataArray>
<DataArray type="UInt8" Name="types" format="ascii">
12
12
12
12
12
12
12
12
12
12
12
12
12
12
12
12
12
12
12
12
12
12
12
12
12
12
12
12
12
12
12
12
12
12
12
12
12
12
12
12
12
12
12
12
12
12
12
12
12
12
12
12
12
12
12
12
12
12
12
12
12
12
12
12
12
12
12
12
12
12
12
12
12
12
12
12
12
12
12
12
</DataArray>
</Cells>
</Piece>
</UnstructuredGrid>
</VTKFile>
