<VTKFile type="UnstructuredGrid" version="0.1" byte_order="LittleEndian">
<UnstructuredGrid>
<Piece NumberOfPoints="191" NumberOfCells="79">
<Points>
<DataArray type="Float64" NumberOfComponents="3" format="ascii">
 1.00002134e+00  5.00009871e+00  1.99979889e+00
 2.00003862e+00  5.00009108e+00  1.99982440e+00
 2.00003743e+00  6.00011683e+00  1.99978518e+00
 1.00001919e+00  6.00012159e+00  1.99977839e+00
 1.00001276e+00  5.00011683e+00  2.99969459e+00
 2.00001979e+00  5.00012541e+00  2.99971557e+00
 2.00001049e+00  6.00015306e+00  2.99966311e+00
 1.00000811e+00  6.00013494e+00  2.99967623e+00
 3.00005817e+00  5.00008392e+00  1.99984777e+00
 3.00005579e+00  6.00011063e+00  1.99980175e+00
 3.00002766e+00  5.00013876e+00  2.99975228e+00
 3.00004435e+00  6.00015879e+00  2.99964905e+00
 5.00008774e+00  5.00006628e+00  2.00000072e+00
 6.00008774e+00  5.00006342e+00  1.99999893e+00
 6.00009012e+00  6.00006390e+00  1.99999940e+00
 5.00008965e+00  6.00006628e+00  2.00000095e+00
 5.00008917e+00  5.00006580e+00  3.00000048e+00
 6.00008917e+00  5.00006342e+00  2.99999905e+00
 6.00009155e+00  6.00006342e+00  2.99999928e+00
 5.00009155e+00  6.00006580e+00  3.00000095e+00
 0.00000000e+00  0.00000000e+00  2.99965787e+00
 1.00001895e+00  0.00000000e+00  2.99965668e+00
 1.00001705e+00  1.00002122e+00  2.99966002e+00
 0.00000000e+00  1.00002301e+00  2.99966216e+00
 0.00000000e+00  0.00000000e+00  3.99954367e+00
 1.00002277e+00  0.00000000e+00  3.99954319e+00
 1.00002313e+00  1.00002265e+00  3.99954295e+00
 0.00000000e+00  1.00002217e+00  3.99954605e+00
 2.00004101e+00  0.00000000e+00  2.99965286e+00
 2.00003624e+00  1.00001419e+00  2.99965906e+00
 2.00004554e+00  0.00000000e+00  3.99954200e+00
 2.00004530e+00  1.00002313e+00  3.99953628e+00
 3.00006390e+00  0.00000000e+00  2.99965096e+00
 3.00006318e+00  1.00001025e+00  2.99965310e+00
 3.00006914e+00  0.00000000e+00  3.99953866e+00
 3.00006652e+00  1.00002086e+00  3.99953389e+00
 4.00008965e+00  0.00000000e+00  2.99965167e+00
 4.00008965e+00  1.00001311e+00  2.99964428e+00
 4.00009203e+00  0.00000000e+00  3.99953651e+00
 4.00009060e+00  1.00001812e+00  3.99953127e+00
 5.00011539e+00  0.00000000e+00  2.99964952e+00
 5.00011539e+00  1.00001776e+00  2.99964857e+00
 5.00011587e+00  0.00000000e+00  3.99953771e+00
 5.00011492e+00  1.00001681e+00  3.99952769e+00
 6.00014114e+00  0.00000000e+00  2.99964857e+00
 6.00013924e+00  1.00001931e+00  2.99964857e+00
 6.00013828e+00  0.00000000e+00  3.99953914e+00
 6.00013971e+00  1.00001848e+00  3.99953079e+00
 1.00000811e+00  2.00004077e+00  2.99967194e+00
 0.00000000e+00  2.00004888e+00  2.99967432e+00
 1.00002241e+00  2.00004864e+00  3.99955916e+00
 0.00000000e+00  2.00005126e+00  3.99956274e+00
 2.00002456e+00  2.00003266e+00  2.99963236e+00
 2.00004745e+00  2.00004768e+00  3.99953365e+00
 3.00005007e+00  2.00002599e+00  2.99961162e+00
 3.00006318e+00  2.00004244e+00  3.99948239e+00
 4.00008869e+00  2.00003982e+00  2.99964929e+00
 4.00008154e+00  2.00002789e+00  3.99948692e+00
 5.00011396e+00  2.00004005e+00  2.99964523e+00
 5.00011206e+00  2.00004315e+00  3.99952364e+00
 6.00013733e+00  2.00004196e+00  2.99964929e+00
 6.00013876e+00  2.00004220e+00  3.99952197e+00
 1.00000799e+00  3.00006819e+00  2.99971223e+00
 0.00000000e+00  3.00007272e+00  2.99968410e+00
 1.00001431e+00  3.00008130e+00  3.99956226e+00
 0.00000000e+00  3.00007844e+00  3.99960423e+00
 2.00001264e+00  3.00004244e+00  2.99966908e+00
 2.00004721e+00  3.00008011e+00  3.99949527e+00
 2.99998546e+00  3.00002480e+00  2.99938941e+00
 3.00008368e+00  3.00006390e+00  3.99943161e+00
 1.00001013e+00  4.00009251e+00  2.99972486e+00
 0.00000000e+00  4.00009680e+00  2.99969625e+00
 1.00001216e+00  4.00010538e+00  3.99960852e+00
 0.00000000e+00  4.00009775e+00  3.99961019e+00
 0.00000000e+00  5.00011253e+00  2.99969268e+00
 1.00001204e+00  5.00013638e+00  3.99960923e+00
 0.00000000e+00  5.00012398e+00  3.99957871e+00
 2.00002384e+00  4.00009680e+00  2.99980903e+00
 2.00001717e+00  4.00013256e+00  3.99962330e+00
 2.00003052e+00  5.00015259e+00  3.99961591e+00
 0.00000000e+00  6.00013447e+00  2.99966812e+00
 1.00001180e+00  6.00016546e+00  3.99954700e+00
 0.00000000e+00  6.00016022e+00  3.99955297e+00
 2.00002432e+00  6.00018787e+00  3.99955177e+00
 3.00002670e+00  5.00015879e+00  3.99948835e+00
 3.00004768e+00  6.00017595e+00  3.99950194e+00
 0.00000000e+00  0.00000000e+00  4.99942493e+00
 1.00002742e+00  0.00000000e+00  4.99942398e+00
 1.00002933e+00  1.00002229e+00  4.99942589e+00
 0.00000000e+00  1.00002062e+00  4.99942684e+00
 2.00005198e+00  0.00000000e+00  4.99942303e+00
 2.00005531e+00  1.00002682e+00  4.99942160e+00
 3.00007367e+00  0.00000000e+00  4.99942255e+00
 3.00007558e+00  1.00003052e+00  4.99941635e+00
 4.00009441e+00  0.00000000e+00  4.99942160e+00
 4.00009346e+00  1.00002944e+00  4.99941778e+00
 5.00011539e+00  0.00000000e+00  4.99942112e+00
 5.00011349e+00  1.00002801e+00  4.99942112e+00
 6.00013590e+00  0.00000000e+00  4.99942207e+00
 6.00013590e+00  1.00002980e+00  4.99942446e+00
 1.00003457e+00  2.00004697e+00  4.99942255e+00
 0.00000000e+00  2.00004125e+00  4.99942970e+00
 2.00006342e+00  2.00005484e+00  4.99941111e+00
 3.00008345e+00  2.00005937e+00  4.99939871e+00
 4.00009632e+00  2.00005674e+00  4.99938011e+00
 5.00011063e+00  2.00004673e+00  4.99937439e+00
 6.00012636e+00  2.00005221e+00  4.99938107e+00
 1.00003755e+00  3.00006390e+00  4.99948978e+00
 0.00000000e+00  3.00007081e+00  4.99950027e+00
 2.00006676e+00  3.00007248e+00  4.99941683e+00
 3.00009084e+00  3.00007010e+00  4.99935007e+00
 4.00008011e+00  2.99999928e+00  3.99929881e+00
 4.00010681e+00  3.00007677e+00  4.99932194e+00
 1.00003219e+00  4.00009489e+00  4.99953890e+00
 0.00000000e+00  4.00011349e+00  4.99950790e+00
 2.00005174e+00  4.00006628e+00  4.99945211e+00
 1.00003195e+00  5.00016069e+00  4.99944067e+00
 0.00000000e+00  5.00015354e+00  4.99944401e+00
 1.00002646e+00  6.00019360e+00  4.99944019e+00
 0.00000000e+00  6.00018501e+00  4.99943113e+00
 2.00006342e+00  5.00017071e+00  4.99943876e+00
 2.00007319e+00  6.00019264e+00  4.99943972e+00
 3.00008965e+00  5.00014591e+00  4.99938631e+00
 3.00012565e+00  6.00015783e+00  4.99939680e+00
 3.99998689e+00  5.00012779e+00  3.99927902e+00
 4.00002956e+00  6.00013733e+00  3.99930096e+00
 4.00011492e+00  5.00009918e+00  4.99930954e+00
 4.00014877e+00  6.00011683e+00  4.99932528e+00
 5.00012589e+00  5.00007629e+00  3.99930286e+00
 6.00012541e+00  5.00005674e+00  3.99930453e+00
 6.00014400e+00  6.00005722e+00  3.99930358e+00
 5.00014353e+00  6.00007582e+00  3.99930358e+00
 5.00012302e+00  5.00007534e+00  4.99930334e+00
 6.00012541e+00  5.00005865e+00  4.99930429e+00
 6.00014353e+00  6.00005722e+00  4.99930334e+00
 5.00014448e+00  6.00007582e+00  4.99930334e+00
 0.00000000e+00  0.00000000e+00  5.99930382e+00
 1.00002921e+00  0.00000000e+00  5.99930382e+00
 1.00003183e+00  1.00002289e+00  5.99930382e+00
 0.00000000e+00  1.00002015e+00  5.99930382e+00
 2.00005531e+00  0.00000000e+00  5.99930382e+00
 2.00005889e+00  1.00002849e+00  5.99930382e+00
 3.00007629e+00  0.00000000e+00  5.99930382e+00
 3.00008011e+00  1.00003386e+00  5.99930382e+00
 4.00009489e+00  0.00000000e+00  5.99930382e+00
 4.00009680e+00  1.00003707e+00  5.99930382e+00
 5.00011492e+00  0.00000000e+00  5.99930382e+00
 5.00011349e+00  1.00003719e+00  5.99930382e+00
 6.00013733e+00  0.00000000e+00  5.99930382e+00
 6.00013161e+00  1.00004148e+00  5.99930382e+00
 1.00004053e+00  2.00003529e+00  5.99930382e+00
 0.00000000e+00  2.00002933e+00  5.99930382e+00
 2.00007033e+00  2.00005054e+00  5.99930382e+00
 3.00009036e+00  2.00006390e+00  5.99930382e+00
 4.00010443e+00  2.00007033e+00  5.99930382e+00
 5.00011110e+00  2.00007343e+00  5.99930382e+00
 6.00011921e+00  2.00007820e+00  5.99930382e+00
 1.00004065e+00  3.00005841e+00  5.99930382e+00
 0.00000000e+00  3.00005126e+00  5.99930382e+00
 2.00008965e+00  3.00007653e+00  5.99930382e+00
 3.00010896e+00  3.00008535e+00  5.99930382e+00
 4.00010586e+00  3.00008655e+00  5.99930382e+00
 5.00010586e+00  3.00005984e+00  4.99929380e+00
 5.00011158e+00  3.00008035e+00  5.99930382e+00
 6.00011396e+00  3.00006199e+00  4.99929667e+00
 6.00010967e+00  3.00008106e+00  5.99930382e+00
 3.00008273e+00  4.00007486e+00  4.99926519e+00
 3.00012040e+00  4.00009966e+00  5.99930382e+00
 2.00012422e+00  4.00009012e+00  5.99930382e+00
 4.00011158e+00  4.00007772e+00  4.99930048e+00
 4.00010872e+00  4.00008535e+00  5.99930382e+00
 5.00011063e+00  4.00007772e+00  4.99930429e+00
 5.00011110e+00  4.00007343e+00  5.99930382e+00
 6.00011063e+00  4.00006580e+00  4.99930286e+00
 6.00011015e+00  4.00006199e+00  5.99930382e+00
 0.00000000e+00  4.00014973e+00  5.99930382e+00
 1.00002158e+00  4.00015402e+00  5.99930382e+00
 1.00003922e+00  5.00017309e+00  5.99930382e+00
 0.00000000e+00  5.00017834e+00  5.99930382e+00
 5.00012350e+00  5.00007439e+00  5.99930382e+00
 4.00012493e+00  5.00009489e+00  5.99930382e+00
 6.00012589e+00  5.00005960e+00  5.99930382e+00
 1.00003970e+00  6.00019360e+00  5.99930382e+00
 0.00000000e+00  6.00019360e+00  5.99930382e+00
 2.00007558e+00  5.00016499e+00  5.99930382e+00
 2.00009394e+00  6.00018549e+00  5.99930382e+00
 3.00010800e+00  5.00014019e+00  5.99930382e+00
 3.00014806e+00  6.00014877e+00  5.99930382e+00
 4.00015831e+00  6.00010157e+00  5.99930382e+00
 5.00014830e+00  6.00007486e+00  5.99930382e+00
 6.00014257e+00  6.00005674e+00  5.99930382e+00
</DataArray>
</Points>
<PointData Tensors="Stress_Components,Plastic_strain_components" Vevtors="Spatial_displacement,Reaction_force" Scalars="Equivalent_plastic_strain,Stress_Mises,Stress_Max_Principal,Stress_Mid_Principal,Stress_Min_Principal,Stress_Pressure,Stress_Tresca,Stress_Third_Invariant,Plastic_strain_Max_Principal,Plastic_strain_Min_Principal">
<DataArray type="Float32" Name="Stress_Components" NumberOfComponents="9" format="ascii">
-3.29029001e-03 -1.60258984e-01 -8.17909455e-02 -1.60258984e-01 -6.46121036e-02 1.68596504e-01 -8.17909455e-02 1.68596504e-01 -5.07042402e+00
-3.83475383e-02 -1.78072384e-01 -2.85439020e-01 -1.78072384e-01 -1.92463878e-02 1.35970868e-01 -2.85439020e-01 1.35970868e-01 -4.84379685e+00
-1.72879813e-01 -1.40689205e-01 -2.42297933e-01 -1.40689205e-01 1.39061496e-01 -2.69428154e-01 -2.42297933e-01 -2.69428154e-01 -5.74428368e+00
-1.37488626e-01 -9.29787597e-02 -1.50332406e-01 -9.29787597e-02 3.70885227e-02 -2.09882675e-01 -1.50332406e-01 -2.09882675e-01 -5.38470733e+00
-6.19044608e-01 1.15329378e-01 -1.11398597e-01 1.15329378e-01 -1.43923268e-01 1.43026413e-01 -1.11398597e-01 1.43026413e-01 -4.97935128e+00
-7.57670977e-01 7.75843333e-02 -8.05529816e-01 7.75843333e-02 1.07497466e-01 4.49948064e-01 -8.05529816e-01 4.49948064e-01 -5.44013827e+00
-5.73168080e-01 5.70202190e-02 -3.50120090e-01 5.70202190e-02 -1.76184496e-01 -4.18229873e-01 -3.50120090e-01 -4.18229873e-01 -6.19158828e+00
-4.82131869e-01 1.00978022e-01 7.35708680e-02 1.00978022e-01 6.24959953e-02 -1.29940044e-01 7.35708680e-02 -1.29940044e-01 -5.52158022e+00
-2.23717764e-02 -1.04869622e-01 -5.75955927e-01 -1.04869622e-01 1.70171097e-01 3.68397497e-02 -5.75955927e-01 3.68397497e-02 -4.95024574e+00
1.38548020e-01 -1.80810459e-01 -2.04616789e-01 -1.80810459e-01 4.70047891e-01 4.97324392e-03 -2.04616789e-01 4.97324392e-03 -6.60303998e+00
9.67829426e-02 5.55969993e-01 -1.77779154e+00 5.55969993e-01 6.19376004e-02 3.36843913e-01 -1.77779154e+00 3.36843913e-01 -6.55649050e+00
1.06766120e-01 4.62901354e-01 -1.46754730e+00 4.62901354e-01 -4.69167009e-01 -3.75360623e-01 -1.46754730e+00 -3.75360623e-01 -7.55186629e+00
2.40622857e-03 -7.03762681e-03 -9.40315746e-04 -7.03762681e-03 1.34205841e-03 -1.03555708e-03 -9.40315746e-04 -1.03555708e-03 -1.17173470e-02
-3.14478995e-03 -3.11741536e-03 -3.07139102e-03 -3.11741536e-03 1.21855433e-03 4.51846980e-04 -3.07139102e-03 4.51846980e-04 -6.04304892e-03
3.83753132e-03 -4.03595361e-04 2.36498076e-03 -4.03595361e-04 3.60410195e-04 5.24544995e-03 2.36498076e-03 5.24544995e-03 -1.21669751e-02
4.65625554e-03 -4.32385621e-03 -3.92834190e-04 -4.32385621e-03 -4.24837045e-03 -5.30800223e-03 -3.92834190e-04 -5.30800223e-03 -8.37696716e-03
1.67722208e-03 2.03574169e-03 4.97746514e-03 2.03574169e-03 1.95933459e-03 5.28518483e-03 4.97746514e-03 5.28518483e-03 1.88225461e-03
-1.52796356e-03 1.03773258e-03 4.73572360e-03 1.03773258e-03 -2.29235529e-03 -2.92541739e-03 4.73572360e-03 -2.92541739e-03 9.33902245e-03
-7.37025519e-04 5.14389656e-04 -6.03875099e-03 5.14389656e-04 4.94693697e-04 -7.25178607e-03 -6.03875099e-03 -7.25178607e-03 5.76101802e-03
-3.13794333e-03 1.51239359e-03 -2.55996105e-03 1.51239359e-03 -8.59698397e-04 5.87706733e-03 -2.55996105e-03 5.87706733e-03 9.51648876e-03
-2.19578214e-01 3.35930963e-08 8.85583311e-02 3.35930963e-08 -5.30029349e-02 -2.23488286e-02 8.85583311e-02 -2.23488286e-02 -5.73998332e+00
-1.79153301e-01 -4.01066430e-02 6.78643137e-02 -4.01066430e-02 -1.49182465e-01 -7.04125728e-03 6.78643137e-02 -7.04125728e-03 -5.74506223e+00
-2.32452163e-01 -2.04697161e-01 1.67280556e-01 -2.04697161e-01 -1.38253849e-01 3.65496723e-02 1.67280556e-01 3.65496723e-02 -5.75575012e+00
-2.87771992e-01 -3.79788512e-02 1.54819060e-01 -3.79788512e-02 1.79526841e-02 -4.30425284e-02 1.54819060e-01 -4.30425284e-02 -5.72414553e+00
-5.10289185e-02 4.01632860e-09 4.98302151e-02 4.01632860e-09 -7.60125173e-02 -8.74590594e-03 4.98302151e-02 -8.74590594e-03 -5.85364652e+00
-6.61068727e-02 7.17162550e-03 -1.89220460e-03 7.17162550e-03 -7.11133373e-02 7.19990702e-02 -1.89220460e-03 7.19990702e-02 -5.86058283e+00
-7.91300116e-02 6.31543336e-03 1.78165387e-01 6.31543336e-03 -5.80813823e-03 2.62658597e-02 1.78165387e-01 2.62658597e-02 -5.90417629e+00
-8.63217120e-02 9.06877453e-03 1.76487253e-01 9.06877453e-03 2.00587828e-02 -6.04685163e-02 1.76487253e-01 -6.04685163e-02 -5.95652473e+00
-5.64319144e-02 -9.67055559e-02 1.31919350e-01 -9.67055559e-02 -4.01958317e-01 -1.53632904e-03 1.31919350e-01 -1.53632904e-03 -5.70783484e+00
-1.70621058e-01 -2.82434681e-01 -1.36106410e-01 -2.82434681e-01 -4.52776395e-01 2.65394073e-02 -1.36106410e-01 2.65394073e-02 -5.89925396e+00
-9.31352647e-02 -5.29926282e-03 -1.21570248e-01 -5.29926282e-03 -9.35152792e-02 6.99722585e-02 -1.21570248e-01 6.99722585e-02 -5.84712577e+00
-5.98856732e-02 1.63183411e-03 4.41011381e-02 1.63183411e-03 2.94287044e-02 1.01676269e-01 4.41011381e-02 1.01676269e-01 -5.91630024e+00
2.73158876e-02 -1.73282302e-02 4.61147837e-02 -1.73282302e-02 -5.60943797e-01 5.71571579e-02 4.61147837e-02 5.71571579e-02 -5.71410990e+00
-1.05607790e-01 -1.56801909e-01 -3.30216731e-01 -1.56801909e-01 -6.75825797e-01 -1.11284950e-01 -3.30216731e-01 -1.11284950e-01 -5.99016958e+00
-6.41016448e-02 -5.36506232e-02 -1.02562506e-01 -5.36506232e-02 -1.68258235e-01 4.49273200e-02 -1.02562506e-01 4.49273200e-02 -5.79239941e+00
-3.12067174e-02 -1.14275295e-01 -3.75195088e-01 -1.14275295e-01 -9.60371091e-02 7.90274653e-02 -3.75195088e-01 7.90274653e-02 -5.91337651e+00
-3.07076517e-03 -3.32951243e-03 -1.56287458e-01 -3.32951243e-03 -5.23970999e-01 2.54270975e-02 -1.56287458e-01 2.54270975e-02 -5.75630152e+00
-8.60814130e-02 6.85910131e-02 9.98349348e-03 6.85910131e-02 -3.41479163e-01 -1.42734693e-02 9.98349348e-03 -1.42734693e-02 -6.16026634e+00
1.08483685e-02 -3.03716501e-02 -1.09194677e-01 -3.03716501e-02 -2.05351878e-01 3.98285032e-02 -1.09194677e-01 3.98285032e-02 -5.75487185e+00
-1.20783687e-02 -1.50786957e-01 -3.47897750e-01 -1.50786957e-01 -4.39389288e-01 -2.33735291e-02 -3.47897750e-01 -2.33735291e-02 -5.74424332e+00
-3.80792791e-02 -3.37547547e-03 -1.92943169e-02 -3.37547547e-03 -3.63874763e-01 -1.00672131e-02 -1.92943169e-02 -1.00672131e-02 -5.77050030e+00
-1.18331384e-03 5.13393608e-02 -4.28942063e-02 5.13393608e-02 -2.02993585e-01 7.60827792e-02 -4.28942063e-02 7.60827792e-02 -6.07660508e+00
4.81963884e-02 -1.66013469e-02 -2.07517732e-01 -1.66013469e-02 -2.14353753e-01 2.76062703e-02 -2.07517732e-01 2.76062703e-02 -5.67054486e+00
-9.65274982e-02 -3.47342505e-02 -3.92746544e-02 -3.47342505e-02 -2.18330878e-01 -2.54515486e-02 -3.92746544e-02 -2.54515486e-02 -5.85729283e+00
-5.43230325e-02 -3.65308039e-02 2.16035289e-03 -3.65308039e-02 -3.14392328e-01 6.76594675e-03 2.16035289e-03 6.76594675e-03 -5.70678115e+00
-3.15606843e-02 -4.10235662e-03 1.81550336e-02 -4.10235662e-03 -1.57548640e-01 1.70649278e-02 1.81550336e-02 1.70649278e-02 -5.95364296e+00
1.77109167e-02 2.95424787e-02 -1.73664972e-01 2.95424787e-02 -1.49705824e-01 -2.41657775e-02 -1.73664972e-01 -2.41657775e-02 -5.63955188e+00
-7.96513325e-02 4.02605701e-02 -6.92644063e-02 4.02605701e-02 -2.32134698e-01 2.74424404e-02 -6.92644063e-02 2.74424404e-02 -5.78425634e+00
-6.32819990e-01 -2.63329575e-01 5.77176647e-01 -2.63329575e-01 -1.66072783e-01 -3.27756755e-01 5.77176647e-01 -3.27756755e-01 -5.69233268e+00
-5.55940442e-01 -1.67369738e-01 2.54094899e-01 -1.67369738e-01 1.40190637e-01 -5.22051426e-02 2.54094899e-01 -5.22051426e-02 -5.46837056e+00
5.75751588e-02 -1.30486664e-01 2.64492464e-01 -1.30486664e-01 2.89819750e-01 -2.79244706e-02 2.64492464e-01 -2.79244706e-02 -6.12603486e+00
1.34251789e-02 -5.45411492e-02 5.27049217e-01 -5.45411492e-02 2.50638853e-01 -7.63816498e-02 5.27049217e-01 -7.63816498e-02 -6.01516914e+00
-1.63695369e-01 -4.02036348e-01 1.57142865e-01 -4.02036348e-01 -3.98399992e-01 -4.47328930e-01 1.57142865e-01 -4.47328930e-01 -6.33472334e+00
-1.22595608e-01 -4.63287393e-02 -1.95337372e-01 -4.63287393e-02 2.17807935e-01 -3.93964203e-01 -1.95337372e-01 -3.93964203e-01 -5.58398455e+00
5.65022531e-01 -4.56611856e-01 -1.44504522e+00 -4.56611856e-01 -2.02686002e-01 1.83357549e-01 -1.44504522e+00 1.83357549e-01 -7.22580204e+00
-1.61688745e-01 -5.03053293e-02 -7.16268522e-01 -5.03053293e-02 3.09177456e-02 -2.09275923e-01 -7.16268522e-01 -2.09275923e-01 -5.16254909e+00
1.98162096e-01 1.30191875e-01 -2.63617374e-02 1.30191875e-01 -2.91664172e-02 3.18728196e-01 -2.63617374e-02 3.18728196e-01 -7.06131184e+00
4.40180930e-01 -2.09719813e-01 -1.26161348e+00 -2.09719813e-01 -4.40250407e-01 4.83869947e-01 -1.26161348e+00 4.83869947e-01 -5.91136942e+00
4.19577770e-03 2.12711282e-04 -3.91884319e-02 2.12711282e-04 -8.62149700e-02 1.84115251e-02 -3.91884319e-02 1.84115251e-02 -6.30709004e+00
1.35132458e-01 8.77708364e-02 -1.28227826e-02 8.77708364e-02 4.97080113e-02 3.27537512e-01 -1.28227826e-02 3.27537512e-01 -6.69243801e+00
3.86496261e-03 5.31249773e-03 5.95215429e-03 5.31249773e-03 -2.70037167e-02 1.16417930e-01 5.95215429e-03 1.16417930e-01 -6.18686748e+00
1.34349763e-01 -4.24611010e-02 -7.47135440e-02 -4.24611010e-02 1.12481203e-02 -1.50583420e-01 -7.47135440e-02 -1.50583420e-01 -6.56613731e+00
-7.18889723e-01 -2.66028791e-01 6.67227583e-01 -2.66028791e-01 9.07528895e-02 -7.60008437e-02 6.67227583e-01 -7.60008437e-02 -5.62036828e+00
-6.86713859e-01 -9.18423086e-02 3.14420886e-01 -9.18423086e-02 -2.46319026e-02 5.84901601e-01 3.14420886e-01 5.84901601e-01 -5.01737726e+00
-6.64442325e-03 -9.11816887e-02 3.59955485e-01 -9.11816887e-02 2.72704187e-01 -7.65718311e-01 3.59955485e-01 -7.65718311e-01 -5.34133284e+00
-3.01145747e-01 5.78233302e-02 4.73843776e-01 5.78233302e-02 6.77865893e-02 -8.76032069e-01 4.73843776e-01 -8.76032069e-01 -4.73133302e+00
-6.45709708e-02 -6.24589972e-01 1.45979396e+00 -6.24589972e-01 9.45484060e-01 -1.87459815e+00 1.45979396e+00 -1.87459815e+00 -7.37092257e+00
4.17380118e-01 -2.76971237e-01 1.10961251e-01 -2.76971237e-01 5.10092202e-01 -8.35116386e-01 1.10961251e-01 -8.35116386e-01 -5.86877699e+00
-3.04162598e+00 -1.71210587e+00 -3.81381631e+00 -1.71210587e+00 -1.95065713e+00 -3.78250694e+00 -3.81381631e+00 -3.78250694e+00 -1.43167943e-01
-5.25667151e-01 -2.48378220e-01 -7.02960034e-01 -2.48378220e-01 -5.85650141e-01 -1.02310717e+00 -7.02960034e-01 -1.02310717e+00 -3.16444373e+00
-4.80913028e-01 3.55893629e-02 -5.39756034e-02 3.55893629e-02 3.86596152e-02 9.64529685e-01 -5.39756034e-02 9.64529685e-01 -5.08652564e+00
-5.16027100e-01 -9.03760437e-02 2.03967248e-01 -9.03760437e-02 -1.07756247e-01 5.96568629e-01 2.03967248e-01 5.96568629e-01 -4.87600195e+00
-5.03399860e-01 2.75704184e-01 5.18383314e-01 2.75704184e-01 2.43517415e-01 3.10418535e-01 5.18383314e-01 3.10418535e-01 -4.78691991e+00
-2.52861783e-01 1.64261233e-01 -8.96297768e-02 1.64261233e-01 1.89413504e-01 -3.16854473e-02 -8.96297768e-02 -3.16854473e-02 -4.68563735e+00
-3.09940081e-01 8.47399645e-02 -7.03832880e-02 8.47399645e-02 -5.43059153e-02 4.19826871e-02 -7.03832880e-02 4.19826871e-02 -5.26065767e+00
-3.48574697e-01 2.87117460e-01 -2.83664039e-01 2.87117460e-01 2.75791182e-01 5.92723916e-01 -2.83664039e-01 5.92723916e-01 -6.00767367e+00
-2.73056541e-01 2.61157759e-01 -1.66231103e-01 2.61157759e-01 5.29739082e-01 6.37614980e-01 -1.66231103e-01 6.37614980e-01 -5.95601857e+00
-7.51129068e-01 3.75471100e-01 -2.69167900e-01 3.75471100e-01 3.24567191e-01 1.67238334e+00 -2.69167900e-01 1.67238334e+00 -4.59021121e+00
2.31713224e-01 3.93586986e-01 9.42359686e-01 3.93586986e-01 1.53504464e+00 5.97932264e-01 9.42359686e-01 5.97932264e-01 -7.40898132e+00
-7.59810793e-01 2.05692917e-01 -6.14008331e-01 2.05692917e-01 1.87142676e-01 -5.71352112e-01 -6.14008331e-01 -5.71352112e-01 -6.59659395e+00
-4.71437603e-01 1.07317185e-02 -1.02263875e-01 1.07317185e-02 1.00754790e-01 1.67111069e-01 -1.02263875e-01 1.67111069e-01 -5.54413247e+00
-5.49097106e-01 2.80337328e-01 -6.88026041e-01 2.80337328e-01 1.45134443e-01 1.77771000e-01 -6.88026041e-01 1.77771000e-01 -5.97151232e+00
-6.63081884e-01 1.06066365e-01 -6.31903415e-03 1.06066365e-01 3.58917683e-01 -1.25688590e-01 -6.31903415e-03 -1.25688590e-01 -6.08836484e+00
-8.40024821e-01 -1.90767199e-02 -9.23862442e-01 -1.90767199e-02 -1.18534328e-01 1.83883417e-01 -9.23862442e-01 1.83883417e-01 -6.24075806e+00
-5.38895443e-01 3.10804307e-01 2.35604882e-01 3.10804307e-01 8.31704299e-01 -2.35966325e+00 2.35604882e-01 -2.35966325e+00 -6.38271340e+00
-3.43090794e-01 6.65266315e-03 1.48051791e-01 6.65266315e-03 -3.36119135e-02 -9.82774893e-01 1.48051791e-01 -9.82774893e-01 -5.71319159e+00
1.75015777e-01 9.42964107e-09 3.53132114e-02 9.42964107e-09 -1.06478281e-01 -1.60507374e-02 3.53132114e-02 -1.60507374e-02 -5.95785856e+00
1.30310018e-01 3.98272658e-02 3.19974571e-02 3.98272658e-02 -2.60965582e-02 4.71205879e-02 3.19974571e-02 4.71205879e-02 -5.93475413e+00
1.45007042e-01 1.38784051e-01 -1.42098009e-02 1.38784051e-01 -2.57467192e-02 3.69896330e-02 -1.42098009e-02 3.69896330e-02 -5.98553747e+00
2.18018785e-01 3.30116507e-02 2.96634368e-02 3.30116507e-02 -1.47184575e-01 -1.93670411e-02 2.96634368e-02 -1.93670411e-02 -6.04433906e+00
2.03739540e-02 6.73742183e-02 -3.13242152e-02 6.73742183e-02 1.72769701e-01 8.60274155e-02 -3.13242152e-02 8.60274155e-02 -5.90320063e+00
1.02713693e-02 2.06171529e-01 -6.89831965e-02 2.06171529e-01 1.88597184e-01 4.43716964e-02 -6.89831965e-02 4.43716964e-02 -5.79040182e+00
-7.24340243e-02 3.84964393e-02 -1.32847212e-01 3.84964393e-02 3.12980134e-01 6.10549841e-02 -1.32847212e-01 6.10549841e-02 -5.84893358e+00
-6.93975273e-02 1.29725011e-01 -1.11655782e-01 1.29725011e-01 3.73763241e-01 1.00413075e-01 -1.11655782e-01 1.00413075e-01 -5.65117610e+00
-5.58844348e-02 -2.47804988e-02 -8.56945142e-02 -2.47804988e-02 3.00382987e-01 1.47238392e-02 -8.56945142e-02 1.47238392e-02 -5.77241063e+00
-6.83853831e-02 -9.17558814e-03 -2.38137492e-01 -9.17558814e-03 3.27865212e-01 1.14595741e-01 -2.38137492e-01 1.14595741e-01 -5.59219801e+00
-3.67626827e-03 -4.50196266e-02 -1.40033796e-03 -4.50196266e-02 3.03518355e-01 -3.72879812e-03 -1.40033796e-03 -3.72879812e-03 -5.73322475e+00
1.19322321e-02 -5.01470545e-02 -2.74522411e-01 -5.01470545e-02 1.02563130e-01 5.82678989e-02 -2.74522411e-01 5.82678989e-02 -5.53384256e+00
-8.56754184e-03 -1.02028542e-03 4.71013542e-02 -1.02028542e-03 3.82844031e-01 1.05436118e-02 4.71013542e-02 1.05436118e-02 -5.75362968e+00
2.16712356e-02 -6.42085932e-02 -1.88287668e-01 -6.42085932e-02 1.73163626e-01 -1.69455633e-02 -1.88287668e-01 -1.69455633e-02 -5.63771141e+00
4.17272649e-01 2.28087792e-01 5.26119310e-01 2.28087792e-01 -3.90390940e-02 -8.13047262e-03 5.26119310e-01 -8.13047262e-03 -6.22144580e+00
3.36810373e-01 1.23107180e-01 5.36449417e-01 1.23107180e-01 -5.95970321e-02 -1.53499074e-01 5.36449417e-01 -1.53499074e-01 -6.49633813e+00
2.76229445e-01 2.49043820e-01 -1.81763079e-02 2.49043820e-01 2.06288480e-01 -6.43211417e-03 -1.81763079e-02 -6.43211417e-03 -5.52801561e+00
-3.53168696e-02 1.79590767e-01 -4.66144076e-01 1.79590767e-01 1.10759334e-01 -3.90790862e-02 -4.66144076e-01 -3.90790862e-02 -4.43310675e+00
-8.18616343e-02 8.47839138e-03 -5.49507418e-01 8.47839138e-03 3.69438903e-01 -4.88236978e-02 -5.49507418e-01 -4.88236978e-02 -4.35430162e+00
1.65788700e-01 -1.21302251e-01 -8.14413672e-01 -1.21302251e-01 2.41169381e-01 1.06969886e-02 -8.14413672e-01 1.06969886e-02 -4.48929803e+00
1.76740602e-01 -1.04693967e-01 -7.56177634e-01 -1.04693967e-01 2.74314485e-01 -4.45516268e-02 -7.56177634e-01 -4.45516268e-02 -4.58222310e+00
4.81614927e-01 1.99162513e-02 9.94911681e-01 1.99162513e-02 -1.08428653e-02 -5.21784698e-01 9.94911681e-01 -5.21784698e-01 -5.50325406e+00
7.11078664e-01 -1.44945552e-01 7.88452768e-01 -1.44945552e-01 5.64744532e-01 -2.17526466e-01 7.88452768e-01 -2.17526466e-01 -6.47016033e+00
4.72590490e-01 7.27907910e-03 2.89252733e-01 7.27907910e-03 -2.32414675e-01 -1.01215872e+00 2.89252733e-01 -1.01215872e+00 -4.61981980e+00
2.64704187e-01 8.84454542e-02 -1.01534654e+00 8.84454542e-02 -2.06491758e-01 -6.89666842e-01 -1.01534654e+00 -6.89666842e-01 -2.97912985e+00
-1.28436196e+00 -1.38110363e+00 -2.30769396e+00 -1.38110363e+00 -2.32209492e+00 -2.20519137e+00 -2.30769396e+00 -2.20519137e+00 -1.82494462e-01
-2.56105262e-01 1.13183784e-01 -4.16848263e-01 1.13183784e-01 -1.24305719e-01 -4.92033191e-01 -4.16848263e-01 -4.92033191e-01 -1.03700981e+00
-5.79982214e-02 -4.99004342e-01 -3.68064687e-01 -4.99004342e-01 7.47234911e-01 2.89109237e-01 -3.68064687e-01 2.89109237e-01 -5.89613354e+00
3.70452578e-01 -3.87943695e-01 -3.59598229e-01 -3.87943695e-01 7.39907742e-01 6.44548059e-01 -3.59598229e-01 6.44548059e-01 -6.64112075e+00
1.70242047e+00 -5.22009581e-01 2.90128559e-01 -5.22009581e-01 3.97053406e-01 -1.73532230e+00 2.90128559e-01 -1.73532230e+00 -6.00246739e+00
1.96256998e-01 8.64374299e-02 -3.07923300e-01 8.64374299e-02 7.00201852e-01 2.23555932e-01 -3.07923300e-01 2.23555932e-01 -7.48632407e+00
6.77092262e-02 1.43345684e-01 -2.32421085e-01 1.43345684e-01 2.30483793e-01 -6.86828494e-02 -2.32421085e-01 -6.86828494e-02 -6.98347139e+00
9.82859458e-02 -3.44292065e-02 2.83152231e-01 -3.44292065e-02 -5.34095205e-02 3.80091570e-01 2.83152231e-01 3.80091570e-01 -6.48708904e+00
-1.36700656e-01 1.73910782e-01 8.37859847e-02 1.73910782e-01 7.47695025e-02 1.87513903e-01 8.37859847e-02 1.87513903e-01 -6.42345929e+00
6.72544241e-01 5.02934828e-02 1.52486825e-01 5.02934828e-02 4.03802538e-01 -9.80048254e-02 1.52486825e-01 -9.80048254e-02 -7.02570486e+00
8.04343585e-01 -1.65388137e-01 -6.13177940e-03 -1.65388137e-01 -3.30339823e-01 2.68249350e-01 -6.13177940e-03 2.68249350e-01 -6.42337120e+00
5.88546231e-01 1.10922754e-02 1.90289021e-02 1.10922754e-02 2.36301944e-02 -4.99402858e-01 1.90289021e-02 -4.99402858e-01 -4.32802480e+00
1.01593179e+00 -3.95214008e-02 -6.91999737e-02 -3.95214008e-02 -5.01955003e-02 -1.49166811e-01 -6.91999737e-02 -1.49166811e-01 -4.68159211e+00
-2.39426327e+00 2.40697101e-01 -1.28578380e-01 2.40697101e-01 -3.28519821e-01 -1.69610929e+00 -1.28578380e-01 -1.69610929e+00 5.33459187e-01
-1.70472610e+00 9.03995708e-02 3.16399485e-02 9.03995708e-02 -5.45150816e-01 -1.70399606e+00 3.16399485e-02 -1.70399606e+00 6.05644584e-02
-1.13182603e-01 -1.85892731e-01 7.35417996e-02 -1.85892731e-01 -3.68567258e-02 -4.11242153e-02 7.35417996e-02 -4.11242153e-02 -6.61280692e-01
-2.14773387e-01 -1.50003965e-01 -2.22940020e-02 -1.50003965e-01 -7.03337193e-02 -1.85617387e-01 -2.22940020e-02 -1.85617387e-01 -1.05377964e+00
-2.81194635e-02 -3.85094732e-02 5.16698172e-04 -3.85094732e-02 -6.10354007e-04 -2.96736620e-02 5.16698172e-04 -2.96736620e-02 2.83837840e-02
-2.49205343e-02 -1.44974785e-02 1.92616545e-02 -1.44974785e-02 2.79616658e-02 3.95229943e-02 1.92616545e-02 3.95229943e-02 -3.38846096e-03
1.58352451e-03 -1.81109528e-03 -1.89824924e-02 -1.81109528e-03 6.44184416e-03 -1.63650811e-02 -1.89824924e-02 -1.63650811e-02 -8.37139692e-03
1.83011163e-02 -2.58231424e-02 1.34750418e-02 -2.58231424e-02 -2.21342547e-03 1.33885555e-02 1.34750418e-02 1.33885555e-02 -1.64346118e-02
1.58242757e-01 -3.56614523e-02 -2.45206583e-02 -3.56614523e-02 -6.50308874e-02 -4.31103971e-02 -2.45206583e-02 -4.31103971e-02 -7.58542866e-03
9.69490409e-02 5.07903844e-03 3.16737959e-02 5.07903844e-03 -1.47969522e-01 2.37838179e-02 3.16737959e-02 2.37838179e-02 -1.25138909e-02
-2.79194699e-02 -1.22527047e-02 -1.40520991e-02 -1.22527047e-02 -4.00452018e-02 -5.61293750e-03 -1.40520991e-02 -5.61293750e-03 3.00973030e-02
-9.76576998e-02 -9.42091222e-02 -1.73853971e-02 -9.42091222e-02 1.14699087e-02 -8.99079032e-02 -1.73853971e-02 -8.99079032e-02 1.00575301e-02
2.57703245e-01 -7.00820237e-08 6.17350452e-07 -7.00820237e-08 -1.22743681e-01 5.24218194e-07 6.17350452e-07 5.24218194e-07 -5.99737215e+00
1.87889531e-01 5.35480697e-02 -2.75962520e-07 5.35480697e-02 -6.77287392e-03 3.79440580e-02 -2.75962520e-07 3.79440580e-02 -5.96683145e+00
3.41477800e-01 2.05300877e-01 1.42231183e-02 2.05300877e-01 -1.49032814e-01 5.16647110e-02 1.42231183e-02 5.16647110e-02 -5.95347595e+00
4.14531544e-01 5.87685779e-02 -1.15325027e-02 5.87685779e-02 -2.98055343e-01 3.36149242e-08 -1.15325027e-02 3.36149242e-08 -6.01826644e+00
4.36730552e-02 7.62339421e-02 1.46043021e-07 7.62339421e-02 2.53067762e-01 6.67028353e-02 1.46043021e-07 6.67028353e-02 -5.89217210e+00
1.38998353e-01 2.71405559e-01 3.60352071e-02 2.71405559e-01 1.85639052e-01 7.55624417e-02 3.60352071e-02 7.55624417e-02 -5.76009107e+00
-7.38854781e-02 7.94382207e-02 -1.61977368e-07 7.94382207e-02 5.05364940e-01 5.30173313e-02 -1.61977368e-07 5.30173313e-02 -5.84799433e+00
-5.13212411e-02 2.36043751e-01 6.92071188e-02 2.36043751e-01 4.85504054e-01 9.39580332e-02 6.92071188e-02 9.39580332e-02 -5.52142870e+00
-1.24266386e-01 3.79282609e-02 6.81029633e-08 3.79282609e-02 6.13243371e-01 1.12814875e-02 6.81029633e-08 1.12814875e-02 -5.82979584e+00
-6.24830257e-02 1.31965373e-01 1.57651860e-01 1.31965373e-01 7.00765908e-01 7.39901811e-02 1.57651860e-01 7.39901811e-02 -5.49177563e+00
-7.13061327e-02 -2.54047271e-02 -3.63215804e-08 -2.54047271e-02 5.99141181e-01 -1.29213757e-02 -3.63215804e-08 -1.29213757e-02 -5.82791281e+00
2.24933028e-04 7.16159726e-03 1.90457210e-01 7.16159726e-03 8.10061440e-01 6.69395144e-03 1.90457210e-01 6.69395144e-03 -5.59321034e+00
-7.20261857e-02 -1.22443318e-01 4.56348062e-08 -1.22443318e-01 7.25100935e-01 2.89437268e-02 4.56348062e-08 2.89437268e-02 -5.92278147e+00
2.54533067e-02 -9.85127371e-02 2.44722113e-01 -9.85127371e-02 9.17262733e-01 -9.24793594e-02 2.44722113e-01 -9.24793594e-02 -5.72542644e+00
2.31786359e-01 3.11273202e-01 -2.44196530e-01 3.11273202e-01 -4.95435916e-01 1.23409886e-01 -2.44196530e-01 1.23409886e-01 -6.16834557e+00
3.42631359e-01 1.22964703e-01 -2.44054288e-01 1.22964703e-01 -6.94599539e-01 5.23083145e-07 -2.44054288e-01 5.23083145e-07 -6.58718824e+00
9.03544389e-02 6.16611913e-01 -8.93942621e-02 6.16611913e-01 4.94831055e-02 1.42188463e-01 -8.93942621e-02 1.42188463e-01 -5.40524185e+00
7.20242895e-02 5.05822740e-01 9.20907613e-02 5.05822740e-01 4.33595750e-01 1.44039080e-01 9.20907613e-02 1.44039080e-01 -4.59173107e+00
-7.50917941e-02 1.92293335e-01 2.79733002e-01 1.92293335e-01 5.25870435e-01 1.72316015e-01 2.79733002e-01 1.72316015e-01 -3.66587496e+00
-6.95024133e-02 6.07504768e-02 5.52734107e-01 6.07504768e-02 5.23965649e-01 1.46260539e-02 5.52734107e-01 1.46260539e-02 -3.30553204e+00
7.29092360e-02 -1.23942085e-01 5.41975528e-01 -1.23942085e-01 5.60034662e-01 -1.48194656e-01 5.41975528e-01 -1.48194656e-01 -3.47113800e+00
1.12529075e+00 2.63788015e-01 -1.14526130e-01 2.63788015e-01 2.19777352e-01 6.33708090e-02 -1.14526130e-01 6.33708090e-02 -8.47272348e+00
8.99640203e-01 1.46079600e-01 -4.05558646e-01 1.46079600e-01 1.22285292e-01 -3.31783667e-07 -4.05558646e-01 -3.31783667e-07 -8.95907021e+00
5.11882623e-01 7.54586041e-01 8.57272148e-02 7.54586041e-01 2.02677429e-01 4.74410474e-01 8.57272148e-02 4.74410474e-01 -5.40830962e+00
-2.02925578e-01 4.15976897e-01 3.14819023e-01 4.15976897e-01 2.03754388e-01 3.77301484e-01 3.14819023e-01 3.77301484e-01 -2.45923886e+00
-9.75941345e-02 -8.17735866e-03 2.05135051e-01 -8.17735866e-03 1.61148306e-01 -2.04260973e-02 2.05135051e-01 -2.04260973e-02 -8.88092332e-01
-4.37573813e-01 -1.52699747e-01 -3.02438155e-01 -1.52699747e-01 5.05407304e-02 -1.40046056e-01 -3.02438155e-01 -1.40046056e-01 -1.60674658e-01
-2.71452623e-01 -5.59730700e-02 4.27751981e-01 -5.59730700e-02 -3.52498721e-01 1.20398059e-01 4.27751981e-01 1.20398059e-01 7.62448534e-02
-1.24461912e-01 -1.20858613e-01 -4.19159055e-01 -1.20858613e-01 -1.88406695e-01 -2.92567089e-02 -4.19159055e-01 -2.92567089e-02 -1.68745957e-01
-2.00041495e-01 -8.39264914e-02 3.96804884e-01 -8.39264914e-02 -4.60556358e-01 -9.12824497e-02 3.96804884e-01 -9.12824497e-02 1.78983808e-01
-2.76691347e-01 -5.19233858e-02 -1.25040770e+00 -5.19233858e-02 -1.32809171e+00 -7.91885614e-01 -1.25040770e+00 -7.91885614e-01 1.02200747e-01
-1.45681277e+00 1.90401392e-01 5.18244684e-01 1.90401392e-01 -5.34432881e-01 7.86980510e-01 5.18244684e-01 7.86980510e-01 4.88668025e-01
5.78381896e-01 9.21379805e-01 4.91725236e-01 9.21379805e-01 1.29183865e+00 1.50580454e+00 4.91725236e-01 1.50580454e+00 -5.44079256e+00
2.68517967e-01 1.07216939e-01 -7.45443602e-02 1.07216939e-01 2.26402953e-01 2.35054555e-01 -7.45443602e-02 2.35054555e-01 3.88387019e-02
3.87141307e-02 -1.13408873e-01 1.57031983e-01 -1.13408873e-01 2.24079590e-01 -6.12313660e-02 1.57031983e-01 -6.12313660e-02 2.70966758e-01
-5.51841647e-03 5.65451337e-02 1.19780768e-02 5.65451337e-02 3.34134011e-01 3.79056805e-02 1.19780768e-02 3.79056805e-02 5.99824381e-03
1.74368801e-01 -1.14262247e-01 -8.72865170e-02 -1.14262247e-01 2.31582148e-02 1.64205944e-02 -8.72865170e-02 1.64205944e-02 1.37087215e-01
5.78178149e-02 -1.24889780e-01 -1.07627921e-03 -1.24889780e-01 -1.71010047e-02 -4.44638375e-02 -1.07627921e-03 -4.44638375e-02 1.10578936e-01
1.43385218e-01 -6.62339330e-02 -7.79662952e-02 -6.62339330e-02 -2.45939068e-01 -1.24311973e-02 -7.79662952e-02 -1.24311973e-02 2.53849015e-01
-1.87906931e-04 8.38861614e-02 7.53954947e-01 8.38861614e-02 2.86333352e-01 2.12388113e-06 7.53954947e-01 2.12388113e-06 -9.38940048e+00
5.59519827e-01 4.50221479e-01 1.22580814e+00 4.50221479e-01 4.56141323e-01 -2.19653487e-01 1.22580814e+00 -2.19653487e-01 -1.01189308e+01
3.24963590e-01 8.89961918e-04 2.56704807e-01 8.89961918e-04 -4.35066306e-01 1.51611512e-01 2.56704807e-01 1.51611512e-01 -6.96259101e+00
1.58431873e-01 -1.11073762e-01 5.11126310e-01 -1.11073762e-01 -5.57715476e-01 7.66944140e-07 5.11126310e-01 7.66944140e-07 -7.30459619e+00
2.74937889e-02 2.31161080e-02 -1.43154052e-02 2.31161080e-02 3.79809598e-02 1.37818437e-02 -1.43154052e-02 1.37818437e-02 4.16431921e-02
-1.93706155e-02 -1.62850146e-02 -9.84462996e-02 -1.62850146e-02 1.09736959e-01 2.08351105e-01 -9.84462996e-02 2.08351105e-01 -4.42350559e-01
6.65597506e-02 3.19956113e-02 2.46963156e-02 3.19956113e-02 -1.35270052e-01 7.38885719e-03 2.46963156e-02 7.38885719e-03 -2.64178589e-02
8.92479688e-01 -7.83746303e-02 -3.24533333e-03 -7.83746303e-02 -2.09457830e-01 2.76011795e-01 -3.24533333e-03 2.76011795e-01 -6.74041247e+00
5.52358806e-01 -7.59212999e-03 1.78259552e-01 -7.59212999e-03 -4.53941971e-01 -2.84984708e-07 1.78259552e-01 -2.84984708e-07 -6.40290928e+00
8.29798311e-01 3.74759659e-02 -1.11143317e-01 3.74759659e-02 2.31037508e-01 2.55398422e-01 -1.11143317e-01 2.55398422e-01 -6.22406816e+00
1.39206666e+00 -8.64685476e-02 -1.58432208e-01 -8.64685476e-02 -2.82376334e-02 4.30335298e-01 -1.58432208e-01 4.30335298e-01 -6.52705574e+00
6.76022708e-01 9.74671617e-02 -1.18802469e-01 9.74671617e-02 5.23239374e-03 3.87055829e-01 -1.18802469e-01 3.87055829e-01 -3.77667618e+00
1.02988374e+00 -3.84123400e-02 -1.95280485e-01 -3.84123400e-02 4.42642868e-02 4.67074633e-01 -1.95280485e-01 4.67074633e-01 -4.16956615e+00
-1.02397420e-01 -7.39985853e-02 -3.16286355e-01 -7.39985853e-02 1.85281850e-01 1.96945243e-01 -3.16286355e-01 1.96945243e-01 -9.96554017e-01
-2.69340031e-01 4.78643477e-02 -1.99099071e-02 4.78643477e-02 6.30875472e-02 7.92586431e-02 -1.99099071e-02 7.92586431e-02 9.22300965e-02
-1.48914754e-01 -2.13786755e-02 -6.20458415e-03 -2.13786755e-02 -3.34421583e-02 -1.54425120e-02 -6.20458415e-03 -1.54425120e-02 1.06969908e-01
</DataArray>
<DataArray type="Float32" Name="Logarithmic_strain_components" NumberOfComponents="9" format="ascii">
2.05157309e-05 -7.72185024e-06 -3.97892413e-06 -7.72185024e-06 1.90918333e-05 8.06847725e-06 -3.97892413e-06 8.06847725e-06 -1.01091488e-04
1.87925193e-05 -8.56279087e-06 -1.38074535e-05 -8.56279087e-06 1.92814420e-05 6.50460754e-06 -1.38074535e-05 6.50460754e-06 -9.64932460e-05
1.88940585e-05 -6.78263928e-06 -1.16467198e-05 -6.78263928e-06 2.65783028e-05 -1.28486564e-05 -1.16467198e-05 -1.28486564e-05 -1.14790571e-04
1.87916382e-05 -4.60182622e-06 -7.32345529e-06 -4.60182622e-06 2.30562509e-05 -1.03119220e-05 -7.32345529e-06 -1.03119220e-05 -1.07325975e-04
8.21594784e-06 5.41619912e-06 -5.42526911e-06 5.41619912e-06 1.95859927e-05 6.89931048e-06 -5.42526911e-06 6.89931048e-06 -9.65117306e-05
6.15422515e-06 3.85382768e-06 -3.85978975e-05 3.85382768e-06 2.69369779e-05 2.16303466e-05 -3.85978975e-05 2.16303466e-05 -1.06163825e-04
1.40024797e-05 2.91700809e-06 -1.68368215e-05 2.91700809e-06 2.33260614e-05 -2.00858209e-05 -1.68368215e-05 -2.00858209e-05 -1.20847333e-04
1.21670669e-05 4.71749217e-06 3.70852388e-06 4.71749217e-06 2.50312232e-05 -6.29248689e-06 3.70852388e-06 -6.29248689e-06 -1.08647861e-04
1.85791430e-05 -4.77108718e-06 -2.74036804e-05 -4.77108718e-06 2.30846031e-05 1.71322336e-06 -2.74036804e-05 1.71322336e-06 -9.95445698e-05
2.75485227e-05 -8.66973869e-06 -9.61148851e-06 -8.66973869e-06 3.53999203e-05 3.89745992e-07 -9.61148851e-06 3.89745992e-07 -1.34581322e-04
2.80843663e-05 2.65848988e-05 -8.52487950e-05 2.65848988e-05 2.73232592e-05 1.62112624e-05 -8.52487950e-05 1.62112624e-05 -1.31821721e-04
3.40642691e-05 2.22282943e-05 -7.07858835e-05 2.22282943e-05 2.03670547e-05 -1.79610988e-05 -7.07858835e-05 -1.79610988e-05 -1.49185827e-04
5.42792513e-08 1.68292913e-07 1.91190040e-07 1.68292913e-07 -6.95290012e-08 2.17230443e-07 1.91190040e-07 2.17230443e-07 -1.08630552e-07
1.37097711e-07 2.75940233e-08 -3.78682465e-07 2.75940233e-08 1.01795045e-07 -5.86287143e-08 -3.78682465e-07 -5.86287143e-08 1.69582250e-08
-1.71312056e-07 -1.60327965e-07 2.53470205e-08 -1.60327965e-07 5.58723272e-08 2.13494516e-07 2.53470205e-08 2.13494516e-07 -2.75304970e-07
7.25611287e-08 7.56483232e-09 -5.23069460e-07 7.56483232e-09 8.25690947e-08 -3.80575010e-07 -5.23069460e-07 -3.80575010e-07 -3.32482735e-07
4.74082107e-08 6.25666061e-08 7.43642303e-08 6.25666061e-08 7.18480237e-07 3.33822726e-07 7.43642303e-08 3.33822726e-07 1.90135424e-07
1.88735527e-07 6.91962612e-08 1.46784018e-07 6.91962612e-08 -2.91421372e-07 1.73399979e-08 1.46784018e-07 1.73399979e-08 5.02835249e-08
7.59888152e-10 -2.58243944e-07 -5.47805428e-07 -2.58243944e-07 -2.09298108e-07 -3.46765916e-07 -5.47805428e-07 -3.46765916e-07 -1.89718588e-08
-1.39142045e-07 -2.33501737e-07 -2.77531058e-07 -2.33501737e-07 -6.41588940e-07 -1.93210283e-07 -2.77531058e-07 -1.93210283e-07 1.26436376e-07
1.90828378e-05 -2.98126849e-07 4.44512762e-06 -2.98126849e-07 2.25156728e-05 -1.28076863e-06 4.44512762e-06 -1.28076863e-06 -1.13665577e-04
2.00428362e-05 -1.78817004e-06 3.25877119e-06 -1.78817004e-06 2.04260004e-05 -4.26331667e-07 3.25877119e-06 -4.26331667e-07 -1.13551267e-04
1.90580818e-05 -9.69287072e-06 8.09320179e-06 -9.69287072e-06 2.11552172e-05 1.86009124e-06 8.09320179e-06 1.86009124e-06 -1.13501968e-04
1.70037106e-05 -1.81532764e-06 7.39234508e-06 -1.81532764e-06 2.43477107e-05 -2.02250484e-06 7.39234508e-06 -2.02250484e-06 -1.13628807e-04
2.24848418e-05 7.23128161e-08 2.41584166e-06 7.23128161e-08 2.15904111e-05 -3.57682273e-07 2.41584166e-06 -3.57682273e-07 -1.16740426e-04
2.24910104e-05 1.91383659e-07 1.00784082e-07 1.91383659e-07 2.24408695e-05 3.37745536e-06 1.00784082e-07 3.37745536e-06 -1.16462717e-04
2.21168475e-05 3.29176629e-07 8.48073031e-06 3.29176629e-07 2.37836732e-05 1.31080541e-06 8.48073031e-06 1.31080541e-06 -1.17826953e-04
2.21236819e-05 3.67599021e-07 8.46231268e-06 3.67599021e-07 2.45044344e-05 -2.99288320e-06 8.46231268e-06 -2.99288320e-06 -1.18663242e-04
2.32982215e-05 -4.54172789e-06 6.42991392e-06 -4.54172789e-06 1.53202702e-05 6.78590908e-08 6.42991392e-06 6.78590908e-08 -1.12293954e-04
2.21118731e-05 -1.38168490e-05 -6.42688019e-06 -1.38168490e-05 1.52247744e-05 1.22348915e-06 -6.42688019e-06 1.22348915e-06 -1.15414811e-04
2.18102200e-05 -2.82367335e-07 -5.61710158e-06 -2.82367335e-07 2.18623468e-05 3.38945298e-06 -5.61710158e-06 3.38945298e-06 -1.15952220e-04
2.23530596e-05 9.00488946e-08 2.04568774e-06 9.00488946e-08 2.44574974e-05 5.00100822e-06 2.04568774e-06 5.00100822e-06 -1.18192882e-04
2.55924106e-05 -8.02755920e-07 2.16788729e-06 -8.02755920e-07 1.15665152e-05 2.68870816e-06 2.16788729e-06 2.68870816e-06 -1.11983525e-04
2.45406513e-05 -7.54840002e-06 -1.58551064e-05 -7.54840002e-06 1.08435173e-05 -5.37823601e-06 -1.58551064e-05 -5.37823601e-06 -1.16776315e-04
2.26676561e-05 -2.42538556e-06 -5.00997828e-06 -2.42538556e-06 1.98447560e-05 2.12689395e-06 -5.00997828e-06 2.12689395e-06 -1.14956098e-04
2.34950958e-05 -5.53390834e-06 -1.80708893e-05 -5.53390834e-06 2.19780384e-05 3.79797999e-06 -1.80708893e-05 3.79797999e-06 -1.17661810e-04
2.50155990e-05 -3.51030646e-07 -7.48015998e-06 -3.51030646e-07 1.26057780e-05 1.17298396e-06 -7.48015998e-06 1.17298396e-06 -1.12978278e-04
2.44730620e-05 3.36905703e-06 3.91348237e-07 3.36905703e-06 1.84497918e-05 -5.89139631e-07 3.91348237e-07 -5.89139631e-07 -1.21345663e-04
2.39844449e-05 -1.47285820e-06 -5.14088993e-06 -1.47285820e-06 1.85528961e-05 1.76361986e-06 -5.14088993e-06 1.76361986e-06 -1.14092425e-04
2.44358289e-05 -7.31475478e-06 -1.67747932e-05 -7.31475478e-06 1.38005714e-05 -1.09636670e-06 -1.67747932e-05 -1.09636670e-06 -1.13167674e-04
2.39193541e-05 -2.92898516e-07 -9.18856117e-07 -2.92898516e-07 1.57764105e-05 -5.24774322e-07 -9.18856117e-07 -5.24774322e-07 -1.13738864e-04
2.49706998e-05 2.50641735e-06 -1.93676637e-06 2.50641735e-06 2.03201882e-05 3.48682062e-06 -1.93676637e-06 3.48682062e-06 -1.20662447e-04
2.44097268e-05 -5.62959869e-07 -9.75943453e-06 -5.62959869e-07 1.81965452e-05 1.39748877e-06 -9.75943453e-06 1.39748877e-06 -1.12858110e-04
2.26242214e-05 -1.50197212e-06 -1.91090147e-06 -1.50197212e-06 1.94381760e-05 -1.25961213e-06 -1.91090147e-06 -1.25961213e-06 -1.15827116e-04
2.29177904e-05 -1.55983020e-06 2.80480990e-07 -1.55983020e-06 1.68678998e-05 5.63748927e-07 2.80480990e-07 5.63748927e-07 -1.12680631e-04
2.39910241e-05 -2.49125036e-07 7.49008990e-07 -2.49125036e-07 2.06639274e-05 8.07234690e-07 7.49008990e-07 8.07234690e-07 -1.18245402e-04
2.35448779e-05 1.56428780e-06 -8.14989380e-06 1.56428780e-06 1.93590222e-05 -1.05089208e-06 -8.14989380e-06 -1.05089208e-06 -1.12074249e-04
2.26878601e-05 1.63306476e-06 -3.36502825e-06 1.63306476e-06 1.89385419e-05 1.30200920e-06 -3.36502825e-06 1.30200920e-06 -1.14360366e-04
1.09394994e-05 -1.27154465e-05 2.76857656e-05 -1.27154465e-05 2.20035456e-05 -1.58540789e-05 2.76857656e-05 -1.58540789e-05 -1.10682536e-04
1.01389733e-05 -7.92658784e-06 1.21281612e-05 -7.92658784e-06 2.68545900e-05 -2.58893505e-06 1.21281612e-05 -2.58893505e-06 -1.07616939e-04
2.45700927e-05 -6.20939420e-06 1.26765759e-05 -6.20939420e-06 3.00122326e-05 -1.42002034e-06 1.26765759e-05 -1.42002034e-06 -1.23857854e-04
2.35253342e-05 -2.69732504e-06 2.54600203e-05 -2.69732504e-06 2.89067111e-05 -3.76064639e-06 2.54600203e-05 -3.76064639e-06 -1.21355752e-04
2.38710739e-05 -1.94228542e-05 7.53590744e-06 -1.94228542e-05 1.82182532e-05 -2.15469440e-05 7.53590744e-06 -2.15469440e-05 -1.24356429e-04
1.89217080e-05 -2.15047027e-06 -9.34161244e-06 -2.15047027e-06 2.70961718e-05 -1.89372368e-05 -9.34161244e-06 -1.89372368e-05 -1.12025647e-04
4.12355912e-05 -2.18396692e-05 -6.94594135e-05 -2.18396692e-05 2.27051321e-05 8.82849781e-06 -6.94594135e-05 8.82849781e-06 -1.45783895e-04
1.72174046e-05 -2.42029098e-06 -3.43338288e-05 -2.42029098e-06 2.17922919e-05 -1.00622544e-05 -3.43338288e-05 -1.00622544e-05 -1.02569219e-04
3.19478777e-05 6.35138998e-06 -1.32644436e-06 6.35138998e-06 2.69523975e-05 1.53928291e-05 -1.32644436e-06 1.53928291e-05 -1.41948905e-04
3.43178079e-05 -1.01832028e-05 -6.06397156e-05 -1.01832028e-05 1.30283469e-05 2.33237955e-05 -6.06397156e-05 2.33237955e-05 -1.18297248e-04
2.61128112e-05 -1.99611492e-08 -1.91741001e-06 -1.99611492e-08 2.38272501e-05 8.64761290e-07 -1.91741001e-06 8.64761290e-07 -1.25520588e-04
2.90637940e-05 4.28521940e-06 -7.16607474e-07 4.28521940e-06 2.70605465e-05 1.57976201e-05 -7.16607474e-07 1.57976201e-05 -1.34583770e-04
2.47491607e-05 4.41309709e-08 3.98392729e-07 4.41309709e-08 2.43669756e-05 5.61635261e-06 3.98392729e-07 5.61635261e-06 -1.23781414e-04
2.87893672e-05 -1.98482456e-06 -3.42252673e-06 -1.98482456e-06 2.59406006e-05 -6.86084232e-06 -3.42252673e-06 -6.86084232e-06 -1.31839486e-04
7.68251214e-06 -1.27621830e-05 3.20570381e-05 -1.27621830e-05 2.71894453e-05 -3.57567270e-06 3.20570381e-05 -3.57567270e-06 -1.09873456e-04
6.51501911e-06 -4.51737333e-06 1.50844967e-05 -4.51737333e-06 2.24749183e-05 2.79981696e-05 1.50844967e-05 2.79981696e-05 -9.75892181e-05
2.00998692e-05 -4.49563876e-06 1.73362997e-05 -4.49563876e-06 2.68322561e-05 -3.67397970e-05 1.73362997e-05 -3.67397970e-05 -1.07884506e-04
1.28548689e-05 2.80108304e-06 2.27212503e-05 2.80108304e-06 2.13425151e-05 -4.21562390e-05 2.27212503e-05 -4.21562390e-05 -9.34739037e-05
2.45725664e-05 -2.99162652e-05 7.00184999e-05 -2.99162652e-05 4.85031242e-05 -9.00202826e-05 7.00184999e-05 -9.00202826e-05 -1.50972490e-04
2.97956383e-05 -1.33452410e-05 5.36350594e-06 -1.33452410e-05 3.20753061e-05 -4.00376302e-05 5.36350594e-06 -4.00376302e-05 -1.20956170e-04
-5.24715979e-05 -8.20600908e-05 -1.82914664e-04 -8.20600908e-05 -2.65211402e-05 -1.81310868e-04 -1.82914664e-04 -1.81310868e-04 1.71051433e-05
4.37733744e-06 -1.21121211e-05 -3.37763774e-05 -1.21121211e-05 3.02769786e-06 -4.91378426e-05 -3.37763774e-05 -4.91378426e-05 -5.91454706e-05
1.07966931e-05 1.83350968e-06 -2.52440441e-06 1.83350968e-06 2.31742740e-05 4.61366999e-05 -2.52440441e-06 4.61366999e-05 -9.98349341e-05
9.66431435e-06 -4.32455579e-06 9.71642316e-06 -4.32455579e-06 1.92201196e-05 2.88111332e-05 9.71642316e-06 2.88111332e-05 -9.49778678e-05
8.12697448e-06 1.32047171e-05 2.49234257e-05 1.32047171e-05 2.59810674e-05 1.47913178e-05 2.49234257e-05 1.47913178e-05 -9.46474829e-05
1.30865326e-05 7.97085477e-06 -4.43067154e-06 7.97085477e-06 2.37671838e-05 -1.22198111e-06 -4.43067154e-06 -1.22198111e-06 -9.33128777e-05
1.49550256e-05 3.86879043e-06 -3.35315974e-06 3.86879043e-06 2.11745028e-05 1.89552796e-06 -3.35315974e-06 1.89552796e-06 -1.03870459e-04
1.60067099e-05 1.39158515e-05 -1.37177703e-05 1.39158515e-05 3.08143144e-05 2.84262023e-05 -1.37177703e-05 2.84262023e-05 -1.19733973e-04
1.62824090e-05 1.26096097e-05 -7.88177294e-06 1.26096097e-05 3.58350180e-05 3.04663567e-05 -7.88177294e-06 3.04663567e-05 -1.20175711e-04
1.99450119e-06 1.78224134e-05 -1.29818063e-05 1.78224134e-05 2.81032781e-05 8.01444330e-05 -1.29818063e-05 8.01444330e-05 -8.99804672e-05
2.84051757e-05 1.87888080e-05 4.52274899e-05 1.87888080e-05 5.92103115e-05 2.83999416e-05 4.52274899e-05 2.83999416e-05 -1.54962385e-04
1.05284602e-05 9.77063783e-06 -2.94959806e-05 9.77063783e-06 3.33549277e-05 -2.73254245e-05 -2.94959806e-05 -2.73254245e-05 -1.29779321e-04
1.24148351e-05 8.91800227e-07 -5.08428934e-06 8.91800227e-07 2.63146540e-05 8.16827469e-06 -5.08428934e-06 8.16827469e-06 -1.09530694e-04
1.22160335e-05 1.35189648e-05 -3.28144479e-05 1.35189648e-05 2.90775160e-05 8.44236257e-06 -3.28144479e-05 8.44236257e-06 -1.18010010e-04
9.86531450e-06 4.86413137e-06 -2.35734284e-07 4.86413137e-06 3.41564464e-05 -5.99191685e-06 -2.35734284e-07 -5.99191685e-06 -1.20364261e-04
8.68230035e-06 -1.06894458e-06 -4.45774381e-05 -1.06894458e-06 2.61365690e-05 8.89645280e-06 -4.45774381e-05 8.89645280e-06 -1.20842713e-04
1.15909502e-05 1.50260266e-05 1.13084318e-05 1.50260266e-05 4.43919022e-05 -1.13057625e-04 1.13084318e-05 -1.13057625e-04 -1.28278196e-04
1.60455168e-05 2.45841875e-07 7.26298587e-06 2.45841875e-07 2.34743187e-05 -4.72797619e-05 7.26298587e-06 -4.72797619e-05 -1.13059531e-04
2.77595027e-05 -2.47808785e-07 1.63322989e-06 -2.47808785e-07 2.11958768e-05 -1.53909781e-06 1.63322989e-06 -1.53909781e-06 -1.19621534e-04
2.66382472e-05 1.78618228e-06 1.95754956e-06 1.78618228e-06 2.26530965e-05 2.15027811e-06 1.95754956e-06 2.15027811e-06 -1.18952919e-04
2.70295436e-05 6.75584548e-06 -6.69196993e-07 6.75584548e-06 2.27716835e-05 1.97727907e-06 -6.69196993e-07 1.97727907e-06 -1.20102688e-04
2.93023663e-05 1.71851448e-06 1.33508335e-06 1.71851448e-06 2.02422539e-05 -9.09902809e-07 1.33508335e-06 -9.09902809e-07 -1.21178829e-04
2.36011751e-05 3.23075278e-06 -1.18808701e-06 3.23075278e-06 2.72266607e-05 4.17163108e-06 -1.18808701e-06 4.17163108e-06 -1.18851471e-04
2.26465982e-05 9.92622591e-06 -3.57698850e-06 9.92622591e-06 2.67156827e-05 2.11829200e-06 -3.57698850e-06 2.11829200e-06 -1.16384709e-04
2.06554982e-05 1.75073001e-06 -6.42694442e-06 1.75073001e-06 2.95511109e-05 3.01546484e-06 -6.42694442e-06 3.01546484e-06 -1.18015580e-04
1.96649542e-05 6.15936808e-06 -5.44971536e-06 6.15936808e-06 3.03538736e-05 4.70692979e-06 -5.44971536e-06 4.70692979e-06 -1.14287439e-04
2.08610459e-05 -1.13155494e-06 -3.97474190e-06 -1.13155494e-06 2.93510157e-05 7.58079153e-07 -3.97474190e-06 7.58079153e-07 -1.16615645e-04
1.96767635e-05 -2.91958926e-07 -1.13317950e-05 -2.91958926e-07 2.91177537e-05 5.37078736e-06 -1.13317950e-05 5.37078736e-06 -1.12749219e-04
2.17837573e-05 -2.12338580e-06 -1.82941935e-07 -2.12338580e-06 2.91699625e-05 -9.71197380e-08 -1.82941935e-07 -9.71197380e-08 -1.15676103e-04
2.19297044e-05 -2.49919912e-06 -1.33165349e-05 -2.49919912e-06 2.40737131e-05 2.73646128e-06 -1.33165349e-05 2.73646128e-06 -1.11221299e-04
2.11177285e-05 1.33323940e-07 2.70943815e-06 1.33323940e-07 3.06531365e-05 2.04411492e-07 2.70943815e-06 2.04411492e-07 -1.16691150e-04
2.25586164e-05 -2.91297647e-06 -9.00438727e-06 -2.91297647e-06 2.60192382e-05 -3.43437821e-07 -9.00438727e-06 -3.43437821e-07 -1.13445285e-04
3.34282054e-05 1.09482309e-05 2.52417835e-05 1.09482309e-05 2.24291309e-05 -3.61577342e-07 2.52417835e-05 -3.61577342e-07 -1.25965219e-04
3.28832934e-05 5.86722399e-06 2.58596874e-05 5.86722399e-06 2.33446303e-05 -7.18759611e-06 2.58596874e-05 -7.18759611e-06 -1.30888555e-04
2.68468896e-05 1.19187590e-05 -8.21048062e-07 1.19187590e-05 2.51346518e-05 -3.38951793e-07 -8.21048062e-07 -3.38951793e-07 -1.12645578e-04
1.66284334e-05 8.59956828e-06 -2.23661150e-05 8.59956828e-06 2.01777879e-05 -1.77335902e-06 -2.23661150e-05 -1.77335902e-06 -8.88819841e-05
1.43673490e-05 4.78404235e-07 -2.63644488e-05 4.78404235e-07 2.51847588e-05 -2.25533160e-06 -2.63644488e-05 -2.25533160e-06 -8.82131925e-05
2.04997782e-05 -5.88283797e-06 -3.90009630e-05 -5.88283797e-06 2.21043962e-05 5.61549390e-07 -3.90009630e-05 5.61549390e-07 -9.10871968e-05
2.05438634e-05 -5.16838478e-06 -3.64522057e-05 -5.16838478e-06 2.29402982e-05 -2.16722792e-06 -3.64522057e-05 -2.16722792e-06 -9.38354642e-05
3.17924199e-05 1.13707673e-06 4.76752709e-05 1.13707673e-06 1.99108615e-05 -2.51712800e-05 4.76752709e-05 -2.51712800e-05 -1.11862047e-04
3.80346476e-05 -6.82141990e-06 3.80213575e-05 -6.82141990e-06 3.45653595e-05 -1.03745121e-05 3.80213575e-05 -1.03745121e-05 -1.34402973e-04
2.89330428e-05 3.57050112e-07 1.38643867e-05 3.57050112e-07 1.19845217e-05 -4.85976907e-05 1.38643867e-05 -4.85976907e-05 -9.32718079e-05
1.78487903e-05 4.26883139e-06 -4.87608734e-05 4.26883139e-06 6.65010911e-06 -3.30910051e-05 -4.87608734e-05 -3.30910051e-05 -5.99344676e-05
-1.58816147e-05 -6.63067913e-05 -1.10458299e-04 -6.63067913e-05 -4.03490740e-05 -1.05739760e-04 -1.10458299e-04 -1.05739760e-04 1.07654405e-05
-6.04620527e-07 5.36715661e-06 -2.02230854e-05 5.36715661e-06 2.72025204e-06 -2.36895700e-05 -2.02230854e-05 -2.36895700e-05 -1.93661175e-05
1.95379862e-05 -2.38589805e-05 -1.77033835e-05 -2.38589805e-05 3.87962700e-05 1.41957062e-05 -1.77033835e-05 1.41957062e-05 -1.20782088e-04
3.07062813e-05 -1.88549378e-05 -1.72483536e-05 -1.88549378e-05 3.97285573e-05 3.08777829e-05 -1.72483536e-05 3.08777829e-05 -1.37395061e-04
5.63776812e-05 -2.50765374e-05 1.39149470e-05 -2.50765374e-05 2.51844394e-05 -8.31662510e-05 1.39149470e-05 -8.31662510e-05 -1.28265245e-04
3.12231239e-05 4.10672110e-06 -1.47659836e-05 4.10672110e-06 4.31779711e-05 1.07702253e-05 -1.47659836e-05 1.07702253e-05 -1.53193418e-04
2.86456516e-05 6.99755685e-06 -1.11788063e-05 6.99755685e-06 3.23159807e-05 -3.49574492e-06 -1.11788063e-05 -3.49574492e-06 -1.40824177e-04
2.81463003e-05 -1.78712179e-06 1.37660558e-05 -1.78712179e-06 2.43806155e-05 1.81378073e-05 1.37660558e-05 1.81378073e-05 -1.29997907e-04
2.27932878e-05 8.07740844e-06 4.26325369e-06 8.07740844e-06 2.79328424e-05 9.28642066e-06 4.26325369e-06 9.28642066e-06 -1.27967272e-04
3.99212540e-05 2.35684115e-06 7.21825040e-06 2.35684115e-06 3.32847567e-05 -4.73626824e-06 7.21825040e-06 -4.73626824e-06 -1.44869216e-04
4.31670351e-05 -7.88649686e-06 -3.70524617e-07 -7.88649686e-06 1.58247733e-05 1.29570702e-05 -3.70524617e-07 1.29570702e-05 -1.30266690e-04
2.88389515e-05 6.45651880e-07 5.99469445e-07 6.45651880e-07 1.54479369e-05 -2.40364070e-05 5.99469445e-07 -2.40364070e-05 -8.91682794e-05
3.94099879e-05 -1.99857544e-06 -3.44462260e-06 -1.99857544e-06 1.38908935e-05 -7.28771772e-06 -3.44462260e-06 -7.28771772e-06 -9.75412586e-05
-4.88424957e-05 1.13912611e-05 -6.34548996e-06 1.13912611e-05 7.31585146e-07 -8.13846200e-05 -6.34548996e-06 -8.13846200e-05 2.15473865e-05
-3.21706211e-05 4.16311423e-06 1.74243360e-06 4.16311423e-06 -4.56246289e-06 -8.18400149e-05 1.74243360e-06 -8.18400149e-05 1.04180654e-05
5.21100816e-07 -8.76672425e-06 3.46604975e-06 -8.76672425e-06 2.36170519e-06 -2.07821216e-06 3.46604975e-06 -2.07821216e-06 -1.23974915e-05
3.19647143e-07 -7.20729334e-06 -8.17021468e-07 -7.20729334e-06 3.37472458e-06 -8.84136898e-06 -8.17021468e-07 -8.84136898e-06 -2.01878435e-05
-7.98956421e-07 -1.43856892e-06 3.81116990e-07 -1.43856892e-06 -2.98394099e-07 -1.26192742e-06 3.81116990e-07 -1.26192742e-06 5.17276021e-07
-8.72935516e-07 -1.30149510e-06 5.45181820e-07 -1.30149510e-06 1.19420451e-06 2.32541493e-06 5.45181820e-07 2.32541493e-06 -9.98763827e-09
2.76342547e-07 -5.08516621e-07 -2.77857310e-07 -5.08516621e-07 -4.23822435e-08 -8.47604895e-07 -2.77857310e-07 -8.47604895e-07 -9.87800206e-08
6.80996834e-07 -1.10972780e-06 3.46094566e-07 -1.10972780e-06 3.30884760e-08 3.43926104e-07 3.46094566e-07 3.43926104e-07 -1.00501452e-07
3.46462798e-06 -1.80823645e-06 -1.18330083e-06 -1.80823645e-06 -1.90474371e-06 -1.85438626e-06 -1.18330083e-06 -1.85438626e-06 -3.75929626e-07
2.49734963e-06 5.17235397e-07 1.62675614e-06 5.17235397e-07 -3.45302495e-06 1.06467509e-06 1.62675614e-06 1.06467509e-06 -8.65113445e-08
-5.99467782e-07 -5.32545670e-08 -2.81883860e-07 -5.32545670e-08 -8.06489226e-07 3.36186190e-08 -2.81883860e-07 3.36186190e-08 4.37774403e-07
-2.18457986e-06 -4.75262232e-06 -8.61950582e-07 -4.75262232e-06 6.04211725e-07 -4.51333725e-06 -8.61950582e-07 -4.51333725e-06 4.17270760e-07
2.97587758e-05 3.66937485e-07 3.62802211e-07 3.66937485e-07 2.00801842e-05 -7.01753493e-07 3.62802211e-07 -7.01753493e-07 -1.20576537e-04
2.78506504e-05 2.72090574e-06 2.55568033e-07 2.72090574e-06 2.27161536e-05 1.54567692e-06 2.55568033e-07 1.54567692e-06 -1.19799250e-04
3.12872185e-05 9.72416285e-06 6.00859934e-07 9.72416285e-06 1.94897234e-05 2.58231120e-06 6.00859934e-07 2.58231120e-06 -1.19737902e-04
3.35098139e-05 2.40741326e-06 -2.36171019e-07 2.40741326e-06 1.69472692e-05 -2.34222171e-08 -2.36171019e-07 -2.34222171e-08 -1.20965400e-04
2.34500003e-05 3.66217489e-06 2.16313431e-07 3.66217489e-06 2.82321962e-05 3.24091582e-06 2.16313431e-07 3.24091582e-06 -1.19196993e-04
2.49693676e-05 1.29804423e-05 1.47511412e-06 1.29804423e-05 2.62642616e-05 3.53508733e-06 1.47511412e-06 3.53508733e-06 -1.16615576e-04
1.98576345e-05 3.83482723e-06 2.45184932e-07 3.83482723e-06 3.37428010e-05 2.46282787e-06 2.45184932e-07 2.46282787e-06 -1.19141099e-04
1.90895585e-05 1.15565078e-05 3.47323441e-06 1.15565078e-05 3.20214176e-05 4.55956206e-06 3.47323441e-06 4.55956206e-06 -1.12058668e-04
1.81179885e-05 1.67822941e-06 -1.14474119e-08 1.67822941e-06 3.63108520e-05 6.10189204e-07 -1.14474119e-08 6.10189204e-07 -1.18714870e-04
1.79051688e-05 6.33427578e-06 7.74859041e-06 6.33427578e-06 3.62722431e-05 3.64073827e-06 7.74859041e-06 3.64073827e-06 -1.12496225e-04
1.93831129e-05 -1.37839629e-06 1.83752356e-07 -1.37839629e-06 3.52488823e-05 -7.59343664e-07 1.83752356e-07 -7.59343664e-07 -1.18808628e-04
1.90894916e-05 1.49203913e-07 9.34155037e-06 1.49203913e-07 3.84158920e-05 1.75940615e-07 9.34155037e-06 1.75940615e-07 -1.14954526e-04
1.98016951e-05 -5.83744986e-06 2.31704831e-07 -5.83744986e-06 3.82211183e-05 1.34291815e-06 2.31704831e-07 1.34291815e-06 -1.20944460e-04
1.98815005e-05 -4.82870200e-06 1.15880312e-05 -4.82870200e-06 4.10443427e-05 -4.42696683e-06 1.15880312e-05 -4.42696683e-06 -1.18310603e-04
3.12198708e-05 1.49327394e-05 -1.17002110e-05 1.49327394e-05 1.37936872e-05 6.02222701e-06 -1.17002110e-05 6.02222701e-06 -1.22389400e-04
3.62438086e-05 5.99781401e-06 -1.15314833e-05 5.99781401e-06 1.10296583e-05 8.02345994e-08 -1.15314833e-05 8.02345994e-08 -1.30020140e-04
2.32550960e-05 2.95064629e-05 -4.20871550e-06 2.95064629e-05 2.22345261e-05 6.82810742e-06 -4.20871550e-06 6.82810742e-06 -1.08585416e-04
1.80852285e-05 2.41770290e-05 4.32576928e-06 2.41770290e-05 2.64801815e-05 6.86589215e-06 4.32576928e-06 6.86589215e-06 -9.40820901e-05
1.10547762e-05 9.20581181e-06 1.35435491e-05 9.20581181e-06 2.55752989e-05 8.33091531e-06 1.35435491e-05 8.33091531e-06 -7.51090047e-05
9.67606471e-06 2.83669866e-06 2.65256322e-05 2.83669866e-06 2.39605474e-05 7.82082779e-07 2.65256322e-05 7.82082779e-07 -6.81013153e-05
1.32154872e-05 -5.89458818e-06 2.58168147e-05 -5.89458818e-06 2.49654549e-05 -7.17607372e-06 2.58168147e-05 -7.17607372e-06 -7.19813506e-05
5.56000086e-05 1.25160507e-05 -5.53704513e-06 1.25160507e-05 3.36888206e-05 2.76680669e-06 -5.53704513e-06 2.76680669e-06 -1.74858193e-04
5.34772080e-05 7.27076758e-06 -1.93023006e-05 7.27076758e-06 3.45345798e-05 7.34057323e-07 -1.93023006e-05 7.34057323e-07 -1.83507596e-04
3.11391450e-05 3.63319086e-05 4.18932071e-06 3.63319086e-05 2.34981844e-05 2.27507674e-05 4.18932071e-06 2.27507674e-05 -1.11146224e-04
5.19522098e-06 1.99099784e-05 1.50941664e-05 1.99099784e-05 1.48597641e-05 1.80427887e-05 1.50941664e-05 1.80427887e-05 -4.91206038e-05
1.29273960e-06 -2.60607578e-07 1.00091022e-05 -2.60607578e-07 7.21807612e-06 -9.69477227e-07 1.00091022e-05 -9.69477227e-07 -1.78851944e-05
-8.43325955e-06 -7.22378962e-06 -1.44313872e-05 -7.22378962e-06 3.13864717e-06 -6.77368098e-06 -1.44313872e-05 -6.77368098e-06 -1.61217054e-06
-4.44036007e-06 -2.66765963e-06 2.06938230e-05 -2.66765963e-06 -6.28593978e-06 5.89840488e-06 2.06938230e-05 5.89840488e-06 3.91424612e-06
-1.61595221e-06 -5.75147698e-06 -2.01155244e-05 -5.75147698e-06 -2.50274474e-06 -1.85108331e-06 -2.01155244e-05 -1.85108331e-06 -2.39160761e-06
-2.99950307e-06 -3.97379080e-06 1.89460679e-05 -3.97379080e-06 -9.26645475e-06 -4.69922861e-06 1.89460679e-05 -4.69922861e-06 6.19619823e-06
-5.96954806e-07 -2.43932180e-06 -6.01045776e-05 -2.43932180e-06 -2.55411542e-05 -3.80835809e-05 -6.01045776e-05 -3.80835809e-05 8.58895874e-06
-2.91798324e-05 9.02978309e-06 2.48235747e-05 9.02978309e-06 -7.19182344e-06 3.78091354e-05 2.48235747e-05 3.78091354e-05 1.75770865e-05
2.82315305e-05 4.40506446e-05 2.39007513e-05 4.40506446e-05 4.57528149e-05 7.21854667e-05 2.39007513e-05 7.21854667e-05 -1.16728821e-04
4.57426597e-06 4.81755402e-06 -3.74828323e-06 4.81755402e-06 3.17401809e-06 1.13894966e-05 -3.74828323e-06 1.13894966e-05 -1.06048651e-06
-1.42200885e-06 -5.10261877e-06 7.61760778e-06 -5.10261877e-06 3.46039466e-06 -2.99090069e-06 7.61760778e-06 -2.99090069e-06 4.56010980e-06
-1.46745023e-06 2.86158536e-06 4.49701361e-07 2.86158536e-06 6.75984597e-06 1.69484792e-06 4.49701361e-07 1.69484792e-06 -1.41050614e-06
2.99935800e-06 -5.40568390e-06 -4.21565505e-06 -5.40568390e-06 -8.20761990e-07 8.56400547e-07 -4.21565505e-06 8.56400547e-07 2.11119317e-06
9.82934949e-07 -6.19603225e-06 2.39628889e-07 -6.19603225e-06 -1.08716608e-06 -2.04728332e-06 2.39628889e-07 -2.04728332e-06 2.38926941e-06
2.66132099e-06 -3.28155602e-06 -3.79742551e-06 -3.28155602e-06 -6.34013537e-06 -5.89592787e-07 -3.79742551e-06 -5.89592787e-07 5.28955292e-06
3.63316212e-05 4.30310956e-06 3.62436476e-05 4.30310956e-06 4.34827853e-05 -3.54996672e-07 3.62436476e-05 -3.54996672e-07 -1.89193132e-04
5.01479990e-05 2.18729983e-05 5.85838789e-05 2.18729983e-05 4.75369379e-05 -1.01622763e-05 5.85838789e-05 -1.01622763e-05 -2.05963501e-04
3.59772378e-05 -1.41265597e-07 1.25381466e-05 -1.41265597e-07 1.76449457e-05 7.14662186e-06 1.25381466e-05 7.14662186e-06 -1.38873860e-04
3.46662055e-05 -5.24836150e-06 2.45012880e-05 -5.24836150e-06 1.71698166e-05 -7.06781194e-08 2.45012880e-05 -7.06781194e-08 -1.44567690e-04
1.48248532e-07 1.01525148e-06 -8.02836354e-07 1.01525148e-06 2.76007768e-07 5.57375049e-07 -8.02836354e-07 5.57375049e-07 4.34747548e-07
8.83532380e-07 -7.44996517e-07 -4.84836452e-06 -7.44996517e-07 4.05366260e-06 9.91036116e-06 -4.84836452e-06 9.91036116e-06 -9.42793046e-06
2.23856728e-06 1.56441257e-06 1.27675031e-06 1.56441257e-06 -2.65420772e-06 8.13876085e-07 1.27675031e-06 8.13876085e-07 -1.86538983e-07
4.53246812e-05 -3.98162110e-06 -2.43819471e-08 -3.98162110e-06 1.91482923e-05 1.33308517e-05 -2.43819471e-08 1.33308517e-05 -1.37585514e-04
3.88566077e-05 -5.87017553e-07 9.07736830e-06 -5.87017553e-07 1.45233553e-05 -4.76983075e-09 9.07736830e-06 -4.76983075e-09 -1.28373751e-04
4.05788360e-05 1.75218815e-06 -5.26990016e-06 1.75218815e-06 2.64223354e-05 1.22103788e-05 -5.26990016e-06 1.22103788e-05 -1.28409367e-04
5.41995378e-05 -4.14146052e-06 -7.37153641e-06 -4.14146052e-06 1.98229845e-05 2.05666120e-05 -7.37153641e-06 2.05666120e-05 -1.35907088e-04
2.89046911e-05 4.56534372e-06 -5.43971328e-06 4.56534372e-06 1.25188135e-05 1.85755152e-05 -5.43971328e-06 1.85755152e-05 -7.82238712e-05
3.68711699e-05 -1.90738547e-06 -9.51765151e-06 -1.90738547e-06 1.30430859e-05 2.23815923e-05 -9.51765151e-06 2.23815923e-05 -8.79423060e-05
1.14524983e-06 -3.52485699e-06 -1.52171310e-05 -3.52485699e-06 8.30551289e-06 9.45774400e-06 -1.52171310e-05 9.45774400e-06 -2.00596792e-05
-5.60692467e-06 2.04531989e-06 -8.79732397e-07 2.04531989e-06 1.96560666e-06 4.00616227e-06 -8.79732397e-07 4.00616227e-06 2.77160802e-06
-3.31500860e-06 -1.29129717e-06 -2.44523847e-07 -1.29129717e-06 -6.06568847e-07 -9.14527732e-07 -2.44523847e-07 -9.14527732e-07 2.64727851e-06
</DataArray>
<DataArray type="Float32" Name="Plastic_strain_components" NumberOfComponents="9" format="ascii">
0.00000000e+00 0.00000000e+00 0.00000000e+00 0.00000000e+00 0.00000000e+00 0.00000000e+00 0.00000000e+00 0.00000000e+00 0.00000000e+00
0.00000000e+00 0.00000000e+00 0.00000000e+00 0.00000000e+00 0.00000000e+00 0.00000000e+00 0.00000000e+00 0.00000000e+00 0.00000000e+00
0.00000000e+00 0.00000000e+00 0.00000000e+00 0.00000000e+00 0.00000000e+00 0.00000000e+00 0.00000000e+00 0.00000000e+00 0.00000000e+00
0.00000000e+00 0.00000000e+00 0.00000000e+00 0.00000000e+00 0.00000000e+00 0.00000000e+00 0.00000000e+00 0.00000000e+00 0.00000000e+00
0.00000000e+00 0.00000000e+00 0.00000000e+00 0.00000000e+00 0.00000000e+00 0.00000000e+00 0.00000000e+00 0.00000000e+00 0.00000000e+00
0.00000000e+00 0.00000000e+00 0.00000000e+00 0.00000000e+00 0.00000000e+00 0.00000000e+00 0.00000000e+00 0.00000000e+00 0.00000000e+00
0.00000000e+00 0.00000000e+00 0.00000000e+00 0.00000000e+00 0.00000000e+00 0.00000000e+00 0.00000000e+00 0.00000000e+00 0.00000000e+00
0.00000000e+00 0.00000000e+00 0.00000000e+00 0.00000000e+00 0.00000000e+00 0.00000000e+00 0.00000000e+00 0.00000000e+00 0.00000000e+00
0.00000000e+00 0.00000000e+00 0.00000000e+00 0.00000000e+00 0.00000000e+00 0.00000000e+00 0.00000000e+00 0.00000000e+00 0.00000000e+00
0.00000000e+00 0.00000000e+00 0.00000000e+00 0.00000000e+00 0.00000000e+00 0.00000000e+00 0.00000000e+00 0.00000000e+00 0.00000000e+00
0.00000000e+00 0.00000000e+00 0.00000000e+00 0.00000000e+00 0.00000000e+00 0.00000000e+00 0.00000000e+00 0.00000000e+00 0.00000000e+00
0.00000000e+00 0.00000000e+00 0.00000000e+00 0.00000000e+00 0.00000000e+00 0.00000000e+00 0.00000000e+00 0.00000000e+00 0.00000000e+00
0.00000000e+00 0.00000000e+00 0.00000000e+00 0.00000000e+00 0.00000000e+00 0.00000000e+00 0.00000000e+00 0.00000000e+00 0.00000000e+00
0.00000000e+00 0.00000000e+00 0.00000000e+00 0.00000000e+00 0.00000000e+00 0.00000000e+00 0.00000000e+00 0.00000000e+00 0.00000000e+00
0.00000000e+00 0.00000000e+00 0.00000000e+00 0.00000000e+00 0.00000000e+00 0.00000000e+00 0.00000000e+00 0.00000000e+00 0.00000000e+00
0.00000000e+00 0.00000000e+00 0.00000000e+00 0.00000000e+00 0.00000000e+00 0.00000000e+00 0.00000000e+00 0.00000000e+00 0.00000000e+00
0.00000000e+00 0.00000000e+00 0.00000000e+00 0.00000000e+00 0.00000000e+00 0.00000000e+00 0.00000000e+00 0.00000000e+00 0.00000000e+00
0.00000000e+00 0.00000000e+00 0.00000000e+00 0.00000000e+00 0.00000000e+00 0.00000000e+00 0.00000000e+00 0.00000000e+00 0.00000000e+00
0.00000000e+00 0.00000000e+00 0.00000000e+00 0.00000000e+00 0.00000000e+00 0.00000000e+00 0.00000000e+00 0.00000000e+00 0.00000000e+00
0.00000000e+00 0.00000000e+00 0.00000000e+00 0.00000000e+00 0.00000000e+00 0.00000000e+00 0.00000000e+00 0.00000000e+00 0.00000000e+00
0.00000000e+00 0.00000000e+00 0.00000000e+00 0.00000000e+00 0.00000000e+00 0.00000000e+00 0.00000000e+00 0.00000000e+00 0.00000000e+00
0.00000000e+00 0.00000000e+00 0.00000000e+00 0.00000000e+00 0.00000000e+00 0.00000000e+00 0.00000000e+00 0.00000000e+00 0.00000000e+00
0.00000000e+00 0.00000000e+00 0.00000000e+00 0.00000000e+00 0.00000000e+00 0.00000000e+00 0.00000000e+00 0.00000000e+00 0.00000000e+00
0.00000000e+00 0.00000000e+00 0.00000000e+00 0.00000000e+00 0.00000000e+00 0.00000000e+00 0.00000000e+00 0.00000000e+00 0.00000000e+00
0.00000000e+00 0.00000000e+00 0.00000000e+00 0.00000000e+00 0.00000000e+00 0.00000000e+00 0.00000000e+00 0.00000000e+00 0.00000000e+00
0.00000000e+00 0.00000000e+00 0.00000000e+00 0.00000000e+00 0.00000000e+00 0.00000000e+00 0.00000000e+00 0.00000000e+00 0.00000000e+00
0.00000000e+00 0.00000000e+00 0.00000000e+00 0.00000000e+00 0.00000000e+00 0.00000000e+00 0.00000000e+00 0.00000000e+00 0.00000000e+00
0.00000000e+00 0.00000000e+00 0.00000000e+00 0.00000000e+00 0.00000000e+00 0.00000000e+00 0.00000000e+00 0.00000000e+00 0.00000000e+00
0.00000000e+00 0.00000000e+00 0.00000000e+00 0.00000000e+00 0.00000000e+00 0.00000000e+00 0.00000000e+00 0.00000000e+00 0.00000000e+00
0.00000000e+00 0.00000000e+00 0.00000000e+00 0.00000000e+00 0.00000000e+00 0.00000000e+00 0.00000000e+00 0.00000000e+00 0.00000000e+00
0.00000000e+00 0.00000000e+00 0.00000000e+00 0.00000000e+00 0.00000000e+00 0.00000000e+00 0.00000000e+00 0.00000000e+00 0.00000000e+00
0.00000000e+00 0.00000000e+00 0.00000000e+00 0.00000000e+00 0.00000000e+00 0.00000000e+00 0.00000000e+00 0.00000000e+00 0.00000000e+00
0.00000000e+00 0.00000000e+00 0.00000000e+00 0.00000000e+00 0.00000000e+00 0.00000000e+00 0.00000000e+00 0.00000000e+00 0.00000000e+00
0.00000000e+00 0.00000000e+00 0.00000000e+00 0.00000000e+00 0.00000000e+00 0.00000000e+00 0.00000000e+00 0.00000000e+00 0.00000000e+00
0.00000000e+00 0.00000000e+00 0.00000000e+00 0.00000000e+00 0.00000000e+00 0.00000000e+00 0.00000000e+00 0.00000000e+00 0.00000000e+00
0.00000000e+00 0.00000000e+00 0.00000000e+00 0.00000000e+00 0.00000000e+00 0.00000000e+00 0.00000000e+00 0.00000000e+00 0.00000000e+00
0.00000000e+00 0.00000000e+00 0.00000000e+00 0.00000000e+00 0.00000000e+00 0.00000000e+00 0.00000000e+00 0.00000000e+00 0.00000000e+00
0.00000000e+00 0.00000000e+00 0.00000000e+00 0.00000000e+00 0.00000000e+00 0.00000000e+00 0.00000000e+00 0.00000000e+00 0.00000000e+00
0.00000000e+00 0.00000000e+00 0.00000000e+00 0.00000000e+00 0.00000000e+00 0.00000000e+00 0.00000000e+00 0.00000000e+00 0.00000000e+00
0.00000000e+00 0.00000000e+00 0.00000000e+00 0.00000000e+00 0.00000000e+00 0.00000000e+00 0.00000000e+00 0.00000000e+00 0.00000000e+00
0.00000000e+00 0.00000000e+00 0.00000000e+00 0.00000000e+00 0.00000000e+00 0.00000000e+00 0.00000000e+00 0.00000000e+00 0.00000000e+00
0.00000000e+00 0.00000000e+00 0.00000000e+00 0.00000000e+00 0.00000000e+00 0.00000000e+00 0.00000000e+00 0.00000000e+00 0.00000000e+00
0.00000000e+00 0.00000000e+00 0.00000000e+00 0.00000000e+00 0.00000000e+00 0.00000000e+00 0.00000000e+00 0.00000000e+00 0.00000000e+00
0.00000000e+00 0.00000000e+00 0.00000000e+00 0.00000000e+00 0.00000000e+00 0.00000000e+00 0.00000000e+00 0.00000000e+00 0.00000000e+00
0.00000000e+00 0.00000000e+00 0.00000000e+00 0.00000000e+00 0.00000000e+00 0.00000000e+00 0.00000000e+00 0.00000000e+00 0.00000000e+00
0.00000000e+00 0.00000000e+00 0.00000000e+00 0.00000000e+00 0.00000000e+00 0.00000000e+00 0.00000000e+00 0.00000000e+00 0.00000000e+00
0.00000000e+00 0.00000000e+00 0.00000000e+00 0.00000000e+00 0.00000000e+00 0.00000000e+00 0.00000000e+00 0.00000000e+00 0.00000000e+00
0.00000000e+00 0.00000000e+00 0.00000000e+00 0.00000000e+00 0.00000000e+00 0.00000000e+00 0.00000000e+00 0.00000000e+00 0.00000000e+00
0.00000000e+00 0.00000000e+00 0.00000000e+00 0.00000000e+00 0.00000000e+00 0.00000000e+00 0.00000000e+00 0.00000000e+00 0.00000000e+00
0.00000000e+00 0.00000000e+00 0.00000000e+00 0.00000000e+00 0.00000000e+00 0.00000000e+00 0.00000000e+00 0.00000000e+00 0.00000000e+00
0.00000000e+00 0.00000000e+00 0.00000000e+00 0.00000000e+00 0.00000000e+00 0.00000000e+00 0.00000000e+00 0.00000000e+00 0.00000000e+00
0.00000000e+00 0.00000000e+00 0.00000000e+00 0.00000000e+00 0.00000000e+00 0.00000000e+00 0.00000000e+00 0.00000000e+00 0.00000000e+00
0.00000000e+00 0.00000000e+00 0.00000000e+00 0.00000000e+00 0.00000000e+00 0.00000000e+00 0.00000000e+00 0.00000000e+00 0.00000000e+00
0.00000000e+00 0.00000000e+00 0.00000000e+00 0.00000000e+00 0.00000000e+00 0.00000000e+00 0.00000000e+00 0.00000000e+00 0.00000000e+00
0.00000000e+00 0.00000000e+00 0.00000000e+00 0.00000000e+00 0.00000000e+00 0.00000000e+00 0.00000000e+00 0.00000000e+00 0.00000000e+00
0.00000000e+00 0.00000000e+00 0.00000000e+00 0.00000000e+00 0.00000000e+00 0.00000000e+00 0.00000000e+00 0.00000000e+00 0.00000000e+00
0.00000000e+00 0.00000000e+00 0.00000000e+00 0.00000000e+00 0.00000000e+00 0.00000000e+00 0.00000000e+00 0.00000000e+00 0.00000000e+00
0.00000000e+00 0.00000000e+00 0.00000000e+00 0.00000000e+00 0.00000000e+00 0.00000000e+00 0.00000000e+00 0.00000000e+00 0.00000000e+00
0.00000000e+00 0.00000000e+00 0.00000000e+00 0.00000000e+00 0.00000000e+00 0.00000000e+00 0.00000000e+00 0.00000000e+00 0.00000000e+00
0.00000000e+00 0.00000000e+00 0.00000000e+00 0.00000000e+00 0.00000000e+00 0.00000000e+00 0.00000000e+00 0.00000000e+00 0.00000000e+00
0.00000000e+00 0.00000000e+00 0.00000000e+00 0.00000000e+00 0.00000000e+00 0.00000000e+00 0.00000000e+00 0.00000000e+00 0.00000000e+00
0.00000000e+00 0.00000000e+00 0.00000000e+00 0.00000000e+00 0.00000000e+00 0.00000000e+00 0.00000000e+00 0.00000000e+00 0.00000000e+00
0.00000000e+00 0.00000000e+00 0.00000000e+00 0.00000000e+00 0.00000000e+00 0.00000000e+00 0.00000000e+00 0.00000000e+00 0.00000000e+00
0.00000000e+00 0.00000000e+00 0.00000000e+00 0.00000000e+00 0.00000000e+00 0.00000000e+00 0.00000000e+00 0.00000000e+00 0.00000000e+00
0.00000000e+00 0.00000000e+00 0.00000000e+00 0.00000000e+00 0.00000000e+00 0.00000000e+00 0.00000000e+00 0.00000000e+00 0.00000000e+00
0.00000000e+00 0.00000000e+00 0.00000000e+00 0.00000000e+00 0.00000000e+00 0.00000000e+00 0.00000000e+00 0.00000000e+00 0.00000000e+00
0.00000000e+00 0.00000000e+00 0.00000000e+00 0.00000000e+00 0.00000000e+00 0.00000000e+00 0.00000000e+00 0.00000000e+00 0.00000000e+00
0.00000000e+00 0.00000000e+00 0.00000000e+00 0.00000000e+00 0.00000000e+00 0.00000000e+00 0.00000000e+00 0.00000000e+00 0.00000000e+00
0.00000000e+00 0.00000000e+00 0.00000000e+00 0.00000000e+00 0.00000000e+00 0.00000000e+00 0.00000000e+00 0.00000000e+00 0.00000000e+00
0.00000000e+00 0.00000000e+00 0.00000000e+00 0.00000000e+00 0.00000000e+00 0.00000000e+00 0.00000000e+00 0.00000000e+00 0.00000000e+00
0.00000000e+00 0.00000000e+00 0.00000000e+00 0.00000000e+00 0.00000000e+00 0.00000000e+00 0.00000000e+00 0.00000000e+00 0.00000000e+00
0.00000000e+00 0.00000000e+00 0.00000000e+00 0.00000000e+00 0.00000000e+00 0.00000000e+00 0.00000000e+00 0.00000000e+00 0.00000000e+00
0.00000000e+00 0.00000000e+00 0.00000000e+00 0.00000000e+00 0.00000000e+00 0.00000000e+00 0.00000000e+00 0.00000000e+00 0.00000000e+00
0.00000000e+00 0.00000000e+00 0.00000000e+00 0.00000000e+00 0.00000000e+00 0.00000000e+00 0.00000000e+00 0.00000000e+00 0.00000000e+00
0.00000000e+00 0.00000000e+00 0.00000000e+00 0.00000000e+00 0.00000000e+00 0.00000000e+00 0.00000000e+00 0.00000000e+00 0.00000000e+00
0.00000000e+00 0.00000000e+00 0.00000000e+00 0.00000000e+00 0.00000000e+00 0.00000000e+00 0.00000000e+00 0.00000000e+00 0.00000000e+00
0.00000000e+00 0.00000000e+00 0.00000000e+00 0.00000000e+00 0.00000000e+00 0.00000000e+00 0.00000000e+00 0.00000000e+00 0.00000000e+00
0.00000000e+00 0.00000000e+00 0.00000000e+00 0.00000000e+00 0.00000000e+00 0.00000000e+00 0.00000000e+00 0.00000000e+00 0.00000000e+00
0.00000000e+00 0.00000000e+00 0.00000000e+00 0.00000000e+00 0.00000000e+00 0.00000000e+00 0.00000000e+00 0.00000000e+00 0.00000000e+00
0.00000000e+00 0.00000000e+00 0.00000000e+00 0.00000000e+00 0.00000000e+00 0.00000000e+00 0.00000000e+00 0.00000000e+00 0.00000000e+00
0.00000000e+00 0.00000000e+00 0.00000000e+00 0.00000000e+00 0.00000000e+00 0.00000000e+00 0.00000000e+00 0.00000000e+00 0.00000000e+00
0.00000000e+00 0.00000000e+00 0.00000000e+00 0.00000000e+00 0.00000000e+00 0.00000000e+00 0.00000000e+00 0.00000000e+00 0.00000000e+00
0.00000000e+00 0.00000000e+00 0.00000000e+00 0.00000000e+00 0.00000000e+00 0.00000000e+00 0.00000000e+00 0.00000000e+00 0.00000000e+00
0.00000000e+00 0.00000000e+00 0.00000000e+00 0.00000000e+00 0.00000000e+00 0.00000000e+00 0.00000000e+00 0.00000000e+00 0.00000000e+00
0.00000000e+00 0.00000000e+00 0.00000000e+00 0.00000000e+00 0.00000000e+00 0.00000000e+00 0.00000000e+00 0.00000000e+00 0.00000000e+00
0.00000000e+00 0.00000000e+00 0.00000000e+00 0.00000000e+00 0.00000000e+00 0.00000000e+00 0.00000000e+00 0.00000000e+00 0.00000000e+00
0.00000000e+00 0.00000000e+00 0.00000000e+00 0.00000000e+00 0.00000000e+00 0.00000000e+00 0.00000000e+00 0.00000000e+00 0.00000000e+00
0.00000000e+00 0.00000000e+00 0.00000000e+00 0.00000000e+00 0.00000000e+00 0.00000000e+00 0.00000000e+00 0.00000000e+00 0.00000000e+00
0.00000000e+00 0.00000000e+00 0.00000000e+00 0.00000000e+00 0.00000000e+00 0.00000000e+00 0.00000000e+00 0.00000000e+00 0.00000000e+00
0.00000000e+00 0.00000000e+00 0.00000000e+00 0.00000000e+00 0.00000000e+00 0.00000000e+00 0.00000000e+00 0.00000000e+00 0.00000000e+00
0.00000000e+00 0.00000000e+00 0.00000000e+00 0.00000000e+00 0.00000000e+00 0.00000000e+00 0.00000000e+00 0.00000000e+00 0.00000000e+00
0.00000000e+00 0.00000000e+00 0.00000000e+00 0.00000000e+00 0.00000000e+00 0.00000000e+00 0.00000000e+00 0.00000000e+00 0.00000000e+00
0.00000000e+00 0.00000000e+00 0.00000000e+00 0.00000000e+00 0.00000000e+00 0.00000000e+00 0.00000000e+00 0.00000000e+00 0.00000000e+00
0.00000000e+00 0.00000000e+00 0.00000000e+00 0.00000000e+00 0.00000000e+00 0.00000000e+00 0.00000000e+00 0.00000000e+00 0.00000000e+00
0.00000000e+00 0.00000000e+00 0.00000000e+00 0.00000000e+00 0.00000000e+00 0.00000000e+00 0.00000000e+00 0.00000000e+00 0.00000000e+00
0.00000000e+00 0.00000000e+00 0.00000000e+00 0.00000000e+00 0.00000000e+00 0.00000000e+00 0.00000000e+00 0.00000000e+00 0.00000000e+00
0.00000000e+00 0.00000000e+00 0.00000000e+00 0.00000000e+00 0.00000000e+00 0.00000000e+00 0.00000000e+00 0.00000000e+00 0.00000000e+00
0.00000000e+00 0.00000000e+00 0.00000000e+00 0.00000000e+00 0.00000000e+00 0.00000000e+00 0.00000000e+00 0.00000000e+00 0.00000000e+00
0.00000000e+00 0.00000000e+00 0.00000000e+00 0.00000000e+00 0.00000000e+00 0.00000000e+00 0.00000000e+00 0.00000000e+00 0.00000000e+00
0.00000000e+00 0.00000000e+00 0.00000000e+00 0.00000000e+00 0.00000000e+00 0.00000000e+00 0.00000000e+00 0.00000000e+00 0.00000000e+00
0.00000000e+00 0.00000000e+00 0.00000000e+00 0.00000000e+00 0.00000000e+00 0.00000000e+00 0.00000000e+00 0.00000000e+00 0.00000000e+00
0.00000000e+00 0.00000000e+00 0.00000000e+00 0.00000000e+00 0.00000000e+00 0.00000000e+00 0.00000000e+00 0.00000000e+00 0.00000000e+00
0.00000000e+00 0.00000000e+00 0.00000000e+00 0.00000000e+00 0.00000000e+00 0.00000000e+00 0.00000000e+00 0.00000000e+00 0.00000000e+00
0.00000000e+00 0.00000000e+00 0.00000000e+00 0.00000000e+00 0.00000000e+00 0.00000000e+00 0.00000000e+00 0.00000000e+00 0.00000000e+00
0.00000000e+00 0.00000000e+00 0.00000000e+00 0.00000000e+00 0.00000000e+00 0.00000000e+00 0.00000000e+00 0.00000000e+00 0.00000000e+00
0.00000000e+00 0.00000000e+00 0.00000000e+00 0.00000000e+00 0.00000000e+00 0.00000000e+00 0.00000000e+00 0.00000000e+00 0.00000000e+00
0.00000000e+00 0.00000000e+00 0.00000000e+00 0.00000000e+00 0.00000000e+00 0.00000000e+00 0.00000000e+00 0.00000000e+00 0.00000000e+00
0.00000000e+00 0.00000000e+00 0.00000000e+00 0.00000000e+00 0.00000000e+00 0.00000000e+00 0.00000000e+00 0.00000000e+00 0.00000000e+00
0.00000000e+00 0.00000000e+00 0.00000000e+00 0.00000000e+00 0.00000000e+00 0.00000000e+00 0.00000000e+00 0.00000000e+00 0.00000000e+00
0.00000000e+00 0.00000000e+00 0.00000000e+00 0.00000000e+00 0.00000000e+00 0.00000000e+00 0.00000000e+00 0.00000000e+00 0.00000000e+00
0.00000000e+00 0.00000000e+00 0.00000000e+00 0.00000000e+00 0.00000000e+00 0.00000000e+00 0.00000000e+00 0.00000000e+00 0.00000000e+00
0.00000000e+00 0.00000000e+00 0.00000000e+00 0.00000000e+00 0.00000000e+00 0.00000000e+00 0.00000000e+00 0.00000000e+00 0.00000000e+00
0.00000000e+00 0.00000000e+00 0.00000000e+00 0.00000000e+00 0.00000000e+00 0.00000000e+00 0.00000000e+00 0.00000000e+00 0.00000000e+00
0.00000000e+00 0.00000000e+00 0.00000000e+00 0.00000000e+00 0.00000000e+00 0.00000000e+00 0.00000000e+00 0.00000000e+00 0.00000000e+00
0.00000000e+00 0.00000000e+00 0.00000000e+00 0.00000000e+00 0.00000000e+00 0.00000000e+00 0.00000000e+00 0.00000000e+00 0.00000000e+00
0.00000000e+00 0.00000000e+00 0.00000000e+00 0.00000000e+00 0.00000000e+00 0.00000000e+00 0.00000000e+00 0.00000000e+00 0.00000000e+00
0.00000000e+00 0.00000000e+00 0.00000000e+00 0.00000000e+00 0.00000000e+00 0.00000000e+00 0.00000000e+00 0.00000000e+00 0.00000000e+00
0.00000000e+00 0.00000000e+00 0.00000000e+00 0.00000000e+00 0.00000000e+00 0.00000000e+00 0.00000000e+00 0.00000000e+00 0.00000000e+00
0.00000000e+00 0.00000000e+00 0.00000000e+00 0.00000000e+00 0.00000000e+00 0.00000000e+00 0.00000000e+00 0.00000000e+00 0.00000000e+00
0.00000000e+00 0.00000000e+00 0.00000000e+00 0.00000000e+00 0.00000000e+00 0.00000000e+00 0.00000000e+00 0.00000000e+00 0.00000000e+00
0.00000000e+00 0.00000000e+00 0.00000000e+00 0.00000000e+00 0.00000000e+00 0.00000000e+00 0.00000000e+00 0.00000000e+00 0.00000000e+00
0.00000000e+00 0.00000000e+00 0.00000000e+00 0.00000000e+00 0.00000000e+00 0.00000000e+00 0.00000000e+00 0.00000000e+00 0.00000000e+00
0.00000000e+00 0.00000000e+00 0.00000000e+00 0.00000000e+00 0.00000000e+00 0.00000000e+00 0.00000000e+00 0.00000000e+00 0.00000000e+00
0.00000000e+00 0.00000000e+00 0.00000000e+00 0.00000000e+00 0.00000000e+00 0.00000000e+00 0.00000000e+00 0.00000000e+00 0.00000000e+00
0.00000000e+00 0.00000000e+00 0.00000000e+00 0.00000000e+00 0.00000000e+00 0.00000000e+00 0.00000000e+00 0.00000000e+00 0.00000000e+00
0.00000000e+00 0.00000000e+00 0.00000000e+00 0.00000000e+00 0.00000000e+00 0.00000000e+00 0.00000000e+00 0.00000000e+00 0.00000000e+00
0.00000000e+00 0.00000000e+00 0.00000000e+00 0.00000000e+00 0.00000000e+00 0.00000000e+00 0.00000000e+00 0.00000000e+00 0.00000000e+00
0.00000000e+00 0.00000000e+00 0.00000000e+00 0.00000000e+00 0.00000000e+00 0.00000000e+00 0.00000000e+00 0.00000000e+00 0.00000000e+00
0.00000000e+00 0.00000000e+00 0.00000000e+00 0.00000000e+00 0.00000000e+00 0.00000000e+00 0.00000000e+00 0.00000000e+00 0.00000000e+00
0.00000000e+00 0.00000000e+00 0.00000000e+00 0.00000000e+00 0.00000000e+00 0.00000000e+00 0.00000000e+00 0.00000000e+00 0.00000000e+00
0.00000000e+00 0.00000000e+00 0.00000000e+00 0.00000000e+00 0.00000000e+00 0.00000000e+00 0.00000000e+00 0.00000000e+00 0.00000000e+00
0.00000000e+00 0.00000000e+00 0.00000000e+00 0.00000000e+00 0.00000000e+00 0.00000000e+00 0.00000000e+00 0.00000000e+00 0.00000000e+00
0.00000000e+00 0.00000000e+00 0.00000000e+00 0.00000000e+00 0.00000000e+00 0.00000000e+00 0.00000000e+00 0.00000000e+00 0.00000000e+00
0.00000000e+00 0.00000000e+00 0.00000000e+00 0.00000000e+00 0.00000000e+00 0.00000000e+00 0.00000000e+00 0.00000000e+00 0.00000000e+00
0.00000000e+00 0.00000000e+00 0.00000000e+00 0.00000000e+00 0.00000000e+00 0.00000000e+00 0.00000000e+00 0.00000000e+00 0.00000000e+00
0.00000000e+00 0.00000000e+00 0.00000000e+00 0.00000000e+00 0.00000000e+00 0.00000000e+00 0.00000000e+00 0.00000000e+00 0.00000000e+00
0.00000000e+00 0.00000000e+00 0.00000000e+00 0.00000000e+00 0.00000000e+00 0.00000000e+00 0.00000000e+00 0.00000000e+00 0.00000000e+00
0.00000000e+00 0.00000000e+00 0.00000000e+00 0.00000000e+00 0.00000000e+00 0.00000000e+00 0.00000000e+00 0.00000000e+00 0.00000000e+00
0.00000000e+00 0.00000000e+00 0.00000000e+00 0.00000000e+00 0.00000000e+00 0.00000000e+00 0.00000000e+00 0.00000000e+00 0.00000000e+00
0.00000000e+00 0.00000000e+00 0.00000000e+00 0.00000000e+00 0.00000000e+00 0.00000000e+00 0.00000000e+00 0.00000000e+00 0.00000000e+00
0.00000000e+00 0.00000000e+00 0.00000000e+00 0.00000000e+00 0.00000000e+00 0.00000000e+00 0.00000000e+00 0.00000000e+00 0.00000000e+00
0.00000000e+00 0.00000000e+00 0.00000000e+00 0.00000000e+00 0.00000000e+00 0.00000000e+00 0.00000000e+00 0.00000000e+00 0.00000000e+00
0.00000000e+00 0.00000000e+00 0.00000000e+00 0.00000000e+00 0.00000000e+00 0.00000000e+00 0.00000000e+00 0.00000000e+00 0.00000000e+00
0.00000000e+00 0.00000000e+00 0.00000000e+00 0.00000000e+00 0.00000000e+00 0.00000000e+00 0.00000000e+00 0.00000000e+00 0.00000000e+00
0.00000000e+00 0.00000000e+00 0.00000000e+00 0.00000000e+00 0.00000000e+00 0.00000000e+00 0.00000000e+00 0.00000000e+00 0.00000000e+00
0.00000000e+00 0.00000000e+00 0.00000000e+00 0.00000000e+00 0.00000000e+00 0.00000000e+00 0.00000000e+00 0.00000000e+00 0.00000000e+00
0.00000000e+00 0.00000000e+00 0.00000000e+00 0.00000000e+00 0.00000000e+00 0.00000000e+00 0.00000000e+00 0.00000000e+00 0.00000000e+00
0.00000000e+00 0.00000000e+00 0.00000000e+00 0.00000000e+00 0.00000000e+00 0.00000000e+00 0.00000000e+00 0.00000000e+00 0.00000000e+00
0.00000000e+00 0.00000000e+00 0.00000000e+00 0.00000000e+00 0.00000000e+00 0.00000000e+00 0.00000000e+00 0.00000000e+00 0.00000000e+00
0.00000000e+00 0.00000000e+00 0.00000000e+00 0.00000000e+00 0.00000000e+00 0.00000000e+00 0.00000000e+00 0.00000000e+00 0.00000000e+00
0.00000000e+00 0.00000000e+00 0.00000000e+00 0.00000000e+00 0.00000000e+00 0.00000000e+00 0.00000000e+00 0.00000000e+00 0.00000000e+00
0.00000000e+00 0.00000000e+00 0.00000000e+00 0.00000000e+00 0.00000000e+00 0.00000000e+00 0.00000000e+00 0.00000000e+00 0.00000000e+00
0.00000000e+00 0.00000000e+00 0.00000000e+00 0.00000000e+00 0.00000000e+00 0.00000000e+00 0.00000000e+00 0.00000000e+00 0.00000000e+00
0.00000000e+00 0.00000000e+00 0.00000000e+00 0.00000000e+00 0.00000000e+00 0.00000000e+00 0.00000000e+00 0.00000000e+00 0.00000000e+00
0.00000000e+00 0.00000000e+00 0.00000000e+00 0.00000000e+00 0.00000000e+00 0.00000000e+00 0.00000000e+00 0.00000000e+00 0.00000000e+00
0.00000000e+00 0.00000000e+00 0.00000000e+00 0.00000000e+00 0.00000000e+00 0.00000000e+00 0.00000000e+00 0.00000000e+00 0.00000000e+00
0.00000000e+00 0.00000000e+00 0.00000000e+00 0.00000000e+00 0.00000000e+00 0.00000000e+00 0.00000000e+00 0.00000000e+00 0.00000000e+00
0.00000000e+00 0.00000000e+00 0.00000000e+00 0.00000000e+00 0.00000000e+00 0.00000000e+00 0.00000000e+00 0.00000000e+00 0.00000000e+00
0.00000000e+00 0.00000000e+00 0.00000000e+00 0.00000000e+00 0.00000000e+00 0.00000000e+00 0.00000000e+00 0.00000000e+00 0.00000000e+00
0.00000000e+00 0.00000000e+00 0.00000000e+00 0.00000000e+00 0.00000000e+00 0.00000000e+00 0.00000000e+00 0.00000000e+00 0.00000000e+00
0.00000000e+00 0.00000000e+00 0.00000000e+00 0.00000000e+00 0.00000000e+00 0.00000000e+00 0.00000000e+00 0.00000000e+00 0.00000000e+00
0.00000000e+00 0.00000000e+00 0.00000000e+00 0.00000000e+00 0.00000000e+00 0.00000000e+00 0.00000000e+00 0.00000000e+00 0.00000000e+00
0.00000000e+00 0.00000000e+00 0.00000000e+00 0.00000000e+00 0.00000000e+00 0.00000000e+00 0.00000000e+00 0.00000000e+00 0.00000000e+00
0.00000000e+00 0.00000000e+00 0.00000000e+00 0.00000000e+00 0.00000000e+00 0.00000000e+00 0.00000000e+00 0.00000000e+00 0.00000000e+00
0.00000000e+00 0.00000000e+00 0.00000000e+00 0.00000000e+00 0.00000000e+00 0.00000000e+00 0.00000000e+00 0.00000000e+00 0.00000000e+00
0.00000000e+00 0.00000000e+00 0.00000000e+00 0.00000000e+00 0.00000000e+00 0.00000000e+00 0.00000000e+00 0.00000000e+00 0.00000000e+00
0.00000000e+00 0.00000000e+00 0.00000000e+00 0.00000000e+00 0.00000000e+00 0.00000000e+00 0.00000000e+00 0.00000000e+00 0.00000000e+00
0.00000000e+00 0.00000000e+00 0.00000000e+00 0.00000000e+00 0.00000000e+00 0.00000000e+00 0.00000000e+00 0.00000000e+00 0.00000000e+00
0.00000000e+00 0.00000000e+00 0.00000000e+00 0.00000000e+00 0.00000000e+00 0.00000000e+00 0.00000000e+00 0.00000000e+00 0.00000000e+00
0.00000000e+00 0.00000000e+00 0.00000000e+00 0.00000000e+00 0.00000000e+00 0.00000000e+00 0.00000000e+00 0.00000000e+00 0.00000000e+00
0.00000000e+00 0.00000000e+00 0.00000000e+00 0.00000000e+00 0.00000000e+00 0.00000000e+00 0.00000000e+00 0.00000000e+00 0.00000000e+00
0.00000000e+00 0.00000000e+00 0.00000000e+00 0.00000000e+00 0.00000000e+00 0.00000000e+00 0.00000000e+00 0.00000000e+00 0.00000000e+00
0.00000000e+00 0.00000000e+00 0.00000000e+00 0.00000000e+00 0.00000000e+00 0.00000000e+00 0.00000000e+00 0.00000000e+00 0.00000000e+00
0.00000000e+00 0.00000000e+00 0.00000000e+00 0.00000000e+00 0.00000000e+00 0.00000000e+00 0.00000000e+00 0.00000000e+00 0.00000000e+00
0.00000000e+00 0.00000000e+00 0.00000000e+00 0.00000000e+00 0.00000000e+00 0.00000000e+00 0.00000000e+00 0.00000000e+00 0.00000000e+00
0.00000000e+00 0.00000000e+00 0.00000000e+00 0.00000000e+00 0.00000000e+00 0.00000000e+00 0.00000000e+00 0.00000000e+00 0.00000000e+00
0.00000000e+00 0.00000000e+00 0.00000000e+00 0.00000000e+00 0.00000000e+00 0.00000000e+00 0.00000000e+00 0.00000000e+00 0.00000000e+00
0.00000000e+00 0.00000000e+00 0.00000000e+00 0.00000000e+00 0.00000000e+00 0.00000000e+00 0.00000000e+00 0.00000000e+00 0.00000000e+00
0.00000000e+00 0.00000000e+00 0.00000000e+00 0.00000000e+00 0.00000000e+00 0.00000000e+00 0.00000000e+00 0.00000000e+00 0.00000000e+00
0.00000000e+00 0.00000000e+00 0.00000000e+00 0.00000000e+00 0.00000000e+00 0.00000000e+00 0.00000000e+00 0.00000000e+00 0.00000000e+00
0.00000000e+00 0.00000000e+00 0.00000000e+00 0.00000000e+00 0.00000000e+00 0.00000000e+00 0.00000000e+00 0.00000000e+00 0.00000000e+00
0.00000000e+00 0.00000000e+00 0.00000000e+00 0.00000000e+00 0.00000000e+00 0.00000000e+00 0.00000000e+00 0.00000000e+00 0.00000000e+00
0.00000000e+00 0.00000000e+00 0.00000000e+00 0.00000000e+00 0.00000000e+00 0.00000000e+00 0.00000000e+00 0.00000000e+00 0.00000000e+00
0.00000000e+00 0.00000000e+00 0.00000000e+00 0.00000000e+00 0.00000000e+00 0.00000000e+00 0.00000000e+00 0.00000000e+00 0.00000000e+00
0.00000000e+00 0.00000000e+00 0.00000000e+00 0.00000000e+00 0.00000000e+00 0.00000000e+00 0.00000000e+00 0.00000000e+00 0.00000000e+00
0.00000000e+00 0.00000000e+00 0.00000000e+00 0.00000000e+00 0.00000000e+00 0.00000000e+00 0.00000000e+00 0.00000000e+00 0.00000000e+00
0.00000000e+00 0.00000000e+00 0.00000000e+00 0.00000000e+00 0.00000000e+00 0.00000000e+00 0.00000000e+00 0.00000000e+00 0.00000000e+00
0.00000000e+00 0.00000000e+00 0.00000000e+00 0.00000000e+00 0.00000000e+00 0.00000000e+00 0.00000000e+00 0.00000000e+00 0.00000000e+00
0.00000000e+00 0.00000000e+00 0.00000000e+00 0.00000000e+00 0.00000000e+00 0.00000000e+00 0.00000000e+00 0.00000000e+00 0.00000000e+00
0.00000000e+00 0.00000000e+00 0.00000000e+00 0.00000000e+00 0.00000000e+00 0.00000000e+00 0.00000000e+00 0.00000000e+00 0.00000000e+00
0.00000000e+00 0.00000000e+00 0.00000000e+00 0.00000000e+00 0.00000000e+00 0.00000000e+00 0.00000000e+00 0.00000000e+00 0.00000000e+00
</DataArray>
<DataArray type="Float32" Name="Spatial_displacement" NumberOfComponents="3" format="ascii">
2.12838786e-05 9.87457388e-05 -2.01125542e-04
3.86003449e-05 9.09208975e-05 -1.75602851e-04
3.74480514e-05 1.16789175e-04 -2.14765896e-04
1.91444506e-05 1.21659694e-04 -2.21583570e-04
1.27023804e-05 1.16588235e-04 -3.05418536e-04
1.97226327e-05 1.25623352e-04 -2.84515845e-04
1.04253759e-05 1.53248868e-04 -3.36891069e-04
8.10340953e-06 1.34871807e-04 -3.23781045e-04
5.82563807e-05 8.40441498e-05 -1.52173336e-04
5.59076216e-05 1.10459274e-04 -1.98280162e-04
2.77717081e-05 1.38889256e-04 -2.47656018e-04
4.43000354e-05 1.58941402e-04 -3.50846269e-04
8.76017875e-05 6.60962178e-05 6.67026768e-07
8.78168285e-05 6.35924007e-05 -1.11155396e-06
9.01709573e-05 6.39121572e-05 -5.89069089e-07
8.97677528e-05 6.62856983e-05 9.95226856e-07
8.93781689e-05 6.57560595e-05 4.92865240e-07
8.91990712e-05 6.34500029e-05 -1.02982926e-06
9.15549608e-05 6.32525625e-05 -6.60107332e-07
9.17819343e-05 6.55837430e-05 1.07194376e-06
0.00000000e+00 0.00000000e+00 -3.42134648e-04
1.89952261e-05 0.00000000e+00 -3.43207474e-04
1.70700678e-05 2.11701044e-05 -3.39950348e-04
0.00000000e+00 2.29931247e-05 -3.37884558e-04
0.00000000e+00 0.00000000e+00 -4.56431531e-04
2.27850978e-05 0.00000000e+00 -4.56851238e-04
2.31293452e-05 2.26207740e-05 -4.56942158e-04
0.00000000e+00 2.21854734e-05 -4.54039895e-04
4.09015738e-05 0.00000000e+00 -3.47153400e-04
3.62596038e-05 1.42133222e-05 -3.40822036e-04
4.54818546e-05 0.00000000e+00 -4.57949151e-04
4.52274762e-05 2.31497434e-05 -4.63783887e-04
6.40074286e-05 0.00000000e+00 -3.49029928e-04
6.31756702e-05 1.02848280e-05 -3.46816640e-04
6.91028108e-05 0.00000000e+00 -4.61246731e-04
6.65275074e-05 2.08263027e-05 -4.66169091e-04
8.97082064e-05 0.00000000e+00 -3.48220492e-04
8.95483681e-05 1.31684319e-05 -3.55721451e-04
9.21340688e-05 0.00000000e+00 -4.63374337e-04
9.06762216e-05 1.81214073e-05 -4.68615064e-04
1.15348019e-04 0.00000000e+00 -3.50532529e-04
1.15185961e-04 1.78059327e-05 -3.51458497e-04
1.15723480e-04 0.00000000e+00 -4.62289463e-04
1.14926559e-04 1.67624821e-05 -4.72249114e-04
1.40958597e-04 0.00000000e+00 -3.51451890e-04
1.39205062e-04 1.93687829e-05 -3.51348222e-04
1.38261690e-04 0.00000000e+00 -4.60932148e-04
1.39679716e-04 1.85201297e-05 -4.69267135e-04
8.12372764e-06 4.07812768e-05 -3.28161899e-04
0.00000000e+00 4.88152436e-05 -3.25656321e-04
2.24271334e-05 4.87470934e-05 -4.40832868e-04
0.00000000e+00 5.13651539e-05 -4.37166891e-04
2.46725012e-05 3.25619403e-05 -3.67630884e-04
4.74328481e-05 4.76853784e-05 -4.66319121e-04
4.99989619e-05 2.59179960e-05 -3.88411776e-04
6.31603398e-05 4.23370802e-05 -5.17503475e-04
8.87719725e-05 3.97509066e-05 -3.50654940e-04
8.17220207e-05 2.78879597e-05 -5.13053557e-04
1.14076334e-04 3.99695746e-05 -3.54850810e-04
1.11990208e-04 4.31567787e-05 -4.76299378e-04
1.37439041e-04 4.19906137e-05 -3.50607646e-04
1.38611504e-04 4.21869117e-05 -4.77972702e-04
8.04280262e-06 6.82471727e-05 -2.87806295e-04
0.00000000e+00 7.26554572e-05 -3.15878890e-04
1.42819936e-05 8.12017970e-05 -4.37824376e-04
0.00000000e+00 7.84266740e-05 -3.95778858e-04
1.26955692e-05 4.23452293e-05 -3.30870098e-04
4.71895073e-05 8.02227878e-05 -5.04786731e-04
-1.46171660e-05 2.47925109e-05 -6.10654242e-04
8.35956089e-05 6.39736099e-05 -5.68447635e-04
1.01340975e-05 9.23432599e-05 -2.75229249e-04
0.00000000e+00 9.66812877e-05 -3.03861714e-04
1.22080719e-05 1.05522668e-04 -3.91388196e-04
0.00000000e+00 9.76379888e-05 -3.89867491e-04
0.00000000e+00 1.12520618e-04 -3.07433453e-04
1.20944787e-05 1.36608462e-04 -3.90688539e-04
0.00000000e+00 1.24072554e-04 -4.21290402e-04
2.39493966e-05 9.65975778e-05 -1.90891296e-04
1.71219253e-05 1.32738001e-04 -3.76638724e-04
3.05484900e-05 1.52610664e-04 -3.84099345e-04
0.00000000e+00 1.34356640e-04 -3.31801508e-04
1.17601212e-05 1.65452395e-04 -4.53038345e-04
0.00000000e+00 1.60361014e-04 -4.47006052e-04
2.43648956e-05 1.87942074e-04 -4.48242063e-04
2.66501957e-05 1.58945535e-04 -5.11556922e-04
4.77894973e-05 1.75986759e-04 -4.98132140e-04
0.00000000e+00 0.00000000e+00 -5.75077080e-04
2.74251033e-05 0.00000000e+00 -5.75847400e-04
2.93368685e-05 2.22536983e-05 -5.74311765e-04
0.00000000e+00 2.06690911e-05 -5.73382131e-04
5.20150934e-05 0.00000000e+00 -5.77014463e-04
5.52491147e-05 2.68183539e-05 -5.78517967e-04
7.37466326e-05 0.00000000e+00 -5.77323430e-04
7.55944930e-05 3.05300055e-05 -5.83699497e-04
9.45747452e-05 0.00000000e+00 -5.78341715e-04
9.33852498e-05 2.94551683e-05 -5.82454493e-04
1.15555689e-04 0.00000000e+00 -5.78891719e-04
1.13394686e-04 2.80473305e-05 -5.78959123e-04
1.35923648e-04 0.00000000e+00 -5.77911735e-04
1.35874725e-04 2.97621173e-05 -5.75651124e-04
3.45994376e-05 4.70527521e-05 -5.77526924e-04
0.00000000e+00 4.11435103e-05 -5.70160046e-04
6.35317047e-05 5.48175522e-05 -5.89033589e-04
8.35635874e-05 5.94083722e-05 -6.01065112e-04
9.61764381e-05 5.68207361e-05 -6.20098726e-04
1.10434499e-04 4.68400322e-05 -6.25667511e-04
1.26330036e-04 5.22319606e-05 -6.18971069e-04
3.75599375e-05 6.38826459e-05 -5.10396785e-04
0.00000000e+00 7.08405059e-05 -4.99956601e-04
6.68021894e-05 7.24253696e-05 -5.83103159e-04
9.08319416e-05 7.01870813e-05 -6.49934693e-04
8.00118796e-05 -6.04495938e-07 -7.01116573e-04
1.06834792e-04 7.66816520e-05 -6.78276760e-04
3.21286097e-05 9.49688765e-05 -4.61275602e-04
0.00000000e+00 1.13591152e-04 -4.92209860e-04
5.18519009e-05 6.63554820e-05 -5.47791307e-04
3.18927596e-05 1.60589974e-04 -5.59308450e-04
0.00000000e+00 1.53709101e-04 -5.56012033e-04
2.64053015e-05 1.93537620e-04 -5.59681561e-04
0.00000000e+00 1.85189681e-04 -5.68680989e-04
6.33371455e-05 1.70485480e-04 -5.61135530e-04
7.31773034e-05 1.92859123e-04 -5.60086686e-04
8.95397388e-05 1.45737256e-04 -6.13755255e-04
1.25618753e-04 1.57980059e-04 -6.03390159e-04
-1.31080242e-05 1.27612948e-04 -7.21027376e-04
2.97799306e-05 1.37439332e-04 -6.98987336e-04
1.14936949e-04 9.93939975e-05 -6.90533896e-04
1.48835374e-04 1.16910167e-04 -6.74642099e-04
1.26068204e-04 7.62156851e-05 -6.97252515e-04
1.25237610e-04 5.67339484e-05 -6.95584458e-04
1.44023375e-04 5.71724850e-05 -6.96518109e-04
1.43701458e-04 7.60452458e-05 -6.96316594e-04
1.22975762e-04 7.53045606e-05 -6.96727016e-04
1.25466613e-04 5.85922862e-05 -6.95898198e-04
1.43439494e-04 5.71951023e-05 -6.96434989e-04
1.44545687e-04 7.57560701e-05 -6.96828065e-04
0.00000000e+00 0.00000000e+00 -6.95945579e-04
2.92464756e-05 0.00000000e+00 -6.95945579e-04
3.18168350e-05 2.29364359e-05 -6.95945579e-04
0.00000000e+00 2.01155090e-05 -6.95945579e-04
5.52169004e-05 0.00000000e+00 -6.95945579e-04
5.88762123e-05 2.85481019e-05 -6.95945579e-04
7.62914715e-05 0.00000000e+00 -6.95945579e-04
8.01046117e-05 3.38520767e-05 -6.95945579e-04
9.51162729e-05 0.00000000e+00 -6.95945579e-04
9.69368702e-05 3.70227353e-05 -6.95945579e-04
1.14935501e-04 0.00000000e+00 -6.95945579e-04
1.13716007e-04 3.71895912e-05 -6.95945579e-04
1.37313007e-04 0.00000000e+00 -6.95945579e-04
1.31435576e-04 4.15092218e-05 -6.95945579e-04
4.05232313e-05 3.53311625e-05 -6.95945579e-04
0.00000000e+00 2.94287238e-05 -6.95945579e-04
7.03568294e-05 5.05266180e-05 -6.95945579e-04
9.04776171e-05 6.38289275e-05 -6.95945579e-04
1.04447718e-04 7.02482794e-05 -6.95945579e-04
1.11136600e-04 7.33718553e-05 -6.95945579e-04
1.19216587e-04 7.82472489e-05 -6.95945579e-04
4.06019390e-05 5.83853180e-05 -6.95945579e-04
0.00000000e+00 5.13732521e-05 -6.95945579e-04
8.95746634e-05 7.65406730e-05 -6.95945579e-04
1.08942906e-04 8.52987941e-05 -6.95945579e-04
1.05854284e-04 8.65281909e-05 -6.95945579e-04
1.05770137e-04 5.99127125e-05 -7.06256367e-04
1.11549190e-04 8.04448282e-05 -6.95945579e-04
1.14168179e-04 6.20046121e-05 -7.03279569e-04
1.09786575e-04 8.10510828e-05 -6.95945579e-04
8.26485266e-05 7.47532540e-05 -7.34831148e-04
1.20423720e-04 9.96293747e-05 -6.95945579e-04
1.24130922e-04 8.99593433e-05 -6.95945579e-04
1.11455513e-04 7.77367604e-05 -6.99366210e-04
1.08516448e-04 8.52743251e-05 -6.95945579e-04
1.10451983e-04 7.76033194e-05 -6.95766066e-04
1.11240166e-04 7.34135392e-05 -6.95945579e-04
1.10543901e-04 6.59594152e-05 -6.97303854e-04
1.09947192e-04 6.22170919e-05 -6.95945579e-04
0.00000000e+00 1.49781961e-04 -6.95945579e-04
2.15854816e-05 1.53808796e-04 -6.95945579e-04
3.91704525e-05 1.72911969e-04 -6.95945579e-04
0.00000000e+00 1.78243674e-04 -6.95945579e-04
1.23637292e-04 7.46174192e-05 -6.95945579e-04
1.24937869e-04 9.46685686e-05 -6.95945579e-04
1.25821258e-04 5.97777471e-05 -6.95945579e-04
3.96544747e-05 1.93381828e-04 -6.95945579e-04
0.00000000e+00 1.93746309e-04 -6.95945579e-04
7.55966685e-05 1.65150501e-04 -6.95945579e-04
9.38344601e-05 1.85254088e-04 -6.95945579e-04
1.08118853e-04 1.40034710e-04 -6.95945579e-04
1.48039078e-04 1.48606428e-04 -6.95945579e-04
1.58288836e-04 1.01728263e-04 -6.95945579e-04
1.48350096e-04 7.48004386e-05 -6.95945579e-04
1.42698307e-04 5.68972464e-05 -6.95945579e-04
</DataArray>
<DataArray type="Float32" Name="Spatial_acceleration" NumberOfComponents="3" format="ascii">
4.65859955e-08 2.17633939e-07 -4.46716939e-07
8.54978950e-08 1.99720262e-07 -3.89377277e-07
8.04463980e-08 2.56607933e-07 -4.76519261e-07
4.13060199e-08 2.68856695e-07 -4.90824391e-07
2.82811623e-08 2.56378200e-07 -6.77188211e-07
4.42777370e-08 2.76849391e-07 -6.29606689e-07
2.05437338e-08 3.37148691e-07 -7.47283309e-07
1.89443430e-08 2.97094374e-07 -7.19865170e-07
1.27628439e-07 1.82881948e-07 -3.37441747e-07
1.23130775e-07 2.44915469e-07 -4.40438583e-07
6.29292600e-08 3.09149414e-07 -5.51435676e-07
9.46919130e-08 3.52750220e-07 -7.74701448e-07
2.06853798e-07 1.53149131e-07 -1.66101377e-09
2.05855500e-07 1.45793265e-07 -1.14912009e-08
2.12918962e-07 1.48417740e-07 -1.69277197e-08
2.09624872e-07 1.51601157e-07 -1.09528582e-08
2.11223181e-07 1.54453360e-07 -1.17836363e-08
2.10539554e-07 1.55103351e-07 -8.79269368e-09
2.12351395e-07 1.54019446e-07 -1.46199408e-08
2.11016072e-07 1.56157071e-07 -1.32122659e-08
0.00000000e+00 0.00000000e+00 -7.58488966e-07
4.23590336e-08 0.00000000e+00 -7.62780473e-07
3.73423106e-08 4.60191316e-08 -7.55151120e-07
0.00000000e+00 5.00679000e-08 -7.53084805e-07
0.00000000e+00 0.00000000e+00 -1.01327896e-06
4.97214501e-08 0.00000000e+00 -1.01383523e-06
5.08812548e-08 5.00033295e-08 -1.01343790e-06
0.00000000e+00 4.73260862e-08 -1.00723901e-06
8.93461163e-08 0.00000000e+00 -7.72714600e-07
8.05407723e-08 3.15358228e-08 -7.56740576e-07
1.00318339e-07 0.00000000e+00 -1.01947785e-06
9.95149207e-08 5.00244397e-08 -1.03028617e-06
1.39176848e-07 0.00000000e+00 -7.74780915e-07
1.38563408e-07 2.33054163e-08 -7.70131749e-07
1.52078812e-07 0.00000000e+00 -1.02567674e-06
1.45131025e-07 4.51207143e-08 -1.03549166e-06
1.97118766e-07 0.00000000e+00 -7.75734577e-07
1.97285473e-07 2.89529556e-08 -7.90317870e-07
2.00529584e-07 0.00000000e+00 -1.03084244e-06
1.99039931e-07 4.10129637e-08 -1.04149183e-06
2.53105156e-07 0.00000000e+00 -7.80582411e-07
2.53144833e-07 4.04280911e-08 -7.83443454e-07
2.53446387e-07 0.00000000e+00 -1.02742513e-06
2.52592059e-07 3.74317182e-08 -1.04856485e-06
3.08244182e-07 0.00000000e+00 -7.81218205e-07
3.05506092e-07 4.07285974e-08 -7.81695064e-07
3.01426894e-07 0.00000000e+00 -1.02265676e-06
3.05888562e-07 3.94483415e-08 -1.04125343e-06
1.83383619e-08 8.83409115e-08 -7.28050850e-07
0.00000000e+00 1.07069809e-07 -7.23520884e-07
4.86013789e-08 1.06766819e-07 -9.77198283e-07
0.00000000e+00 1.11699102e-07 -9.67184747e-07
5.43253762e-08 7.32058538e-08 -8.14891962e-07
1.03648752e-07 1.05091679e-07 -1.03406114e-06
1.09132131e-07 5.90324412e-08 -8.62058016e-07
1.38980994e-07 9.36757942e-08 -1.14881425e-06
1.94832680e-07 8.84259705e-08 -7.79708216e-07
1.79553041e-07 6.19888283e-08 -1.13925933e-06
2.52597658e-07 8.68743868e-08 -7.90278136e-07
2.48509139e-07 9.64303766e-08 -1.05730692e-06
3.05003795e-07 8.99347157e-08 -7.78039293e-07
3.07121610e-07 8.96503494e-08 -1.06207528e-06
1.66893006e-08 1.49170560e-07 -6.37508549e-07
0.00000000e+00 1.58066555e-07 -6.99520115e-07
3.03756629e-08 1.78036231e-07 -9.68251925e-07
0.00000000e+00 1.72376630e-07 -8.76744593e-07
2.51928967e-08 9.52879589e-08 -7.31070827e-07
1.04268395e-07 1.74427029e-07 -1.11703878e-06
-3.65773829e-08 5.75979549e-08 -1.35343771e-06
1.82271009e-07 1.43077642e-07 -1.25805536e-06
2.21133227e-08 2.02245559e-07 -6.10306131e-07
0.00000000e+00 2.12296840e-07 -6.74009300e-07
2.74711187e-08 2.31095484e-07 -8.68320456e-07
0.00000000e+00 2.13377177e-07 -8.63313687e-07
0.00000000e+00 2.48478102e-07 -6.81479776e-07
2.75884346e-08 2.99308965e-07 -8.64664685e-07
0.00000000e+00 2.70138173e-07 -9.34759782e-07
5.19355119e-08 2.12520362e-07 -4.22636674e-07
3.97165607e-08 2.91690213e-07 -8.34306093e-07
6.53584777e-08 3.35734086e-07 -8.53157076e-07
0.00000000e+00 2.94576097e-07 -7.37190248e-07
2.38164013e-08 3.63762183e-07 -1.00334489e-06
0.00000000e+00 3.51903338e-07 -9.91185516e-07
5.31325739e-08 4.12439306e-07 -9.93569643e-07
5.75913326e-08 3.46561279e-07 -1.13508440e-06
1.03288230e-07 3.86595730e-07 -1.10191775e-06
0.00000000e+00 0.00000000e+00 -1.27458566e-06
6.02627779e-08 0.00000000e+00 -1.27522151e-06
6.34789430e-08 4.74626809e-08 -1.27363205e-06
0.00000000e+00 4.58012011e-08 -1.26981729e-06
1.13261244e-07 0.00000000e+00 -1.27871829e-06
1.21807062e-07 5.79853854e-08 -1.28193699e-06
1.61973759e-07 0.00000000e+00 -1.27792362e-06
1.65750578e-07 6.74078819e-08 -1.29477178e-06
2.06770991e-07 0.00000000e+00 -1.28285092e-06
2.04384321e-07 6.49839649e-08 -1.29087766e-06
2.49982662e-07 0.00000000e+00 -1.28332772e-06
2.47451794e-07 6.18845206e-08 -1.28300985e-06
2.93734161e-07 0.00000000e+00 -1.27808255e-06
2.97233470e-07 6.31262864e-08 -1.27426779e-06
7.60381411e-08 1.01774930e-07 -1.27847989e-06
0.00000000e+00 8.94665675e-08 -1.26139321e-06
1.40637155e-07 1.19184456e-07 -1.30470596e-06
1.84098880e-07 1.30981206e-07 -1.33005778e-06
2.11407027e-07 1.26180197e-07 -1.37483505e-06
2.43374046e-07 1.04573040e-07 -1.38473513e-06
2.78313962e-07 1.14242241e-07 -1.36915844e-06
8.30027815e-08 1.37752963e-07 -1.13042199e-06
0.00000000e+00 1.52919029e-07 -1.10583835e-06
1.47898987e-07 1.57015194e-07 -1.29085117e-06
1.99457006e-07 1.52640879e-07 -1.43856471e-06
1.75446274e-07 -8.24530888e-10 -1.55462078e-06
2.38132486e-07 1.69897078e-07 -1.50273638e-06
7.07358083e-08 2.07329791e-07 -1.02249783e-06
0.00000000e+00 2.50757040e-07 -1.08867221e-06
1.14808479e-07 1.44044563e-07 -1.21148423e-06
6.77241232e-08 3.52121077e-07 -1.23680968e-06
0.00000000e+00 3.37933500e-07 -1.23325981e-06
5.99821419e-08 4.24141689e-07 -1.23786924e-06
0.00000000e+00 4.06458980e-07 -1.25821430e-06
1.37418510e-07 3.70656437e-07 -1.24231974e-06
1.60982211e-07 4.21901547e-07 -1.23723350e-06
1.97350971e-07 3.17660465e-07 -1.35803225e-06
2.75770816e-07 3.43307846e-07 -1.33593880e-06
-3.01438057e-08 2.74634601e-07 -1.59236322e-06
6.49392575e-08 2.96997513e-07 -1.55551356e-06
2.55425761e-07 2.19884015e-07 -1.52649477e-06
3.26130134e-07 2.59280199e-07 -1.49321556e-06
2.71840378e-07 1.79356206e-07 -1.54361851e-06
2.72491292e-07 1.31564562e-07 -1.54169675e-06
3.19814063e-07 1.29102034e-07 -1.54059330e-06
3.21125867e-07 1.81495437e-07 -1.53837402e-06
2.73132827e-07 1.70984862e-07 -1.54092515e-06
2.75725085e-07 1.34919247e-07 -1.53969154e-06
3.17071880e-07 1.31406978e-07 -1.54208635e-06
3.17549137e-07 1.72504954e-07 -1.54089389e-06
0.00000000e+00 0.00000000e+00 -1.53967960e-06
6.18745872e-08 0.00000000e+00 -1.53967960e-06
7.06414340e-08 4.91539645e-08 -1.53967960e-06
0.00000000e+00 4.25030784e-08 -1.53967960e-06
1.21501586e-07 0.00000000e+00 -1.53967960e-06
1.28696357e-07 6.10550259e-08 -1.53967960e-06
1.67593356e-07 0.00000000e+00 -1.53967960e-06
1.76136695e-07 7.38898933e-08 -1.53967960e-06
2.06778438e-07 0.00000000e+00 -1.53967960e-06
2.11581579e-07 8.37643910e-08 -1.53967960e-06
2.50673537e-07 0.00000000e+00 -1.53967960e-06
2.45461848e-07 8.23338837e-08 -1.53967960e-06
2.99177429e-07 0.00000000e+00 -1.53967960e-06
2.83204002e-07 8.93871004e-08 -1.53967960e-06
9.01619615e-08 7.51415854e-08 -1.53967960e-06
0.00000000e+00 6.37769659e-08 -1.53967960e-06
1.55280034e-07 1.08773506e-07 -1.53967960e-06
2.00370948e-07 1.39534478e-07 -1.53967960e-06
2.30314825e-07 1.56372778e-07 -1.53967960e-06
2.45297940e-07 1.62616374e-07 -1.53967960e-06
2.62379643e-07 1.69197719e-07 -1.53967960e-06
9.24070633e-08 1.24931333e-07 -1.53967960e-06
0.00000000e+00 1.11017997e-07 -1.53967960e-06
1.99145745e-07 1.64952539e-07 -1.53967960e-06
2.42643068e-07 1.86820827e-07 -1.53967960e-06
2.34276058e-07 1.91164517e-07 -1.53967960e-06
2.36406919e-07 1.33742887e-07 -1.56254566e-06
2.48346709e-07 1.77696350e-07 -1.53967960e-06
2.53399207e-07 1.36435034e-07 -1.55649582e-06
2.44478372e-07 1.80194775e-07 -1.53967960e-06
1.83602168e-07 1.62978964e-07 -1.62581603e-06
2.65101590e-07 2.18321873e-07 -1.53967960e-06
2.72453462e-07 1.94422896e-07 -1.53967960e-06
2.47793082e-07 1.73701181e-07 -1.54687962e-06
2.41630602e-07 1.88529498e-07 -1.53967960e-06
2.46708595e-07 1.74241762e-07 -1.53774772e-06
2.46248675e-07 1.64271412e-07 -1.53967960e-06
2.44272570e-07 1.48758289e-07 -1.54324403e-06
2.43419152e-07 1.40123063e-07 -1.53967960e-06
0.00000000e+00 3.27972685e-07 -1.53967960e-06
4.81310600e-08 3.40816882e-07 -1.53967960e-06
8.50492086e-08 3.79698150e-07 -1.53967960e-06
0.00000000e+00 3.91542898e-07 -1.53967960e-06
2.74374457e-07 1.70182432e-07 -1.53967960e-06
2.76953813e-07 2.11987228e-07 -1.53967960e-06
2.81291705e-07 1.36117137e-07 -1.53967960e-06
8.81751347e-08 4.23821319e-07 -1.53967960e-06
0.00000000e+00 4.27481410e-07 -1.53967960e-06
1.67290366e-07 3.58869642e-07 -1.53967960e-06
2.07265217e-07 4.02849167e-07 -1.53967960e-06
2.40822629e-07 3.05299949e-07 -1.53967960e-06
3.21507457e-07 3.24875117e-07 -1.53967960e-06
3.46635773e-07 2.26904945e-07 -1.53967960e-06
3.27795732e-07 1.70287990e-07 -1.53967960e-06
3.15702664e-07 1.33376261e-07 -1.53967960e-06
</DataArray>
<DataArray type="Float32" Name="Spatial_velocity" NumberOfComponents="3" format="ascii">
1.24325084e-06 5.77188257e-06 -1.17554573e-05
2.25534131e-06 5.31512023e-06 -1.02638387e-05
2.18725040e-06 6.82593145e-06 -1.25531951e-05
1.11869042e-06 7.11061557e-06 -1.29519885e-05
7.42032512e-07 6.81622168e-06 -1.78495866e-05
1.15115665e-06 7.34491687e-06 -1.66269128e-05
6.08774769e-07 8.95890025e-06 -1.96897236e-05
4.72499238e-07 7.88417856e-06 -1.89239745e-05
3.40337760e-06 4.91341370e-06 -8.89359308e-06
3.26587860e-06 6.45674299e-06 -1.15890471e-05
1.62066897e-06 8.12049075e-06 -1.44725418e-05
2.58677642e-06 9.29066027e-06 -2.05046017e-05
5.13737359e-06 3.87389082e-06 4.97863546e-08
5.15012107e-06 3.72757745e-06 -7.23793576e-08
5.28860119e-06 3.74498040e-06 -5.15624663e-08
5.26581016e-06 3.88579519e-06 5.81722759e-08
5.26298663e-06 3.86295324e-06 3.99604296e-08
5.25248015e-06 3.73226999e-06 -6.73432368e-08
5.38568838e-06 3.72140789e-06 -5.71520182e-08
5.39847406e-06 3.85269323e-06 6.25818117e-08
0.00000000e+00 0.00000000e+00 -1.99930491e-05
1.11110353e-06 0.00000000e+00 -2.00556715e-05
9.98225460e-07 1.23736083e-06 -1.98653051e-05
0.00000000e+00 1.34400784e-06 -1.97443842e-05
0.00000000e+00 0.00000000e+00 -2.66700117e-05
1.33242918e-06 0.00000000e+00 -2.66937823e-05
1.35255470e-06 1.32191872e-06 -2.66995266e-05
0.00000000e+00 1.29649629e-06 -2.65298822e-05
2.39185670e-06 0.00000000e+00 -2.02864994e-05
2.12034206e-06 8.30664192e-07 -1.99167625e-05
2.65950825e-06 0.00000000e+00 -2.67589749e-05
2.64471419e-06 1.35256312e-06 -2.70992550e-05
3.74255364e-06 0.00000000e+00 -2.03976797e-05
3.69400573e-06 6.00668557e-07 -2.02673655e-05
4.04054254e-06 0.00000000e+00 -2.69517805e-05
3.88997978e-06 1.21615324e-06 -2.72396301e-05
5.24526286e-06 0.00000000e+00 -2.03505515e-05
5.23563767e-06 7.68956340e-07 -2.07886824e-05
5.38601034e-06 0.00000000e+00 -2.70771525e-05
5.30145508e-06 1.05810739e-06 -2.73828191e-05
6.74324428e-06 0.00000000e+00 -2.04859753e-05
6.73371460e-06 1.03971865e-06 -2.05399665e-05
6.76416539e-06 0.00000000e+00 -2.70138262e-05
6.71783164e-06 9.78866524e-07 -2.75954135e-05
8.23907703e-06 0.00000000e+00 -2.05400120e-05
8.13671977e-06 1.13029830e-06 -2.05330725e-05
8.07945344e-06 0.00000000e+00 -2.69337434e-05
8.16325610e-06 1.08082952e-06 -2.74206141e-05
4.75350134e-07 2.38383382e-06 -1.91762992e-05
0.00000000e+00 2.85351393e-06 -1.90298651e-05
1.31086824e-06 2.84900898e-06 -2.57582888e-05
0.00000000e+00 3.00280863e-06 -2.55441028e-05
1.44250487e-06 1.90286323e-06 -2.14824795e-05
2.77290701e-06 2.78605398e-06 -2.72477409e-05
2.92313985e-06 1.51289885e-06 -2.26968914e-05
3.69282520e-06 2.47284038e-06 -3.02378085e-05
5.19022842e-06 2.32100479e-06 -2.04918379e-05
4.77794129e-06 1.62781907e-06 -2.99780259e-05
6.66952656e-06 2.33393439e-06 -2.07379908e-05
6.54701762e-06 2.51931601e-06 -2.78319931e-05
8.03473995e-06 2.45100546e-06 -2.04897624e-05
8.10104393e-06 2.46246327e-06 -2.79285396e-05
4.69757055e-07 3.98921611e-06 -1.68189035e-05
0.00000000e+00 4.24745349e-06 -1.84587898e-05
8.35023911e-07 4.74664330e-06 -2.55817777e-05
0.00000000e+00 4.58573004e-06 -2.31265512e-05
7.41685824e-07 2.47435264e-06 -1.93341712e-05
2.75871321e-06 4.68692951e-06 -2.94946276e-05
-8.54154962e-07 1.44670230e-06 -3.56819401e-05
4.88656906e-06 3.73600096e-06 -3.32134405e-05
5.91572928e-07 5.39897155e-06 -1.60842646e-05
0.00000000e+00 5.65179334e-06 -1.77573183e-05
7.13276336e-07 6.16955776e-06 -2.28699209e-05
0.00000000e+00 5.70896009e-06 -2.27805031e-05
0.00000000e+00 6.57748933e-06 -1.79668932e-05
7.06200467e-07 7.98794736e-06 -2.28306526e-05
0.00000000e+00 7.25498649e-06 -2.46186100e-05
1.39807571e-06 5.64914808e-06 -1.11564050e-05
9.98632686e-07 7.76004345e-06 -2.20071961e-05
1.78433140e-06 8.92531989e-06 -2.24448631e-05
0.00000000e+00 7.85345765e-06 -1.93933174e-05
6.86222904e-07 9.67283540e-06 -2.64746086e-05
0.00000000e+00 9.37487130e-06 -2.61224941e-05
1.42293607e-06 1.09885195e-05 -2.61934983e-05
1.55503722e-06 9.29587986e-06 -2.98877985e-05
2.79313281e-06 1.02896483e-05 -2.91062133e-05
0.00000000e+00 0.00000000e+00 -3.35977747e-05
1.60330023e-06 0.00000000e+00 -3.36429221e-05
1.71512113e-06 1.30027695e-06 -3.35533587e-05
0.00000000e+00 1.20834534e-06 -3.34990691e-05
3.04126274e-06 0.00000000e+00 -3.37113634e-05
3.22997107e-06 1.56668978e-06 -3.37993879e-05
4.31135140e-06 0.00000000e+00 -3.37298770e-05
4.41943166e-06 1.78304663e-06 -3.41021514e-05
5.52844813e-06 0.00000000e+00 -3.37897291e-05
5.45915100e-06 1.72016769e-06 -3.40302577e-05
6.75331739e-06 0.00000000e+00 -3.38220052e-05
6.62739239e-06 1.63780146e-06 -3.38259269e-05
7.94191055e-06 0.00000000e+00 -3.37643360e-05
7.93954223e-06 1.73746878e-06 -3.36323574e-05
2.02251954e-06 2.74947502e-06 -3.37411984e-05
0.00000000e+00 2.40397526e-06 -3.33113821e-05
3.71397596e-06 3.20213644e-06 -3.44135115e-05
4.88496835e-06 3.46940692e-06 -3.51169620e-05
5.62223931e-06 3.31802062e-06 -3.62280407e-05
6.45505361e-06 2.73492401e-06 -3.65528031e-05
7.38247445e-06 3.04924311e-06 -3.61607854e-05
2.19537287e-06 3.73337093e-06 -2.98209998e-05
0.00000000e+00 4.13995213e-06 -2.92098775e-05
3.90480227e-06 4.23067331e-06 -3.40673432e-05
5.31045771e-06 4.09807762e-06 -3.79700359e-05
4.67724522e-06 -3.69574380e-08 -4.09610293e-05
6.24540598e-06 4.47789716e-06 -3.96244977e-05
1.87653177e-06 5.55409815e-06 -2.69516586e-05
0.00000000e+00 6.64587287e-06 -2.87584498e-05
3.03311072e-06 3.87436512e-06 -3.20038671e-05
1.86311331e-06 9.39281745e-06 -3.26776280e-05
0.00000000e+00 8.98945927e-06 -3.24858411e-05
1.54189581e-06 1.13161068e-05 -3.27012131e-05
0.00000000e+00 1.08272916e-05 -3.32265918e-05
3.69999543e-06 9.97312509e-06 -3.27831694e-05
4.27552459e-06 1.12775806e-05 -3.27238195e-05
5.22920482e-06 8.52351786e-06 -3.58585821e-05
7.34331934e-06 9.23644438e-06 -3.52510215e-05
-7.73746535e-07 7.45668740e-06 -4.21268123e-05
1.74552588e-06 8.02958129e-06 -4.08382366e-05
6.71628777e-06 5.80755341e-06 -4.03410413e-05
8.70006716e-06 6.83079861e-06 -3.94138551e-05
7.36552192e-06 4.44960961e-06 -4.07324769e-05
7.31669934e-06 3.31367596e-06 -4.06418985e-05
8.41309156e-06 3.33798971e-06 -4.06953222e-05
8.39464792e-06 4.44046827e-06 -4.06783911e-05
7.18906040e-06 4.39825180e-06 -4.07009720e-05
7.33446632e-06 3.42054864e-06 -4.06557701e-05
8.38428423e-06 3.33948833e-06 -4.06890867e-05
8.45001705e-06 4.42314149e-06 -4.07072839e-05
0.00000000e+00 0.00000000e+00 -4.06532854e-05
1.70973453e-06 0.00000000e+00 -4.06532854e-05
1.85964859e-06 1.34042978e-06 -4.06532854e-05
0.00000000e+00 1.17506806e-06 -4.06532854e-05
3.22742744e-06 0.00000000e+00 -4.06532854e-05
3.44178852e-06 1.66769701e-06 -4.06532854e-05
4.46010699e-06 0.00000000e+00 -4.06532854e-05
4.68266353e-06 1.97714598e-06 -4.06532854e-05
5.55980887e-06 0.00000000e+00 -4.06532854e-05
5.66616018e-06 2.16190483e-06 -4.06532854e-05
6.71695443e-06 0.00000000e+00 -4.06532854e-05
6.64618392e-06 2.17144338e-06 -4.06532854e-05
8.02276372e-06 0.00000000e+00 -4.06532854e-05
7.67967413e-06 2.42338729e-06 -4.06532854e-05
2.36905476e-06 2.06400205e-06 -4.06532854e-05
0.00000000e+00 1.71913791e-06 -4.06532854e-05
4.11253495e-06 2.95135419e-06 -4.06532854e-05
5.28889177e-06 3.72732165e-06 -4.06532854e-05
6.10537109e-06 4.10187477e-06 -4.06532854e-05
6.49575395e-06 4.28422072e-06 -4.06532854e-05
6.96723555e-06 4.56841599e-06 -4.06532854e-05
2.37319773e-06 3.40772499e-06 -4.06532854e-05
0.00000000e+00 2.99749695e-06 -4.06532854e-05
5.23680546e-06 4.46948843e-06 -4.06532854e-05
6.36817640e-06 4.98012059e-06 -4.06532854e-05
6.18832928e-06 5.05227081e-06 -4.06532854e-05
6.18365220e-06 3.49891047e-06 -4.12567242e-05
6.52078643e-06 4.69771658e-06 -4.06532854e-05
6.67339054e-06 3.62019068e-06 -4.10830980e-05
6.41722409e-06 4.73254977e-06 -4.06532854e-05
4.83372287e-06 4.36492383e-06 -4.29251522e-05
7.03880960e-06 5.81546328e-06 -4.06532854e-05
7.25888185e-06 5.25218593e-06 -4.06532854e-05
6.51619985e-06 4.53976645e-06 -4.08538763e-05
6.34457274e-06 4.98025247e-06 -4.06532854e-05
6.45712453e-06 4.53301982e-06 -4.06441068e-05
6.50291122e-06 4.28819612e-06 -4.06532854e-05
6.46140006e-06 3.85130852e-06 -4.07342450e-05
6.42821396e-06 3.63374556e-06 -4.06532854e-05
0.00000000e+00 8.76645754e-06 -4.06532854e-05
1.25632857e-06 9.00136183e-06 -4.06532854e-05
2.28754607e-06 1.01139749e-05 -4.06532854e-05
0.00000000e+00 1.04250876e-05 -4.06532854e-05
7.22775530e-06 4.35863831e-06 -4.06532854e-05
7.30221291e-06 5.53194877e-06 -4.06532854e-05
7.35602816e-06 3.49097672e-06 -4.06532854e-05
2.31639524e-06 1.13082533e-05 -4.06532854e-05
0.00000000e+00 1.13284441e-05 -4.06532854e-05
4.41628663e-06 9.66187508e-06 -4.06532854e-05
5.48331809e-06 1.08335307e-05 -4.06532854e-05
6.31572038e-06 8.18956323e-06 -4.06532854e-05
8.65398397e-06 8.68745701e-06 -4.06532854e-05
9.25248241e-06 5.94387484e-06 -4.06532854e-05
8.67282779e-06 4.36805522e-06 -4.06532854e-05
8.34304501e-06 3.32131731e-06 -4.06532854e-05
</DataArray>
<DataArray type="Float32" Name="Reaction_force" NumberOfComponents="3" format="ascii">
0.00000000e+00 0.00000000e+00 0.00000000e+00
0.00000000e+00 0.00000000e+00 0.00000000e+00
0.00000000e+00 0.00000000e+00 0.00000000e+00
0.00000000e+00 0.00000000e+00 0.00000000e+00
0.00000000e+00 0.00000000e+00 0.00000000e+00
0.00000000e+00 0.00000000e+00 0.00000000e+00
0.00000000e+00 0.00000000e+00 0.00000000e+00
0.00000000e+00 0.00000000e+00 0.00000000e+00
0.00000000e+00 0.00000000e+00 0.00000000e+00
0.00000000e+00 0.00000000e+00 0.00000000e+00
0.00000000e+00 0.00000000e+00 0.00000000e+00
0.00000000e+00 0.00000000e+00 0.00000000e+00
0.00000000e+00 0.00000000e+00 0.00000000e+00
0.00000000e+00 0.00000000e+00 0.00000000e+00
0.00000000e+00 0.00000000e+00 0.00000000e+00
0.00000000e+00 0.00000000e+00 0.00000000e+00
0.00000000e+00 0.00000000e+00 0.00000000e+00
0.00000000e+00 0.00000000e+00 0.00000000e+00
0.00000000e+00 0.00000000e+00 0.00000000e+00
0.00000000e+00 0.00000000e+00 0.00000000e+00
1.11729041e-01 4.66409363e-02 0.00000000e+00
0.00000000e+00 1.78402066e-01 0.00000000e+00
0.00000000e+00 0.00000000e+00 0.00000000e+00
3.05881441e-01 0.00000000e+00 0.00000000e+00
1.70650966e-02 4.35512289e-02 0.00000000e+00
0.00000000e+00 1.02722108e-01 0.00000000e+00
0.00000000e+00 0.00000000e+00 0.00000000e+00
8.03499222e-02 0.00000000e+00 0.00000000e+00
0.00000000e+00 3.09339166e-01 0.00000000e+00
0.00000000e+00 0.00000000e+00 0.00000000e+00
0.00000000e+00 1.58636823e-01 0.00000000e+00
0.00000000e+00 0.00000000e+00 0.00000000e+00
0.00000000e+00 4.20442998e-01 0.00000000e+00
0.00000000e+00 0.00000000e+00 0.00000000e+00
0.00000000e+00 1.81490526e-01 0.00000000e+00
0.00000000e+00 0.00000000e+00 0.00000000e+00
0.00000000e+00 4.77919966e-01 0.00000000e+00
0.00000000e+00 0.00000000e+00 0.00000000e+00
0.00000000e+00 1.48742646e-01 0.00000000e+00
0.00000000e+00 0.00000000e+00 0.00000000e+00
0.00000000e+00 4.16364074e-01 0.00000000e+00
0.00000000e+00 0.00000000e+00 0.00000000e+00
0.00000000e+00 9.81409773e-02 0.00000000e+00
0.00000000e+00 0.00000000e+00 0.00000000e+00
0.00000000e+00 1.78380132e-01 0.00000000e+00
0.00000000e+00 0.00000000e+00 0.00000000e+00
0.00000000e+00 4.21103202e-02 0.00000000e+00
0.00000000e+00 0.00000000e+00 0.00000000e+00
0.00000000e+00 0.00000000e+00 0.00000000e+00
4.12571847e-01 0.00000000e+00 0.00000000e+00
0.00000000e+00 0.00000000e+00 0.00000000e+00
1.07655264e-01 0.00000000e+00 0.00000000e+00
0.00000000e+00 0.00000000e+00 0.00000000e+00
0.00000000e+00 0.00000000e+00 0.00000000e+00
0.00000000e+00 0.00000000e+00 0.00000000e+00
0.00000000e+00 0.00000000e+00 0.00000000e+00
0.00000000e+00 0.00000000e+00 0.00000000e+00
0.00000000e+00 0.00000000e+00 0.00000000e+00
0.00000000e+00 0.00000000e+00 0.00000000e+00
0.00000000e+00 0.00000000e+00 0.00000000e+00
0.00000000e+00 0.00000000e+00 0.00000000e+00
0.00000000e+00 0.00000000e+00 0.00000000e+00
0.00000000e+00 0.00000000e+00 0.00000000e+00
5.51699400e-01 0.00000000e+00 0.00000000e+00
0.00000000e+00 0.00000000e+00 0.00000000e+00
1.47665471e-01 0.00000000e+00 0.00000000e+00
0.00000000e+00 0.00000000e+00 0.00000000e+00
0.00000000e+00 0.00000000e+00 0.00000000e+00
0.00000000e+00 0.00000000e+00 0.00000000e+00
0.00000000e+00 0.00000000e+00 0.00000000e+00
0.00000000e+00 0.00000000e+00 0.00000000e+00
3.89657974e-01 0.00000000e+00 0.00000000e+00
0.00000000e+00 0.00000000e+00 0.00000000e+00
5.47122732e-02 0.00000000e+00 0.00000000e+00
2.88953722e-01 0.00000000e+00 0.00000000e+00
0.00000000e+00 0.00000000e+00 0.00000000e+00
1.98539972e-01 0.00000000e+00 0.00000000e+00
0.00000000e+00 0.00000000e+00 0.00000000e+00
0.00000000e+00 0.00000000e+00 0.00000000e+00
0.00000000e+00 0.00000000e+00 0.00000000e+00
1.97019190e-01 0.00000000e+00 0.00000000e+00
0.00000000e+00 0.00000000e+00 0.00000000e+00
2.92452365e-01 0.00000000e+00 0.00000000e+00
0.00000000e+00 0.00000000e+00 0.00000000e+00
0.00000000e+00 0.00000000e+00 0.00000000e+00
0.00000000e+00 0.00000000e+00 0.00000000e+00
-9.41985995e-02 3.29857841e-02 0.00000000e+00
0.00000000e+00 -7.28270039e-03 0.00000000e+00
0.00000000e+00 0.00000000e+00 0.00000000e+00
-2.40360528e-01 0.00000000e+00 0.00000000e+00
0.00000000e+00 -1.49408609e-01 0.00000000e+00
0.00000000e+00 0.00000000e+00 0.00000000e+00
0.00000000e+00 -2.36539543e-01 0.00000000e+00
0.00000000e+00 0.00000000e+00 0.00000000e+00
0.00000000e+00 -2.69718498e-01 0.00000000e+00
0.00000000e+00 0.00000000e+00 0.00000000e+00
0.00000000e+00 -3.20507854e-01 0.00000000e+00
0.00000000e+00 0.00000000e+00 0.00000000e+00
0.00000000e+00 -1.84537008e-01 0.00000000e+00
0.00000000e+00 0.00000000e+00 0.00000000e+00
0.00000000e+00 0.00000000e+00 0.00000000e+00
-2.95499712e-01 0.00000000e+00 0.00000000e+00
0.00000000e+00 0.00000000e+00 0.00000000e+00
0.00000000e+00 0.00000000e+00 0.00000000e+00
0.00000000e+00 0.00000000e+00 0.00000000e+00
0.00000000e+00 0.00000000e+00 0.00000000e+00
0.00000000e+00 0.00000000e+00 0.00000000e+00
0.00000000e+00 0.00000000e+00 0.00000000e+00
-3.61548424e-01 0.00000000e+00 0.00000000e+00
0.00000000e+00 0.00000000e+00 0.00000000e+00
0.00000000e+00 0.00000000e+00 0.00000000e+00
0.00000000e+00 0.00000000e+00 0.00000000e+00
0.00000000e+00 0.00000000e+00 0.00000000e+00
0.00000000e+00 0.00000000e+00 0.00000000e+00
-3.85683216e-02 0.00000000e+00 0.00000000e+00
0.00000000e+00 0.00000000e+00 0.00000000e+00
0.00000000e+00 0.00000000e+00 0.00000000e+00
4.72599939e-02 0.00000000e+00 0.00000000e+00
0.00000000e+00 0.00000000e+00 0.00000000e+00
8.01185220e-02 0.00000000e+00 0.00000000e+00
0.00000000e+00 0.00000000e+00 0.00000000e+00
0.00000000e+00 0.00000000e+00 0.00000000e+00
0.00000000e+00 0.00000000e+00 0.00000000e+00
0.00000000e+00 0.00000000e+00 0.00000000e+00
0.00000000e+00 0.00000000e+00 0.00000000e+00
0.00000000e+00 0.00000000e+00 0.00000000e+00
0.00000000e+00 0.00000000e+00 0.00000000e+00
0.00000000e+00 0.00000000e+00 0.00000000e+00
0.00000000e+00 0.00000000e+00 0.00000000e+00
0.00000000e+00 0.00000000e+00 0.00000000e+00
0.00000000e+00 0.00000000e+00 0.00000000e+00
0.00000000e+00 0.00000000e+00 0.00000000e+00
0.00000000e+00 0.00000000e+00 0.00000000e+00
0.00000000e+00 0.00000000e+00 0.00000000e+00
0.00000000e+00 0.00000000e+00 0.00000000e+00
0.00000000e+00 0.00000000e+00 0.00000000e+00
-6.97469190e-02 1.81306601e-02 -1.51188648e+00
0.00000000e+00 -6.10762462e-03 -3.00261307e+00
0.00000000e+00 0.00000000e+00 -5.90584660e+00
-2.02270865e-01 0.00000000e+00 -3.00698829e+00
0.00000000e+00 -1.14809513e-01 -2.94147444e+00
0.00000000e+00 0.00000000e+00 -5.68231726e+00
0.00000000e+00 -2.13711575e-01 -2.88595080e+00
0.00000000e+00 0.00000000e+00 -5.44620752e+00
0.00000000e+00 -2.36677885e-01 -2.88926172e+00
0.00000000e+00 0.00000000e+00 -5.26492167e+00
0.00000000e+00 -2.38534778e-01 -2.92887855e+00
0.00000000e+00 0.00000000e+00 -5.26232100e+00
0.00000000e+00 -1.39002666e-01 -1.48428154e+00
0.00000000e+00 0.00000000e+00 -2.69633508e+00
0.00000000e+00 0.00000000e+00 -6.62166071e+00
-1.66638017e-01 0.00000000e+00 -3.50500965e+00
0.00000000e+00 0.00000000e+00 -5.56962967e+00
0.00000000e+00 0.00000000e+00 -4.38498259e+00
0.00000000e+00 0.00000000e+00 -3.55186319e+00
0.00000000e+00 0.00000000e+00 -3.15403724e+00
0.00000000e+00 0.00000000e+00 -1.59367418e+00
0.00000000e+00 0.00000000e+00 -3.62238002e+00
-1.08529784e-01 0.00000000e+00 -1.99960363e+00
0.00000000e+00 0.00000000e+00 -3.83260465e+00
0.00000000e+00 0.00000000e+00 -2.69480348e+00
0.00000000e+00 0.00000000e+00 -1.13466585e+00
0.00000000e+00 0.00000000e+00 0.00000000e+00
0.00000000e+00 0.00000000e+00 -7.64119565e-01
0.00000000e+00 0.00000000e+00 0.00000000e+00
0.00000000e+00 0.00000000e+00 -2.88725883e-01
0.00000000e+00 0.00000000e+00 0.00000000e+00
0.00000000e+00 0.00000000e+00 -7.48177767e-01
0.00000000e+00 0.00000000e+00 -8.78186107e-01
0.00000000e+00 0.00000000e+00 0.00000000e+00
0.00000000e+00 0.00000000e+00 1.56165987e-01
0.00000000e+00 0.00000000e+00 0.00000000e+00
0.00000000e+00 0.00000000e+00 2.10680768e-01
0.00000000e+00 0.00000000e+00 0.00000000e+00
0.00000000e+00 0.00000000e+00 1.33743480e-01
4.20305282e-02 0.00000000e+00 -2.36295509e+00
0.00000000e+00 0.00000000e+00 -2.36295915e+00
0.00000000e+00 0.00000000e+00 -5.54865408e+00
2.92150676e-03 0.00000000e+00 -3.87661481e+00
0.00000000e+00 0.00000000e+00 -7.00535020e-03
0.00000000e+00 0.00000000e+00 -6.00085258e-01
0.00000000e+00 0.00000000e+00 -5.89617761e-04
0.00000000e+00 0.00000000e+00 -3.32655883e+00
-7.53484294e-02 0.00000000e+00 -1.63872433e+00
0.00000000e+00 0.00000000e+00 -2.94138026e+00
0.00000000e+00 0.00000000e+00 -3.08043671e+00
0.00000000e+00 0.00000000e+00 -1.82851505e+00
0.00000000e+00 0.00000000e+00 -1.98043334e+00
0.00000000e+00 0.00000000e+00 -7.16696560e-01
0.00000000e+00 0.00000000e+00 -6.18712790e-02
0.00000000e+00 0.00000000e+00 1.28056435e-02
</DataArray>
<DataArray type="Float32" Name="Equivalent_plastic_strain" format="ascii">
0.00000000e+00
0.00000000e+00
0.00000000e+00
0.00000000e+00
0.00000000e+00
0.00000000e+00
0.00000000e+00
0.00000000e+00
0.00000000e+00
0.00000000e+00
0.00000000e+00
0.00000000e+00
0.00000000e+00
0.00000000e+00
0.00000000e+00
0.00000000e+00
0.00000000e+00
0.00000000e+00
0.00000000e+00
0.00000000e+00
0.00000000e+00
0.00000000e+00
0.00000000e+00
0.00000000e+00
0.00000000e+00
0.00000000e+00
0.00000000e+00
0.00000000e+00
0.00000000e+00
0.00000000e+00
0.00000000e+00
0.00000000e+00
0.00000000e+00
0.00000000e+00
0.00000000e+00
0.00000000e+00
0.00000000e+00
0.00000000e+00
0.00000000e+00
0.00000000e+00
0.00000000e+00
0.00000000e+00
0.00000000e+00
0.00000000e+00
0.00000000e+00
0.00000000e+00
0.00000000e+00
0.00000000e+00
0.00000000e+00
0.00000000e+00
0.00000000e+00
0.00000000e+00
0.00000000e+00
0.00000000e+00
0.00000000e+00
0.00000000e+00
0.00000000e+00
0.00000000e+00
0.00000000e+00
0.00000000e+00
0.00000000e+00
0.00000000e+00
0.00000000e+00
0.00000000e+00
0.00000000e+00
0.00000000e+00
0.00000000e+00
0.00000000e+00
0.00000000e+00
0.00000000e+00
0.00000000e+00
0.00000000e+00
0.00000000e+00
0.00000000e+00
0.00000000e+00
0.00000000e+00
0.00000000e+00
0.00000000e+00
0.00000000e+00
0.00000000e+00
0.00000000e+00
0.00000000e+00
0.00000000e+00
0.00000000e+00
0.00000000e+00
0.00000000e+00
0.00000000e+00
0.00000000e+00
0.00000000e+00
0.00000000e+00
0.00000000e+00
0.00000000e+00
0.00000000e+00
0.00000000e+00
0.00000000e+00
0.00000000e+00
0.00000000e+00
0.00000000e+00
0.00000000e+00
0.00000000e+00
0.00000000e+00
0.00000000e+00
0.00000000e+00
0.00000000e+00
0.00000000e+00
0.00000000e+00
0.00000000e+00
0.00000000e+00
0.00000000e+00
0.00000000e+00
0.00000000e+00
0.00000000e+00
0.00000000e+00
0.00000000e+00
0.00000000e+00
0.00000000e+00
0.00000000e+00
0.00000000e+00
0.00000000e+00
0.00000000e+00
0.00000000e+00
0.00000000e+00
0.00000000e+00
0.00000000e+00
0.00000000e+00
0.00000000e+00
0.00000000e+00
0.00000000e+00
0.00000000e+00
0.00000000e+00
0.00000000e+00
0.00000000e+00
0.00000000e+00
0.00000000e+00
0.00000000e+00
0.00000000e+00
0.00000000e+00
0.00000000e+00
0.00000000e+00
0.00000000e+00
0.00000000e+00
0.00000000e+00
0.00000000e+00
0.00000000e+00
0.00000000e+00
0.00000000e+00
0.00000000e+00
0.00000000e+00
0.00000000e+00
0.00000000e+00
0.00000000e+00
0.00000000e+00
0.00000000e+00
0.00000000e+00
0.00000000e+00
0.00000000e+00
0.00000000e+00
0.00000000e+00
0.00000000e+00
0.00000000e+00
0.00000000e+00
0.00000000e+00
0.00000000e+00
0.00000000e+00
0.00000000e+00
0.00000000e+00
0.00000000e+00
0.00000000e+00
0.00000000e+00
0.00000000e+00
0.00000000e+00
0.00000000e+00
0.00000000e+00
0.00000000e+00
0.00000000e+00
0.00000000e+00
0.00000000e+00
0.00000000e+00
0.00000000e+00
0.00000000e+00
0.00000000e+00
0.00000000e+00
0.00000000e+00
0.00000000e+00
0.00000000e+00
0.00000000e+00
0.00000000e+00
0.00000000e+00
0.00000000e+00
0.00000000e+00
0.00000000e+00
</DataArray>
<DataArray type="Float32" Name="Stress_Mises" format="ascii">
5.07581961e+00
4.88931906e+00
5.78635740e+00
5.36102223e+00
4.65691447e+00
5.48952096e+00
5.98039639e+00
5.38317478e+00
5.22214568e+00
6.94673967e+00
7.70112721e+00
7.90612149e+00
1.86334029e-02
2.60854857e-02
2.54491307e-02
3.16763194e-02
1.30622173e-02
1.49388229e-02
1.74268894e-02
1.63290258e-02
5.60778117e+00
5.58343232e+00
5.59569222e+00
5.60483921e+00
5.79082942e+00
5.79335845e+00
5.87843138e+00
5.93984568e+00
5.49464643e+00
5.66125029e+00
5.75918758e+00
5.90679067e+00
5.47342026e+00
5.72641206e+00
5.68106556e+00
5.95053524e+00
5.51841700e+00
5.96738285e+00
5.66484499e+00
5.62031049e+00
5.57691956e+00
5.98162258e+00
5.60395586e+00
5.71138948e+00
5.52921820e+00
5.86077130e+00
5.58395267e+00
5.63733554e+00
5.53253543e+00
5.32230818e+00
6.34697723e+00
6.24283838e+00
6.31530823e+00
5.75350279e+00
8.39754877e+00
5.38657318e+00
7.22790229e+00
6.79180574e+00
6.27020383e+00
6.85222077e+00
6.17871380e+00
6.65314865e+00
5.70881755e+00
4.84293997e+00
5.76577663e+00
4.99099457e+00
9.57045174e+00
6.98663940e+00
1.00886431e+01
4.40842930e+00
5.30577305e+00
4.72182596e+00
4.94869447e+00
4.73910451e+00
5.10250080e+00
6.25469821e+00
6.25931132e+00
6.79173672e+00
8.72119331e+00
7.02968616e+00
5.39763117e+00
5.96721196e+00
6.00873971e+00
6.18858659e+00
8.12925005e+00
6.33437888e+00
5.99746084e+00
5.99003768e+00
6.05447674e+00
6.08864236e+00
6.00500154e+00
5.90948981e+00
5.98442733e+00
5.83443666e+00
5.90491450e+00
5.78351742e+00
5.88975942e+00
5.68004346e+00
5.95139742e+00
5.81026769e+00
6.62733483e+00
6.82320750e+00
5.80568260e+00
4.62132978e+00
4.66641290e+00
4.96314784e+00
5.05359379e+00
6.21963302e+00
7.32807175e+00
5.18860896e+00
3.84511952e+00
6.30251932e+00
1.82795885e+00
7.15738463e+00
7.44761070e+00
8.10160613e+00
8.15830557e+00
7.21123827e+00
6.60167634e+00
6.41892433e+00
7.67700315e+00
6.85333550e+00
4.85397863e+00
5.40063941e+00
3.95533752e+00
3.33949184e+00
1.74839215e+00
2.03948987e+00
9.73978043e-02
9.24730226e-02
4.54462431e-02
6.32283464e-02
3.28850690e-01
2.36577590e-01
7.32999146e-02
4.42541897e-01
6.07379484e+00
6.06108022e+00
6.08082640e+00
6.11209035e+00
6.04647756e+00
5.94685066e+00
6.08684468e+00
5.77771556e+00
6.10818529e+00
5.86214840e+00
6.11982918e+00
6.04880571e+00
6.29110765e+00
6.26504827e+00
6.12239802e+00
6.49569488e+00
5.59076166e+00
4.94937837e+00
3.99475217e+00
3.73055500e+00
3.98200965e+00
9.19617701e+00
9.52324486e+00
5.99679359e+00
2.76440674e+00
1.07411511e+00
1.88282838e+00
9.35464859e-01
1.65315482e+00
1.01552519e+00
4.79944885e+00
2.41433799e+00
7.14901686e+00
1.10207301e+00
5.56564977e-01
5.92201229e-01
3.69026210e-01
4.78848979e-01
5.77818364e-01
9.62580204e+00
1.08718319e+01
6.96533823e+00
7.19346046e+00
2.39107756e-01
8.21645876e-01
1.89543039e-01
7.16851187e+00
6.51803637e+00
6.79935265e+00
7.37564516e+00
4.24328709e+00
4.91918659e+00
1.36479914e+00
4.25144300e-01
2.26859570e-01
</DataArray>
<DataArray type="Float32" Name="Stress_Max_Principal" format="ascii">
1.76485442e-01
2.30026246e-01
2.03696445e-01
8.24136958e-02
-1.07470212e-01
2.53799788e-01
1.92245468e-02
1.31279966e-01
3.40321444e-01
5.60604274e-01
9.56024915e-01
5.20893462e-01
8.93616420e-03
1.31856473e-02
9.71958926e-03
1.68860145e-02
1.01917209e-02
1.14779975e-02
1.28580099e-02
1.20898467e-02
-5.16234599e-02
-1.11666070e-01
3.42374428e-02
2.82919423e-02
-5.10155044e-02
-6.03608389e-02
1.45602399e-02
4.97628711e-02
-3.05939196e-02
3.21255559e-02
-7.99956480e-02
4.41203893e-02
2.87604723e-02
-2.49309415e-02
-4.00860943e-02
9.63471921e-02
-2.72789691e-03
-3.96847106e-02
1.57444431e-02
4.14616955e-02
-3.79471076e-02
1.49124349e-02
4.95572258e-02
-3.75091396e-02
-4.81133386e-02
-3.13210124e-02
2.32887641e-02
-6.95866682e-02
8.22818195e-02
1.90530948e-01
3.65372720e-01
3.21472105e-01
2.09656477e-01
2.63249598e-01
1.11897847e+00
3.21687277e-01
3.19635013e-01
7.54496843e-01
1.01644825e-02
2.92723980e-01
6.92421570e-03
1.53569162e-01
3.25586979e-01
1.14715099e-03
5.06841647e-01
1.63764153e-01
2.07976243e+00
1.05870505e+00
3.59211493e+00
4.62826053e-01
1.31767522e-01
-7.17783850e-02
4.58783356e-01
2.81273820e-01
-1.52209178e-02
4.59707775e-01
6.15971729e-01
1.30067495e+00
1.93775117e+00
4.38561429e-01
1.06078740e-01
3.25088897e-01
3.69887844e-01
1.31509520e-01
1.08831795e+00
3.19201017e-01
1.75057821e-01
1.41590290e-01
2.34305374e-01
2.21023936e-01
2.00305544e-01
3.33275260e-01
3.19382593e-01
4.26078007e-01
3.03331330e-01
3.61501119e-01
3.09991222e-01
1.97787395e-01
3.83208022e-01
2.83528902e-01
5.41836035e-01
4.04262368e-01
5.35019450e-01
3.48060682e-01
4.89767090e-01
4.86071852e-01
4.72988213e-01
6.41152496e-01
8.97919893e-01
7.28230452e-01
6.41981304e-01
1.86390018e+00
5.06825662e-01
1.41459584e+00
1.08169180e+00
2.38723207e+00
8.46894612e-01
3.71609610e-01
2.78230623e-01
1.80118930e-01
9.64726865e-01
9.64009643e-01
7.66890455e-01
1.10579759e+00
1.33844185e+00
1.09718883e+00
7.81628311e-01
6.71505352e-01
4.81342599e-02
3.76658179e-02
2.30048839e-02
3.60956751e-02
2.32570110e-01
1.05923367e-01
3.30273118e-02
2.03988257e-01
2.57703245e-01
2.03165375e-01
4.22861144e-01
4.19858247e-01
2.81767808e-01
4.52790730e-01
5.16133890e-01
5.87361626e-01
6.15190357e-01
7.34332502e-01
6.00108534e-01
8.18327785e-01
7.43487716e-01
9.43806112e-01
3.70984063e-01
3.58065153e-01
6.96946815e-01
8.12685549e-01
6.19382933e-01
6.36284277e-01
7.47402757e-01
1.19988450e+00
9.26727235e-01
1.19090533e+00
5.95911525e-01
2.81610752e-01
9.62448075e-01
3.67864461e-01
7.73189336e-01
4.30305522e-01
2.50740838e+00
9.78199273e-01
2.14369106e+00
8.81143153e-01
4.92917041e-01
4.69461609e-01
2.94468228e-01
3.14105019e-01
2.83096109e-01
3.63941073e-01
1.00378001e+00
3.67312456e-01
1.78870782e-01
1.68094173e-01
3.66256818e-01
7.31101129e-02
9.11323339e-01
5.52416325e-01
8.88901293e-01
1.47898704e+00
7.68298626e-01
1.13246626e+00
4.46016036e-01
1.28225964e-01
1.08071089e-01
</DataArray>
<DataArray type="Float32" Name="Stress_Mid_Principal" format="ascii">
-2.26524460e-01
-2.50185543e-01
-2.05502944e-01
-1.68499083e-01
-6.33442754e-01
-6.96867513e-01
-6.88428001e-01
-5.25610767e-01
-6.98094144e-02
6.53878534e-02
-1.34946927e-01
-5.63872905e-01
-4.59265240e-03
-4.41662071e-03
1.07760308e-03
-5.49712239e-03
-2.02104318e-04
-8.08247074e-04
-4.79440729e-04
-1.10816953e-04
-2.19488502e-01
-2.15474475e-01
-3.97477055e-01
-2.92461202e-01
-7.55829066e-02
-7.59460316e-02
-8.89778291e-02
-1.06601683e-01
-4.24201354e-01
-6.26001656e-01
-1.03086827e-01
-7.14029323e-02
-5.61016537e-01
-6.91812072e-01
-1.90035485e-01
-1.59191363e-01
-5.19338839e-01
-3.80978700e-01
-2.07640314e-01
-4.36817497e-01
-3.63840155e-01
-2.17097634e-01
-2.07695753e-01
-2.72565505e-01
-3.19401324e-01
-1.57545149e-01
-1.49692492e-01
-2.38128956e-01
-7.53701214e-01
-5.94178893e-01
6.89284131e-03
2.17452354e-03
-6.27454280e-01
-9.45286443e-02
-1.56394547e-01
-2.80959480e-01
-1.06947604e-01
-2.04450925e-01
-8.98881331e-02
-6.91733472e-02
-2.78349323e-02
6.24475768e-04
-7.45187118e-01
-6.11375723e-01
-6.23967562e-02
-1.54042436e-01
-1.60666421e-01
2.51472917e-01
-7.82144189e-01
-4.94955193e-01
-2.92062072e-01
-4.55773219e-01
-5.88536291e-01
-3.07226174e-01
-3.38699216e-01
-3.74801733e-01
-2.75622938e-01
-2.72806168e-01
6.98603690e-03
-5.72634539e-01
-4.66067538e-01
-6.37362495e-01
-6.71114445e-01
-8.45098764e-01
2.40477373e-01
-1.66005214e-01
-1.06265195e-01
-3.66948093e-02
-1.13909727e-01
-1.49920635e-01
-5.52231469e-03
-1.30914862e-01
-7.52152531e-02
-1.13585611e-01
-5.75140235e-02
-6.91132555e-02
-1.00981724e-02
-2.66741832e-02
-8.28885846e-03
-4.32114974e-02
-3.16546155e-02
-9.97770578e-03
-4.33967896e-02
-1.89589046e-01
-1.10092176e-01
9.07766976e-02
1.36137307e-01
1.38897345e-01
5.19510776e-01
-2.50877727e-01
-6.16229127e-02
-3.95884633e-01
-3.46670875e-01
-2.36159954e-01
1.65695204e-01
2.71609999e-01
1.70468335e-01
-2.68993601e-02
-1.80672273e-01
-2.31030904e-01
1.65461367e-01
-4.35948476e-01
-4.30244803e-02
-5.79161793e-02
-3.47281843e-01
-5.41404188e-01
-3.91179635e-01
-3.66176850e-01
1.33908559e-02
2.31814962e-02
5.28169330e-03
4.64621058e-04
-9.22679082e-03
-1.04127396e-02
-2.04304203e-02
1.97134016e-02
-1.22743681e-01
-2.18147552e-02
-2.29964953e-01
-3.03358756e-01
1.57228193e-02
-1.27006529e-01
-8.41675438e-02
-1.50857294e-01
-1.26191068e-01
-9.11198873e-02
-7.22444970e-02
-2.37362459e-03
-9.02697295e-02
9.28448886e-03
-6.21180750e-01
-6.99918836e-01
-5.51370710e-01
-3.01440667e-01
-1.42815039e-01
-1.01805121e-01
-3.60632241e-02
1.47158063e-01
1.13278188e-01
-4.38101095e-01
-5.08757666e-01
-1.74114466e-01
-3.31296812e-01
-2.34207724e-01
-1.22772157e-01
-2.01283209e-01
-1.06125091e+00
-6.98080052e-01
9.24570262e-02
-1.26645519e-02
1.87357525e-01
2.75063361e-02
1.56193687e-01
6.78162808e-02
1.95100478e-01
-1.93937849e-02
1.58825502e-01
-4.64183881e-01
-5.39583102e-01
4.12893966e-02
-1.38726292e-01
-2.30205208e-02
-2.18316838e-01
-4.48662788e-01
1.83130972e-01
-8.81844573e-02
-4.92561758e-02
-6.98423386e-03
-2.38352098e-01
7.76004717e-02
-2.96936575e-02
</DataArray>
<DataArray type="Float32" Name="Stress_Min_Principal" format="ascii">
-5.08828741e+00
-4.88123143e+00
-5.77629542e+00
-5.39902210e+00
-5.00140613e+00
-5.64724411e+00
-6.27173746e+00
-5.54688525e+00
-5.07295847e+00
-6.62043643e+00
-7.21884791e+00
-7.87128758e+00
-1.23125715e-02
-1.67383109e-02
-1.87662262e-02
-1.93579737e-02
-4.47080517e-03
-5.15104691e-03
-6.85988320e-03
-6.46018283e-03
-5.74145246e+00
-5.74625742e+00
-5.76321656e+00
-5.72979546e+00
-5.85408974e+00
-5.86149621e+00
-5.91469693e+00
-5.96594894e+00
-5.71142983e+00
-5.92877537e+00
-5.85069382e+00
-5.91947466e+00
-5.71548176e+00
-6.05486023e+00
-5.79463780e+00
-5.97777617e+00
-5.76127660e+00
-6.16716367e+00
-5.75747943e+00
-5.80035520e+00
-5.77066708e+00
-6.07859683e+00
-5.67856371e+00
-5.86207658e+00
-5.70798206e+00
-5.95388603e+00
-5.64514303e+00
-5.78832686e+00
-5.81980616e+00
-5.48047245e+00
-6.15090549e+00
-6.07475185e+00
-6.47902094e+00
-5.65749317e+00
-7.82604942e+00
-5.33404779e+00
-7.10500360e+00
-6.46148491e+00
-6.30938554e+00
-6.73114812e+00
-6.18909550e+00
-6.57473302e+00
-5.82890497e+00
-5.11849439e+00
-5.51971797e+00
-4.97441399e+00
-8.40910542e+00
-6.25148258e+00
-7.94542170e+00
-4.24363176e+00
-5.36848457e+00
-4.97223377e+00
-4.91704933e+00
-4.72313321e+00
-5.27098346e+00
-6.16536318e+00
-6.03968477e+00
-6.04464185e+00
-7.58696055e+00
-7.03518896e+00
-5.55482650e+00
-6.06320143e+00
-6.09130239e+00
-6.48572803e+00
-7.41869974e+00
-6.24309015e+00
-5.95811367e+00
-5.93543613e+00
-5.98667282e+00
-6.04460812e+00
-5.90484023e+00
-5.79389375e+00
-5.85255468e+00
-5.65930271e+00
-5.77372932e+00
-5.62510604e+00
-5.73327577e+00
-5.59046036e+00
-5.75427246e+00
-5.68319404e+00
-6.35339355e+00
-6.61340952e+00
-5.53712034e+00
-4.51613587e+00
-4.44639931e+00
-4.65918847e+00
-4.74029342e+00
-5.81253179e+00
-6.61176777e+00
-4.85699677e+00
-3.50127586e+00
-5.25696707e+00
-1.57757556e+00
-6.38533258e+00
-6.77814770e+00
-6.56183553e+00
-7.60722820e+00
-7.02998865e+00
-6.53977084e+00
-6.43447852e+00
-7.07954621e+00
-6.47742856e+00
-4.43971431e+00
-4.76373720e+00
-3.18048382e+00
-2.74509716e+00
-1.20176872e+00
-1.64421523e+00
-6.18711524e-02
-6.11946434e-02
-2.86326054e-02
-3.69072184e-02
-1.37716877e-01
-1.59044998e-01
-5.04642576e-02
-2.99831924e-01
-5.99737215e+00
-5.96706533e+00
-5.95392716e+00
-6.01828980e+00
-5.89292169e+00
-5.76123774e+00
-5.84848118e+00
-5.52375019e+00
-5.82981825e+00
-5.49670541e+00
-5.82794166e+00
-5.59887803e+00
-5.92292452e+00
-5.73580098e+00
-6.18179834e+00
-6.59730268e+00
-5.41098034e+00
-4.59735584e+00
-3.69166422e+00
-3.38554800e+00
-3.54953361e+00
-8.47469807e+00
-8.97714996e+00
-5.44655387e+00
-2.54556391e+00
-9.32034463e-01
-1.17885901e+00
-6.81363240e-01
-1.13203172e+00
-7.10636377e-01
-2.94873971e+00
-1.78269684e+00
-5.80672026e+00
-3.34718943e-01
-1.46514094e-01
-1.62354108e-01
-1.16047673e-01
-2.30625547e-01
-3.26901421e-01
-9.44780254e+00
-1.02658749e+01
-6.97582229e+00
-7.34316754e+00
-1.02265624e-01
-5.79514742e-01
-1.45217754e-01
-6.75039697e+00
-6.40824604e+00
-6.23526454e+00
-6.55402923e+00
-3.81446350e+00
-4.22090018e+00
-1.12133351e+00
-3.19848821e-01
-1.53764442e-01
</DataArray>
<DataArray type="Float32" Name="Stress_Pressure" format="ascii">
1.71277548e+00
1.63379693e+00
1.92603400e+00
1.82836917e+00
1.91410638e+00
2.03010396e+00
2.31364694e+00
1.98040536e+00
1.60081547e+00
1.99814802e+00
2.13258998e+00
2.63808906e+00
2.65635323e-03
2.65642826e-03
2.65634450e-03
2.65636074e-03
-1.83960376e-03
-1.83956791e-03
-1.83956209e-03
-1.83961564e-03
2.00418818e+00
2.02446595e+00
2.04215205e+00
1.99798828e+00
1.99356258e+00
1.99926767e+00
1.99637148e+00
2.00759587e+00
2.05540836e+00
2.17421710e+00
2.01125878e+00
1.98225242e+00
2.08257926e+00
2.25720108e+00
2.00825310e+00
2.01354010e+00
2.09444773e+00
2.19594231e+00
1.98312509e+00
2.06523700e+00
2.05748475e+00
2.09359401e+00
1.94556743e+00
2.05738376e+00
2.02516544e+00
2.04758412e+00
1.92384893e+00
2.03201419e+00
2.16374183e+00
1.96137348e+00
1.92621331e+00
1.91703504e+00
2.29893953e+00
1.82959075e+00
2.28782184e+00
1.76444006e+00
2.29743874e+00
1.97047958e+00
2.12970304e+00
2.16919917e+00
2.07000208e+00
2.14017975e+00
2.08283501e+00
1.90957430e+00
1.69175768e+00
1.65489742e+00
2.16333652e+00
1.64710155e+00
1.71181703e+00
1.42525367e+00
1.84292637e+00
1.83326179e+00
1.68226750e+00
1.58302854e+00
1.87496790e+00
2.02681908e+00
1.89977869e+00
1.67225772e+00
1.88074112e+00
2.38975401e+00
1.97160512e+00
2.12515837e+00
2.13084292e+00
2.39977241e+00
2.02996816e+00
2.02996478e+00
1.96310705e+00
1.94351357e+00
1.95542569e+00
1.99116829e+00
1.90335235e+00
1.86384442e+00
1.86946249e+00
1.78227012e+00
1.84263736e+00
1.77757274e+00
1.81112754e+00
1.80644907e+00
1.79311776e+00
1.81429219e+00
1.94773743e+00
2.07304162e+00
1.68183257e+00
1.45255476e+00
1.35557479e+00
1.36077996e+00
1.37705595e+00
1.67749399e+00
1.73144571e+00
1.45988133e+00
9.73639118e-01
1.26298380e+00
4.72473593e-01
1.73563226e+00
1.84358684e+00
1.30099785e+00
2.19662176e+00
2.22842616e+00
2.14740419e+00
2.16179681e+00
1.98311937e+00
1.98312253e+00
1.23861611e+00
1.23861861e+00
7.29774654e-01
7.29770839e-01
2.70440005e-01
4.46295573e-01
1.15344497e-04
1.15776515e-04
1.15342751e-04
1.15640309e-04
-2.85421489e-02
2.11781236e-02
1.26224559e-02
2.53767532e-02
1.95413756e+00
1.92857158e+00
1.92034364e+00
1.96726340e+00
1.86514378e+00
1.81181791e+00
1.80550498e+00
1.69574866e+00
1.78027296e+00
1.61783093e+00
1.76669258e+00
1.59430799e+00
1.75656891e+00
1.59423679e+00
2.14399844e+00
2.31305218e+00
1.75513479e+00
1.36203702e+00
1.07169876e+00
9.50356275e-01
9.46064711e-01
2.37588513e+00
2.64571500e+00
1.56458318e+00
8.19469992e-01
2.74846055e-01
1.82569249e-01
1.82568830e-01
1.60538189e-01
1.60538018e-01
5.00860758e-01
5.00859208e-01
1.19019067e+00
-1.77919877e-01
-1.77920158e-01
-1.11537948e-01
-1.11538080e-01
-5.04319128e-02
-5.04317209e-02
3.03441834e+00
3.03442311e+00
2.35756461e+00
2.56795990e+00
-3.57059790e-02
1.17328076e-01
3.17093860e-02
2.01913023e+00
2.10149741e+00
1.72107744e+00
1.72107559e+00
1.03180701e+00
1.03180605e+00
3.04556528e-01
3.80074615e-02
2.51290016e-02
</DataArray>
<DataArray type="Float32" Name="Stress_Tresca" format="ascii">
5.26477283e+00
5.11125761e+00
5.97999191e+00
5.48143566e+00
4.89393580e+00
5.90104389e+00
6.29096198e+00
5.67816520e+00
5.41327989e+00
7.18104076e+00
8.17487272e+00
8.39218092e+00
2.12487355e-02
2.99239587e-02
2.84858160e-02
3.62439891e-02
1.46625265e-02
1.66290440e-02
1.97178926e-02
1.85500290e-02
5.68982911e+00
5.63459134e+00
5.79745406e+00
5.75808740e+00
5.80307412e+00
5.80113542e+00
5.92925715e+00
6.01571190e+00
5.68083584e+00
5.96090090e+00
5.77069807e+00
5.96359503e+00
5.74424219e+00
6.02992928e+00
5.75455165e+00
6.07412338e+00
5.75854874e+00
6.12747896e+00
5.77322388e+00
5.84181690e+00
5.73272002e+00
6.09350932e+00
5.72812092e+00
5.82456738e+00
5.65986872e+00
5.92256498e+00
5.66843200e+00
5.71874011e+00
5.90208793e+00
5.67100322e+00
6.51627827e+00
6.39622390e+00
6.68867745e+00
5.92074281e+00
8.94502792e+00
5.65573515e+00
7.42463851e+00
7.21598177e+00
6.31955004e+00
7.02387214e+00
6.19601965e+00
6.72830224e+00
6.15449197e+00
5.11964154e+00
6.02655963e+00
5.13817811e+00
1.04888678e+01
7.31018772e+00
1.15375366e+01
4.70645777e+00
5.50025211e+00
4.90045536e+00
5.37583264e+00
5.00440693e+00
5.25576258e+00
6.62507098e+00
6.65565646e+00
7.34531677e+00
9.52471161e+00
7.47375040e+00
5.66090536e+00
6.38829029e+00
6.46119046e+00
6.61723757e+00
8.50701777e+00
6.56229115e+00
6.13317156e+00
6.07702649e+00
6.22097820e+00
6.26563227e+00
6.10514569e+00
6.12716895e+00
6.17193723e+00
6.08538073e+00
6.07706070e+00
5.98660719e+00
6.04326701e+00
5.78824770e+00
6.13748050e+00
5.96672285e+00
6.89522958e+00
7.01767194e+00
6.07213974e+00
4.86419654e+00
4.93616635e+00
5.14526033e+00
5.21328179e+00
6.45368425e+00
7.50968774e+00
5.58522725e+00
4.14325722e+00
7.12086725e+00
2.08440120e+00
7.79992843e+00
7.85983960e+00
8.94906759e+00
8.45412270e+00
7.40159833e+00
6.81800151e+00
6.61459756e+00
8.04427314e+00
7.44143820e+00
5.20660472e+00
5.86953473e+00
4.51892567e+00
3.84228611e+00
1.98339704e+00
2.31572056e+00
1.10005409e-01
9.88604575e-02
5.16374893e-02
7.30028898e-02
3.70286983e-01
2.64968365e-01
8.34915712e-02
5.03820181e-01
6.25507545e+00
6.17023063e+00
6.37678826e+00
6.43814802e+00
6.17468953e+00
6.21402848e+00
6.36461496e+00
6.11111188e+00
6.44500852e+00
6.23103797e+00
6.42805028e+00
6.41720581e+00
6.66641235e+00
6.67960715e+00
6.55278242e+00
6.95536780e+00
6.10792696e+00
5.41004145e+00
4.31104720e+00
4.02183229e+00
4.29693627e+00
9.67458248e+00
9.90387726e+00
6.63745928e+00
3.14147550e+00
1.21364522e+00
2.14130706e+00
1.04922771e+00
1.90522110e+00
1.14094189e+00
5.45614815e+00
2.76089609e+00
7.95041132e+00
1.21586208e+00
6.39431129e-01
6.31815728e-01
4.10515912e-01
5.44730574e-01
6.09997511e-01
9.81174374e+00
1.12696552e+01
7.34313488e+00
7.52203822e+00
2.70359796e-01
9.45771575e-01
2.18327865e-01
7.66172028e+00
6.96066236e+00
7.12416601e+00
8.03301620e+00
4.58276224e+00
5.35336661e+00
1.56734955e+00
4.48074773e-01
2.61835515e-01
</DataArray>
<DataArray type="Float32" Name="Stress_Third_Invariant" format="ascii">
-5.03798521e+00
-4.83443612e+00
-5.75335383e+00
-5.34585941e+00
-4.57787383e+00
-5.29374238e+00
-5.84744430e+00
-5.28131974e+00
-5.18010175e+00
-6.90668702e+00
-7.47810523e+00
-7.73503089e+00
1.42757688e-02
1.67607046e-02
-2.09191665e-02
2.32167598e-02
1.13255810e-02
1.34044094e-02
1.44238891e-02
1.30844442e-02
-5.60212421e+00
-5.58119631e+00
-5.55314451e+00
-5.58340275e+00
-5.79071164e+00
-5.79331112e+00
-5.87560022e+00
-5.93288910e+00
-5.46269906e+00
-5.57216114e+00
-5.75908256e+00
-5.90391779e+00
-5.40066421e+00
-5.63577342e+00
-5.67659724e+00
-5.93797612e+00
-5.46359158e+00
-5.93555325e+00
-5.65489507e+00
-5.56699610e+00
-5.55543530e+00
-5.96924508e+00
-5.59055316e+00
-5.69831419e+00
-5.51421452e+00
-5.85681403e+00
-5.57791471e+00
-5.62872195e+00
-5.38484156e+00
-5.18945229e+00
-6.31702071e+00
-6.22401381e+00
-6.17759262e+00
-5.71832037e+00
-8.11644039e+00
-5.28833103e+00
-7.17782879e+00
-6.62274590e+00
-6.26816297e+00
-6.82421911e+00
-6.17849398e+00
-6.64919043e+00
-5.42603213e+00
-4.75327671e+00
-5.69344616e+00
-4.95554221e+00
-8.93987381e+00
-6.72168970e+00
-7.45876789e+00
-3.35132456e+00
-5.25298412e+00
-4.68144727e+00
-4.64015222e+00
-4.65115464e+00
-5.07697284e+00
-6.11141321e+00
-6.10864723e+00
-5.88049614e+00
-8.21916914e+00
-6.84053392e+00
-5.32874298e+00
-5.78323221e+00
-5.80051851e+00
-6.00628066e+00
-7.98700809e+00
-6.29010455e+00
-5.98258758e+00
-5.98357105e+00
-6.03160787e+00
-6.06313479e+00
-5.99668550e+00
-5.86602998e+00
-5.95497942e+00
-5.77745384e+00
-5.88002717e+00
-5.74672735e+00
-5.87011135e+00
-5.66794097e+00
-5.92232156e+00
-5.78948057e+00
-6.57050020e+00
-6.78502631e+00
-5.73690748e+00
-4.54249966e+00
-4.57471105e+00
-4.91602767e+00
-5.02729384e+00
-6.16805824e+00
-7.30526066e+00
-4.88747863e+00
-3.67856332e+00
-5.26793289e+00
-8.58611017e-01
-6.55426478e+00
-7.30838092e+00
-7.43925953e+00
-8.02789847e+00
-7.18448448e+00
-6.56212795e+00
-6.38914156e+00
-7.57912207e+00
-6.50638759e+00
-4.69366848e+00
-5.04085195e+00
-2.96903205e+00
-2.10767651e+00
4.59262893e-01
-2.41906057e-01
-8.15979987e-02
-8.98676440e-02
-3.63521166e-02
-2.18532868e-02
2.00118352e-01
-3.09112370e-02
5.62865064e-02
-3.29432090e-01
-6.04690027e+00
-6.05105066e+00
-5.98830545e+00
-6.00398993e+00
-6.03202128e+00
-5.87813926e+00
-6.01927471e+00
-5.66941142e+00
-6.00561643e+00
-5.72892821e+00
-6.03529358e+00
-5.92144525e+00
-6.16496992e+00
-6.10460019e+00
-5.92043364e+00
-6.28284335e+00
-5.25787258e+00
-4.64909887e+00
-3.79117447e+00
-3.48045254e+00
-3.73724222e+00
-9.05074644e+00
-9.44460773e+00
-5.44198640e+00
-2.13842383e+00
-4.49747398e-01
7.51915917e-01
2.72700898e-01
-5.46154618e-01
-3.15787196e-02
3.81861722e+00
1.65378219e+00
-6.43530226e+00
9.39710548e-01
-1.19919514e-01
2.41433952e-01
-2.32267097e-01
9.21334326e-03
-5.33973813e-01
-9.60860634e+00
-1.07975883e+01
-6.85034625e+00
-7.10055280e+00
-2.30761170e-02
5.27668397e-02
-1.11264016e-01
-6.94898343e+00
-6.34161425e+00
-6.71450019e+00
-6.98518276e+00
-4.02599990e+00
-4.47285843e+00
-3.68808866e-01
-4.17916432e-01
1.01828404e-01
</DataArray>
<DataArray type="Float32" Name="Logarithmic_strain_Max_Principal" format="ascii">
2.49029183e-05
2.53211431e-05
2.81306766e-05
2.41502312e-05
2.04630140e-05
3.04530918e-05
2.81649734e-05
2.66243655e-05
2.71007739e-05
3.75743530e-05
4.86767640e-05
4.40996519e-05
2.66157720e-07
4.55428051e-07
2.43108193e-07
3.60422050e-07
7.24018207e-07
1.92683231e-07
2.07847791e-07
1.70235296e-07
2.25594322e-05
2.15300693e-05
2.53077696e-05
2.46002478e-05
2.24880068e-05
2.27553055e-05
2.43444151e-05
2.53273365e-05
2.39130432e-05
2.70876592e-05
2.22313947e-05
2.48384581e-05
2.56269477e-05
2.64738537e-05
2.31451122e-05
2.65932690e-05
2.50257640e-05
2.57381378e-05
2.40983604e-05
2.57161732e-05
2.39239707e-05
2.53981118e-05
2.44294110e-05
2.38294615e-05
2.30527685e-05
2.40044519e-05
2.37011100e-05
2.28710778e-05
2.80185188e-05
2.80393506e-05
3.18333698e-05
3.06529437e-05
3.28760283e-05
2.81802229e-05
5.45126553e-05
2.87083622e-05
3.52722100e-05
4.18438649e-05
2.62884719e-05
3.29020068e-05
2.48112901e-05
2.92367422e-05
3.28312812e-05
2.31053641e-05
3.24758135e-05
2.37255310e-05
7.57874277e-05
4.52449396e-05
1.06591651e-04
2.80872580e-05
2.54662277e-05
2.01155190e-05
3.11456818e-05
2.59887349e-05
2.20663069e-05
3.52799520e-05
3.79062094e-05
5.15339552e-05
6.89544922e-05
3.93537201e-05
2.64513446e-05
3.33770126e-05
3.43987886e-05
3.21188932e-05
5.06889810e-05
3.21019628e-05
2.77660884e-05
2.68629851e-05
2.91617134e-05
2.93850471e-05
2.79204310e-05
3.02970661e-05
2.97010138e-05
3.15851757e-05
2.94164315e-05
2.99208989e-05
2.93218864e-05
2.63516474e-05
3.06661914e-05
2.87083644e-05
3.63994252e-05
3.44538116e-05
3.30285475e-05
2.58778246e-05
2.80560876e-05
2.79884195e-05
2.77911501e-05
3.55696772e-05
4.24048631e-05
3.50684838e-05
2.69213497e-05
5.97368235e-05
1.77816296e-05
5.48890766e-05
4.79782539e-05
7.28370360e-05
4.66838277e-05
3.57724462e-05
3.22980904e-05
3.03416173e-05
4.68396029e-05
4.69803281e-05
3.31056726e-05
4.15962550e-05
4.08439591e-05
3.52556708e-05
2.19955614e-05
2.14932297e-05
9.54932261e-07
1.38649000e-06
5.85862892e-07
1.00329225e-06
5.18851912e-06
2.78998588e-06
5.11234560e-07
4.91389401e-06
2.97630559e-05
2.82161809e-05
3.32153541e-05
3.36152680e-05
2.89489053e-05
3.25536107e-05
3.40039514e-05
3.45188719e-05
3.63495346e-05
3.70994812e-05
3.52791121e-05
3.86108231e-05
3.86725551e-05
4.16696275e-05
3.45860558e-05
3.66212962e-05
3.77483157e-05
3.55961593e-05
2.78153875e-05
2.66456009e-05
2.93174689e-05
5.73507368e-05
5.41593108e-05
4.73903771e-05
2.42610913e-05
1.03366103e-05
2.51201291e-05
1.10059852e-05
2.04402550e-05
1.22727472e-05
6.63846004e-05
2.92595860e-05
6.59660800e-05
1.91504290e-05
9.80702180e-06
9.99403449e-06
5.82119344e-06
6.98864631e-06
6.04152945e-06
4.53874309e-05
6.08803966e-05
3.69660138e-05
3.51274175e-05
3.38646953e-06
1.01258577e-05
2.48585866e-06
4.57990991e-05
3.88601657e-05
4.20640026e-05
5.62734040e-05
3.10607520e-05
3.92604743e-05
1.44592814e-05
3.68718770e-06
2.68379040e-06
</DataArray>
<DataArray type="Float32" Name="Logarithmic_strain_Min_Principal" format="ascii">
-1.01513172e-04
-9.74117629e-05
-1.15560842e-04
-1.07684382e-04
-9.70378160e-05
-1.11134074e-04
-1.22771233e-04
-1.09254685e-04
-1.02453921e-04
-1.34978822e-04
-1.47661529e-04
-1.56924725e-04
-3.15793002e-07
-3.29543511e-07
-6.35032166e-07
-6.03688775e-07
-6.27963672e-08
-3.08597635e-07
-4.91276182e-07
-6.97323344e-07
-1.13705017e-04
-1.13580731e-04
-1.13685074e-04
-1.13764832e-04
-1.16751446e-04
-1.16483816e-04
-1.18080747e-04
-1.18893928e-04
-1.12382568e-04
-1.16130806e-04
-1.16033892e-04
-1.18272295e-04
-1.12016305e-04
-1.18328813e-04
-1.15011193e-04
-1.19219610e-04
-1.13096728e-04
-1.21510147e-04
-1.14152019e-04
-1.14518963e-04
-1.13742279e-04
-1.20705703e-04
-1.13043452e-04
-1.15933726e-04
-1.12717724e-04
-1.18251786e-04
-1.12202713e-04
-1.14462729e-04
-1.13748391e-04
-1.07905729e-04
-1.24451851e-04
-1.22797790e-04
-1.27823397e-04
-1.13791250e-04
-1.60220778e-04
-1.06689301e-04
-1.42999357e-04
-1.31540472e-04
-1.25576131e-04
-1.35511051e-04
-1.23835831e-04
-1.32032677e-04
-1.14888910e-04
-9.99997083e-05
-1.12175137e-04
-9.93403082e-05
-1.75884186e-04
-1.30117191e-04
-1.70051775e-04
-8.49077405e-05
-1.06567225e-04
-9.73116512e-05
-9.77828834e-05
-9.42209826e-05
-1.04116594e-04
-1.23519055e-04
-1.22165726e-04
-1.24888438e-04
-1.59235213e-04
-1.40299682e-04
-1.09794455e-04
-1.20177659e-04
-1.20433298e-04
-1.26756067e-04
-1.53127000e-04
-1.25767966e-04
-1.19630335e-04
-1.18971031e-04
-1.20132490e-04
-1.21186024e-04
-1.18890159e-04
-1.16472437e-04
-1.18104794e-04
-1.14479956e-04
-1.16645093e-04
-1.13531616e-04
-1.15677583e-04
-1.12569376e-04
-1.16708714e-04
-1.14532008e-04
-1.29137967e-04
-1.33698242e-04
-1.12864285e-04
-9.08871352e-05
-9.04205122e-05
-9.51707674e-05
-9.76511947e-05
-1.19268344e-04
-1.37827245e-04
-9.89636016e-05
-7.24625473e-05
-1.10838497e-04
-3.23891411e-05
-1.32589561e-04
-1.40684841e-04
-1.41648903e-04
-1.56088858e-04
-1.41945067e-04
-1.31278042e-04
-1.28245127e-04
-1.46167942e-04
-1.31569323e-04
-9.18511741e-05
-9.95142127e-05
-6.76672717e-05
-5.71001838e-05
-2.53827538e-05
-3.42604380e-05
-1.40331861e-06
-1.83898487e-06
-5.17094747e-07
-4.47046148e-07
-3.53027863e-06
-3.77110905e-06
-9.25230466e-07
-6.88590217e-06
-1.20577592e-04
-1.19803401e-04
-1.19749535e-04
-1.20965808e-04
-1.19215456e-04
-1.16640778e-04
-1.19152206e-04
-1.12116939e-04
-1.18715645e-04
-1.12620335e-04
-1.18809756e-04
-1.15096851e-04
-1.20947770e-04
-1.18553689e-04
-1.22713311e-04
-1.30256201e-04
-1.08721728e-04
-9.42141487e-05
-7.57371490e-05
-7.00186483e-05
-7.38399176e-05
-1.74904286e-04
-1.83935117e-04
-1.12061343e-04
-5.11765211e-05
-1.89942966e-05
-2.60953552e-05
-1.42834469e-05
-2.54043248e-05
-1.52246016e-05
-6.46826174e-05
-3.70100697e-05
-1.25477236e-04
-1.00918674e-05
-5.60806567e-06
-5.30507737e-06
-4.13007506e-06
-6.05114360e-06
-8.40299617e-06
-1.90596591e-04
-2.09456688e-04
-1.39197800e-04
-1.45493039e-04
-2.94165446e-06
-1.25937813e-05
-2.91390847e-06
-1.37828414e-04
-1.28517757e-04
-1.28675551e-04
-1.36545081e-04
-7.91200619e-05
-8.91780146e-05
-2.30823380e-05
-6.92423100e-06
-3.49745255e-06
</DataArray>
<DataArray type="Float32" Name="Plastic_strain_Max_Principal" format="ascii">
0.00000000e+00
0.00000000e+00
0.00000000e+00
0.00000000e+00
0.00000000e+00
0.00000000e+00
0.00000000e+00
0.00000000e+00
0.00000000e+00
0.00000000e+00
0.00000000e+00
0.00000000e+00
0.00000000e+00
0.00000000e+00
0.00000000e+00
0.00000000e+00
0.00000000e+00
0.00000000e+00
0.00000000e+00
0.00000000e+00
0.00000000e+00
0.00000000e+00
0.00000000e+00
0.00000000e+00
0.00000000e+00
0.00000000e+00
0.00000000e+00
0.00000000e+00
0.00000000e+00
0.00000000e+00
0.00000000e+00
0.00000000e+00
0.00000000e+00
0.00000000e+00
0.00000000e+00
0.00000000e+00
0.00000000e+00
0.00000000e+00
0.00000000e+00
0.00000000e+00
0.00000000e+00
0.00000000e+00
0.00000000e+00
0.00000000e+00
0.00000000e+00
0.00000000e+00
0.00000000e+00
0.00000000e+00
0.00000000e+00
0.00000000e+00
0.00000000e+00
0.00000000e+00
0.00000000e+00
0.00000000e+00
0.00000000e+00
0.00000000e+00
0.00000000e+00
0.00000000e+00
0.00000000e+00
0.00000000e+00
0.00000000e+00
0.00000000e+00
0.00000000e+00
0.00000000e+00
0.00000000e+00
0.00000000e+00
0.00000000e+00
0.00000000e+00
0.00000000e+00
0.00000000e+00
0.00000000e+00
0.00000000e+00
0.00000000e+00
0.00000000e+00
0.00000000e+00
0.00000000e+00
0.00000000e+00
0.00000000e+00
0.00000000e+00
0.00000000e+00
0.00000000e+00
0.00000000e+00
0.00000000e+00
0.00000000e+00
0.00000000e+00
0.00000000e+00
0.00000000e+00
0.00000000e+00
0.00000000e+00
0.00000000e+00
0.00000000e+00
0.00000000e+00
0.00000000e+00
0.00000000e+00
0.00000000e+00
0.00000000e+00
0.00000000e+00
0.00000000e+00
0.00000000e+00
0.00000000e+00
0.00000000e+00
0.00000000e+00
0.00000000e+00
0.00000000e+00
0.00000000e+00
0.00000000e+00
0.00000000e+00
0.00000000e+00
0.00000000e+00
0.00000000e+00
0.00000000e+00
0.00000000e+00
0.00000000e+00
0.00000000e+00
0.00000000e+00
0.00000000e+00
0.00000000e+00
0.00000000e+00
0.00000000e+00
0.00000000e+00
0.00000000e+00
0.00000000e+00
0.00000000e+00
0.00000000e+00
0.00000000e+00
0.00000000e+00
0.00000000e+00
0.00000000e+00
0.00000000e+00
0.00000000e+00
0.00000000e+00
0.00000000e+00
0.00000000e+00
0.00000000e+00
0.00000000e+00
0.00000000e+00
0.00000000e+00
0.00000000e+00
0.00000000e+00
0.00000000e+00
0.00000000e+00
0.00000000e+00
0.00000000e+00
0.00000000e+00
0.00000000e+00
0.00000000e+00
0.00000000e+00
0.00000000e+00
0.00000000e+00
0.00000000e+00
0.00000000e+00
0.00000000e+00
0.00000000e+00
0.00000000e+00
0.00000000e+00
0.00000000e+00
0.00000000e+00
0.00000000e+00
0.00000000e+00
0.00000000e+00
0.00000000e+00
0.00000000e+00
0.00000000e+00
0.00000000e+00
0.00000000e+00
0.00000000e+00
0.00000000e+00
0.00000000e+00
0.00000000e+00
0.00000000e+00
0.00000000e+00
0.00000000e+00
0.00000000e+00
0.00000000e+00
0.00000000e+00
0.00000000e+00
0.00000000e+00
0.00000000e+00
0.00000000e+00
0.00000000e+00
0.00000000e+00
0.00000000e+00
0.00000000e+00
0.00000000e+00
0.00000000e+00
0.00000000e+00
0.00000000e+00
0.00000000e+00
0.00000000e+00
0.00000000e+00
0.00000000e+00
</DataArray>
<DataArray type="Float32" Name="Plastic_strain_Min_Principal" format="ascii">
0.00000000e+00
0.00000000e+00
0.00000000e+00
0.00000000e+00
0.00000000e+00
0.00000000e+00
0.00000000e+00
0.00000000e+00
0.00000000e+00
0.00000000e+00
0.00000000e+00
0.00000000e+00
0.00000000e+00
0.00000000e+00
0.00000000e+00
0.00000000e+00
0.00000000e+00
0.00000000e+00
0.00000000e+00
0.00000000e+00
0.00000000e+00
0.00000000e+00
0.00000000e+00
0.00000000e+00
0.00000000e+00
0.00000000e+00
0.00000000e+00
0.00000000e+00
0.00000000e+00
0.00000000e+00
0.00000000e+00
0.00000000e+00
0.00000000e+00
0.00000000e+00
0.00000000e+00
0.00000000e+00
0.00000000e+00
0.00000000e+00
0.00000000e+00
0.00000000e+00
0.00000000e+00
0.00000000e+00
0.00000000e+00
0.00000000e+00
0.00000000e+00
0.00000000e+00
0.00000000e+00
0.00000000e+00
0.00000000e+00
0.00000000e+00
0.00000000e+00
0.00000000e+00
0.00000000e+00
0.00000000e+00
0.00000000e+00
0.00000000e+00
0.00000000e+00
0.00000000e+00
0.00000000e+00
0.00000000e+00
0.00000000e+00
0.00000000e+00
0.00000000e+00
0.00000000e+00
0.00000000e+00
0.00000000e+00
0.00000000e+00
0.00000000e+00
0.00000000e+00
0.00000000e+00
0.00000000e+00
0.00000000e+00
0.00000000e+00
0.00000000e+00
0.00000000e+00
0.00000000e+00
0.00000000e+00
0.00000000e+00
0.00000000e+00
0.00000000e+00
0.00000000e+00
0.00000000e+00
0.00000000e+00
0.00000000e+00
0.00000000e+00
0.00000000e+00
0.00000000e+00
0.00000000e+00
0.00000000e+00
0.00000000e+00
0.00000000e+00
0.00000000e+00
0.00000000e+00
0.00000000e+00
0.00000000e+00
0.00000000e+00
0.00000000e+00
0.00000000e+00
0.00000000e+00
0.00000000e+00
0.00000000e+00
0.00000000e+00
0.00000000e+00
0.00000000e+00
0.00000000e+00
0.00000000e+00
0.00000000e+00
0.00000000e+00
0.00000000e+00
0.00000000e+00
0.00000000e+00
0.00000000e+00
0.00000000e+00
0.00000000e+00
0.00000000e+00
0.00000000e+00
0.00000000e+00
0.00000000e+00
0.00000000e+00
0.00000000e+00
0.00000000e+00
0.00000000e+00
0.00000000e+00
0.00000000e+00
0.00000000e+00
0.00000000e+00
0.00000000e+00
0.00000000e+00
0.00000000e+00
0.00000000e+00
0.00000000e+00
0.00000000e+00
0.00000000e+00
0.00000000e+00
0.00000000e+00
0.00000000e+00
0.00000000e+00
0.00000000e+00
0.00000000e+00
0.00000000e+00
0.00000000e+00
0.00000000e+00
0.00000000e+00
0.00000000e+00
0.00000000e+00
0.00000000e+00
0.00000000e+00
0.00000000e+00
0.00000000e+00
0.00000000e+00
0.00000000e+00
0.00000000e+00
0.00000000e+00
0.00000000e+00
0.00000000e+00
0.00000000e+00
0.00000000e+00
0.00000000e+00
0.00000000e+00
0.00000000e+00
0.00000000e+00
0.00000000e+00
0.00000000e+00
0.00000000e+00
0.00000000e+00
0.00000000e+00
0.00000000e+00
0.00000000e+00
0.00000000e+00
0.00000000e+00
0.00000000e+00
0.00000000e+00
0.00000000e+00
0.00000000e+00
0.00000000e+00
0.00000000e+00
0.00000000e+00
0.00000000e+00
0.00000000e+00
0.00000000e+00
0.00000000e+00
0.00000000e+00
0.00000000e+00
0.00000000e+00
0.00000000e+00
0.00000000e+00
0.00000000e+00
0.00000000e+00
0.00000000e+00
0.00000000e+00
0.00000000e+00
</DataArray>
</PointData>
<Cells>
<DataArray type="Int32" Name="connectivity" format="ascii">
0 1 2 3 4 5 6 7
1 8 9 2 5 10 11 6
12 13 14 15 16 17 18 19
20 21 22 23 24 25 26 27
21 28 29 22 25 30 31 26
28 32 33 29 30 34 35 31
32 36 37 33 34 38 39 35
36 40 41 37 38 42 43 39
40 44 45 41 42 46 47 43
23 22 48 49 27 26 50 51
22 29 52 48 26 31 53 50
29 33 54 52 31 35 55 53
33 37 56 54 35 39 57 55
37 41 58 56 39 43 59 57
41 45 60 58 43 47 61 59
49 48 62 63 51 50 64 65
48 52 66 62 50 53 67 64
52 54 68 66 53 55 69 67
63 62 70 71 65 64 72 73
71 70 4 74 73 72 75 76
70 77 5 4 72 78 79 75
74 4 7 80 76 75 81 82
4 5 6 7 75 79 83 81
5 10 11 6 79 84 85 83
24 25 26 27 86 87 88 89
25 30 31 26 87 90 91 88
30 34 35 31 90 92 93 91
34 38 39 35 92 94 95 93
38 42 43 39 94 96 97 95
42 46 47 43 96 98 99 97
27 26 50 51 89 88 100 101
26 31 53 50 88 91 102 100
31 35 55 53 91 93 103 102
35 39 57 55 93 95 104 103
39 43 59 57 95 97 105 104
43 47 61 59 97 99 106 105
51 50 64 65 101 100 107 108
50 53 67 64 100 102 109 107
53 55 69 67 102 103 110 109
55 57 111 69 103 104 112 110
65 64 72 73 108 107 113 114
64 67 78 72 107 109 115 113
73 72 75 76 114 113 116 117
76 75 81 82 117 116 118 119
75 79 83 81 116 120 121 118
79 84 85 83 120 122 123 121
84 124 125 85 122 126 127 123
128 129 130 131 132 133 134 135
86 87 88 89 136 137 138 139
87 90 91 88 137 140 141 138
90 92 93 91 140 142 143 141
92 94 95 93 142 144 145 143
94 96 97 95 144 146 147 145
96 98 99 97 146 148 149 147
89 88 100 101 139 138 150 151
88 91 102 100 138 141 152 150
91 93 103 102 141 143 153 152
93 95 104 103 143 145 154 153
95 97 105 104 145 147 155 154
97 99 106 105 147 149 156 155
101 100 107 108 151 150 157 158
100 102 109 107 150 152 159 157
102 103 110 109 152 153 160 159
103 104 112 110 153 154 161 160
104 105 162 112 154 155 163 161
105 106 164 162 155 156 165 163
109 110 166 115 159 160 167 168
110 112 169 166 160 161 170 167
112 162 171 169 161 163 172 170
162 164 173 171 163 165 174 172
114 113 116 117 175 176 177 178
169 171 132 126 170 172 179 180
171 173 133 132 172 174 181 179
117 116 118 119 178 177 182 183
116 120 121 118 177 184 185 182
120 122 123 121 184 186 187 185
122 126 127 123 186 180 188 187
126 132 135 127 180 179 189 188
132 133 134 135 179 181 190 189
</DataArray>
<DataArray type="Int32" Name="offsets" format="ascii">
8
16
24
32
40
48
56
64
72
80
88
96
104
112
120
128
136
144
152
160
168
176
184
192
200
208
216
224
232
240
248
256
264
272
280
288
296
304
312
320
328
336
344
352
360
368
376
384
392
400
408
416
424
432
440
448
456
464
472
480
488
496
504
512
520
528
536
544
552
560
568
576
584
592
600
608
616
624
632
</DataArray>
<DataArray type="UInt8" Name="types" format="ascii">
12
12
12
12
12
12
12
12
12
12
12
12
12
12
12
12
12
12
12
12
12
12
12
12
12
12
12
12
12
12
12
12
12
12
12
12
12
12
12
12
12
12
12
12
12
12
12
12
12
12
12
12
12
12
12
12
12
12
12
12
12
12
12
12
12
12
12
12
12
12
12
12
12
12
12
12
12
12
12
</DataArray>
</Cells>
</Piece>
</UnstructuredGrid>
</VTKFile>
